##TITLE=Library Entry 34805
##JCAMP-DX=Revision 4.10 
##DATA TYPE=MASS SPECTRUM
##SAMPLE DESCRIPTION=Chemical Concepts
##NAMES=HP
##CAS NAME=Lanosta-8,24-dien-3-ol, acetate, (3.beta.)-
##MOLFORM=C32H52O2
##CAS REGISTRY NO=2671-68-3
##MP= -300
##BP= -300
##MW= 468
##$RETENTION INDEX=3339
##$CONDENSED SPECTRUM=NO
##NPOINTS= 351
##XYDATA=(XY..XY) 1 
    26          7
    27         33
    29         83
    30          6
    31          4
    34          1
    36          8
    37          2
    38          3
    39         29
    40          9
    41        530
    42         44
    43        633
    44         41
    45         25
    47          2
    48          2
    49          5
    50          6
    51          7
    52          5
    53         40
    54          9
    55        453
    56         51
    57        184
    58         12
    59          9
    60         17
    61          7
    62          2
    63          3
    64          4
    65         16
    66          6
    67        176
    68         40
    69        999
    70         80
    71         88
    72         11
    73         14
    74          4
    75          2
    76          4
    77         44
    78         11
    79        118
    80         19
    81        392
    82         59
    83        177
    84         26
    85         54
    86          6
    87          6
    88          1
    89          4
    90          2
    91        144
    92         29
    93        213
    94         38
    95        405
    96         45
    97         88
    98         17
    99         20
   100          5
   101          3
   102          2
   103          9
   104         13
   105        190
   106         33
   107        250
   108         40
   109        517
   110         51
   111         73
   112         19
   113         25
   115         24
   116         12
   117         51
   118         20
   119        263
   120         53
   121        250
   122         70
   123        210
   124         29
   125         25
   126          7
   127         16
   128         24
   129         50
   130         25
   131         98
   132         32
   133        155
   134         46
   135        177
   136         44
   137         87
   138         18
   139         13
   140          7
   141         22
   142         20
   143         44
   144         20
   145        120
   146         31
   147        128
   148         33
   149        149
   150         25
   151         26
   152          5
   153         11
   154         10
   155         17
   156         17
   157         50
   158         13
   159        105
   160         32
   161        106
   162         28
   163         71
   164         12
   165         36
   166          8
   167          6
   168          6
   169         20
   170         11
   171         52
   172         17
   173         78
   174         23
   175         93
   176         15
   178          8
   179         12
   180          4
   181          6
   182          6
   183         16
   184          8
   185         59
   186         15
   187        116
   188         32
   189        129
   190         34
   191         56
   192          6
   193          3
   194          5
   195          6
   196         21
   197         14
   198         58
   199         15
   200         76
   201         22
   202         72
   203         19
   204         23
   205         67
   206         20
   207         12
   208          2
   209          6
   210          3
   211         20
   212         11
   213         54
   214         32
   215        101
   216         19
   217         40
   218          8
   219         20
   220          4
   221          6
   222          4
   223          3
   224          3
   225         21
   226         12
   227         84
   228         22
   229         86
   230         22
   231         20
   232          2
   233          4
   234          2
   235          1
   236          0
   237          4
   238          3
   239         20
   240          7
   241        138
   242         30
   243         61
   244          8
   245         16
   246          2
   247          9
   248          2
   249          4
   250          0
   251          2
   252          2
   253         11
   254          4
   255         75
   256         17
   257         40
   258          8
   259         12
   260          3
   261          4
   262          1
   263          1
   264          0
   265          3
   266          6
   267         17
   268          8
   269         36
   270         10
   271         40
   272         14
   273         19
   274          4
   275          4
   276          2
   278          1
   279          2
   280          2
   281         26
   282          8
   283         46
   284          9
   285          9
   286          3
   287         11
   288          6
   289         32
   290          4
   291          1
   293          1
   294          1
   295         19
   296          5
   297         35
   298          7
   299          9
   300          2
   301        116
   302         31
   303         14
   304          3
   307          2
   308          1
   309         27
   310          8
   311         37
   312          9
   313          4
   314          1
   315         23
   316          6
   317          3
   323         18
   324          9
   325         16
   326          6
   327          3
   328          1
   329          5
   330          2
   331          1
   337         15
   338          4
   339          6
   340          5
   342         15
   343          8
   344          3
   350          2
   351          4
   352          2
   353          4
   354          2
   355         29
   356         10
   357          4
   358          1
   363          1
   365          3
   366          1
   367          2
   368          2
   369          6
   370          3
   371          4
   377          2
   378          5
   379          2
   383          9
   384          5
   385          2
   386          5
   387          2
   391          3
   392          3
   393        607
   394        187
   395         34
   396          4
   397          1
   398          1
   406          4
   407         10
   408          7
   409          2
   410          6
   411          2
   424          1
   425          1
   436          3
   437          4
   439          4
   452          3
   453        627
   454        210
   455         38
   456          3
   466          2
   467          1
   468        221
   469         76
   470         15