##TITLE=Library Entry 50002
##JCAMP-DX=Revision 4.10 
##DATA TYPE=MASS SPECTRUM
##SAMPLE DESCRIPTION=Exported from NIST MS Search
##NAMES=HP
##CAS NAME=1H-Naphtho[2,1-b]pyran-8(4aH)-one, 3-ethenyldecahydro-3,4a,7,7,10
a-pentamethyl-
##MOLFORM=C20H32O2
##CAS REGISTRY NO=26729-54-4
##MP= -300
##BP= -300
##MW= 304
##$RETENTION INDEX=0
##$CONDENSED SPECTRUM=NO
##NPOINTS= 140
##XYDATA=(XY..XY) 1 
    27         58
    28         12
    29         76
    39         78
    40         24
    41        370
    42         62
    43        536
    44         16
    45         12
    51         12
    52          8
    53        187
    54         32
    55        693
    56         40
    57         66
    58         16
    59         20
    65         60
    66         30
    67        524
    68        201
    69        294
    70         70
    71        185
    72         12
    77        139
    78         32
    79        310
    80         68
    81        999
    82        205
    83        245
    84         36
    85         62
    86         10
    87          6
    91        197
    92         32
    93        300
    94         68
    95        354
    96        110
    97         94
    98         16
    99         32
   100         14
   103          4
   105         96
   106         24
   107        175
   108         64
   109        171
   110         40
   111         64
   113          6
   115          4
   117         16
   119        131
   120        116
   121        161
   122         72
   123        121
   124         28
   125         60
   126         12
   127         12
   131         24
   132         16
   133        116
   134         36
   135        173
   136         80
   137         96
   138         24
   139         40
   140          2
   143          4
   145         54
   146          8
   147         64
   148         36
   149        112
   150         58
   151        114
   152         16
   153         16
   157         10
   159         46
   160          8
   161         50
   162         12
   163         96
   164         26
   165         38
   171          8
   173         40
   174          4
   175         28
   176          4
   177         42
   178         14
   179         16
   183          2
   185         14
   187         24
   188         14
   189         24
   191         96
   192         16
   193         24
   197          2
   199          6
   201         38
   202          2
   203         14
   205         60
   206        201
   207         52
   208          2
   211          2
   213          6
   215          6
   217          2
   219         16
   221          4
   229         14
   234         32
   235          2
   243         10
   253         14
   259          2
   271         56
   272          8
   277         14
   289        300
   290         60
   291          4
   304          2