##TITLE=Library Entry 25402
##JCAMP-DX=Revision 4.10 
##DATA TYPE=MASS SPECTRUM
##SAMPLE DESCRIPTION=W.L.MEAD BRITISH PETROLEUM CO. LTD., SUNBURY-ON-THAMES,
 UK
##NAMES=HP
##CAS NAME=Hexadecane, 7-methyl-
##MOLFORM=C17H36
##CAS REGISTRY NO=26730-20-1
##MP= -300
##BP= -300
##MW= 240
##$RETENTION INDEX=1641
##$CONDENSED SPECTRUM=NO
##NPOINTS= 51
##XYDATA=(XY..XY) 1 
    39         27
    40          7
    41        212
    42         64
    43        531
    44         17
    53         12
    54         11
    55        148
    56        123
    57        999
    58         42
    67         15
    68         11
    69         77
    70        105
    71        737
    72         38
    82         26
    83         75
    84         64
    85        283
    86         17
    96          9
    97         42
    98         31
    99        102
   100          9
   111         25
   112        184
   113        110
   114          9
   125         15
   126         30
   127         20
   140          6
   141         11
   154        107
   155         74
   156          9
   168         10
   169         10
   182          4
   183          6
   196          5
   197          5
   210          5
   211         11
   225         20
   226          4
   240          9