##TITLE=Library Entry 37847
##JCAMP-DX=Revision 4.10 
##DATA TYPE=MASS SPECTRUM
##SAMPLE DESCRIPTION=A.A.Kutin, Moscow, Russia
##NAMES=HP
##CAS NAME=Tetrahydro-3,3,5,5-tetramethyl-6-phenylpyran-2,4-dione
##MOLFORM=C15H18O3
##CAS REGISTRY NO=26735-88-6
##MP= -300
##BP= -300
##MW= 246
##$RETENTION INDEX=0
##$CONDENSED SPECTRUM=NO
##NPOINTS= 86
##XYDATA=(XY..XY) 1 
    33          4
    34          0
    37          2
    39         94
    40         35
    41        178
    42        208
    43         30
    44          3
    45          3
    50         13
    51         39
    52          9
    53         13
    54          4
    55          9
    56          2
    57          3
    58          1
    59          3
    60          0
    61          0
    62          3
    63         10
    64          5
    65         17
    66          2
    67          2
    70        999
    74          3
    75          3
    77         68
    79         18
    80          0
    81          1
    84         98
    85          3
    87          1
    88          1
    89          8
    91         63
    92          4
    93          1
    94          0
    95          0
    97          3
    98          0
    99          0
   101          0
   102          3
   103          6
   105         24
   106          2
   107          2
   108          0
   112          9
   113          1
   115         38
   116         14
   117         59
   118          5
   119          2
   120          0
   121          0
   125          0
   127          2
   128          5
   129          5
   131         15
   132         24
   133          2
   134          0
   140        211
   141         16
   142          1
   143          0
   147          0
   148          0
   149          0
   152          0
   159          0
   176          0
   222          0
   246         15
   247          2
   248          0