##TITLE=Library Entry 25380
##JCAMP-DX=Revision 4.10 
##DATA TYPE=MASS SPECTRUM
##SAMPLE DESCRIPTION=SHELL OIL CO., HOUSTON, TEXAS, USA
##NAMES=HP
##CAS NAME=Tridecane, 7-methyl-
##MOLFORM=C14H30
##CAS REGISTRY NO=26730-14-3
##MP= -300
##BP= -300
##MW= 198
##$RETENTION INDEX=1348
##$CONDENSED SPECTRUM=NO
##NPOINTS= 116
##XYDATA=(XY..XY) 1 
    38          2
    39         91
    40         18
    41        435
    42        127
    43        718
    44         24
    45          0
    50          1
    51          3
    52          2
    53         24
    54         18
    55        217
    56        157
    57        999
    58         43
    59          0
    60          0
    63          0
    64          0
    65          3
    66          1
    67         14
    68         12
    69         66
    70        104
    71        757
    72         42
    73          1
    74          0
    75          0
    76          0
    77          2
    78          0
    79          2
    80          0
    81          3
    82         11
    83         56
    84         56
    85         70
    86          4
    87          0
    91          1
    92          0
    93          0
    94          0
    95          0
    96          0
    97          9
    98          3
    99         10
   100          0
   101          0
   102          0
   103          0
   104          0
   105          0
   106          0
   107          0
   108          0
   109          0
   110          0
   111          2
   112        294
   113        143
   114         11
   115          0
   116          0
   117          0
   118          0
   119          0
   120          0
   121          0
   122          0
   123          0
   124          0
   125          0
   126          8
   127          8
   128          0
   129          0
   130          0
   131          0
   133          0
   139          0
   140          7
   141          6
   142          0
   143          0
   154          7
   155          7
   156          0
   157          0
   159          0
   161          0
   162          0
   163          0
   165          0
   167          0
   168          7
   169         11
   170          1
   171          0
   182          2
   183         14
   184          2
   185          0
   196          0
   197          0
   198          9
   199          1
   200          0
   201          0
   202          0