##TITLE=Library Entry 18588
##JCAMP-DX=Revision 4.10 
##DATA TYPE=MASS SPECTRUM
##SAMPLE DESCRIPTION=NIST Mass Spectrometry Data Center
##NAMES=HP
##CAS NAME=1,4-Dibromo-2,5-dimethoxybenzene
##MOLFORM=C8H8Br2O2
##CAS REGISTRY NO=2674-34-2
##MP= -300
##BP= -300
##MW= 294
##$RETENTION INDEX=0
##$CONDENSED SPECTRUM=NO
##NPOINTS= 187
##XYDATA=(XY..XY) 1 
    12          1
    13          2
    14          4
    15        208
    16          2
    24          1
    25         12
    26          6
    27          7
    29         63
    30         13
    31          4
    36          7
    37         51
    38         30
    39         84
    41          3
    42          3
    43         15
    45          1
    48          6
    49         67
    50        318
    51         48
    52         25
    53        999
    54         33
    55          6
    59          2
    60         34
    61        261
    62        454
    63        299
    64         30
    65         89
    66          8
    67          6
    68          2
    69          8
    70          3
    71          3
    72          5
    73         52
    74        143
    75        103
    76         53
    77        132
    78        155
    79         32
    80          9
    81         13
    82          4
    85          1
    86          1
    89          3
    90         27
    91         27
    92         10
    93         74
    94          7
    95          6
    96          1
   103          2
   104         50
   105         43
   106         55
   107         33
   108         31
   109         27
   110          1
   111          1
   115          3
   116         16
   117         19
   118         17
   119         27
   120          3
   121         27
   122          2
   123          1
   127          2
   128         25
   129        235
   130         35
   131        268
   132         40
   133         37
   134         29
   135          8
   136         11
   137          1
   139          3
   140         22
   141        208
   142         75
   143        236
   144         87
   145         39
   146         37
   147         16
   148         15
   149         13
   152          5
   153         11
   154         19
   155         76
   156         40
   157        461
   158         47
   159        386
   160         25
   161          1
   162          3
   168          1
   169          6
   170         97
   171         21
   172        113
   173         16
   174         16
   175          1
   183          2
   185        422
   186         44
   187        406
   188         31
   189          3
   197          1
   199          4
   200         60
   201          7
   202         54
   203          4
   207          1
   208          9
   209          3
   210         19
   211          3
   212          9
   213          3
   214          7
   215          4
   216          7
   217          1
   219          1
   220          7
   221          5
   222         14
   223          7
   224          7
   225          2
   233          1
   235          6
   236         29
   237          9
   238         55
   239          6
   240         27
   241          1
   248          8
   249          1
   250         17
   251         73
   252         13
   253        135
   254          9
   255         66
   256          4
   263          2
   265          3
   267          2
   276          1
   279        467
   280         43
   281        895
   282         72
   283        440
   284         34
   285          3
   291          1
   294        506
   295         55
   296        960
   297         88
   298        472
   299         41
   300          3