##TITLE=Library Entry 97959
##JCAMP-DX=Revision 4.10 
##DATA TYPE=MASS SPECTRUM
##SAMPLE DESCRIPTION=Japan AIST/NIMC Database- Spectrum MS-IW-2577
##NAMES=HP
##CAS NAME=3-Phenyl-1-oxoisochroman
##MOLFORM=C15H12O2
##CAS REGISTRY NO=2674-44-4
##MP= -300
##BP= -300
##MW= 224
##$RETENTION INDEX=0
##$CONDENSED SPECTRUM=NO
##NPOINTS= 61
##XYDATA=(XY..XY) 1 
    27          3
    28          4
    38          2
    39         13
    40          2
    41          1
    50          8
    51         20
    52          4
    62          5
    63         18
    64          9
    65          8
    74          3
    75          4
    76          8
    77         33
    78          6
    82          1
    86          1
    87          1
    88          3
    89         65
    90        228
    91         29
    92          1
   102          2
   103          2
   105         17
   106          2
   112          4
   115          3
   117          1
   118        999
   119         93
   120          6
   126          1
   127          1
   128          1
   139          2
   150          1
   151          4
   152          8
   153          1
   163          1
   164          1
   165         11
   166          2
   167          1
   176          6
   177          7
   178         30
   179         16
   180          2
   194          2
   195          7
   196          1
   223          1
   224        134
   225         21
   226          2