##TITLE=Library Entry 59382
##JCAMP-DX=Revision 4.10 
##DATA TYPE=MASS SPECTRUM
##SAMPLE DESCRIPTION=Japan AIST/NIMC Database- Spectrum MS-IW-3388
##NAMES=HP
##CAS NAME=Alpha-(tert-butylsulfinyl)toluene
##MOLFORM=C11H16OS
##CAS REGISTRY NO=26756-22-9
##MP= -300
##BP= -300
##MW= 196
##$RETENTION INDEX=0
##$CONDENSED SPECTRUM=NO
##NPOINTS= 69
##XYDATA=(XY..XY) 1 
    15          1
    16          1
    26          2
    27         18
    28         13
    29        124
    30          3
    32          2
    34          1
    37          1
    38          5
    39         68
    40          6
    41        210
    42          9
    43          2
    44          4
    45         10
    47          2
    48          1
    49          1
    50          7
    51         21
    52          6
    53          4
    55         14
    56         11
    57        849
    58         39
    59          5
    61          1
    62          5
    63         24
    64          8
    65        122
    66          8
    69          1
    74          1
    75          1
    76          1
    77         10
    78          5
    79          1
    87          1
    89         23
    90         11
    91        999
    92        250
    93         15
   105          6
   106          4
   107          1
   109          1
   121          7
   122          2
   123          3
   124          6
   137          1
   139          2
   140        135
   141         11
   142          6
   147          1
   148         30
   149          4
   180          1
   196         58
   197          8
   198          3