##TITLE=Library Entry 28008
##JCAMP-DX=Revision 4.10 
##DATA TYPE=MASS SPECTRUM
##SAMPLE DESCRIPTION=A.E.WILLIAMS ICI DYESTUFFS DIVISION. BLACKLEY
##NAMES=HP
##CAS NAME=Propanamide, N,2-dimethyl-
##MOLFORM=C5H11NO
##CAS REGISTRY NO=2675-88-9
##MP= -300
##BP= -300
##MW= 101
##$RETENTION INDEX=940
##$CONDENSED SPECTRUM=NO
##NPOINTS= 41
##XYDATA=(XY..XY) 1 
    15         96
    16          4
    17         29
    18         24
    26         34
    27        254
    28         87
    29         44
    30         95
    31         66
    32         87
    37          7
    38          9
    39         57
    40         17
    41        199
    42        151
    43        958
    44         93
    45          7
    52          5
    53          8
    54         20
    55        107
    56         16
    57         10
    58        999
    59         99
    60         30
    68         32
    69         16
    70         53
    71        183
    72         18
    73        328
    74         17
    86        173
    87          8
   100         41
   101        374
   102         39