##TITLE=Library Entry 19673
##JCAMP-DX=Revision 4.10 
##DATA TYPE=MASS SPECTRUM
##SAMPLE DESCRIPTION=A. TRKA, INST ORG CHEM BIOCHEM, CZECH ACAD SCI, PRAGUE,
 CZECH.
##NAMES=HP
##CAS NAME=3.alpha.,5-Cyclo-5.alpha.-cholestan-2-one
##MOLFORM=C27H44O
##CAS REGISTRY NO=26753-93-5
##MP= -300
##BP= -300
##MW= 384
##$RETENTION INDEX=0
##$CONDENSED SPECTRUM=NO
##NPOINTS= 54
##XYDATA=(XY..XY) 1 
    41        731
    43        923
    55        999
    57        769
    67        442
    69        615
    71        462
    77        538
    79        692
    81        385
    91        385
    93        500
    94        269
    95        692
    97        327
   105        365
   107        500
   108        231
   109        385
   110        154
   111        185
   119        269
   120        154
   121        519
   122        212
   123        269
   133        288
   134        212
   135        250
   145        173
   147        288
   148        154
   149        231
   159        185
   161        192
   175        177
   176        188
   177        135
   201        173
   204        212
   216        135
   217        154
   229        385
   230        231
   258        327
   271        146
   272         54
   288        135
   299         69
   314        169
   342         62
   369         96
   384        385
   385        115