##TITLE=Library Entry 39799
##JCAMP-DX=Revision 4.10 
##DATA TYPE=MASS SPECTRUM
##SAMPLE DESCRIPTION=Insect Chem. Ecol. Lab., USDA, Beltsville, MD 20705
##NAMES=HP
##CAS NAME=N,N-Dimethylchloroacetamide
##MOLFORM=C4H8ClNO
##CAS REGISTRY NO=2675-89-0
##MP= -300
##BP= -300
##MW= 121
##$RETENTION INDEX=0
##$CONDENSED SPECTRUM=NO
##NPOINTS= 63
##XYDATA=(XY..XY) 1 
    41         61
    42        364
    43        114
    44        434
    45         99
    46         12
    47         12
    48         19
    49        140
    50        326
    51        294
    52        623
    53         77
    54         11
    55         14
    56         41
    57         23
    58        188
    59         11
    60          5
    61          4
    62          6
    63          9
    64         10
    65         28
    66         15
    67         12
    68          5
    69          4
    70          4
    72        999
    73         36
    74          9
    75         23
    76         22
    82          3
    83          4
    84          3
    85         12
    86        274
    87         46
    88          6
    89          3
    90          2
    91          5
    92         27
    93         56
    94         40
    95          7
    96          3
   103          7
   104          5
   105          5
   106         24
   107         20
   108          3
   119          4
   120         24
   121        299
   122         43
   123        100
   124         14
   125          2