##TITLE=Library Entry 44780
##JCAMP-DX=Revision 4.10 
##DATA TYPE=MASS SPECTRUM
##SAMPLE DESCRIPTION=N.M. Carballeira, Dep. Chem., Univ. Puerto Rico, Puerto
 Rico
##NAMES=HP
##CAS NAME=Tetradecanoic acid, 10,13-dimethyl-, methyl ester
##MOLFORM=C17H34O2
##CAS REGISTRY NO=267650-23-7
##MP= -300
##BP= -300
##MW= 270
##$RETENTION INDEX=1926
##$CONDENSED SPECTRUM=NO
##NPOINTS= 16
##XYDATA=(XY..XY) 1 
    55        370
    57        570
    74        999
    87        620
   101         70
   129        130
   143        270
   157         40
   171         40
   185         30
   199         70
   213         20
   227         60
   255         40
   270         70
   271         13