##TITLE=Library Entry 84396
##JCAMP-DX=Revision 4.10 
##DATA TYPE=MASS SPECTRUM
##SAMPLE DESCRIPTION=CATALOGUE OF MASS SPECTRA OF PESTICIDES, APRIL, 1975; J
. FREUDENTHAL & L. G. GRAMBERG, NAT'L INST. OF PUBLIC HEALTH, THE NETHERLAND
S
##NAMES=HP
##CAS NAME=Triarimol
##MOLFORM=C17H12Cl2N2O
##CAS REGISTRY NO=26766-27-8
##MP= -300
##BP= -300
##MW= 330
##$RETENTION INDEX=2890
##$CONDENSED SPECTRUM=NO
##NPOINTS= 133
##XYDATA=(XY..XY) 1 
    27         14
    28         47
    39         28
    50         36
    51        157
    52        192
    53        220
    54         12
    62         13
    63         51
    65         11
    73         11
    74         46
    75         84
    76         67
    77        444
    78        174
    79        330
    80         95
    81         13
    85         12
    86         13
    87         25
    88         36
    89         16
    94         28
    95         16
    98         10
    99         46
   100         23
   101         36
   102         69
   103         50
   104         16
   105        234
   106         27
   107        999
   108         72
   109         86
   110         43
   111         81
   112         20
   113         44
   114         47
   115         12
   123         13
   126         42
   127         29
   128         28
   129         18
   130         28
   135         26
   136         22
   137         25
   138         43
   139         56
   140         23
   141         18
   145        170
   146         34
   147        124
   148         23
   149         33
   150         40
   151         60
   152        146
   153         41
   156         34
   157        145
   158         21
   161         16
   162         34
   163         47
   164         32
   165         13
   170         12
   172         14
   173        576
   174         56
   175        376
   176         62
   177         64
   178         27
   179         10
   181         22
   182         14
   183         29
   184         17
   185        228
   186         46
   187         86
   188         61
   189        107
   190         32
   199         39
   201         13
   202         11
   205         11
   212         15
   213         13
   214         53
   215         32
   216         12
   217         37
   219         17
   223         77
   224         22
   225         55
   226         14
   227         14
   233         11
   241         11
   242         14
   243         28
   250         17
   251        241
   252         52
   253        283
   254         37
   255        115
   256         15
   257         17
   259         14
   277         19
   295         18
   296         13
   297         13
   313         10
   330        174
   331         52
   332        114
   333         27
   334         25