##TITLE=Library Entry 32718
##JCAMP-DX=Revision 4.10 
##DATA TYPE=MASS SPECTRUM
##SAMPLE DESCRIPTION=R.T.HOLMAN,UNIVERSITY OF MINNESOTA
##NAMES=HP
##CAS NAME=6,9,12-Octadecatrienoic acid, methyl ester
##MOLFORM=C19H32O2
##CAS REGISTRY NO=2676-41-7
##MP= -300
##BP= -300
##MW= 292
##$RETENTION INDEX=0
##$CONDENSED SPECTRUM=NO
##NPOINTS= 265
##XYDATA=(XY..XY) 1 
    26         12
    27        190
    28        100
    29        410
    30         12
    31         41
    32         21
    33          4
    35          6
    36          4
    37          4
    38          7
    39        200
    40         37
    41        820
    42         95
    43        420
    44         27
    45        270
    46          8
    47         10
    48          1
    49          4
    50          8
    51         32
    52         25
    53        160
    54        240
    55        660
    56         75
    57        400
    58         30
    59        230
    60         33
    61         23
    62          3
    63         12
    64          7
    65        100
    66        150
    67        999
    68        210
    69        330
    70         55
    71        120
    72         15
    73        340
    74        210
    75         26
    76          5
    77        260
    78        150
    79        850
    80        730
    81        660
    82        200
    83        160
    84         84
    85        140
    86         15
    87        390
    88        120
    89         20
    90          8
    91        400
    92        120
    93        550
    94        330
    95        410
    96        160
    97        120
    98         43
    99         38
   100          8
   101         76
   102         15
   103         22
   104         23
   105        190
   106        100
   107        290
   108        110
   109        130
   110         85
   111         59
   112         15
   113         21
   114          9
   115         46
   116         16
   117         60
   118         36
   119        120
   120        160
   121        210
   122         68
   123         99
   124         48
   125         25
   126         11
   127         30
   128         15
   129         36
   130         22
   131         57
   132         15
   133         81
   134         51
   135        110
   136         91
   137        100
   138         31
   139         22
   140         15
   141         54
   142         12
   143         23
   144         24
   145         33
   146         10
   147         71
   148         28
   149        120
   150        240
   151         52
   152         19
   153         11
   154         20
   155         22
   156          5
   157         30
   158          8
   159         15
   160          7
   161         66
   162         73
   163        150
   164         57
   165         25
   166         12
   167         10
   168         15
   169         13
   170          4
   171         20
   172          5
   173         14
   174          7
   175         81
   176         23
   177         60
   178         29
   179         14
   180         14
   181         16
   182         12
   183         10
   184          4
   185         11
   186          4
   187         10
   188          4
   189         30
   190          9
   191         25
   192         10
   193         12
   194        140
   195         31
   196         10
   197          8
   198          3
   199          5
   200          3
   201          5
   202          3
   203         11
   204          5
   205         27
   206         11
   207         23
   208         18
   209          9
   210          6
   211          5
   212          2
   213          4
   214          2
   215          3
   216          3
   217          6
   218         12
   219          9
   220          4
   221          6
   222         24
   223          8
   224          7
   225          4
   226          3
   227          4
   228          5
   229          3
   230          2
   231          4
   232          4
   233          5
   234          4
   235         25
   236          9
   237          3
   238         11
   239          3
   240          2
   241          3
   242          3
   243         19
   244          4
   245          4
   246          2
   247          3
   248          2
   249         10
   250          5
   251          8
   252          5
   253          3
   254          2
   255          2
   256          3
   257          2
   258          2
   259          4
   260          6
   261         15
   262          8
   263         10
   264         12
   265          7
   266          3
   267          2
   268          2
   269          1
   270          2
   272          1
   273          1
   274          1
   276          1
   277          2
   278          2
   279          1
   280          1
   281          2
   282          1
   283          1
   284          2
   290          5
   291          4
   292        230
   293         50
   294         26
   295          6
   296          4
   297          1
   298          2