##TITLE=Library Entry 54303
##JCAMP-DX=Revision 4.10 
##DATA TYPE=MASS SPECTRUM
##SAMPLE DESCRIPTION=NIST Mass Spectrometry Data Center, 1998.
##NAMES=HP
##CAS NAME=Neodecanoic acid, oxiranylmethyl ester
##MOLFORM=C13H24O3
##CAS REGISTRY NO=26761-45-5
##MP= -300
##BP= -300
##MW= 228
##$RETENTION INDEX=0
##$CONDENSED SPECTRUM=NO
##NPOINTS= 68
##XYDATA=(XY..XY) 1 
    15          2
    26          3
    27         51
    29        111
    30          3
    31         37
    38          1
    39         32
    40          4
    41        145
    42          1
    43        228
    44          8
    45         11
    50          2
    51          2
    52          2
    53         20
    54          8
    55        157
    56         32
    57        182
    58          9
    59          5
    65          4
    66          1
    67         10
    68          2
    69        226
    70          1
    71        170
    72         10
    74          1
    77          3
    79          3
    81          4
    82          6
    84        999
    85        143
    86         10
    87         45
    91          2
    93          1
    95          2
    96          1
    97         21
   100          2
   102         14
   103          3
   109          2
   111         15
   114          1
   125         16
   126         38
   127         99
   128          8
   130          3
   139          2
   141          1
   143        444
   155          7
   156          1
   158        170
   159         18
   160          3
   185          1
   213         13
   214          2