##TITLE=Library Entry 31908
##JCAMP-DX=Revision 4.10 
##DATA TYPE=MASS SPECTRUM
##SAMPLE DESCRIPTION=Exported from NIST MS Search
##NAMES=HP
##CAS NAME=1-Pentene, 1,1,5-trichloro-
##MOLFORM=C5H7Cl3
##CAS REGISTRY NO=2677-33-0
##MP= -300
##BP= -300
##MW= 172
##$RETENTION INDEX=1110
##$CONDENSED SPECTRUM=NO
##NPOINTS= 127
##XYDATA=(XY..XY) 1 
    15          7
    25          4
    26         22
    27         89
    28         35
    29         13
    31         17
    32         11
    35          6
    36         10
    37         44
    38         63
    39        299
    40         43
    41         92
    42          6
    43         14
    45         20
    47         26
    48         27
    49        102
    50         69
    51         85
    52          8
    53         24
    54          4
    55         41
    56          3
    57          4
    58          3
    59          7
    60         33
    61         65
    62         54
    63        110
    64         26
    65        999
    66         79
    67         14
    68         18
    69         13
    70          3
    71          6
    72         29
    73        186
    74         25
    75        152
    76         65
    77         40
    78         21
    79          3
    80          3
    81          2
    82         12
    83         79
    84         20
    85        110
    86         13
    87         66
    88          6
    89         20
    91          5
    93         14
    94          3
    95         12
    96        155
    97         25
    98        101
    99        143
   100         81
   101        908
   102         70
   103        285
   104         18
   105          5
   107         22
   108          6
   109        469
   110         26
   111        301
   112         16
   113         48
   114          3
   117          5
   119         12
   120         13
   121         29
   122         11
   123         41
   124          7
   125         21
   126          2
   127          6
   129          3
   130         12
   131          5
   132         12
   133          6
   134          5
   135         14
   136        475
   137         63
   138        312
   139         37
   140         53
   141          8
   143          6
   144         20
   145          7
   146         20
   147          4
   148          7
   155         16
   156          9
   157         14
   158          7
   159          5
   160          3
   164          2
   166          3
   172        104
   173          7
   174        101
   175          8
   176         33
   177          4
   178          4