##TITLE=Library Entry 60597
##JCAMP-DX=Revision 4.10 
##DATA TYPE=MASS SPECTRUM
##SAMPLE DESCRIPTION=A.E.HILL, VICTORIA COLLEGE, JERSEY, CHANNEL ISLANDS
##NAMES=HP
##CAS NAME=Bicyclo[3.2.2]nona-6,8-dien-3-one
##MOLFORM=C9H10O
##CAS REGISTRY NO=26788-91-0
##MP= -300
##BP= -300
##MW= 134
##$RETENTION INDEX=0
##$CONDENSED SPECTRUM=NO
##NPOINTS= 13
##XYDATA=(XY..XY) 1 
    43        250
    65         60
    77        260
    78        120
    91        999
    92        620
    93         60
   105        420
   115         60
   116        120
   133         60
   134        400
   135         20