##TITLE=Library Entry 17223
##JCAMP-DX=Revision 4.10 
##DATA TYPE=MASS SPECTRUM
##SAMPLE DESCRIPTION=Exported from NIST MS Search
##NAMES=HP
##CAS NAME=Butane, 2-ethoxy-
##MOLFORM=C6H14O
##CAS REGISTRY NO=2679-87-0
##MP= -300
##BP= -300
##MW= 102
##$RETENTION INDEX=622
##$CONDENSED SPECTRUM=NO
##NPOINTS= 50
##XYDATA=(XY..XY) 1 
    12          2
    13          5
    14         23
    15         99
    16          4
    17          1
    18          1
    25          2
    26         42
    27        263
    28         62
    29        338
    30         14
    31         83
    32          1
    33          1
    36          1
    37          3
    38          6
    39         64
    40          9
    41        121
    42         20
    43        101
    44         19
    45        999
    46         22
    47          3
    53          8
    54          2
    55         30
    56         27
    57        100
    58         12
    59        194
    60          6
    61          1
    69          1
    71          2
    72         17
    73        506
    74         22
    75          1
    85          1
    86          1
    87         39
    88          2
   101          4
   102         10
   103          1