##TITLE=Library Entry 6957
##JCAMP-DX=Revision 4.10 
##DATA TYPE=MASS SPECTRUM
##SAMPLE DESCRIPTION=H. Fales, LC, NHLBI, NIH, Bethesda, MD 20892
##NAMES=HP
##CAS NAME=Xanthumin
##MOLFORM=C17H22O5
##CAS REGISTRY NO=26791-72-0
##MP= -300
##BP= -300
##MW= 306
##$RETENTION INDEX=0
##$CONDENSED SPECTRUM=NO
##NPOINTS= 198
##XYDATA=(XY..XY) 1 
    41        162
    42         50
    43        999
    44        185
    45        187
    46          9
    47         80
    48         51
    49        465
    50         39
    51        196
    52         35
    53         63
    54         22
    55         87
    56         28
    57         50
    58         12
    59          6
    60         99
    61         26
    62         10
    63         21
    64          8
    65         49
    66         24
    67         68
    68         36
    69         45
    70         17
    71         31
    72          8
    73         28
    74         11
    75          4
    76         12
    77        128
    78        166
    79        105
    80         21
    81         48
    82         27
    83         33
    84        185
    85         29
    86        118
    87         25
    88         21
    89          9
    91        122
    92         37
    93        283
    94         70
    95         95
    96         28
    97         30
    98         16
    99         12
   100          6
   101          5
   102          3
   103         24
   104          9
   105         77
   106        138
   107         96
   108         64
   109         45
   110         13
   111         25
   112          7
   113          6
   114          3
   115         24
   116         13
   117         59
   118         25
   119        170
   120         24
   121         35
   122         33
   123         27
   124         86
   125         15
   126          8
   127          8
   128         15
   129         31
   130         14
   131         87
   132         40
   133         93
   134         27
   135        115
   136         27
   137         19
   138         10
   139          7
   140          3
   141         10
   142         15
   143         58
   144         20
   145         52
   146         15
   147         33
   148         58
   149         68
   150         38
   151         14
   152          7
   153         14
   154          7
   155          7
   156          4
   157         39
   158         34
   159        207
   160         43
   161         61
   162         79
   163         40
   164         12
   165         12
   166         36
   167         13
   168         10
   169          7
   170          5
   171         28
   172          7
   173         14
   174          8
   175         49
   176         49
   177         19
   178         16
   179         11
   180          9
   181          4
   182          4
   183          8
   184          4
   185         28
   186         32
   187         22
   188         29
   189         63
   190         12
   191         16
   192          6
   193          4
   194         30
   195          5
   197          3
   199          3
   200          6
   201         17
   202          9
   203         43
   204        382
   205        124
   206         32
   207         20
   208          5
   209          3
   210          3
   213          7
   215          4
   217          6
   218          8
   219         10
   220          4
   221          8
   222          7
   223          4
   228          9
   229          4
   230          3
   231         56
   232          9
   233          6
   234          3
   236          6
   245          7
   246        182
   247         42
   248         10
   249          6
   253          3
   256          3
   260          3
   262         15
   263         13
   264         74
   265         13
   266          2
   279          3