##TITLE=Library Entry 42698
##JCAMP-DX=Revision 4.10 
##DATA TYPE=MASS SPECTRUM
##SAMPLE DESCRIPTION=Chemical Concepts
##NAMES=HP
##CAS NAME=3-Butenoic acid, 3-(trimethylsiloxy)-, trimethylsilyl ester
##MOLFORM=C10H22O3Si2
##CAS REGISTRY NO=26802-51-7
##MP= -300
##BP= -300
##MW= 246
##$RETENTION INDEX=0
##$CONDENSED SPECTRUM=NO
##NPOINTS= 125
##XYDATA=(XY..XY) 1 
    26          2
    27         10
    29         23
    30          1
    31         11
    34          1
    38          3
    39         34
    40          6
    41          4
    42          9
    43        166
    44         59
    45        261
    46         17
    47         64
    48          3
    49          1
    51          3
    52          5
    53          6
    54          2
    55         17
    56          3
    57         16
    58         17
    59         43
    60         10
    61         28
    62          1
    63          1
    65          3
    66         25
    67         38
    68          5
    69         87
    70          9
    71         10
    72         66
    73        999
    74        103
    75        226
    76         14
    77         15
    78          1
    79          1
    81          2
    82         15
    83          6
    84         10
    85         11
    86          2
    87          3
    89          2
    94          3
    95          1
    96          1
    97         10
    98          3
    99         60
   100          9
   101          8
   102          1
   103          5
   105          3
   108         11
   109          1
   111          1
   112          3
   113         17
   114         12
   115         17
   116          6
   117         16
   118          2
   119          6
   126          4
   127          5
   128         10
   129          6
   130          1
   131         26
   132          5
   133         66
   134         10
   135          6
   137          1
   138          1
   139          2
   140          1
   141         32
   142          5
   143         16
   144          2
   145          2
   146          2
   147        969
   148        149
   149         93
   150          9
   151          5
   155          1
   156         45
   157        241
   158         33
   159         14
   163         18
   164          2
   173          8
   189          1
   204          4
   215          3
   216          2
   217          2
   218          1
   229          4
   231        643
   232        108
   233         46
   234          6
   235          1
   245          1
   246         16
   247          3
   248          1