##TITLE=Library Entry 21201
##JCAMP-DX=Revision 4.10 
##DATA TYPE=MASS SPECTRUM
##SAMPLE DESCRIPTION=Japan AIST/NIMC Database- Spectrum MS-NW-1024
##NAMES=HP
##CAS NAME=2-Propenamide, N,N-dimethyl-
##MOLFORM=C5H9NO
##CAS REGISTRY NO=2680-03-7
##MP= -300
##BP= -300
##MW= 99
##$RETENTION INDEX=0
##$CONDENSED SPECTRUM=NO
##NPOINTS= 47
##XYDATA=(XY..XY) 1 
    13          2
    14          7
    15        120
    16          1
    18          3
    25          7
    26         46
    27        330
    28         74
    29          6
    30         15
    31          3
    32          4
    37          3
    38          5
    39          9
    40         12
    41         46
    42        217
    43         47
    44        403
    45         91
    46          8
    51          1
    52          2
    53         16
    54          7
    55        999
    56         67
    57          7
    58        143
    59          4
    66          2
    68          5
    69          4
    70         14
    71          9
    72        202
    73          9
    82          2
    83          2
    84          2
    97          6
    98        687
    99        420
   100         24
   101          2