##TITLE=Library Entry 32863
##JCAMP-DX=Revision 4.10 
##DATA TYPE=MASS SPECTRUM
##SAMPLE DESCRIPTION=NIST Mass Spectrometry Data Center, 1990.
##NAMES=HP
##CAS NAME=1-Chloro-4-decyne
##MOLFORM=C10H17Cl
##CAS REGISTRY NO=26817-65-2
##MP= -300
##BP= -300
##MW= 172
##$RETENTION INDEX=0
##$CONDENSED SPECTRUM=NO
##NPOINTS= 64
##XYDATA=(XY..XY) 1 
    26         30
    27        244
    28         10
    29        211
    38         35
    39        344
    40         75
    41        499
    42         56
    43         65
    49         31
    50         75
    51        239
    52        203
    53        334
    54        281
    55        345
    56         60
    57         79
    61         11
    62         21
    63         93
    64         27
    65        260
    66        113
    67        999
    68        183
    69         54
    74         12
    75         66
    77        431
    78        105
    79        549
    80        123
    81        944
    82        142
    83         11
    88        491
    89         66
    90        161
    91        205
    92         29
    93        131
    95        673
    96         56
   101         26
   102         65
   103         55
   104         24
   105         46
   107         91
   108         53
   109        416
   110         42
   115         22
   116         25
   117         21
   121         13
   129         13
   137         55
   143         64
   144         23
   145         20
   157         16