##TITLE=Library Entry 64751
##JCAMP-DX=Revision 4.10 
##DATA TYPE=MASS SPECTRUM
##SAMPLE DESCRIPTION=Japan AIST/NIMC Database- Spectrum MS-IW-8052
##NAMES=HP
##CAS NAME=Ethyl 2-benzylamino-3-cyano-4-oxo-6,7,8,9-tetrahydro-4H-quinolizi
ne-1-carboxylate
##MOLFORM=C20H21N3O3
##CAS REGISTRY NO=26814-57-3
##MP= -300
##BP= -300
##MW= 351
##$RETENTION INDEX=0
##$CONDENSED SPECTRUM=NO
##NPOINTS= 273
##XYDATA=(XY..XY) 1 
    26          2
    27         11
    28         19
    29         19
    30          3
    31          3
    32          1
    38          1
    39         17
    40          2
    41         23
    42          5
    43          7
    44          8
    45          2
    50          2
    51         11
    52          6
    53          6
    54          9
    55         30
    56          7
    57          8
    62          2
    63         10
    64          6
    65        100
    66          9
    67          7
    68          4
    69          4
    70          2
    71          5
    75          2
    76          7
    77         24
    78         16
    79         19
    80          8
    81          4
    82         19
    83          5
    84          2
    85          4
    87          1
    88          4
    89         19
    90         14
    91        999
    92         87
    93          9
    94          3
    95          4
    96          2
    97          5
    98          1
    99          1
   100          1
   101          3
   102          4
   103         13
   104         23
   105         20
   106        434
   107         37
   108          3
   109          3
   110          2
   111          3
   112          1
   113          2
   114          5
   115          5
   116         12
   117         10
   118          9
   119          9
   120          4
   121          3
   122          4
   123          3
   124          3
   125          3
   126          1
   127          3
   128          7
   129          8
   130          7
   131          9
   132         14
   133          6
   134          2
   135          2
   136          1
   137          4
   138          4
   139          7
   140          6
   141          7
   142          9
   143         10
   144         10
   145         13
   146         11
   147         13
   148          6
   149         16
   150          2
   151          2
   152          8
   153          4
   154          3
   155          4
   156          5
   157          4
   158          5
   159          5
   160          3
   161          4
   162          2
   163          1
   164          1
   165          4
   166          4
   167          5
   168          7
   169          6
   170          5
   171          6
   172          9
   173         17
   174         22
   175          9
   176          4
   177          3
   178          2
   179          3
   180          4
   181          3
   182          3
   183          2
   184          3
   185          6
   186          8
   187          7
   188          6
   189          7
   190          4
   191          4
   192          6
   193          6
   194          5
   195          4
   196          4
   197          2
   198          3
   199          3
   200         16
   201          9
   202          4
   203          4
   204          2
   205          6
   206          6
   207         11
   208          6
   209          4
   210          3
   211          1
   212          5
   213          5
   214         33
   215          8
   216         17
   217          9
   218          8
   219          9
   220          7
   221         11
   222          7
   223          5
   224          9
   225          3
   226          6
   227         15
   228         46
   229          8
   230          4
   231          5
   232         21
   233          7
   234          7
   235         18
   236         42
   237         12
   238          3
   239          1
   240          1
   242          6
   243          3
   244         20
   245         11
   246         25
   247         10
   248         25
   249         30
   250         17
   251         12
   252          3
   257          1
   258          3
   259          8
   260         22
   261         11
   262         24
   263          8
   264          9
   265          4
   266          2
   267          1
   271          1
   272         19
   273         27
   274         76
   275         26
   276        165
   277        242
   278        167
   279         68
   280         11
   281          1
   283          1
   286          1
   287          2
   288         18
   289          6
   290         23
   291          5
   292          2
   293          1
   294          2
   295          2
   299          1
   300         20
   301         42
   302         35
   303         18
   304        240
   305        382
   306        180
   307         33
   308          4
   309          1
   311          3
   318          4
   319          1
   320          3
   321          1
   322         38
   323         13
   324          3
   334          2
   336          1
   345          1
   346          1
   347         60
   348         15
   349         10
   350         22
   351        498
   352        134
   353         19
   354          2