##TITLE=Library Entry 107798
##JCAMP-DX=Revision 4.10 
##DATA TYPE=MASS SPECTRUM
##SAMPLE DESCRIPTION=Div. of Experiment Therapeutics WRAIR, WRAMC, Washingto
n DC 20307
##NAMES=HP
##CAS NAME=17beta-Acetoxy-10-isoandrost-4-en-3-one
##MOLFORM=C21H30O3
##CAS REGISTRY NO=2681-55-2
##MP= -300
##BP= -300
##MW= 330
##$RETENTION INDEX=2730
##$CONDENSED SPECTRUM=NO
##NPOINTS= 170
##XYDATA=(XY..XY) 1 
    41        649
    43        271
    45         54
    47         12
    49         18
    51          9
    52         10
    53        316
    55        818
    56         22
    57         35
    59        238
    60          2
    61          8
    63         13
    64          4
    65        168
    66         18
    67        420
    68         33
    69        100
    71         30
    73          9
    74         25
    77        396
    79        557
    81        274
    82          9
    83         56
    84         20
    85         19
    86          8
    87        157
    88          2
    89          5
    91        517
    93        460
    94        129
    95        185
    96         38
    97         37
   100         67
   103         55
   105        363
   107        316
   108         22
   109        192
   110         42
   111         22
   113          3
   115         92
   117        131
   119        171
   120         74
   121        140
   122         83
   124        999
   125         76
   127         20
   128         39
   129         54
   130          6
   131        110
   133        198
   134        121
   135        104
   136         49
   137         44
   138         12
   139          6
   141         22
   142         16
   143         43
   144          8
   145        108
   146         18
   147        437
   148         76
   149         48
   150          6
   151          5
   152         11
   153         12
   154          2
   155         20
   156          3
   157         43
   159         80
   161         72
   162         30
   163         20
   164         11
   165         10
   167          2
   169         13
   171         28
   172         21
   173         34
   174         28
   175         70
   176         19
   177         11
   179          5
   181          8
   183         11
   185         64
   187         68
   188         16
   189         13
   191          8
   192          5
   193         17
   195         14
   197         11
   199         22
   200         12
   201         15
   202          9
   203          3
   205          3
   206         40
   207         37
   208          6
   209          8
   211         12
   213         49
   214          8
   215          8
   217          3
   219          8
   223          8
   225          2
   227         20
   228         57
   229         39
   231         13
   232         14
   234          2
   237          9
   239          3
   241          9
   242          5
   245        154
   246         44
   247          9
   248          9
   253         13
   255         19
   256         18
   259         14
   260          7
   270         28
   271         17
   273         33
   274         10
   281          2
   283         12
   287          9
   288        248
   289         45
   298         28
   299         47
   300          3
   302         10
   312         11
   315         32
   316          2
   330        234
   331         50
   332          7