##TITLE=Library Entry 21153
##JCAMP-DX=Revision 4.10 
##DATA TYPE=MASS SPECTRUM
##SAMPLE DESCRIPTION=Chemical Concepts
##NAMES=HP
##CAS NAME=1-Bromo-2-octanol
##MOLFORM=C8H17BrO
##CAS REGISTRY NO=26818-06-4
##MP= -300
##BP= -300
##MW= 208
##$RETENTION INDEX=0
##$CONDENSED SPECTRUM=NO
##NPOINTS= 134
##XYDATA=(XY..XY) 1 
    26          6
    27         94
    28         15
    29        117
    30          4
    31         25
    37          0
    38          2
    39         64
    40         12
    41        269
    42         54
    43        366
    44         67
    45         24
    46          0
    49          0
    50          1
    51          5
    52          2
    53         19
    54         10
    55        999
    56         60
    57         78
    58         35
    59         18
    60          0
    62          0
    63          1
    64          0
    65          4
    66          1
    67         22
    68         15
    69        225
    70         43
    71         25
    72          4
    73          3
    74          0
    75          0
    76          0
    77          4
    78          0
    79          4
    80          4
    81         21
    82         14
    83          7
    84          6
    85          9
    86          4
    87          1
    89          1
    90          0
    91         15
    92         42
    93          7
    94          1
    95          6
    96          5
    97        654
    98         38
    99          2
   100          0
   101          0
   102          0
   103          1
   104          1
   105          2
   106          0
   107          9
   108          0
   109          3
   110          5
   111         11
   112          1
   113          2
   114          2
   115        528
   116         31
   117          4
   118          4
   119          1
   120          0
   121          2
   122          8
   123         88
   124         10
   125         80
   126          1
   127          0
   128          2
   129          0
   130          0
   131          3
   132          0
   133          1
   134          0
   135          1
   136          0
   137          1
   138          0
   139          0
   141          3
   142          1
   143          0
   145          0
   146          0
   147          0
   148          1
   149          2
   150          1
   151          5
   152          0
   153          4
   154          0
   155          0
   156          0
   165          0
   166          0
   167          0
   168          0
   169          0
   177          0
   178          0
   179          2
   180          0
   181          2
   182          0
   188          1
   189          0
   190          0