##TITLE=Library Entry 64124
##JCAMP-DX=Revision 4.10 
##DATA TYPE=MASS SPECTRUM
##SAMPLE DESCRIPTION=V.Zaikin,Topchiev Inst.Petrochem.Synth.,Moscow
##NAMES=HP
##CAS NAME=Acetic acid, trichloro-, phenylmethyl ester
##MOLFORM=C9H7Cl3O2
##CAS REGISTRY NO=26827-38-3
##MP= -300
##BP= -300
##MW= 252
##$RETENTION INDEX=0
##$CONDENSED SPECTRUM=NO
##NPOINTS= 129
##XYDATA=(XY..XY) 1 
    22          2
    25          2
    26          9
    27         12
    28          1
    29         10
    30          2
    31          3
    35         22
    36        153
    37          7
    38         50
    39         28
    40         12
    41         23
    42          6
    43          8
    44          1
    45          3
    47          6
    48          2
    49          3
    50         18
    51         35
    52         24
    53          8
    54          5
    55         20
    56          6
    57          8
    61          2
    62          7
    63         23
    64          8
    65         70
    66          8
    67          5
    68          3
    69         10
    70          9
    71         14
    72          2
    73          3
    74          6
    75          6
    76          6
    77         64
    78         22
    79         63
    80          7
    81          7
    82         30
    83         10
    84         15
    85          5
    86          3
    87          3
    89         46
    90         94
    91        999
    92         97
    93         14
    94          1
    95          2
    96          4
    99          1
   101          2
   102          4
   103          8
   104          4
   105         33
   106         17
   107        154
   108         21
   109          2
   110         18
   111          1
   112         12
   114          2
   115          4
   117         30
   118          2
   119         28
   121          9
   125         20
   126         12
   127          9
   128          5
   129          1
   133          2
   135          3
   137         27
   138          4
   139         11
   140          2
   146          9
   148          8
   150          3
   155          1
   159         10
   161          7
   163          2
   167          1
   170          1
   172          2
   173          2
   175          1
   177          1
   181          1
   182          1
   183          3
   184          1
   189          1
   191          3
   193          2
   216          1
   217         27
   218         30
   219         21
   220         19
   221          4
   222          3
   252        157
   253         18
   254        154
   255         19
   256         50
   257          5
   258          5