##TITLE=Library Entry 3921
##JCAMP-DX=Revision 4.10 
##DATA TYPE=MASS SPECTRUM
##SAMPLE DESCRIPTION=Japan AIST/NIMC Database- Spectrum MS-NW-7465
##NAMES=HP
##CAS NAME=2-Allyl-2-methyl-1,3-cyclopentanedione
##MOLFORM=C9H12O2
##CAS REGISTRY NO=26828-48-8
##MP= -300
##BP= -300
##MW= 152
##$RETENTION INDEX=0
##$CONDENSED SPECTRUM=NO
##NPOINTS= 131
##XYDATA=(XY..XY) 1 
    12          1
    13          1
    14          9
    15         40
    16          2
    17          1
    18          3
    25          5
    26        115
    27        547
    28        653
    29         97
    30          3
    31         13
    32         13
    33          6
    34          5
    36          1
    37         20
    38         64
    39        641
    40        198
    41        999
    42        107
    43        220
    44         17
    45          7
    46          2
    47          6
    48          3
    49          5
    50         39
    51         71
    52         43
    53        319
    54         74
    55        434
    56        612
    57         72
    58          6
    59          2
    60          8
    61         11
    62         17
    63         32
    64          8
    65         94
    66         70
    67        794
    68        696
    69        338
    70         30
    71          7
    72          1
    73          3
    74         14
    75          4
    76          2
    77         61
    78         18
    79        130
    80         41
    81        252
    82         81
    83         94
    84         40
    85         26
    86          2
    87          2
    88          1
    89          3
    90          2
    91         89
    92         71
    93        140
    94         33
    95        593
    96        208
    97        651
    98         74
    99          8
   100          2
   101          3
   102          3
   103          4
   104          2
   105         21
   106         14
   107         35
   108         44
   109        913
   110        408
   111         78
   112         22
   113          4
   114          1
   115          9
   116          7
   117          4
   118          2
   119         18
   120          3
   121          7
   122          6
   123        100
   124        425
   125        122
   126         10
   127          2
   128          1
   129          1
   130          2
   131          3
   132          4
   133          7
   134          9
   135          8
   136          2
   137        140
   138         13
   139          2
   145          1
   146          1
   147          2
   148          1
   149          3
   150          9
   151         13
   152        367
   153         39
   154          5