##TITLE=Library Entry 33754
##JCAMP-DX=Revision 4.10 
##DATA TYPE=MASS SPECTRUM
##SAMPLE DESCRIPTION=LAC, NIDDK, NIH, Bethesda, MD 20892
##NAMES=HP
##CAS NAME=Imidazole-4-carboxamide
##MOLFORM=C4H5N3O
##CAS REGISTRY NO=26832-08-6
##MP= -300
##BP= -300
##MW= 111
##$RETENTION INDEX=0
##$CONDENSED SPECTRUM=NO
##NPOINTS= 22
##XYDATA=(XY..XY) 1 
    41        205
    43          8
    44        176
    45          2
    46          5
    51          7
    52         10
    53         32
    55         34
    56         24
    57          5
    68        999
    69         27
    71          3
    83          8
    94         11
    95        718
    96         25
    97          1
   111        897
   112         81
   113          5