##TITLE=Library Entry 22827
##JCAMP-DX=Revision 4.10 
##DATA TYPE=MASS SPECTRUM
##SAMPLE DESCRIPTION=A.A.Kutin, Moscow, Russia
##NAMES=HP
##CAS NAME=Thieno[2,3-c]pyridine-3-carbonitrile, 4,5,6,7-tetrahydro-2-amino-
6-isopropyl-
##MOLFORM=C11H15N3S
##CAS REGISTRY NO=26830-40-0
##MP= -300
##BP= -300
##MW= 221
##$RETENTION INDEX=0
##$CONDENSED SPECTRUM=NO
##NPOINTS= 121
##XYDATA=(XY..XY) 1 
    33         22
    34          9
    36          1
    37          7
    39         91
    41        217
    42        105
    43        113
    45         48
    47          5
    48          0
    51         31
    52         20
    53         15
    54         29
    56        999
    58         27
    59         30
    60         43
    63         22
    64         26
    65         27
    66         16
    67          8
    70         98
    72        215
    75          6
    76         14
    77         14
    78         16
    79          9
    80         12
    81          4
    82          5
    83          7
    84         10
    85          2
    86          2
    88          3
    89          6
    90         11
    91         14
    92         10
    93          6
    94          7
    95          7
    96         13
    97         10
    98          2
    99          0
   100          0
   103         22
   105         35
   106         15
   107          7
   109          9
   110          4
   111          1
   112          1
   115          0
   116          3
   117          6
   118         21
   119         13
   120          3
   122         19
   123         14
   124         10
   125          1
   126          0
   128          1
   129          3
   130          4
   131          1
   132          1
   133          1
   134          6
   135          4
   136          7
   137          7
   138          1
   142          0
   144          2
   145          7
   146          5
   147          2
   150        348
   151         55
   152         24
   153          3
   154          0
   155          0
   159          0
   161         26
   163         27
   165          6
   166          0
   171          0
   172          1
   173          0
   176         12
   178         57
   179          6
   180          1
   188          2
   189          0
   190          0
   192          1
   193          0
   203         37
   204         11
   206        243
   207         24
   208         11
   209          0
   218          3
   220        120
   221        197
   222         29
   223          9
   224          0