##TITLE=Library Entry 56027
##JCAMP-DX=Revision 4.10 
##DATA TYPE=MASS SPECTRUM
##SAMPLE DESCRIPTION=NIST Mass Spectrometry Data Center, 1994
##NAMES=HP
##CAS NAME=5-Diethylamino-1-pentanol
##MOLFORM=C9H21NO
##CAS REGISTRY NO=2683-57-0
##MP= -300
##BP= -300
##MW= 159
##$RETENTION INDEX=0
##$CONDENSED SPECTRUM=NO
##NPOINTS= 75
##XYDATA=(XY..XY) 1 
    12          0
    14          2
    15         20
    16          0
    18         16
    19          3
    27         90
    28         74
    29        152
    30        205
    31        109
    33          0
    37          0
    39         24
    41         99
    42        106
    43         35
    44         49
    45          6
    46          2
    50          0
    51          1
    52          1
    53          6
    54         12
    55         25
    56         62
    57         45
    58        219
    59          9
    60          1
    65          1
    67          7
    68          6
    69         29
    70         16
    71          1
    72        105
    73          7
    74          4
    77          0
    78          0
    80          0
    81          0
    82          2
    84         18
    86        999
    87         62
    88          1
    94          0
    95          0
    96          1
    98         10
    99          1
   100          2
   101          0
   109          0
   110          0
   112          6
   113          0
   114          1
   126          0
   128          4
   129          1
   130          2
   131          0
   140          0
   142          6
   144         43
   145          3
   146          0
   156          0
   159         47
   160          5
   161          0