##TITLE=Library Entry 85245
##JCAMP-DX=Revision 4.10 
##DATA TYPE=MASS SPECTRUM
##SAMPLE DESCRIPTION=Chemical Concepts
##NAMES=HP
##CAS NAME=2-Pyridinemethanol, acetate (ester), 1-oxide
##MOLFORM=C8H9NO3
##CAS REGISTRY NO=2683-69-4
##MP= -300
##BP= -300
##MW= 167
##$RETENTION INDEX=0
##$CONDENSED SPECTRUM=NO
##NPOINTS= 103
##XYDATA=(XY..XY) 1 
    25          1
    26         16
    27         69
    28         29
    29         52
    30          7
    31          5
    37         10
    38         31
    39        152
    40         16
    41         24
    42         19
    43        591
    44         21
    45         10
    46          1
    47          0
    48          1
    49          5
    50         70
    51        210
    52        188
    53        123
    54         11
    55          5
    56          2
    57          6
    58          1
    59          0
    60          6
    61          6
    62         13
    63         34
    64         23
    65         39
    66         19
    67          7
    68          4
    69          2
    70          2
    71          2
    73          1
    74          7
    75          6
    76         11
    77         21
    78        605
    79        696
    80        168
    81         10
    82          1
    83          2
    84          1
    85          1
    87          1
    88          0
    89          1
    90          1
    91          9
    92         29
    93          7
    94          4
    95          6
    96         89
    97          5
    98          1
   105         11
   106         88
   107        143
   108        999
   109        185
   110         11
   111          2
   112          0
   113          1
   115          2
   116          1
   121          1
   122          3
   123          1
   124        803
   125        364
   126         24
   127          2
   128          1
   129          1
   136          2
   137          0
   138          0
   139          0
   141          1
   149          9
   150          1
   151          1
   152          2
   163          0
   164          0
   165          2
   166          1
   167        318
   168         55
   169          7