##TITLE=Library Entry 58667
##JCAMP-DX=Revision 4.10 
##DATA TYPE=MASS SPECTRUM
##SAMPLE DESCRIPTION=Japan AIST/NIMC Database- Spectrum MS-NW-7647
##NAMES=HP
##CAS NAME=Benzonitrile, 4-methyl-2-nitro-
##MOLFORM=C8H6N2O2
##CAS REGISTRY NO=26830-95-5
##MP= -300
##BP= -300
##MW= 162
##$RETENTION INDEX=0
##$CONDENSED SPECTRUM=NO
##NPOINTS= 108
##XYDATA=(XY..XY) 1 
    14          1
    15          4
    16          1
    25          1
    26         12
    27         48
    28         38
    29          2
    30        429
    31          2
    32          1
    36          2
    37         44
    38         58
    39        263
    40         18
    41         24
    42          3
    43          8
    44          6
    46         11
    48          2
    49         12
    50         86
    51        113
    52         44
    53         24
    54          3
    55          1
    56          1
    57          2
    60          3
    61         49
    62        105
    63        287
    64        120
    65         64
    66         19
    67          3
    68          2
    69          1
    72          2
    73          9
    74         21
    75         48
    76         53
    77        273
    78         52
    79          5
    80          1
    81          1
    82          1
    83          1
    84          3
    85          9
    86         19
    87         41
    88         91
    89        999
    90        216
    91         15
    92          2
    95          1
    96          2
    98          2
    99         15
   100          9
   101          5
   102         27
   103         14
   104        277
   105         56
   106          5
   107          1
   108          1
   109          2
   110          2
   111          4
   112          4
   113          5
   114         51
   115         55
   116        807
   117         79
   118         19
   119          3
   123          6
   124          1
   125          8
   127          2
   128          1
   129          3
   130          2
   131         11
   132        166
   133         15
   134          2
   141          1
   145          1
   146         18
   147          3
   148          2
   160          2
   161          8
   162        891
   163         87
   164          7
   165          1