##TITLE=Library Entry 73654
##JCAMP-DX=Revision 4.10 
##DATA TYPE=MASS SPECTRUM
##SAMPLE DESCRIPTION=A.A.Kutin, Moscow, Russia
##NAMES=HP
##CAS NAME=Benzimidazol-2-amine, N-[2-(4-morpholyl)ethyl]-
##MOLFORM=C13H18N4O
##CAS REGISTRY NO=26840-48-2
##MP= -300
##BP= -300
##MW= 246
##$RETENTION INDEX=0
##$CONDENSED SPECTRUM=NO
##NPOINTS= 104
##XYDATA=(XY..XY) 1 
    37          8
    38         17
    39         36
    40          6
    41         45
    42         50
    43         44
    44         26
    45          9
    49          8
    50         32
    51         52
    52         38
    53        105
    54         23
    55         82
    56         83
    57         29
    58          3
    59         89
    60         10
    61          9
    62         18
    63         57
    64         27
    65         32
    66          8
    67          9
    68          6
    69         19
    70         41
    72         76
    73          7
    74          4
    75          2
    76          5
    77         20
    78          7
    79         11
    80          8
    81         78
    82         10
    83         11
    84          6
    86         13
    89          6
    90         21
    91        118
    92         79
    93         10
    95          5
    96          2
    97          4
    98         17
    99          9
   100        999
   101         54
   102          9
   103          3
   104          3
   105         20
   106          4
   107          9
   108          9
   112         24
   113         14
   114          9
   116          2
   117          7
   118         15
   119         37
   120          3
   123          2
   124          1
   126          7
   127          2
   128          2
   129         10
   130          2
   131          6
   132         11
   133         21
   134          6
   135          3
   140          6
   142          3
   144          5
   146         39
   147          4
   152          1
   154          2
   158          8
   159          4
   160          5
   170          2
   171          3
   184          2
   187          2
   188          1
   226          1
   238          2
   246        300
   247         53
   248          3