##TITLE=Library Entry 11115
##JCAMP-DX=Revision 4.10 
##DATA TYPE=MASS SPECTRUM
##SAMPLE DESCRIPTION=Chemical Concepts
##NAMES=HP
##CAS NAME=Cyclohexanepropanoic acid, 3-oxo-, methyl ester
##MOLFORM=C10H16O3
##CAS REGISTRY NO=26845-42-1
##MP= -300
##BP= -300
##MW= 184
##$RETENTION INDEX=0
##$CONDENSED SPECTRUM=NO
##NPOINTS= 107
##XYDATA=(XY..XY) 1 
    26         26
    27        208
    29        279
    30         25
    31        136
    33          6
    37          8
    38         19
    39        253
    40         72
    41        433
    42        247
    43        999
    44        196
    45        102
    46          7
    47          5
    48          4
    49          7
    50         11
    51         29
    52         19
    53        121
    54        162
    55        535
    56         63
    57         98
    58         35
    59        296
    60         26
    61         41
    62          6
    63          9
    64          5
    65         31
    66         33
    67        222
    68        148
    69        333
    70         51
    71        136
    72         33
    73        106
    74        365
    75         77
    76          9
    77         48
    78         21
    79        123
    80         33
    81        175
    82        186
    83        117
    84         31
    85         61
    86         90
    87        138
    88         46
    89          7
    91         57
    92         47
    93        110
    94         46
    95         94
    96        161
    97        792
    98        119
    99         55
   100         76
   101        263
   102         18
   103         25
   104         17
   105         34
   106         44
   107         71
   108         32
   109        123
   110        815
   111        247
   112         26
   113         80
   114         29
   123         26
   124         92
   125         43
   126         15
   140          9
   141         41
   142         13
   151         13
   152         28
   153        206
   154         30
   155         16
   156          9
   161          7
   164          6
   165          8
   166         57
   167         13
   168          9
   169          8
   183          4
   184        123
   185         26
   186          3