##TITLE=Library Entry 70797
##JCAMP-DX=Revision 4.10 
##DATA TYPE=MASS SPECTRUM
##SAMPLE DESCRIPTION=A.A.Kutin, Moscow, Russia
##NAMES=HP
##CAS NAME=Benzimidazol-2-amine, 1-[2-(1-piperidyl)ethyl]-
##MOLFORM=C14H20N4
##CAS REGISTRY NO=26840-46-0
##MP= -300
##BP= -300
##MW= 244
##$RETENTION INDEX=0
##$CONDENSED SPECTRUM=NO
##NPOINTS= 117
##XYDATA=(XY..XY) 1 
    33          0
    34          3
    36          2
    37          0
    38          3
    39         18
    40         56
    41         75
    42         63
    43         17
    44         50
    45          2
    50          5
    51         16
    52          6
    53         15
    54         14
    55         59
    56         17
    57          7
    58          1
    59          0
    60          0
    62          1
    63          6
    64          5
    65         10
    67          6
    68          6
    69         21
    70         21
    71          3
    72          1
    73          1
    74          0
    75          1
    76          4
    77         24
    78          7
    79          4
    80          4
    81         38
    82          8
    83          6
    84          7
    85          1
    87          0
    89          2
    90         12
    91         12
    92         10
    93          3
    94          1
    95          1
    96         32
    98        999
    99         70
   102          4
   103          2
   104          4
   105         14
   106          3
   107          0
   108          1
   109          3
   110         21
   111         10
   112          3
   113          0
   115          1
   116          1
   117          4
   118          9
   119         19
   120          1
   121          0
   122          1
   124          0
   125          0
   127          0
   128          0
   129          4
   130          1
   131          3
   132          5
   133         10
   134          2
   142          0
   143          0
   144          3
   145          2
   146          9
   147          2
   148          0
   149          0
   152          0
   155          0
   156          0
   157          2
   158          4
   159          3
   160          2
   161          3
   162          0
   170          0
   171          2
   172         15
   173          9
   174          1
   186          0
   187          1
   223          0
   226          0
   242          2
   244         70
   245         11
   246          0