##TITLE=Library Entry 58179
##JCAMP-DX=Revision 4.10 
##DATA TYPE=MASS SPECTRUM
##SAMPLE DESCRIPTION=Div. of Experiment Therapeutics WRAIR, WRAMC, Washingto
n DC 20307
##NAMES=HP
##CAS NAME=Methyl 9,10-dibromo-9,10-dihydrophenanthrene-1-carboxylate
##MOLFORM=C16H12Br2O2
##CAS REGISTRY NO=26847-77-8
##MP= -300
##BP= -300
##MW= 394
##$RETENTION INDEX=0
##$CONDENSED SPECTRUM=NO
##NPOINTS= 148
##XYDATA=(XY..XY) 1 
    41          5
    42          0
    43          6
    44          4
    45          9
    49          7
    50         17
    51         23
    52          3
    55          6
    57          4
    59         17
    62         42
    63         33
    64          2
    67          3
    68          3
    69          5
    70          3
    74         46
    75        123
    76         27
    77         13
    79          6
    80          7
    81         23
    82         33
    83          8
    84          3
    85         11
    86          4
    88        999
    94          1
    96         17
    98         29
    99         25
   100          9
   101          2
   102         39
   103         71
   105          7
   109          2
   110         20
   111         16
   112          1
   113          5
   115          3
   118         97
   121          1
   122         11
   123         11
   124          4
   125          4
   126         25
   127          9
   128          7
   129          2
   134          2
   135          4
   137          5
   138          1
   139          4
   141         28
   142         15
   143         45
   148          1
   149         28
   150         91
   151         89
   152         13
   157         18
   159         15
   161          3
   162          7
   163         40
   164         28
   165         25
   166          4
   173          1
   174         68
   175         83
   176        632
   177        364
   178         56
   179          9
   189          9
   190          5
   191          7
   192         33
   193          7
   203         12
   204          9
   205        345
   206         48
   207          7
   219          4
   220         50
   221          6
   222         88
   223         10
   233          1
   234          2
   235         42
   236        296
   237         45
   238          6
   239          1
   241          1
   242          1
   243          3
   254          5
   255         12
   256         15
   257         16
   258         10
   260          1
   270          1
   281          1
   282          4
   283        373
   285        381
   286         47
   287          4
   298          4
   300         19
   302         19
   303          2
   311          1
   313          2
   314        314
   315        185
   316        304
   317        135
   318         20
   319          2
   320          1
   322          1
   363          2
   365          2
   376          3
   378          8
   380          1
   392          1
   394          8
   395          1
   396         16
   397          1
   398          8