##TITLE=Library Entry 78693
##JCAMP-DX=Revision 4.10 
##DATA TYPE=MASS SPECTRUM
##SAMPLE DESCRIPTION=Chemical Concepts
##NAMES=HP
##CAS NAME=N-(1,3,4-Thiadiazol-2-yl)benzamide
##MOLFORM=C9H7N3OS
##CAS REGISTRY NO=26861-95-0
##MP= -300
##BP= -300
##MW= 205
##$RETENTION INDEX=0
##$CONDENSED SPECTRUM=NO
##NPOINTS= 103
##XYDATA=(XY..XY) 1 
    34         27
    35         58
    36         41
    37         41
    38         12
    39         65
    40         93
    41         41
    42         29
    43         53
    44        107
    45        185
    46         33
    47         13
    48         18
    50        253
    51        322
    52         23
    53         10
    54          8
    55         13
    56          9
    57         14
    58         26
    59         25
    60          9
    61          8
    62          9
    63          9
    64          7
    65          6
    66          3
    67          4
    68          6
    69          9
    70          7
    71          9
    72          9
    73         24
    74         67
    75         52
    77        784
    78         43
    79          4
    80          1
    81          3
    82          2
    83          3
    84          3
    85          4
    86          4
    87          2
    88          3
    89          1
    90          3
    91          4
    92          1
    93          2
    94          3
    95          7
    96          2
    97          2
    99          3
   100          5
   101         22
   102         14
   105        999
   106         44
   108          4
   109          3
   111          1
   112          1
   113          1
   115          1
   118          1
   119          1
   120          1
   121          4
   122          8
   123         11
   124          1
   128          5
   129          2
   130          1
   132          1
   134          1
   135          1
   136          1
   145          1
   148          1
   149          3
   171          1
   173          1
   175          8
   176         18
   177         78
   178          9
   179          4
   202          2
   204         48
   205         38
   206          6
   207          1