##TITLE=Library Entry 63755
##JCAMP-DX=Revision 4.10 
##DATA TYPE=MASS SPECTRUM
##SAMPLE DESCRIPTION=Div. of Experiment Therapeutics WRAIR, WRAMC, Washingto
n DC 20307
##NAMES=HP
##CAS NAME=2-Benzyloxy-6-ethoxy-8-nitroquinoline
##MOLFORM=C18H16N2O4
##CAS REGISTRY NO=26866-21-7
##MP= -300
##BP= -300
##MW= 324
##$RETENTION INDEX=0
##$CONDENSED SPECTRUM=NO
##NPOINTS= 142
##XYDATA=(XY..XY) 1 
    41         19
    42          0
    43          3
    49          4
    50         12
    51         41
    52         14
    53         12
    54          1
    55          1
    61          0
    62          8
    63         32
    64         12
    65        171
    66          9
    68          3
    69         10
    70          0
    74          2
    75         11
    76         23
    77         24
    78          7
    79         13
    80          2
    82          0
    84          7
    86          2
    87          6
    88         10
    89         37
    90          7
    91        999
    92         72
    93          3
    95          2
    96          4
    97          0
    99          1
   100          2
   101          2
   102         13
   103         12
   104          6
   105        136
   106         11
   107         13
   108          0
   111          9
   113          0
   114         12
   115          9
   116          8
   117         10
   118          4
   119          5
   125          0
   126          1
   127          0
   128          1
   129          1
   130          9
   131         15
   132         54
   133          8
   137          0
   139          6
   141          0
   142         18
   143          8
   144          7
   145         17
   146         13
   147          4
   148          5
   153          1
   155          2
   158          2
   159         27
   160         41
   161          6
   162          1
   165          3
   166          0
   170          5
   171          6
   172          2
   173         24
   174          5
   175          6
   176          4
   181         12
   182          1
   186          2
   188        231
   189         47
   190         18
   191          7
   192          5
   193          2
   201          8
   202         11
   203          4
   204          3
   205          5
   206          1
   216          0
   217          0
   218        418
   219         82
   220         19
   221          5
   222          2
   231          3
   232          1
   233          4
   234          0
   235          3
   247          7
   248         10
   249          3
   250          1
   252          1
   261          5
   262         11
   263          4
   276          8
   277          3
   278          5
   279          2
   290         10
   291          5
   292          0
   295          0
   307         14
   308          4
   309          0
   323          1
   324         46
   325         10
   326          4