##TITLE=Library Entry 4659
##JCAMP-DX=Revision 4.10 
##DATA TYPE=MASS SPECTRUM
##SAMPLE DESCRIPTION=Exported from NIST MS Search
##NAMES=HP
##CAS NAME=1,3-Dioxane, 4,6-dimethyl-
##MOLFORM=C6H12O2
##CAS REGISTRY NO=26864-43-7
##MP= -300
##BP= -300
##MW= 116
##$RETENTION INDEX=0
##$CONDENSED SPECTRUM=NO
##NPOINTS= 33
##XYDATA=(XY..XY) 1 
    25          9
    26         88
    27         88
    28         47
    29         22
    30        188
    31         15
    39         56
    40         28
    41        298
    42        999
    43        345
    44         56
    45        855
    46         15
    55         34
    56          9
    57         31
    58         28
    59         56
    69        314
    70          9
    71        298
    72         15
    73         31
    75         88
    85          9
    86        393
    87        194
    88          9
   101         69
   115        251
   116         15