##TITLE=Library Entry 20030
##JCAMP-DX=Revision 4.10 
##DATA TYPE=MASS SPECTRUM
##SAMPLE DESCRIPTION=R.LARGE BRITISH PETROLEUM CO. LTD., EPSOM, SURREY, UK
##NAMES=HP
##CAS NAME=Spiro[5.6]dodecane-7,12-dione
##MOLFORM=C12H18O2
##CAS REGISTRY NO=26870-39-3
##MP= -300
##BP= -300
##MW= 194
##$RETENTION INDEX=0
##$CONDENSED SPECTRUM=NO
##NPOINTS= 76
##XYDATA=(XY..XY) 1 
    27        512
    28        585
    29        317
    39        512
    40        220
    41        902
    42        171
    43        268
    51         98
    52         73
    53        341
    54        317
    55        999
    56        195
    57         73
    65         73
    66         73
    67        951
    68        244
    69        122
    70         73
    71         73
    77        146
    78         49
    79        268
    80        146
    81        659
    82        268
    83        463
    84        488
    85        122
    91        122
    92         49
    93        122
    94         98
    95        171
    96         73
    97        146
    98         98
    99         12
   105         49
   106         24
   107        146
   108         49
   109        293
   110        585
   111        268
   112         49
   119         49
   120         49
   121         49
   122         49
   123        537
   124        171
   125         49
   133         49
   134         49
   135         24
   136          7
   137        268
   138         73
   139         49
   140         12
   147         49
   148        512
   149        317
   150         49
   151         49
   152         24
   153         24
   165         49
   166        610
   167         73
   176         24
   194        951
   195        122