##TITLE=Library Entry 97374
##JCAMP-DX=Revision 4.10 
##DATA TYPE=MASS SPECTRUM
##SAMPLE DESCRIPTION=Japan AIST/NIMC Database- Spectrum MS-NW-5818
##NAMES=HP
##CAS NAME=Benzene, (3-chloro-1-propenyl)-
##MOLFORM=C9H9Cl
##CAS REGISTRY NO=2687-12-9
##MP= -300
##BP= -300
##MW= 152
##$RETENTION INDEX=1262
##$CONDENSED SPECTRUM=NO
##NPOINTS= 66
##XYDATA=(XY..XY) 1 
    14          1
    26          4
    27         10
    28          5
    35          2
    36         15
    37          5
    38          9
    39         63
    40          5
    41          6
    43          2
    44          2
    49          3
    50         25
    51         48
    52         10
    53          2
    55          2
    56          1
    57         50
    58         41
    61          6
    62         17
    63         43
    64          9
    65         32
    66          3
    73          4
    74         11
    75         11
    76          9
    77         20
    78         10
    79          1
    84          1
    85          3
    86          5
    87          8
    88          4
    89         34
    90          8
    91        142
    92         11
    98          1
    99          1
   101          2
   102         16
   103          4
   104          2
   105          2
   112          1
   113          4
   114          6
   115        331
   116        137
   117        999
   118         99
   119          5
   125          3
   127          1
   151          1
   152        198
   153         20
   154         64
   155          7