##TITLE=Library Entry 71493
##JCAMP-DX=Revision 4.10 
##DATA TYPE=MASS SPECTRUM
##SAMPLE DESCRIPTION=NIST Mass Spectrometry Data Center, 1994
##NAMES=HP
##CAS NAME=1-Ethyl-2-pyrrolidinone
##MOLFORM=C6H11NO
##CAS REGISTRY NO=2687-91-4
##MP= -300
##BP= -300
##MW= 113
##$RETENTION INDEX=1856
##$CONDENSED SPECTRUM=NO
##NPOINTS= 52
##XYDATA=(XY..XY) 1 
    13          2
    14         14
    15         69
    16          3
    26         74
    27        244
    28        389
    29        131
    30         96
    31          2
    32          5
    34          4
    35          8
    37          8
    38         24
    39        152
    40         65
    41        423
    42        380
    43        226
    44         76
    45          3
    49          4
    51          6
    52         15
    53         14
    54         51
    55         56
    56        154
    57        149
    58        121
    59          5
    66          5
    67          9
    68        108
    69        258
    70        695
    71         48
    72          7
    80         12
    82         10
    84        137
    85         98
    86         16
    96          5
    98        999
    99         55
   100          2
   112        157
   113        828
   114         57
   115          3