##TITLE=Library Entry 58765
##JCAMP-DX=Revision 4.10 
##DATA TYPE=MASS SPECTRUM
##SAMPLE DESCRIPTION=A.A.Kutin, Moscow, Russia
##NAMES=HP
##CAS NAME=Pyridin-2-amine, 3,4,5,6-tetrabromo-
##MOLFORM=C5H2Br4N2
##CAS REGISTRY NO=26885-24-5
##MP= -300
##BP= -300
##MW= 406
##$RETENTION INDEX=0
##$CONDENSED SPECTRUM=NO
##NPOINTS= 216
##XYDATA=(XY..XY) 1 
    33         28
    34          5
    39         46
    40         98
    41         19
    42         38
    43          7
    44         15
    45         33
    48         73
    49         34
    50         52
    51        109
    52         43
    53        136
    54          8
    55          3
    56          1
    57          3
    58          0
    59          2
    60         13
    62        946
    63        652
    64        103
    65         14
    66         24
    67          1
    68          0
    69          2
    71         76
    73         49
    74        109
    75         19
    76         10
    77         37
    79        357
    80        166
    81        311
    82        134
    84        150
    86        118
    88         92
    89        346
    90        999
    91        128
    93        107
    94         12
    95          2
    96          1
    98          9
    99          3
   100          0
   103         16
   104          8
   105         35
   106         63
   107         20
   108         53
   109          9
   110         30
   112         47
   113         28
   115        183
   116        102
   117        183
   118         97
   119         42
   120          9
   121         19
   124        125
   125        210
   126         98
   127         85
   129        110
   130         53
   131         28
   132         46
   133         13
   134          1
   135          1
   137          1
   138          0
   139          3
   141        187
   142        142
   143        372
   144        142
   145        206
   146         10
   147          1
   149          0
   150          7
   151         17
   153         56
   155         38
   156          4
   158         21
   160         36
   162         20
   163         79
   164        176
   165        182
   167         75
   168         97
   169        306
   170        112
   171        271
   172         22
   173          4
   174          2
   175          1
   180          0
   182          6
   183          4
   184         15
   185          4
   186          6
   187          0
   188          0
   189          3
   190          9
   191         14
   192          8
   194         31
   195         10
   196         55
   197         16
   198         30
   199          8
   200          4
   201          0
   203         14
   204         50
   205         71
   206        132
   208        195
   210         91
   211          3
   212          1
   214          0
   218          0
   220         63
   222        181
   223         40
   224        136
   225         20
   226         39
   227          1
   232          2
   233          0
   234          5
   235          0
   236          3
   237          0
   245          1
   248        397
   249        103
   250        549
   251         80
   252        283
   253         20
   254          0
   255          0
   256          0
   271          0
   273         23
   275         67
   277         64
   279         22
   283          0
   285          6
   287         14
   289         13
   290          1
   291          3
   300         19
   302         52
   304         50
   306         18
   307          0
   313          1
   315          1
   317          0
   324          1
   325          2
   327        108
   329        294
   330         42
   331        249
   332         27
   333         78
   334          6
   345          0
   364          1
   366          2
   368          1
   378          3
   379          6
   380         10
   381         17
   382         16
   383         21
   384         11
   385         13
   386          2
   387          2
   399          0
   402          1
   403          2
   406        150
   408        516
   410        736
   412        483
   414        129
   415          5