##TITLE=Library Entry 71098
##JCAMP-DX=Revision 4.10 
##DATA TYPE=MASS SPECTRUM
##SAMPLE DESCRIPTION=Exported from NIST MS Search
##NAMES=HP
##CAS NAME=Spiro[benzofuran-2(3H),1'-[3]cyclohexene]-2',3-dione, 7-chloro-6-
hydroxy-4,4'-dimethoxy-6'-methyl-
##MOLFORM=C16H15ClO6
##CAS REGISTRY NO=26881-74-3
##MP= -300
##BP= -300
##MW= 338
##$RETENTION INDEX=0
##$CONDENSED SPECTRUM=NO
##NPOINTS= 54
##XYDATA=(XY..XY) 1 
    39         90
    40        170
    41         70
    53         40
    55         70
    59         40
    68        460
    69        260
    70         20
    77         40
    98        999
    99        110
   100         10
   110         50
   126         50
   138         40
   164         70
   165        200
   166         40
   169         60
   200         60
   201        200
   202         40
   203         80
   211        110
   212         10
   213         50
   222         80
   223         40
   224         40
   225         60
   239         60
   240        270
   241        120
   242        110
   243         10
   279         50
   281         40
   295        110
   296         20
   297         40
   307         70
   308         40
   309         40
   310        110
   311         20
   312         40
   323        140
   324         20
   325         60
   338        350
   339         80
   340        130
   341         30