##TITLE=Library Entry 81314
##JCAMP-DX=Revision 4.10 
##DATA TYPE=MASS SPECTRUM
##SAMPLE DESCRIPTION=Exported from NIST MS Search
##NAMES=HP
##CAS NAME=2-Pyridinecarboxylic acid, 6-methoxy-
##MOLFORM=C7H7NO3
##CAS REGISTRY NO=26893-73-2
##MP= -300
##BP= -300
##MW= 153
##$RETENTION INDEX=0
##$CONDENSED SPECTRUM=NO
##NPOINTS= 25
##XYDATA=(XY..XY) 1 
    45         94
    50        122
    51        122
    52        103
    53         83
    64        158
    65        217
    66        150
    76         72
    77        534
    78        161
    79        208
    80        100
    93        402
    94        194
   105        999
   106        275
   107        258
   108        289
   109        332
   123        226
   124        108
   152        844
   153        874
   154         77