##TITLE=Library Entry 57013
##JCAMP-DX=Revision 4.10 
##DATA TYPE=MASS SPECTRUM
##SAMPLE DESCRIPTION=NIST Mass Spectrometry Data Center, 1994
##NAMES=HP
##CAS NAME=Neodecanoic acid
##MOLFORM=C10H20O2
##CAS REGISTRY NO=26896-20-8
##MP= -300
##BP= -300
##MW= 172
##$RETENTION INDEX=0
##$CONDENSED SPECTRUM=NO
##NPOINTS= 82
##XYDATA=(XY..XY) 1 
    14          4
    15         31
    16          1
    19          3
    27        334
    28         37
    29        391
    30         12
    31         26
    39        227
    41        588
    42         93
    43        519
    44         22
    45        146
    46          6
    50          5
    51         18
    52          9
    53         69
    54          5
    55        265
    56         57
    57        239
    58          5
    59        120
    60         12
    63          3
    65         13
    66          6
    67         31
    68          3
    69        133
    70         53
    71        197
    72          3
    73        163
    74         15
    75          2
    77          7
    79         10
    80          2
    81          9
    82          9
    83         37
    84         22
    85        117
    86          2
    87        999
    88        515
    89         26
    90          2
    91          3
    94          3
    95          5
    96          3
    97         17
    98         10
    99          8
   100          2
   101        170
   102        323
   103         20
   104          2
   109          2
   111          9
   112          6
   113          3
   114          2
   115         49
   116        175
   117         12
   125          6
   127         58
   128          7
   129         30
   130        164
   131         21
   132          2
   143         17
   144          8
   157          3