##TITLE=Library Entry 91149
##JCAMP-DX=Revision 4.10 
##DATA TYPE=MASS SPECTRUM
##SAMPLE DESCRIPTION=A.A.Kutin, Moscow, Russia
##NAMES=HP
##CAS NAME=1H-Naphtho[2,3-d][1,2,3]triazole
##MOLFORM=C10H7N3
##CAS REGISTRY NO=269-12-5
##MP= -300
##BP= -300
##MW= 169
##$RETENTION INDEX=0
##$CONDENSED SPECTRUM=NO
##NPOINTS= 102
##XYDATA=(XY..XY) 1 
    34          0
    37         43
    38         77
    39        119
    40         22
    41          8
    42          1
    43          9
    44          9
    45          2
    47          0
    48          1
    49         20
    50        140
    51        111
    52         76
    53          7
    55         16
    56         19
    57         62
    58         24
    60          6
    61         86
    62        212
    63        300
    64         92
    65         33
    66          3
    67          1
    68          2
    70         22
    71        140
    72          2
    73         20
    74        105
    75         95
    76         55
    77         16
    78          6
    79          2
    81          1
    84          6
    85         64
    86        122
    87        170
    88        249
    89         56
    90         16
    91          8
    92          1
    93          1
    94          0
    97          2
    98         12
    99         18
   100         19
   101          6
   102         11
   103          2
   104          1
   105          0
   106          1
   107          1
   108          1
   109          8
   110         16
   111         17
   112         23
   113        418
   114        999
   115        122
   116          8
   117          2
   119          0
   120          1
   121          0
   122          0
   123          0
   125          0
   126          1
   127          1
   129          0
   130          2
   132          0
   133          0
   134          1
   135          1
   138          8
   139         15
   140        428
   141        974
   142        102
   143          5
   145          0
   149          0
   150          0
   158          1
   159          1
   167          0
   169        364
   170         44
   171          2