##TITLE=Library Entry 32643
##JCAMP-DX=Revision 4.10 
##DATA TYPE=MASS SPECTRUM
##SAMPLE DESCRIPTION=NIST Mass Spectrometry Data Center, 1990.
##NAMES=HP
##CAS NAME=3-Cyclopentylcyclopentene
##MOLFORM=C10H16
##CAS REGISTRY NO=2690-17-7
##MP= -300
##BP= -300
##MW= 136
##$RETENTION INDEX=0
##$CONDENSED SPECTRUM=NO
##NPOINTS= 40
##XYDATA=(XY..XY) 1 
    26          7
    27         60
    28         30
    29         20
    39        214
    40         49
    41        305
    42         29
    50         16
    51         49
    52         24
    53         61
    54         14
    55         17
    62          7
    63         20
    65        132
    66        441
    67        999
    68        406
    69        107
    70          6
    77        109
    78         32
    79        140
    80         33
    81         14
    82          5
    91         75
    92         12
    93         57
    94         64
    95        219
    96         17
   105          6
   107         30
   108         15
   121         28
   136        176
   137         19