##TITLE=Library Entry 89186
##JCAMP-DX=Revision 4.10 
##DATA TYPE=MASS SPECTRUM
##SAMPLE DESCRIPTION=A.A.Kutin, Moscow, Russia
##NAMES=HP
##CAS NAME=Methanone, [5-(1H-benzotriazol-1-yl)-1,6-dihydro-6-imino-1-phenyl
-3-pyridazinyl]-2-thienyl-
##MOLFORM=C21H14N6OS
##CAS REGISTRY NO=269085-84-9
##MP= -300
##BP= -300
##MW= 398
##$RETENTION INDEX=0
##$CONDENSED SPECTRUM=NO
##NPOINTS= 65
##XYDATA=(XY..XY) 1 
    33         35
    34          1
    39        139
    40         70
    41         14
    43         15
    44         15
    45          6
    50         19
    51         34
    52          8
    53          7
    55          3
    57          5
    58          5
    59         16
    63         10
    64         33
    65         26
    66          2
    69          4
    72          5
    75          1
    76         14
    77        108
    81          1
    83         75
    84          4
    85          2
    88         14
    90          9
    91         38
    92         68
    93         74
    94          3
   102          9
   103          2
   105          3
   108          4
   109          8
   111        999
   113         95
   114         13
   115          7
   119          2
   120          1
   127          1
   128          2
   129          6
   141          1
   142          9
   153          2
   167          5
   231          2
   232         22
   233         10
   257         17
   258         22
   259         17
   370        101
   371         20
   372          7
   397        141
   398         41
   399          6