##TITLE=Library Entry 49796
##JCAMP-DX=Revision 4.10 
##DATA TYPE=MASS SPECTRUM
##SAMPLE DESCRIPTION=Chemical Concepts
##NAMES=HP
##CAS NAME=7,7-Dimethyl-bicyclo[2.2.1]heptan-2-ol
##MOLFORM=C9H16O
##CAS REGISTRY NO=26908-71-4
##MP= -300
##BP= -300
##MW= 140
##$RETENTION INDEX=1667
##$CONDENSED SPECTRUM=NO
##NPOINTS= 77
##XYDATA=(XY..XY) 1 
    26         18
    27        232
    28        348
    29        257
    30         12
    31         50
    36          8
    37         15
    38         26
    39        329
    40         76
    41        876
    42        121
    43        324
    44        220
    45         18
    50         14
    51         50
    52         25
    53        158
    54         64
    55        377
    56         86
    57        318
    58         27
    59        349
    60         17
    63         12
    64          4
    65         59
    66         64
    67        265
    68         95
    69        361
    70        181
    71         85
    72         25
    73          8
    77        115
    78        625
    79        783
    80        136
    81        999
    82        242
    83        168
    84        140
    85        133
    86         20
    91         80
    92         20
    93        125
    94         95
    95        153
    96        245
    97        205
    98         58
    99        155
   100         14
   103          5
   105         25
   106          7
   107        321
   108         33
   109         83
   110         17
   111         34
   112          9
   121         14
   122        358
   123         46
   124          6
   125        100
   126         12
   138         11
   139          7
   140         12
   141          4