##TITLE=Library Entry 31360
##JCAMP-DX=Revision 4.10 
##DATA TYPE=MASS SPECTRUM
##SAMPLE DESCRIPTION=V.A.Korolev, Moscow, Russia
##NAMES=HP
##CAS NAME=2-Hydroxyethyl heptyl sulfide
##MOLFORM=C9H20OS
##CAS REGISTRY NO=26901-97-3
##MP= -300
##BP= -300
##MW= 176
##$RETENTION INDEX=0
##$CONDENSED SPECTRUM=NO
##NPOINTS= 80
##XYDATA=(XY..XY) 1 
    28         37
    29        198
    30         68
    31        261
    33          6
    34         12
    35         30
    37          5
    38         21
    39        193
    40         69
    41        465
    42        121
    43        534
    44         92
    45        480
    46        169
    47        243
    48         55
    49         24
    50         12
    51         22
    52          6
    53         74
    54         50
    55        419
    56        323
    57        385
    58         50
    59        114
    60        334
    61        999
    62         51
    63         53
    65         11
    67         63
    68         53
    69        230
    70        254
    71         32
    73         31
    74         12
    75         45
    76         10
    77         22
    78         82
    79         31
    80          4
    81         22
    82          5
    83         41
    85         12
    87         80
    88         11
    89         27
    91         95
    92          8
    94          5
    95          4
    96          9
    97        187
    98        133
    99          9
   101         19
   105         16
   106          1
   129          4
   130         14
   131        845
   132         86
   133         91
   134          5
   145        288
   146         25
   147         14
   159         16
   160          1
   176        412
   177         45
   178         22