##TITLE=Library Entry 17868
##JCAMP-DX=Revision 4.10 
##DATA TYPE=MASS SPECTRUM
##SAMPLE DESCRIPTION=Exported from NIST MS Search
##NAMES=HP
##CAS NAME=Cyclotetramethylenetetranitramine
##MOLFORM=C4H8N8O8
##CAS REGISTRY NO=2691-41-0
##MP= -300
##BP= -300
##MW= 296
##$RETENTION INDEX=0
##$CONDENSED SPECTRUM=NO
##NPOINTS= 50
##XYDATA=(XY..XY) 1 
    30        650
    39         20
    40         20
    41         40
    42        250
    43         70
    44        270
    45         10
    46        999
    47         20
    48         20
    52         20
    53         20
    54         20
    55         30
    56         50
    57         60
    58         20
    59         10
    64         10
    67         10
    68         10
    69         20
    71         20
    72         10
    73         10
    74         20
    75        100
    76         10
    81         10
    82         20
    83         20
    84         20
    85         10
    97         20
    98         20
    99         30
   102         20
   103         70
   104         20
   105         20
   120         70
   128         90
   129         20
   130         20
   148        120
   149         20
   205         20
   221         10
   222         20