##TITLE=Library Entry 67146
##JCAMP-DX=Revision 4.10 
##DATA TYPE=MASS SPECTRUM
##SAMPLE DESCRIPTION=NIST Mass Spectrometry Data Center
##NAMES=HP
##CAS NAME=3-((1R,2S,4S)-2-Methyl-3-methylenebicyclo[2.2.1]heptan-2-yl)propa
nal
##MOLFORM=C12H18O
##CAS REGISTRY NO=26927-59-3
##MP= -300
##BP= -300
##MW= 178
##$RETENTION INDEX=1385
##$CONDENSED SPECTRUM=NO
##NPOINTS= 63
##XYDATA=(XY..XY) 1 
    27         80
    29         98
    31         16
    39        204
    40         32
    41        348
    42         29
    43        259
    50         47
    51         66
    52         71
    53        180
    55        187
    57         52
    62         17
    65        168
    66         26
    67        356
    68        121
    69        314
    74         18
    77        408
    78        100
    79        730
    80        127
    81        156
    82         43
    84         52
    85         43
    91        472
    92         99
    93        609
    94        999
    95         74
    97         19
   103         49
   104         13
   105         87
   106         51
   107        103
   108         70
   109         28
   110         43
   111        198
   112         42
   115         44
   117         31
   121        400
   122        475
   123        252
   127         32
   131         42
   132         21
   134         28
   135         37
   136         38
   137         17
   145         15
   146         13
   149         18
   150         59
   163         36
   178         27