##TITLE=Library Entry 78302
##JCAMP-DX=Revision 4.10 
##DATA TYPE=MASS SPECTRUM
##SAMPLE DESCRIPTION=Institute of Organic Chemistry, Novosibirsk, USSR 1988
##NAMES=HP
##CAS NAME=4,4,6-Trimethyl-2-phenyl-5,6-dihydro-4H-1,3-oxazine
##MOLFORM=C13H17NO
##CAS REGISTRY NO=26939-21-9
##MP= -300
##BP= -300
##MW= 203
##$RETENTION INDEX=0
##$CONDENSED SPECTRUM=NO
##NPOINTS= 133
##XYDATA=(XY..XY) 1 
    12          5
    13          3
    14         18
    15         44
    16         42
    17         81
    18        287
    19         10
    25          4
    26         33
    27         79
    28         94
    29         60
    30         29
    31         14
    32         24
    33          1
    35          0
    36          6
    37          3
    38          7
    39         46
    40         13
    41        114
    42         36
    43         98
    44         14
    45          8
    46          3
    49          2
    50         26
    51         82
    52          9
    53         11
    54          7
    55         42
    56         48
    57         38
    58         22
    59          7
    60         10
    61          4
    62          1
    63          3
    64          2
    65          4
    66          1
    67         12
    68          6
    69         20
    70         31
    71         14
    72          2
    73          7
    74          6
    75          9
    76         38
    77        288
    78         28
    79          6
    80          3
    81         10
    82          8
    83         16
    84         45
    85         14
    86          2
    87          2
    89          1
    90          1
    91          6
    92          2
    93          3
    94          2
    95          7
    96          4
    97          9
    98          8
    99          5
   100          4
   101          2
   102          3
   103         45
   104         66
   105        999
   106        105
   107          8
   108          1
   109          5
   110          2
   111          5
   112          3
   113          3
   115          2
   116          1
   117          2
   118          1
   119          3
   120          1
   121         31
   122         12
   123          5
   124          1
   125          3
   126         11
   127          3
   128          0
   129          3
   133          4
   134          1
   135          2
   136          1
   137          2
   138          1
   139          2
   140          1
   141          2
   144          9
   145          3
   146          2
   147          2
   159          1
   160          5
   161         26
   162         18
   163          5
   188         87
   189         12
   190          1
   202          8
   203        181
   204         25
   205          4