##TITLE=Library Entry 60369
##JCAMP-DX=Revision 4.10 
##DATA TYPE=MASS SPECTRUM
##SAMPLE DESCRIPTION=NIST Mass Spectrometry Data Center, 1994
##NAMES=HP
##CAS NAME=2-Benzyl-4,4,6-trimethyl-5,6-dihydro-1,3(4H)oxazine
##MOLFORM=C14H19NO
##CAS REGISTRY NO=26939-22-0
##MP= -300
##BP= -300
##MW= 217
##$RETENTION INDEX=0
##$CONDENSED SPECTRUM=NO
##NPOINTS= 79
##XYDATA=(XY..XY) 1 
    15         27
    18         30
    19         28
    27         36
    28         53
    29         41
    30         23
    38         22
    39        205
    40         35
    41        271
    42        181
    43        156
    44         47
    45        316
    46         11
    50         39
    51        130
    52         26
    53         30
    54         11
    55        126
    56        144
    57        607
    58        537
    59          3
    62         13
    63         79
    64         31
    65        263
    66         26
    67         23
    68          8
    69         10
    70         37
    71          3
    72         45
    75          7
    76         17
    77        200
    78         26
    79         33
    82         19
    83        195
    84        610
    85         69
    86         15
    88         23
    89        102
    90         90
    91        999
    92        444
    93         36
    98          8
    99         14
   100         19
   101        183
   102         86
   103         10
   104         11
   105         86
   106         25
   115          9
   116         18
   117         14
   118         68
   119         27
   126         11
   134         12
   136         78
   137         11
   144        190
   145         20
   167         24
   168         22
   202         20
   216         85
   217        154
   218         21