##TITLE=Library Entry 4908
##JCAMP-DX=Revision 4.10 
##DATA TYPE=MASS SPECTRUM
##SAMPLE DESCRIPTION=A.A.Kutin, Moscow, Russia
##NAMES=HP
##CAS NAME=Propanedioic acid, 2-(3-dimethylaminopropenylideno)-, dimethyl es
ter
##MOLFORM=C10H15NO4
##CAS REGISTRY NO=26932-73-0
##MP= -300
##BP= -300
##MW= 213
##$RETENTION INDEX=0
##$CONDENSED SPECTRUM=NO
##NPOINTS= 143
##XYDATA=(XY..XY) 1 
    33         49
    34          4
    36          2
    37         23
    38         62
    39        361
    40         86
    41        218
    42        999
    43        152
    44        205
    45        200
    47         20
    49         10
    50         99
    51        158
    52        144
    53        296
    54         57
    55        110
    56         40
    57         21
    58         39
    59        269
    60         17
    62         25
    63         14
    64         23
    65         46
    66         52
    67         73
    68         83
    69         66
    70         35
    71         70
    72         21
    73          2
    74          5
    76         35
    77         30
    78         55
    79         70
    80         82
    81        113
    82        916
    83         81
    84         53
    85         26
    86          6
    87          2
    88          3
    89          1
    91         14
    92         44
    94        897
    95        190
    96         98
    97         42
    98         51
    99          7
   100          5
   101          8
   102          1
   103          1
   104          2
   105          4
   107         50
   108         66
   109         33
   110         31
   111         50
   112         45
   113        341
   114         36
   115          2
   116          1
   117          0
   118          2
   119          1
   120          8
   121         19
   122         77
   123         32
   124         72
   125         13
   126          6
   127          2
   128          1
   129          1
   130          0
   131          0
   132          0
   133          1
   134          1
   135          4
   136         14
   137         13
   138         71
   139         32
   140         16
   141          2
   142          4
   143          0
   144          0
   145          0
   146          0
   147          2
   148          2
   149         14
   150          9
   152        128
   153         38
   154         70
   155         24
   156          3
   157          1
   163          0
   164          0
   166         23
   167          3
   168          4
   169         25
   170          8
   171          0
   176          0
   177          0
   179          8
   180         21
   182        449
   183         43
   184          5
   185          0
   196          1
   197          1
   198          6
   199          0
   204          0
   208          0
   209          0
   213        376
   214         35
   215          5
   216          0