##TITLE=Library Entry 19466
##JCAMP-DX=Revision 4.10 
##DATA TYPE=MASS SPECTRUM
##SAMPLE DESCRIPTION=Exported from NIST MS Search
##NAMES=HP
##CAS NAME=2-Aziridinone, 1-tert-butyl-3-(1-methylcycloheptyl)-
##MOLFORM=C14H25NO
##CAS REGISTRY NO=26944-18-3
##MP= -300
##BP= -300
##MW= 223
##$RETENTION INDEX=0
##$CONDENSED SPECTRUM=NO
##NPOINTS= 74
##XYDATA=(XY..XY) 1 
    38         20
    39        190
    40         50
    41        550
    42        120
    43        200
    44         40
    45         10
    46         20
    50         10
    51         10
    52         30
    53         70
    54         30
    55        999
    56        120
    57        420
    58         90
    59         30
    64         10
    65         10
    66         20
    67         30
    68        100
    69         50
    70         10
    71        120
    72         30
    73         10
    74         10
    75         10
    77         30
    78         10
    79         30
    80         30
    81        110
    82         70
    83         80
    84         70
    85         50
    86         10
    92         10
    93         10
    94         20
    95         40
    96         50
    97        530
    98         50
    99        100
   100         10
   101         10
   102         10
   111        230
   112         40
   113         20
   114         10
   115         10
   123          6
   124          6
   125         15
   126         80
   127          7
   138          9
   139         10
   140         37
   141         20
   142          4
   166          3
   180         19
   181          7
   182          5
   195         18
   196          5
   223          2