##TITLE=Library Entry 48147
##JCAMP-DX=Revision 4.10 
##DATA TYPE=MASS SPECTRUM
##SAMPLE DESCRIPTION=R.G.ZALSKIE U.S. DEPT. OF AGRICULTURE, FARGO, N. DAKOTA
, US
##NAMES=HP
##CAS NAME=2,7:3,6-Dimethanonaphth[2,3-b]oxiren-8-ol, 3,4,5,6,9,9-hexachloro
-1a,2,2a,3,6,6a,7,7a-octahydro-, stereoisomer
##MOLFORM=C12H8Cl6O2
##CAS REGISTRY NO=26946-01-0
##MP= -300
##BP= -300
##MW= 394
##$RETENTION INDEX=0
##$CONDENSED SPECTRUM=NO
##NPOINTS= 239
##XYDATA=(XY..XY) 1 
    50        110
    51        205
    52        100
    53        115
    55        200
    57         50
    60         15
    61         30
    62         50
    63         80
    65        100
    66         80
    67        240
    68         75
    69        100
    70         10
    71        125
    72         20
    73         95
    74         90
    75         70
    76         10
    77        300
    78        999
    79        630
    80         30
    81        120
    82         15
    83         30
    84         35
    85         65
    86         50
    87         50
    89         25
    91         35
    93         10
    94         80
    95        630
    96        350
    97        240
    98         80
    99         60
   100         10
   101         20
   104         10
   105         50
   106         40
   107         80
   108         60
   109         80
   110         20
   111         40
   113         60
   115         30
   117         30
   118         10
   119         70
   120         25
   121         60
   122         20
   123         19
   124         25
   125         20
   126         50
   127         10
   129         20
   130         45
   131         50
   132         20
   133         50
   134         20
   135         35
   136         20
   137         10
   141         50
   143         95
   145         35
   147         30
   149         20
   155         10
   157         20
   159         25
   160         60
   161         20
   162         45
   163         10
   165         50
   167         55
   169         50
   170         45
   171         20
   172         25
   173         25
   181         30
   182         10
   183         60
   185         20
   189         15
   191         80
   193         85
   194         20
   195         35
   196        135
   197         40
   198         60
   199         10
   201         45
   203         80
   204         35
   205         60
   206         40
   207         60
   208         10
   209         30
   216         20
   217         70
   218         15
   219         70
   220         10
   221         20
   223         30
   225         35
   227         60
   228         10
   229         50
   230         60
   231         80
   232         60
   233         65
   234         20
   235        260
   236         30
   237        430
   238         50
   239        280
   240         40
   241        120
   242         10
   243        100
   244         10
   245         60
   247         10
   251         30
   252         25
   253         45
   254         30
   255         25
   256         10
   257         10
   259         80
   260         10
   261        160
   262         20
   263        150
   264         25
   265         90
   266         10
   267         60
   268         10
   269         45
   270        170
   271         15
   272        390
   273         10
   274        250
   275         10
   276        115
   277        110
   278         30
   279        150
   280         10
   281        110
   282         10
   283         35
   285         11
   286          1
   287         17
   289         15
   291          6
   293          8
   294          4
   295         21
   296          4
   297         20
   298          2
   299          7
   300          1
   301          2
   302          2
   303          6
   304          2
   305         11
   306          2
   307         11
   308          2
   309          6
   311         32
   312          6
   313         53
   314         10
   315         41
   316          6
   317         20
   318          1
   319          8
   323         25
   324          1
   325         31
   327         13
   328          1
   329          5
   330          1
   331         26
   332          1
   333         36
   334          1
   335         22
   336          1
   337          9
   339          2
   341          2
   343          2
   345          1
   347         10
   348          1
   349         17
   350          1
   351         13
   352          1
   353          5
   355          1
   359         12
   360          1
   361         20
   362          1
   363         12
   364          1
   365          4
   367          1