##TITLE=Library Entry 46536
##JCAMP-DX=Revision 4.10 
##DATA TYPE=MASS SPECTRUM
##SAMPLE DESCRIPTION=ASES Database, Dalian Institute, P.R. China
##NAMES=HP
##CAS NAME=3-Ethyl-benzotriazin-4-one
##MOLFORM=C9H9N3O
##CAS REGISTRY NO=26944-60-5
##MP= -300
##BP= -300
##MW= 175
##$RETENTION INDEX=0
##$CONDENSED SPECTRUM=NO
##NPOINTS= 23
##XYDATA=(XY..XY) 1 
    42        425
    50        827
    51        441
    63        332
    64        341
    65        178
    74        257
    75        278
    76        679
    77        999
    78        260
    90        198
    91        657
    92        358
   104        328
   105        410
   106        200
   118        357
   119        397
   132        490
   146        250
   175        389
   176        100