##TITLE=Library Entry 58300
##JCAMP-DX=Revision 4.10 
##DATA TYPE=MASS SPECTRUM
##SAMPLE DESCRIPTION=V.G.Zaikin, Petrochem. Synth. Inst., Moscow
##NAMES=HP
##CAS NAME=Isobutyric acid, tridecyl ester
##MOLFORM=C17H34O2
##CAS REGISTRY NO=269404-22-0
##MP= -300
##BP= -300
##MW= 270
##$RETENTION INDEX=0
##$CONDENSED SPECTRUM=NO
##NPOINTS= 77
##XYDATA=(XY..XY) 1 
    26         16
    27         88
    28         19
    29        136
    30          5
    31          5
    39         95
    40         34
    41        432
    42        155
    43        991
    44         56
    45         13
    50          9
    51         11
    52         11
    53         29
    54         72
    55        416
    56        289
    57        475
    58         29
    59          8
    64          6
    65          9
    66          7
    67         71
    68        106
    69        321
    70        271
    71        687
    72         39
    73         51
    77         11
    79         11
    80          8
    81         31
    82        128
    83        311
    84        167
    85        132
    86         18
    87         16
    88         75
    89        999
    90         48
    95         29
    96         52
    97        235
    98        109
    99         26
   101          9
   105          9
   109          9
   110         23
   111        112
   112         69
   113         11
   125         53
   126         39
   127         11
   129          9
   139         11
   140         21
   141          6
   144          8
   152          6
   153         12
   154         39
   155          8
   181          6
   182         88
   183         17
   227         19
   228          3
   270          9
   271          2