##TITLE=Library Entry 59858
##JCAMP-DX=Revision 4.10 
##DATA TYPE=MASS SPECTRUM
##SAMPLE DESCRIPTION=Div. of Experiment Therapeutics WRAIR, WRAMC, Washingto
n DC 20307
##NAMES=HP
##CAS NAME=4-[Benzylamino]benzo-1,2,3-triazine
##MOLFORM=C14H12N4
##CAS REGISTRY NO=26944-65-0
##MP= -300
##BP= -300
##MW= 236
##$RETENTION INDEX=0
##$CONDENSED SPECTRUM=NO
##NPOINTS= 87
##XYDATA=(XY..XY) 1 
    41         38
    42          1
    43          3
    49          3
    50         81
    51        123
    52         42
    53         11
    54          1
    55          2
    58          0
    61          4
    62         22
    63         83
    64         41
    65        270
    66         16
    67          0
    73          1
    74         16
    75         41
    76         85
    77        123
    78         69
    79         49
    80          5
    83          0
    84          0
    86          1
    87          2
    88          4
    89         45
    90         68
    91        999
    92         76
    93          2
    96          1
    97          1
    99          1
   100          0
   101          0
   102         92
   103         66
   104        143
   105         86
   106         47
   107          3
   115          2
   116          3
   117          8
   118          1
   121          5
   127          1
   128          1
   129         21
   130         13
   131         51
   132          5
   139          0
   140          1
   151          4
   152         12
   153          5
   154          1
   164          2
   165         14
   166          5
   167          3
   168          2
   177          1
   178         20
   179        104
   180        151
   181         27
   182          3
   190         10
   191          2
   192          3
   193          1
   205          5
   206         11
   207        148
   208        101
   209         15
   235          8
   236         18
   237          2