##TITLE=Library Entry 100756
##JCAMP-DX=Revision 4.10 
##DATA TYPE=MASS SPECTRUM
##SAMPLE DESCRIPTION=Chemical Concepts
##NAMES=HP
##CAS NAME=1,3-Dithiacyclohexane, 2-hexyl-
##MOLFORM=C10H20S2
##CAS REGISTRY NO=26958-42-9
##MP= -300
##BP= -300
##MW= 204
##$RETENTION INDEX=0
##$CONDENSED SPECTRUM=NO
##NPOINTS= 116
##XYDATA=(XY..XY) 1 
    26          1
    27         34
    28          2
    29         37
    30          0
    35          1
    38          1
    39         33
    40          3
    41        118
    42         11
    43         29
    44          0
    45         68
    46         25
    47         32
    48          1
    49          1
    51          1
    52          0
    53          9
    54          6
    55         74
    56          4
    57          4
    58          8
    59         25
    60         54
    61         23
    62          3
    63          1
    64          5
    65          4
    66          2
    67         24
    68          5
    69         24
    70          2
    71         11
    72          6
    73         67
    74         71
    75         35
    76          4
    77          5
    78          4
    79          5
    80          1
    81         16
    82          1
    83          3
    84          1
    85         13
    86          2
    87         53
    88          4
    89          4
    90          0
    91         15
    92          2
    93          3
    95         12
    96         18
    97         25
    98          2
    99          4
   100          1
   101         17
   102          1
   103          2
   104          0
   105         21
   106         51
   107         27
   108         13
   109          3
   110          1
   111          0
   113          1
   115          2
   117          0
   119        999
   120         59
   121         89
   122          4
   123          2
   127          0
   128          0
   129         99
   130         18
   131          6
   132          1
   133         24
   134         16
   135          4
   136          1
   143          1
   145          1
   147          7
   148          1
   149          1
   157         11
   158          1
   159          0
   161          0
   171          2
   175          0
   183          0
   189          0
   190          2
   203          3
   204        333
   205         41
   206         31
   207          3
   208          0