##TITLE=Library Entry 13268
##JCAMP-DX=Revision 4.10 
##DATA TYPE=MASS SPECTRUM
##SAMPLE DESCRIPTION=A.A.Kutin, Moscow, Russia
##NAMES=HP
##CAS NAME=Acetamide, N-(4-bromophenyl)-N-(2,4-dioxo-3-phenyl-5-thiazolidiny
l)-
##MOLFORM=C17H13BrN2O3S
##CAS REGISTRY NO=26959-53-5
##MP= -300
##BP= -300
##MW= 404
##$RETENTION INDEX=0
##$CONDENSED SPECTRUM=NO
##NPOINTS= 156
##XYDATA=(XY..XY) 1 
    33          3
    34         11
    36          2
    37          8
    38         22
    39         67
    40        149
    41         32
    43        999
    44         59
    45        148
    47          4
    48          2
    50        106
    51         75
    52         24
    53          6
    54          6
    56         20
    57         14
    58          4
    60         14
    61          6
    62         13
    63         79
    64        110
    65         60
    66         11
    67          2
    69         19
    70          7
    71          6
    73         10
    74         31
    75        146
    76        181
    77        126
    78         14
    79          7
    80          6
    81          7
    82          9
    83          7
    84          4
    86          1
    88          4
    89          4
    90         31
    91        161
    92         48
    93         93
    94          9
    96          1
    97          5
    98          3
   100          2
   102          7
   103         52
   104         35
   105         11
   106          0
   107          4
   108         17
   109         18
   110          6
   111          6
   115          2
   117          3
   118          9
   119         96
   120         24
   121         18
   122          0
   123          2
   124          1
   125          5
   127          1
   128          0
   129          3
   131          0
   132         30
   133         18
   135         56
   136         13
   137          1
   143          7
   145          8
   152          4
   154          6
   155        132
   156         19
   157        113
   158         12
   162          1
   164          5
   167          3
   168          3
   171         47
   172          8
   173         31
   174          2
   176          2
   182        236
   183         31
   184        208
   185         24
   186          1
   187          1
   188         11
   190         17
   192          4
   193          3
   195          1
   196          3
   197          3
   198          4
   199          1
   205          1
   207          1
   211          1
   213          8
   214         20
   215         25
   216         22
   217         18
   219          1
   223          1
   247          2
   257          2
   259          1
   260          1
   261          1
   274         11
   275          5
   276         10
   282          1
   283          2
   285         65
   287         66
   288         10
   290          1
   301          5
   302         12
   303          5
   304         15
   318          1
   332          1
   347          2
   361         11
   362         25
   363         10
   364         25
   365          5
   375          1
   404          6
   406          6