##TITLE=Library Entry 34177
##JCAMP-DX=Revision 4.10 
##DATA TYPE=MASS SPECTRUM
##SAMPLE DESCRIPTION=Japan AIST/NIMC Database- Spectrum MS-NW-7332
##NAMES=HP
##CAS NAME=8-Bromo-1-octene
##MOLFORM=C8H15Br
##CAS REGISTRY NO=2695-48-9
##MP= -300
##BP= -300
##MW= 190
##$RETENTION INDEX=1121
##$CONDENSED SPECTRUM=NO
##NPOINTS= 81
##XYDATA=(XY..XY) 1 
    15          3
    26         10
    27        153
    28         28
    29        110
    30          2
    37          2
    38         10
    39        223
    40         39
    41        716
    42        145
    43        101
    44          4
    45          1
    50          9
    51         18
    52         10
    53         76
    54        115
    55        665
    56        144
    57         23
    58          1
    62          2
    63          4
    65         11
    66          7
    67        157
    68        143
    69        999
    70         72
    71          6
    72          1
    77          6
    78          2
    79          9
    80          5
    81         69
    82         72
    83        181
    84         21
    85          2
    91          2
    93          9
    95         13
    96          1
    97          8
   105          1
   106          3
   107         55
   108          5
   109         55
   110          5
   111         29
   112          3
   119          4
   120         18
   121         13
   122         18
   123         10
   125          2
   133          2
   134         18
   135         41
   136         18
   137         39
   138          2
   147          1
   148        400
   149         30
   150        387
   151         29
   152          1
   161          5
   162         26
   163          6
   164         24
   165          2
   190          3
   192          4