##TITLE=Library Entry 82993
##JCAMP-DX=Revision 4.10 
##DATA TYPE=MASS SPECTRUM
##SAMPLE DESCRIPTION=Japan AIST/NIMC Database- Spectrum MS-IW-1274
##NAMES=HP
##CAS NAME=Benzenamine, 4-propyl-
##MOLFORM=C9H13N
##CAS REGISTRY NO=2696-84-6
##MP= -300
##BP= -300
##MW= 135
##$RETENTION INDEX=1313
##$CONDENSED SPECTRUM=NO
##NPOINTS= 58
##XYDATA=(XY..XY) 1 
    27          6
    28          9
    29          3
    30          4
    38          2
    39         14
    40          2
    41          7
    42          3
    43          2
    46          1
    50          4
    51         13
    52         11
    53         10
    54          6
    58          7
    59          1
    62          2
    63          8
    64          3
    65         21
    66          9
    67          4
    74          1
    75          2
    76          2
    77         59
    78         23
    79         39
    80          8
    89          7
    90          3
    91         13
    92         13
    93         12
    94          4
   102          1
   103          3
   104         11
   105          6
   106        999
   107         86
   108          3
   115          5
   116          2
   117          9
   118         10
   119         11
   120          4
   130          4
   131          2
   132          6
   133          2
   134          7
   135        266
   136         27
   137          1