##TITLE=Library Entry 31047
##JCAMP-DX=Revision 4.10 
##DATA TYPE=MASS SPECTRUM
##SAMPLE DESCRIPTION=A.A.Kutin, Moscow, Russia
##NAMES=HP
##CAS NAME=2-(1-Methyl-2,5-dioxoimidazolidin-4-yl)acetic acid
##MOLFORM=C6H8N2O4
##CAS REGISTRY NO=26972-47-4
##MP= -300
##BP= -300
##MW= 172
##$RETENTION INDEX=0
##$CONDENSED SPECTRUM=NO
##NPOINTS= 126
##XYDATA=(XY..XY) 1 
    34          3
    35          2
    36          8
    37          5
    38         20
    39         42
    40         13
    41        344
    42        747
    43        312
    44        199
    45        325
    46         23
    47          3
    49          5
    50          9
    51          9
    52          9
    53         30
    54         26
    55        103
    56        168
    57         51
    58        639
    60        999
    61         31
    62          5
    63          4
    64          3
    65          4
    66          4
    67          8
    68         43
    69        115
    70        100
    71         26
    72         25
    73          4
    74          2
    75          1
    76          3
    77          6
    78          3
    79          2
    80          2
    81          2
    82          5
    83          8
    84          9
    85         24
    86         16
    87         98
    88         33
    89          2
    90          1
    91          4
    92          1
    93          1
    94          1
    95          1
    96         26
    97          8
    98         12
    99          9
   100         12
   101          1
   102          0
   103          0
   104          1
   105          3
   106          1
   107          0
   108          0
   109          2
   110          2
   111          2
   112          5
   113        208
   114         17
   115         10
   116          2
   117          2
   118          1
   119          0
   120          1
   121          1
   122          0
   123          0
   124          1
   125          5
   126        763
   127        172
   128         23
   129          3
   130          0
   131          0
   132          0
   133          0
   134          0
   135          0
   136          0
   137          0
   139          0
   140          0
   142          2
   143          1
   144          0
   147          0
   148          1
   149          1
   150          7
   151          1
   152          0
   153          3
   154         58
   155         45
   156          3
   157          0
   160          0
   165          0
   170          1
   171          1
   172        148
   173         10
   174          1
   175          0