##TITLE=Library Entry 99017
##JCAMP-DX=Revision 4.10 
##DATA TYPE=MASS SPECTRUM
##SAMPLE DESCRIPTION=Chemical Concepts
##NAMES=HP
##CAS NAME=1,3-Dithiolane-2-propanol, 2-methyl-
##MOLFORM=C7H14OS2
##CAS REGISTRY NO=26981-55-5
##MP= -300
##BP= -300
##MW= 178
##$RETENTION INDEX=0
##$CONDENSED SPECTRUM=NO
##NPOINTS= 103
##XYDATA=(XY..XY) 1 
    26          8
    27         68
    28          0
    29         42
    30          2
    31         52
    33          1
    34          4
    35         11
    37          1
    38          4
    39         59
    40          8
    41         91
    42         16
    43         95
    44          9
    45         86
    46         14
    47         34
    48          2
    49          2
    50          6
    51         14
    52          3
    53         40
    54          6
    55         58
    56         11
    57         10
    58         42
    59        347
    60         27
    61        127
    62          5
    63          8
    64         10
    65         14
    66          4
    67         30
    68          7
    69          7
    70          1
    71         27
    72          6
    73         19
    74        157
    75         29
    76         10
    77         19
    78          5
    79          3
    81          2
    83         10
    84          6
    85        526
    86         28
    87         78
    88          8
    89          7
    90          3
    91         11
    92          6
    93          3
    94          3
    95          1
    97          4
    98          2
    99         30
   100         10
   101         18
   102          2
   103         14
   104          8
   105         10
   106          9
   107          1
   113          3
   115          2
   117         18
   118          5
   119        999
   120         51
   121         76
   122          5
   123          2
   129          3
   131         21
   132          6
   133          3
   134          3
   145         45
   146          4
   147         16
   148          1
   149          1
   163         26
   164          2
   165          3
   178         51
   179          5
   180          7
   181          1