##TITLE=Library Entry 14718
##JCAMP-DX=Revision 4.10 
##DATA TYPE=MASS SPECTRUM
##SAMPLE DESCRIPTION=Exported from NIST MS Search
##NAMES=HP
##CAS NAME=Pregnane-3,7,20-trione, (5.alpha.)-
##MOLFORM=C21H30O3
##CAS REGISTRY NO=26991-60-6
##MP= -300
##BP= -300
##MW= 330
##$RETENTION INDEX=0
##$CONDENSED SPECTRUM=NO
##NPOINTS= 122
##XYDATA=(XY..XY) 1 
    41        492
    42         38
    43        999
    44         43
    45         30
    53        143
    55        517
    56         23
    57         30
    65         51
    66         23
    67        305
    68        146
    69        202
    77        151
    78         35
    79        300
    80         51
    81        353
    82         66
    83        143
    84        407
    85        112
    91        256
    92         46
    93        294
    94         87
    95        307
    96         38
    97         61
   105        171
   106         53
   107        251
   108         92
   109        315
   110         69
   111         84
   117         66
   118         25
   119        143
   120        100
   121        215
   122         41
   123         94
   124         46
   125         35
   131         71
   132         61
   133         97
   134         46
   135        282
   136        102
   137         97
   141         23
   143         43
   144         43
   145        141
   146         59
   147        100
   148         51
   149        135
   150        148
   151         33
   152         53
   157         25
   159        192
   160         41
   161         89
   162         66
   163         61
   177         48
   178         20
   179         61
   192        733
   193        105
   198         20
   201         15
   202         33
   203         15
   205         82
   217         48
   227         82
   228         15
   229         30
   243         23
   244         17
   245        507
   246        130
   247        100
   254         17
   255         53
   256         12
   257         17
   258         20
   259         25
   260        469
   261         87
   268         20
   269        228
   270        135
   271         43
   272        112
   273         82
   283        107
   284         51
   285         28
   286        141
   287        161
   288         35
   294         46
   295         41
   296         20
   297         46
   298         30
   312        635
   313        148
   314         20
   315         82
   316         23
   330        810
   331        200
   332         23