##TITLE=Library Entry 53009
##JCAMP-DX=Revision 4.10 
##DATA TYPE=MASS SPECTRUM
##SAMPLE DESCRIPTION=Exported from NIST MS Search
##NAMES=HP
##CAS NAME=Sulfuryl fluoride
##MOLFORM=F2O2S
##CAS REGISTRY NO=2699-79-8
##MP= -300
##BP= -300
##MW= 102
##$RETENTION INDEX=0
##$CONDENSED SPECTRUM=NO
##NPOINTS= 26
##XYDATA=(XY..XY) 1 
    16         39
    19         14
    32        126
    34          3
    48         79
    49          1
    50          3
    51         28
    53          1
    64         76
    65          1
    66          3
    67        290
    68          3
    69         14
    70         20
    72          1
    83        999
    84          8
    85         50
    86         18
    87          3
    88          3
   102        742
   103          5
   104         38