##TITLE=Library Entry 97974
##JCAMP-DX=Revision 4.10 
##DATA TYPE=MASS SPECTRUM
##SAMPLE DESCRIPTION=Exported from NIST MS Search
##NAMES=HP
##CAS NAME=2H-Cyclopenta[d]pyridazine
##MOLFORM=C7H6N2
##CAS REGISTRY NO=270-64-4
##MP= -300
##BP= -300
##MW= 118
##$RETENTION INDEX=0
##$CONDENSED SPECTRUM=NO
##NPOINTS= 20
##XYDATA=(XY..XY) 1 
    37         30
    38        110
    39         80
    40         10
    50         20
    51         20
    52         30
    59         11
    61         30
    62         60
    63        170
    64        150
    65         30
    89         60
    90        130
    91        190
    92         20
   117         90
   118        999
   119         80