##TITLE=Library Entry 39773
##JCAMP-DX=Revision 4.10 
##DATA TYPE=MASS SPECTRUM
##SAMPLE DESCRIPTION=NIST Mass Spectrometry Data Center
##NAMES=HP
##CAS NAME=N,N-Diisopropylformamide
##MOLFORM=C7H15NO
##CAS REGISTRY NO=2700-30-3
##MP= -300
##BP= -300
##MW= 129
##$RETENTION INDEX=0
##$CONDENSED SPECTRUM=NO
##NPOINTS= 47
##XYDATA=(XY..XY) 1 
    14          2
    15         50
    16          1
    17          1
    18         70
    26         10
    27        140
    28         98
    29         56
    30         34
    31          3
    37          2
    38          8
    39         84
    40         18
    41        192
    42        169
    43        162
    44        554
    45         14
    46         20
    51          1
    52          2
    54          8
    55          2
    56         12
    57          7
    58        171
    59         12
    68          5
    69          2
    70         27
    72        999
    73         38
    74          2
    84         14
    86        191
    87         14
    88          5
    98         11
   100         18
   101          1
   114        191
   115         12
   129        262
   130         24
   131          1