##TITLE=Library Entry 114269
##JCAMP-DX=Revision 4.10 
##DATA TYPE=MASS SPECTRUM
##SAMPLE DESCRIPTION=CONTINENTAL OIL CO., PONCA CITY, OKLA, USA
##NAMES=HP
##CAS NAME=Naphthalene, 3-benzyl-1,2-dihydro-
##MOLFORM=C17H16
##CAS REGISTRY NO=27019-11-0
##MP= -300
##BP= -300
##MW= 220
##$RETENTION INDEX=0
##$CONDENSED SPECTRUM=NO
##NPOINTS= 133
##XYDATA=(XY..XY) 1 
    12          0
    13          1
    14          3
    15          4
    16          0
    26          5
    27         44
    28          5
    29          8
    30          0
    37          1
    38         10
    39         99
    40         15
    41         23
    42          2
    43          4
    44          0
    50         30
    51         77
    52         16
    53          6
    55          2
    56          1
    57          3
    61          2
    62         12
    63         46
    64         11
    65         68
    66          4
    69          2
    71          2
    73          4
    74         10
    75         16
    76         16
    77         39
    78         20
    79          6
    81          4
    82          3
    86          4
    87          7
    88          8
    89         45
    90         10
    91        277
    92         53
    93          4
    94          5
    95         10
    96         14
    97          2
    98          6
    99          5
   100          5
   101         33
   102         37
   103         23
   104         18
   105         19
   106          4
   107          9
   108         15
   109         10
   110         29
   111          3
   112          1
   113          7
   114          8
   115        132
   116         72
   117         21
   118          2
   119          1
   122          1
   123          1
   125          6
   126         21
   127        106
   128        343
   129        999
   130        106
   131          7
   133          3
   134          1
   135          1
   137          2
   138          3
   139         26
   140         12
   141        106
   142        122
   143         36
   144          4
   145          1
   147          2
   149          1
   150          4
   151          7
   152         13
   153          4
   154          1
   155          1
   156          1
   161          1
   162          1
   163          9
   164          4
   165         22
   166          5
   167          2
   174          1
   175          2
   176          8
   177         14
   178         23
   179         11
   180          2
   186          2
   187          5
   188          5
   189         23
   190         11
   191         27
   192         24
   193          9
   217         31
   218         43
   220        418
   221         73
   222          6