##TITLE=Library Entry 63953
##JCAMP-DX=Revision 4.10 
##DATA TYPE=MASS SPECTRUM
##SAMPLE DESCRIPTION=CONTINENTAL OIL CO., PONCA CITY, OKLA, USA
##NAMES=HP
##CAS NAME=1(2H)-Naphthalenone, 3,4-dihydro-2-(phenylmethyl)-
##MOLFORM=C17H16O
##CAS REGISTRY NO=27019-08-5
##MP= -300
##BP= -300
##MW= 236
##$RETENTION INDEX=0
##$CONDENSED SPECTRUM=NO
##NPOINTS= 140
##XYDATA=(XY..XY) 1 
    14          3
    15          5
    16          0
    17          2
    18          8
    26          1
    27         13
    28        128
    29          1
    37          0
    38          5
    39         61
    40          8
    41         11
    43          0
    44          0
    45          0
    50         18
    51         51
    52         11
    53          7
    55          4
    61          0
    62          9
    63         42
    64         15
    65         65
    66          3
    74          5
    75          9
    76         13
    77         50
    78         22
    79          7
    82          1
    86          1
    87          3
    88          6
    89         76
    90        158
    91        999
    92         86
    93          4
    94          3
    95          2
    98          3
    99          2
   100          1
   101         11
   102         30
   103         59
   104         40
   105         30
   106          4
   107          4
   108          2
   109          1
   110          1
   111          1
   113          7
   114         10
   115        179
   116         97
   117        201
   118        214
   119         32
   120          6
   121          0
   125          1
   126          5
   127         55
   128         43
   129         37
   130         33
   131         45
   132         26
   133         16
   134          1
   139          5
   140          2
   141          8
   142          4
   143          4
   144         35
   145        476
   146         53
   147          3
   150          1
   151          3
   152          7
   153          2
   156          4
   157          9
   158         50
   159         26
   160          2
   163          2
   164          1
   165         13
   166          3
   167          1
   176          3
   177          2
   178         15
   179         12
   180          2
   181          1
   189          7
   190          3
   191          9
   192          4
   193          3
   194          1
   195          1
   200          1
   201          2
   202         16
   203         14
   204          6
   205          6
   206          2
   207         11
   208         28
   209          4
   213          1
   215         12
   216          9
   217         25
   218         17
   219         15
   220          4
   221         10
   222          2
   231          3
   232          1
   233         18
   234         13
   235         21
   236        586
   237        110