##TITLE=Library Entry 78972
##JCAMP-DX=Revision 4.10 
##DATA TYPE=MASS SPECTRUM
##SAMPLE DESCRIPTION=A.A.Kutin, Moscow, Russia
##NAMES=HP
##CAS NAME=Benzoic acid, 3-pyridyl ester
##MOLFORM=C12H9NO2
##CAS REGISTRY NO=27039-14-1
##MP= -300
##BP= -300
##MW= 199
##$RETENTION INDEX=0
##$CONDENSED SPECTRUM=NO
##NPOINTS= 72
##XYDATA=(XY..XY) 1 
    33          8
    35         18
    36         75
    37        167
    38        305
    39        540
    40        232
    41        182
    42         70
    43         11
    47         16
    49         89
    50        386
    51        531
    52         79
    53         55
    54         15
    55         57
    57          5
    58          0
    60          5
    61         15
    62         22
    63         28
    64         23
    65         51
    66        142
    67        256
    68        159
    69         10
    70          2
    72          4
    73         32
    74        107
    75         65
    77        961
    78         76
    79          6
    80          1
    81          1
    82          0
    83          1
    84          1
    85          0
    86          1
    87          0
    89          1
    90          1
    91          3
    92          3
    95        737
    96         27
    98          0
   100          0
   102          0
   103          6
   105        999
   106         59
   107          4
   108          0
   109          0
   111          0
   115          2
   119          0
   122        326
   123         21
   124          2
   135          0
   149          0
   171          0
   199          9
   200          1