##TITLE=Library Entry 51104
##JCAMP-DX=Revision 4.10 
##DATA TYPE=MASS SPECTRUM
##SAMPLE DESCRIPTION=Japan AIST/NIMC Database- Spectrum MS-IW-7916
##NAMES=HP
##CAS NAME=N-(2-Cyano-1-methylvinyl)acetamide
##MOLFORM=C6H8N2O
##CAS REGISTRY NO=27036-87-9
##MP= -300
##BP= -300
##MW= 124
##$RETENTION INDEX=0
##$CONDENSED SPECTRUM=NO
##NPOINTS= 44
##XYDATA=(XY..XY) 1 
    14          2
    15         28
    17          2
    18         15
    26          5
    27          9
    28         24
    29          2
    30          1
    37          6
    38         10
    39         26
    40         18
    41         84
    42        156
    43        710
    44         20
    45          1
    50          1
    51          5
    52         12
    53          5
    54         15
    55          5
    56          1
    63          2
    64          8
    65          5
    66         22
    67        126
    68          7
    77          1
    79          1
    81         10
    82        999
    83         64
    84          1
    95          1
    96          4
    97          1
   109          4
   124        365
   125         45
   126          3