##TITLE=Library Entry 70819
##JCAMP-DX=Revision 4.10 
##DATA TYPE=MASS SPECTRUM
##SAMPLE DESCRIPTION=A.Pleshkova, Nesmeyanov Inst.Org.Elem.Cpds, Moscow
##NAMES=HP
##CAS NAME=1-Methoxy-2,2,3,3-tetramethylaziridine
##MOLFORM=C7H15NO
##CAS REGISTRY NO=27033-63-2
##MP= -300
##BP= -300
##MW= 129
##$RETENTION INDEX=0
##$CONDENSED SPECTRUM=NO
##NPOINTS= 34
##XYDATA=(XY..XY) 1 
    29        120
    30         40
    31          9
    39        230
    40         50
    41        500
    42        920
    43         70
    44          7
    53         20
    54         20
    55         90
    56        100
    57        100
    58         20
    67         20
    68         30
    69        130
    70         20
    72         40
    73          8
    82         40
    83        200
    84         50
    85          7
    87         70
    88          6
    98        999
    99         80
   100         19
   114         40
   115          6
   129          5
   130          1