##TITLE=Library Entry 9580
##JCAMP-DX=Revision 4.10 
##DATA TYPE=MASS SPECTRUM
##SAMPLE DESCRIPTION=CARL DJERASSI DEPT OF CHEM STANFORD UNIV STANFORD CALIF
 94305
##NAMES=HP
##CAS NAME=5-Nonen-2-one
##MOLFORM=C9H16O
##CAS REGISTRY NO=27039-84-5
##MP= -300
##BP= -300
##MW= 140
##$RETENTION INDEX=1436
##$CONDENSED SPECTRUM=NO
##NPOINTS= 32
##XYDATA=(XY..XY) 1 
    39        120
    40         20
    41        210
    42         10
    43        999
    44         20
    51         10
    53         40
    54         50
    55        280
    56         20
    58         50
    65         10
    67        270
    68         10
    69         40
    71        100
    72         30
    73         20
    77         10
    79         10
    81         40
    82        310
    83         40
    84         20
    85         30
    97        120
    98         10
   111         40
   122         10
   125         20
   140         50