##TITLE=Library Entry 67884
##JCAMP-DX=Revision 4.10 
##DATA TYPE=MASS SPECTRUM
##SAMPLE DESCRIPTION=Japan AIST/NIMC Database- Spectrum MS-IW- 996
##NAMES=HP
##CAS NAME=Cyclohexanepropanoic acid, 2-propenyl ester
##MOLFORM=C12H20O2
##CAS REGISTRY NO=2705-87-5
##MP= -300
##BP= -300
##MW= 196
##$RETENTION INDEX=1435
##$CONDENSED SPECTRUM=NO
##NPOINTS= 132
##XYDATA=(XY..XY) 1 
    15          7
    17          1
    18          3
    26          6
    27         73
    28         19
    29        103
    30          5
    31          9
    32          1
    36          7
    37          1
    38          6
    39        151
    40         25
    41        714
    42         56
    43        249
    44         10
    45         15
    46          1
    47          1
    50          2
    51          8
    52          5
    53         50
    54        192
    55        916
    56        156
    57        143
    58        147
    59         17
    60         69
    61         17
    62          1
    63          1
    65         13
    66         11
    67        311
    68         69
    69        290
    70         46
    71         86
    72         20
    73         71
    74         44
    75          9
    76          2
    77         20
    78          7
    79        130
    80         27
    81        199
    82        174
    83        195
    84         15
    85         71
    86          6
    87         45
    88         13
    89          3
    91         81
    92         11
    93        288
    94        120
    95        999
    96        335
    97        742
    98         57
    99         68
   100        790
   101        245
   102         19
   103          3
   104          1
   105          6
   106          1
   107         15
   108          9
   109        227
   110         45
   111         24
   112          4
   113        709
   114         58
   115         10
   116          2
   117          5
   118          2
   119        354
   120         61
   121        802
   122         83
   123          9
   124          2
   125          3
   126          3
   127         13
   128          2
   129          6
   130          1
   131          2
   133          1
   134          1
   135          8
   136         27
   137        330
   138         91
   139        351
   140         36
   141          8
   142          1
   143          3
   149          9
   150          3
   151          3
   152          1
   153          4
   154         12
   155         40
   156          6
   157         10
   158          1
   167         84
   168          9
   169          2
   178          1
   181          4
   194          1
   195          3
   196         20
   197          3