##TITLE=Library Entry 28549
##JCAMP-DX=Revision 4.10 
##DATA TYPE=MASS SPECTRUM
##SAMPLE DESCRIPTION=G. ECKHARDT, INST. ORG. CHEM. BIOCHEM., UNIV. BONN, W.
 GERMA
##NAMES=HP
##CAS NAME=Ethanamine, N,N-dimethyl-2-(phenylmethoxy)-
##MOLFORM=C11H17NO
##CAS REGISTRY NO=27058-12-4
##MP= -300
##BP= -300
##MW= 179
##$RETENTION INDEX=0
##$CONDENSED SPECTRUM=NO
##NPOINTS= 24
##XYDATA=(XY..XY) 1 
    30         23
    39         14
    41          7
    42         52
    43         14
    44         15
    45         51
    51         12
    56         11
    57         15
    58        999
    59         39
    63          6
    65         29
    71          5
    72         13
    73        161
    74          8
    77         11
    89          5
    91         87
    92         10
   179         14
   180          2