##TITLE=Library Entry 61840
##JCAMP-DX=Revision 4.10 
##DATA TYPE=MASS SPECTRUM
##SAMPLE DESCRIPTION=N.Klyuev, Institute of Ecology & Evolution, RAS, Moscow
##NAMES=HP
##CAS NAME=6-(3,5-Dimethyl-1H-pyrazol-1-yl)-N-benzyl-1,2,4,5-tetrazine-3-ami
ne
##MOLFORM=C14H15N7
##CAS REGISTRY NO=270588-59-5
##MP= -300
##BP= -300
##MW= 281
##$RETENTION INDEX=0
##$CONDENSED SPECTRUM=NO
##NPOINTS= 83
##XYDATA=(XY..XY) 1 
    40         50
    41        138
    42        101
    43         21
    50         14
    51         77
    52         52
    53        315
    54        127
    55         61
    56          8
    62          5
    63         39
    64         19
    65        356
    66         72
    67        159
    68         22
    69          8
    76         12
    77         86
    78         36
    79         81
    80        138
    81         57
    82          7
    83         11
    89         48
    90         27
    91        999
    92        318
    93         34
    94         31
    95         68
    96         36
    97          9
   102          4
   103         16
   104         60
   105         26
   106        187
   107         23
   108          3
   109          2
   110          1
   111          1
   115          1
   116          5
   117          4
   118          1
   119          1
   120        118
   121        635
   122        745
   123         89
   124          4
   125          2
   128          1
   129          8
   130          6
   131         55
   132        100
   133         26
   134          2
   135          1
   136          1
   141          4
   142          1
   143          1
   185          1
   186          2
   187          1
   190          8
   197          1
   210          1
   211          1
   245          1
   252          3
   253         80
   280          4
   281        251
   282         46
   283         16