##TITLE=Library Entry 5007
##JCAMP-DX=Revision 4.10 
##DATA TYPE=MASS SPECTRUM
##SAMPLE DESCRIPTION=N.Klyuev, Institute of Ecology & Evolution, RAS, Moscow
##NAMES=HP
##CAS NAME=3-(3,5-Dimethyl-1H-pyrazol-1-yl)-36(N-pyrrolidinyl)-1,2,4,5-tetra
zine
##MOLFORM=C11H15N7
##CAS REGISTRY NO=270588-62-0
##MP= -300
##BP= -300
##MW= 245
##$RETENTION INDEX=0
##$CONDENSED SPECTRUM=NO
##NPOINTS= 72
##XYDATA=(XY..XY) 1 
    40        153
    41        751
    42        999
    43        813
    44         28
    51         28
    52         57
    53        505
    54        238
    55        423
    56         78
    57         79
    58          1
    64         13
    65         60
    66         89
    67        284
    68        429
    69        237
    70         50
    78         57
    79         86
    80        173
    81         80
    82         13
    92          7
    93         46
    94         40
    95        549
    96        889
    97        359
    98         21
   100         15
   101         12
   102          1
   103          1
   104          2
   105          4
   106        209
   107         26
   108          5
   114          7
   115          2
   118          1
   119          2
   120        131
   121        372
   122        550
   123         45
   124          3
   125          1
   129          5
   130          2
   140          1
   141          1
   142          3
   143          1
   161          1
   162          1
   163          1
   164          1
   168          1
   169          1
   170          1
   176          3
   177          2
   217          4
   218          1
   244          7
   245        619
   246         92
   247         19