##TITLE=Library Entry 65739
##JCAMP-DX=Revision 4.10 
##DATA TYPE=MASS SPECTRUM
##SAMPLE DESCRIPTION=Japan AIST/NIMC Database- Spectrum MS-NW-5768
##NAMES=HP
##CAS NAME=2-Pyridineethanamine
##MOLFORM=C7H10N2
##CAS REGISTRY NO=2706-56-1
##MP= -300
##BP= -300
##MW= 122
##$RETENTION INDEX=1147
##$CONDENSED SPECTRUM=NO
##NPOINTS= 64
##XYDATA=(XY..XY) 1 
    26          9
    27         20
    28         48
    29          6
    30        281
    31          5
    32          1
    37          6
    38         13
    39         59
    40         15
    41         16
    42         17
    43         13
    44          9
    45          1
    46          1
    49          2
    50         18
    51         44
    52         38
    53         19
    54          8
    55          1
    56          1
    57          1
    60          1
    61          3
    62          5
    63         13
    64          9
    65         57
    66         94
    67         26
    68          2
    69          1
    70          1
    73          1
    74          1
    75          2
    76          3
    77          8
    78         54
    79         79
    80         53
    81          3
    83          1
    90          1
    91          5
    92         60
    93        999
    94        113
    95          6
   103          1
   104         30
   105         93
   106         68
   107          9
   118          6
   119         10
   120          3
   121         57
   122         17
   123          2