##TITLE=Library Entry 49409
##JCAMP-DX=Revision 4.10 
##DATA TYPE=MASS SPECTRUM
##SAMPLE DESCRIPTION=Japan AIST/NIMC Database- Spectrum MS-IW-7765
##NAMES=HP
##CAS NAME=6-Methoxytetrazolo(b)pyridazine
##MOLFORM=C5H5N5O
##CAS REGISTRY NO=27062-50-6
##MP= -300
##BP= -300
##MW= 151
##$RETENTION INDEX=0
##$CONDENSED SPECTRUM=NO
##NPOINTS= 83
##XYDATA=(XY..XY) 1 
    12          3
    13          3
    14         15
    15        130
    16          3
    17         16
    18         81
    24          3
    25         19
    26         68
    27         61
    28        342
    29         54
    30         15
    31         12
    32          8
    36         12
    37        144
    38        110
    39         33
    40         26
    41         20
    42         10
    43         16
    44         10
    45          1
    47          2
    48          2
    49          4
    50         15
    51        103
    52        483
    53         50
    54         19
    55          8
    56          6
    57          4
    58          2
    59          1
    62          9
    63         31
    64         24
    65          8
    66         13
    67         11
    68          3
    69          6
    70          2
    71          2
    76          4
    77         12
    78         38
    79          6
    80        999
    81         55
    82          6
    83          6
    85          6
    91          1
    92          1
    93          1
    94          2
    95          6
    96          2
    97          2
    98          1
   104          1
   108          1
   109          1
   110          3
   111          2
   112          1
   113          1
   122          1
   123          5
   124          3
   125          4
   129          1
   149          9
   150          1
   151         29
   152         41
   153          3