##TITLE=Library Entry 31983
##JCAMP-DX=Revision 4.10 
##DATA TYPE=MASS SPECTRUM
##SAMPLE DESCRIPTION=NIST Mass Spectrometry Data Center, 1994
##NAMES=HP
##CAS NAME=5-Norbornene-2-carbonyl chloride
##MOLFORM=C8H9ClO
##CAS REGISTRY NO=27063-48-5
##MP= -300
##BP= -300
##MW= 156
##$RETENTION INDEX=0
##$CONDENSED SPECTRUM=NO
##NPOINTS= 81
##XYDATA=(XY..XY) 1 
    12          1
    13          2
    14          4
    15         19
    16          1
    17          1
    18          3
    26         47
    27        179
    28         19
    29          5
    31          2
    32          0
    35          6
    36          5
    37         23
    38         61
    39        262
    40         74
    41         49
    42          4
    43          2
    44          1
    45          6
    46          6
    47          1
    48          1
    49          9
    50         45
    51         76
    52         29
    53         27
    54          1
    55        241
    56          8
    57          1
    59          0
    60          1
    61         11
    62         22
    63         62
    64          0
    65        169
    66        999
    67         56
    68          5
    73          4
    74          4
    75          4
    77         80
    78         44
    79         40
    80          2
    85          1
    86          1
    87          1
    89          6
    91        124
    92         37
    93         90
    94          8
   100          3
   101          3
   102          2
   103          2
   105          1
   112          1
   113          1
   114          3
   115          1
   116          0
   119          3
   120         15
   121         53
   122          4
   128          5
   130          1
   156         30
   157          2
   158          9
   159          1