##TITLE=Library Entry 17181
##JCAMP-DX=Revision 4.10 
##DATA TYPE=MASS SPECTRUM
##SAMPLE DESCRIPTION=NIST Mass Spectrometry Data Center, 1994
##NAMES=HP
##CAS NAME=Perfluoro-n-pentanoic acid
##MOLFORM=C5HF9O2
##CAS REGISTRY NO=2706-90-3
##MP= -300
##BP= -300
##MW= 264
##$RETENTION INDEX=0
##$CONDENSED SPECTRUM=NO
##NPOINTS= 51
##XYDATA=(XY..XY) 1 
    17         11
    20          5
    31         49
    32          9
    36          9
    39          5
    44         33
    45        999
    46         12
    47         23
    50         68
    51        160
    52          4
    62         14
    63          5
    67         44
    69        928
    70         11
    71          5
    75          7
    77          4
    78         10
    79          3
    80          3
    81         32
    82          6
    93         45
    95         36
    97         69
    98          4
   100        385
   101         10
   106          6
   109         28
   112         15
   117          6
   119        130
   120         14
   131        689
   132         23
   147          3
   150         44
   169        140
   170          6
   181         61
   182          3
   197          5
   200         73
   201          4
   219         48
   245          3