##TITLE=Library Entry 63436
##JCAMP-DX=Revision 4.10 
##DATA TYPE=MASS SPECTRUM
##SAMPLE DESCRIPTION=V.G.Zaikin, TIPS, Russian Acad. Sci., Moscow
##NAMES=HP
##CAS NAME=1,5-Dibromo-3-phenylpentane
##MOLFORM=C11H14Br2
##CAS REGISTRY NO=27070-24-2
##MP= -300
##BP= -300
##MW= 304
##$RETENTION INDEX=0
##$CONDENSED SPECTRUM=NO
##NPOINTS= 56
##XYDATA=(XY..XY) 1 
    37         28
    38         18
    39         77
    41         34
    44         22
    50         30
    51         54
    52         18
    58         10
    62         11
    63         37
    64         12
    65         49
    71         11
    74         10
    76         13
    77         63
    78         57
    89         33
    90         18
    91        999
    92         79
    93         12
   102         29
   103         74
   104         94
   105         38
   106         13
   107         12
   109         17
   113         29
   114         11
   115        219
   116         98
   117        583
   118         99
   119         24
   128         43
   129         32
   131         27
   144         16
   169         11
   170         13
   195         16
   196         26
   197        926
   198        128
   199        907
   200        108
   304        119
   305         15
   306        232
   307         29
   308        115
   309         14
   310          1