##TITLE=Library Entry 31105
##JCAMP-DX=Revision 4.10 
##DATA TYPE=MASS SPECTRUM
##SAMPLE DESCRIPTION=Japan AIST/NIMC Database- Spectrum MS-NW-2765
##NAMES=HP
##CAS NAME=Spiro[isobenzofuran-1(3H),9'-[9H]xanthen]-3-one, 3',6'-dihydroxy-
5(or 6)-isothiocyanato-
##MOLFORM=C21H11NO5S
##CAS REGISTRY NO=27072-45-3
##MP= -300
##BP= -300
##MW= 389
##$RETENTION INDEX=0
##$CONDENSED SPECTRUM=NO
##NPOINTS= 167
##XYDATA=(XY..XY) 1 
    50         19
    51         27
    52         12
    53         14
    54         16
    55         66
    56         31
    57         55
    59         17
    60        999
    61         18
    62         53
    63         23
    64         28
    65         22
    67         24
    68         23
    69         47
    70         26
    71         28
    73         23
    74         18
    75         26
    76        403
    77         26
    78         31
    79         23
    80         11
    81         28
    82         21
    83         31
    84         25
    85         20
    86          9
    87         21
    88         29
    89         15
    91         21
    92         12
    93         18
    94         18
    95         20
    96         15
    97         32
    98         36
    99         12
   100         41
   101         41
   102          9
   103         10
   105         15
   106         18
   107         18
   108         12
   109         10
   110         13
   111         16
   112         11
   113         10
   114         15
   115         20
   116          9
   117         11
   119          9
   120         20
   121         13
   122         13
   123         12
   124         11
   125         10
   126         12
   127         25
   128         55
   129         37
   130         11
   133         18
   134         10
   135         12
   136          9
   137         27
   138         12
   139         12
   143         76
   144         22
   149         12
   150         13
   151         19
   152         12
   155         10
   156         10
   161          9
   162          9
   163         15
   164         14
   166         20
   167         11
   172         17
   174         15
   176         19
   180         29
   181         12
   185          9
   187         20
   188         15
   189         22
   190          9
   198          9
   199         13
   200         37
   201         33
   202         53
   203         15
   211         12
   212          9
   213         47
   214         19
   225          9
   227         21
   229         33
   230         13
   231         12
   238         11
   242          9
   246         10
   256         10
   257         11
   258         64
   259         29
   269         11
   270         24
   271         18
   272          9
   274         13
   283         18
   284         12
   285         18
   286         66
   287        818
   288        182
   289         33
   296         27
   297         10
   299         13
   300         14
   301         12
   302         86
   303         75
   304         17
   312         76
   313         32
   314         10
   315         29
   316         29
   317         12
   318         15
   328        223
   329        100
   330         26
   343         17
   344        401
   345        430
   346        117
   347         30
   360         23
   361         17
   389         16
   390         10