##TITLE=Library Entry 35769
##JCAMP-DX=Revision 4.10 
##DATA TYPE=MASS SPECTRUM
##SAMPLE DESCRIPTION=NIST Mass Spectrometry Data Center, 2010
##NAMES=HP
##CAS NAME=Erythritol, tetrakis(trifluoroacetate), meso-
##MOLFORM=C12H6F12O8
##CAS REGISTRY NO=27088-70-6
##MP= -300
##BP= -300
##MW= 506
##$RETENTION INDEX=992
##$CONDENSED SPECTRUM=NO
##NPOINTS= 145
##XYDATA=(XY..XY) 1 
    15          3
    26          1
    27         17
    28          6
    29         21
    30          2
    31          7
    33          6
    38          1
    39         16
    40          5
    41         80
    42         15
    43        166
    44          8
    45          4
    46          2
    47         14
    49          1
    50         20
    51         16
    52          4
    53         10
    54          3
    55         50
    56         11
    57          8
    58          4
    59         30
    60          1
    61          4
    63          1
    65         59
    66          2
    67          6
    68         10
    69        999
    70         15
    71         47
    72          3
    73          2
    75          3
    77          5
    78         39
    79          1
    80          5
    81          1
    82          1
    83         39
    84          2
    85          2
    87          8
    89         38
    90          2
    91         10
    93         17
    94          1
    95         18
    96          1
    97        229
    98          5
    99        162
   100          3
   101          1
   108          1
   109         19
   110          1
   111          1
   112         18
   113         17
   114          1
   115         30
   116          1
   117         24
   118          1
   121          3
   123          3
   124          2
   125         20
   126          1
   127        109
   128          4
   129          1
   130          1
   131          4
   135         14
   136          2
   137         67
   138          4
   139         55
   140         35
   141          9
   143          3
   145          4
   149          1
   151          1
   152         22
   153         42
   154          3
   155         19
   156          1
   157          1
   159          8
   163          3
   164          2
   165        122
   166         10
   167         14
   168          1
   169         45
   170          2
   171          1
   177          1
   181          4
   183         19
   184          1
   185          1
   189          1
   196          2
   197          1
   205          1
   209          5
   220          1
   221          1
   237         18
   238          1
   248          9
   249          1
   251          1
   252          1
   253        159
   254         10
   255          2
   259          1
   265         41
   266          4
   267          1
   278         47
   279         25
   280          2
   379         31
   380          3
   393         32
   394          3
   395          1