##TITLE=Library Entry 85983
##JCAMP-DX=Revision 4.10 
##DATA TYPE=MASS SPECTRUM
##SAMPLE DESCRIPTION=Chemical Concepts
##NAMES=HP
##CAS NAME=Tropylium tetrafluoroborate
##MOLFORM=C7H7BF4
##CAS REGISTRY NO=27081-10-3
##MP= -300
##BP= -300
##MW= 178
##$RETENTION INDEX=0
##$CONDENSED SPECTRUM=NO
##NPOINTS= 78
##XYDATA=(XY..XY) 1 
    26         23
    27         42
    28          3
    29          3
    30          2
    31         16
    33          8
    36          0
    37         24
    38         64
    39        231
    40         15
    41         25
    42          2
    43         18
    44         23
    45         15
    46          3
    47          2
    48        119
    49        478
    50         70
    51         96
    52         35
    53          9
    54          5
    55          5
    56          3
    57         91
    58          7
    59         21
    60          3
    61         30
    62         68
    63        167
    64         42
    65        467
    66         28
    67          8
    68         26
    69          4
    70         13
    71          2
    72          1
    73          3
    74          9
    75         10
    76          8
    77         16
    78         29
    79          3
    80          2
    81         22
    82          6
    83        252
    84         21
    85         14
    86         18
    87         11
    88          3
    89        141
    90         63
    91        525
    92         63
    93          3
    94          1
    95          1
    96          1
    97          1
   101          0
   102          0
   103          3
   104          6
   105          3
   106          1
   109        999
   110        398
   111         29