##TITLE=Library Entry 25140
##JCAMP-DX=Revision 4.10 
##DATA TYPE=MASS SPECTRUM
##SAMPLE DESCRIPTION=Dennis Rohrbaugh, CBDCOM/ERDEC, Edgewood, MD
##NAMES=HP
##CAS NAME=Trifluoromethyl t-butyl sulfide
##MOLFORM=C5H9F3S
##CAS REGISTRY NO=2708-84-1
##MP= -300
##BP= -300
##MW= 158
##$RETENTION INDEX=0
##$CONDENSED SPECTRUM=NO
##NPOINTS= 21
##XYDATA=(XY..XY) 1 
    45         42
    47         21
    53         30
    55         56
    56         29
    57        999
    58         65
    59         87
    61         69
    63         20
    69        124
    71         16
    72          8
    73          8
    74         29
    75          4
   101          8
   115         36
   143         67
   144          3
   158         58