##TITLE=Library Entry 97940
##JCAMP-DX=Revision 4.10 
##DATA TYPE=MASS SPECTRUM
##SAMPLE DESCRIPTION=Japan AIST/NIMC Database- Spectrum MS-NW-3084
##NAMES=HP
##CAS NAME=Benzofuran
##MOLFORM=C8H6O
##CAS REGISTRY NO=271-89-6
##MP= -300
##BP= -300
##MW= 118
##$RETENTION INDEX=1004
##$CONDENSED SPECTRUM=NO
##NPOINTS= 52
##XYDATA=(XY..XY) 1 
    25          1
    26          5
    27          5
    28          4
    29          6
    31          1
    36          2
    37         15
    38         26
    39         55
    40          9
    41          1
    42          1
    43         16
    44          7
    45         26
    48          1
    49          6
    50         23
    51         29
    52          2
    53          5
    55          1
    57          1
    59         27
    60          3
    61         20
    62         52
    63        133
    64         47
    65          3
    66          1
    73          2
    74          6
    75          5
    76          1
    77          1
    78          1
    84          2
    85          7
    86         11
    87         11
    88          6
    89        293
    90        339
    91         25
    92          2
   117          3
   118        999
   119         89
   120          5
   121          1