##TITLE=Library Entry 99889
##JCAMP-DX=Revision 4.10 
##DATA TYPE=MASS SPECTRUM
##SAMPLE DESCRIPTION=M.H. PALMER, UNIV. EDINBURGH, EDINBURGH, SCOTLAND
##NAMES=HP
##CAS NAME=2,1-Benzisoxazole
##MOLFORM=C7H5NO
##CAS REGISTRY NO=271-58-9
##MP= -300
##BP= -300
##MW= 119
##$RETENTION INDEX=0
##$CONDENSED SPECTRUM=NO
##NPOINTS= 30
##XYDATA=(XY..XY) 1 
    29         70
    30         20
    36         20
    37        100
    38        150
    39        180
    40         40
    41         70
    43         10
    49         20
    50         60
    51         70
    52        110
    53         30
    61         60
    62         70
    63        300
    64        500
    65         90
    66         30
    74         30
    75         50
    76         30
    77         20
    90         70
    91        240
    92        770
    93        100
   118         30
   119        999