##TITLE=Library Entry 99109
##JCAMP-DX=Revision 4.10 
##DATA TYPE=MASS SPECTRUM
##SAMPLE DESCRIPTION=Japan AIST/NIMC Database- Spectrum MS-NW-3052
##NAMES=HP
##CAS NAME=1,2-Benzisoxazole
##MOLFORM=C7H5NO
##CAS REGISTRY NO=271-95-4
##MP= -300
##BP= -300
##MW= 119
##$RETENTION INDEX=0
##$CONDENSED SPECTRUM=NO
##NPOINTS= 74
##XYDATA=(XY..XY) 1 
    12          1
    14          1
    15          1
    18          2
    24          1
    25          5
    26         14
    27         13
    28         25
    29          6
    30          2
    31         15
    32          3
    36          8
    37         74
    38        137
    39         97
    40         12
    41         37
    42          5
    43          5
    44         19
    45         44
    46          4
    47          1
    48          3
    49         15
    50         41
    51         27
    52         70
    53         28
    54          2
    55          4
    59          2
    60          9
    61         47
    62         88
    63        346
    64        460
    65         84
    66         11
    67          4
    68          1
    69          1
    70          1
    72          1
    73          5
    74         11
    75         10
    76         21
    77          3
    78          1
    79          1
    84          1
    85          2
    86          6
    87          8
    88          8
    89          5
    90         28
    91        778
    92        126
    93         16
    94          7
    99          1
   102          1
   104          6
   105          1
   118          4
   119        999
   120         83
   121         52
   122         50
   123          4