##TITLE=Library Entry 87394
##JCAMP-DX=Revision 4.10 
##DATA TYPE=MASS SPECTRUM
##SAMPLE DESCRIPTION=Exported from NIST MS Search
##NAMES=HP
##CAS NAME=Phosphonic acid, (2-hydroxybicyclo[2.2.1]hept-2-yl)-, dimethyl es
ter, endo-
##MOLFORM=C9H17O4P
##CAS REGISTRY NO=27109-27-9
##MP= -300
##BP= -300
##MW= 220
##$RETENTION INDEX=0
##$CONDENSED SPECTRUM=NO
##NPOINTS= 16
##XYDATA=(XY..XY) 1 
    55        150
    56         10
    66        170
    67        250
    79        230
    80        170
    93        170
    94         10
    95        130
    96         10
   110        999
   111        430
   112         30
   153        130
   154         10
   220         30