##TITLE=Library Entry 10839
##JCAMP-DX=Revision 4.10 
##DATA TYPE=MASS SPECTRUM
##SAMPLE DESCRIPTION=Exported from NIST MS Search
##NAMES=HP
##CAS NAME=Glucopyranose, 4-deoxy-4-fluoro-, tetraacetate, .beta.-d-
##MOLFORM=C14H19FO9
##CAS REGISTRY NO=27108-07-2
##MP= -300
##BP= -300
##MW= 350
##$RETENTION INDEX=0
##$CONDENSED SPECTRUM=NO
##NPOINTS= 84
##XYDATA=(XY..XY) 1 
    41          5
    42          5
    43        999
    44         19
    45         13
    52          3
    53          3
    54          4
    55          4
    56          6
    60         15
    61         13
    69          6
    70          3
    71          4
    72         13
    73          8
    75          5
    81          8
    82         15
    83          6
    84         13
    85          8
    86          9
    87          5
    95          4
    96          3
    97         13
    98          9
    99         20
   100        104
   101         10
   102          6
   103        125
   104          9
   109          4
   110          4
   111          3
   112          3
   113          6
   114          4
   115          9
   116          3
   117          4
   118          6
   119          3
   120          1
   126          6
   127          4
   128          9
   129          6
   131          5
   139          6
   140          3
   141          3
   142         13
   143          4
   144          4
   145         66
   146          8
   147          6
   149          6
   155          5
   157          6
   159          6
   160         88
   161          8
   168          5
   169          3
   170          4
   171          4
   175          9
   188          3
   189          5
   201          5
   202         51
   203          5
   204          4
   205          3
   231          5
   248          3
   277          3
   291          3
   307          3