##TITLE=Library Entry 99627
##JCAMP-DX=Revision 4.10 
##DATA TYPE=MASS SPECTRUM
##SAMPLE DESCRIPTION=Japan AIST/NIMC Database- Spectrum MS-NW-3784
##NAMES=HP
##CAS NAME=N-(m-Toluoyl)glycine
##MOLFORM=C10H11NO3
##CAS REGISTRY NO=27115-49-7
##MP= -300
##BP= -300
##MW= 193
##$RETENTION INDEX=0
##$CONDENSED SPECTRUM=NO
##NPOINTS= 87
##XYDATA=(XY..XY) 1 
    15          1
    16          1
    17          9
    18         36
    26          1
    27          7
    28         15
    29          4
    30         10
    31          3
    32          1
    37          2
    38          8
    39         55
    40          5
    41         19
    42          2
    43          2
    44         10
    45         11
    49          1
    50         14
    51         25
    52          7
    53          3
    55          1
    56          8
    57          2
    58          2
    59          3
    60          1
    61          4
    62         13
    63         44
    64         13
    65        148
    66          9
    67          1
    69          1
    71          1
    73          5
    74          8
    75          5
    76          4
    77          8
    78          2
    79          1
    83          1
    85          1
    86          3
    87          3
    88          2
    89         46
    90         35
    91        446
    92         37
    93          3
   103          1
   104          2
   105          6
   106          1
   107          1
   116          3
   117          4
   118         10
   119        999
   120         94
   121          7
   130          1
   131          9
   132          3
   133          1
   134         26
   135          6
   136          1
   146          2
   147          6
   148        163
   149        350
   150         37
   151          3
   175         19
   176          3
   191          1
   192          3
   193         31
   194          4