##TITLE=Library Entry 99506
##JCAMP-DX=Revision 4.10 
##DATA TYPE=MASS SPECTRUM
##SAMPLE DESCRIPTION=NIST Mass Spectrometry Data Center
##NAMES=HP
##CAS NAME=.alpha.-Bromomesitylene
##MOLFORM=C9H11Br
##CAS REGISTRY NO=27129-86-8
##MP= -300
##BP= -300
##MW= 198
##$RETENTION INDEX=0
##$CONDENSED SPECTRUM=NO
##NPOINTS= 62
##XYDATA=(XY..XY) 1 
    26          1
    27          7
    37          1
    38          5
    39         34
    40          3
    41         23
    49          1
    50         20
    51         40
    52         17
    53         14
    54          1
    58         23
    59         15
    61          3
    62         11
    63         31
    64          7
    65         31
    66          3
    67          1
    73          1
    74          9
    75          8
    76          8
    77         65
    78         40
    79         24
    80          2
    81          2
    85          1
    86          2
    87          3
    88          1
    89         14
    90          4
    91        172
    92         15
    93         15
    94          1
    98          6
    99          5
   101          1
   102         17
   103         74
   104         67
   105          9
   115         67
   116         13
   117         84
   118         29
   119        999
   120        107
   121          4
   183          3
   185          3
   197          2
   198         93
   199         11
   200         91
   201          8