##TITLE=Library Entry 114841
##JCAMP-DX=Revision 4.10 
##DATA TYPE=MASS SPECTRUM
##SAMPLE DESCRIPTION=NIST Mass Spectrometry Data Center
##NAMES=HP
##CAS NAME=3,5-Difluorophenol
##MOLFORM=C6H4F2O
##CAS REGISTRY NO=2713-34-0
##MP= -300
##BP= -300
##MW= 130
##$RETENTION INDEX=0
##$CONDENSED SPECTRUM=NO
##NPOINTS= 76
##XYDATA=(XY..XY) 1 
    25          2
    26          3
    27          2
    29         20
    31         59
    32          2
    33          2
    36          5
    37         28
    38         32
    39         14
    41          6
    42          3
    43          1
    44         16
    45         13
    47          1
    48          3
    49         14
    50         50
    51        114
    52         51
    53         18
    54          1
    55         14
    56         45
    57        119
    58          7
    60          9
    61         50
    62         50
    63        116
    64          9
    65         37
    66          6
    67          1
    68         21
    69         14
    70          6
    71         17
    72          5
    73         14
    74         15
    75         92
    76         37
    77          4
    79         11
    80         17
    81        137
    82        201
    83         60
    84          5
    86          7
    87          4
    88          7
    91          8
    92          7
    93          6
    94          2
    97          2
    98          1
    99         33
   100         19
   101        535
   102        489
   103         26
   104          2
   110          9
   111          5
   112         21
   113         11
   128          4
   129         26
   130        999
   131         81
   132          4