##TITLE=Library Entry 114840
##JCAMP-DX=Revision 4.10 
##DATA TYPE=MASS SPECTRUM
##SAMPLE DESCRIPTION=NIST Mass Spectrometry Data Center
##NAMES=HP
##CAS NAME=3,4-Difluorophenol
##MOLFORM=C6H4F2O
##CAS REGISTRY NO=2713-33-9
##MP= -300
##BP= -300
##MW= 130
##$RETENTION INDEX=0
##$CONDENSED SPECTRUM=NO
##NPOINTS= 79
##XYDATA=(XY..XY) 1 
    12          5
    13          1
    14          4
    16          2
    17          4
    19          4
    24          3
    25         10
    26         18
    27          5
    28          5
    29         49
    31        172
    32          8
    33          6
    36         13
    37         56
    38         43
    39         26
    40          3
    41          6
    42          7
    43          6
    44         25
    45         12
    48          8
    49         28
    50         84
    51        170
    52         74
    53         40
    54          4
    55         29
    56         95
    57        142
    58         13
    60         15
    61         76
    62         73
    63        123
    64         13
    65         17
    66          3
    68         29
    69         18
    70          8
    71         21
    72          5
    73         22
    74         26
    75        193
    76         65
    77          9
    79         16
    80         30
    81        144
    82        163
    83         74
    84          9
    86          4
    87          5
    88          9
    91         13
    92          8
    93          9
    94          3
    99         50
   101        802
   102        492
   103         29
   104          7
   110          6
   111          9
   112         21
   113          9
   127          2
   130        999
   131         72
   132          5