##TITLE=Library Entry 54297
##JCAMP-DX=Revision 4.10 
##DATA TYPE=MASS SPECTRUM
##SAMPLE DESCRIPTION=NIST Mass Spectrometry Data Center, 1994
##NAMES=HP
##CAS NAME=2-(8-Heptadecenyl-1-[.beta.-hydroxyethyl])-2-imidazoline
##MOLFORM=C22H42N2O
##CAS REGISTRY NO=27136-73-8
##MP= -300
##BP= -300
##MW= 350
##$RETENTION INDEX=0
##$CONDENSED SPECTRUM=NO
##NPOINTS= 122
##XYDATA=(XY..XY) 1 
    14         12
    27         20
    28         29
    29         51
    30         16
    39         15
    41        100
    42         44
    43         75
    44         21
    45         18
    53         15
    54         47
    55        170
    56        250
    57         37
    58         15
    65          9
    67         56
    68         28
    69         46
    70         32
    77         16
    79         25
    80         13
    81         42
    82         48
    83        111
    84        999
    85        138
    86         10
    88         12
    93         11
    95         28
    96         25
    97         96
    98        155
    99         13
   108          8
   109         25
   110         13
   111         66
   112         29
   113         74
   122          9
   123         30
   124         19
   125         86
   126         28
   127          9
   128        482
   129         42
   137         20
   138         13
   139         35
   140         13
   141        486
   142         73
   151         20
   153         25
   155        107
   156         27
   165          4
   167         24
   168         10
   169         63
   170         10
   179         11
   181         20
   183        116
   184         19
   193         15
   195         77
   197        302
   198         44
   207          3
   209         12
   211         24
   221         14
   223        100
   224         17
   233         14
   235         14
   237        201
   238         50
   247         13
   249         17
   251        249
   252         52
   263         28
   264         10
   265         91
   266         18
   273         13
   277         42
   278         12
   279         26
   291        149
   292         34
   293         35
   303         10
   304         10
   305         58
   306         14
   307         45
   308         11
   317         37
   318         14
   319         60
   320         16
   321         30
   322         11
   331         19
   333         30
   335         14
   345          8
   346          8
   347         73
   348        137
   349        190
   350        155
   351         31