##TITLE=Library Entry 114770
##JCAMP-DX=Revision 4.10 
##DATA TYPE=MASS SPECTRUM
##SAMPLE DESCRIPTION=NIST Mass Spectrometry Data Center, 1994
##NAMES=HP
##CAS NAME=2,5-Difluorophenol
##MOLFORM=C6H4F2O
##CAS REGISTRY NO=2713-31-7
##MP= -300
##BP= -300
##MW= 130
##$RETENTION INDEX=0
##$CONDENSED SPECTRUM=NO
##NPOINTS= 86
##XYDATA=(XY..XY) 1 
    12          8
    13          7
    14          6
    17          8
    18          5
    19          3
    20          4
    24          4
    25         13
    26         19
    27          3
    28         15
    29         82
    30          3
    31        269
    32         13
    33          9
    36         15
    37         76
    38         69
    39         29
    40          3
    41         13
    42          6
    43          4
    44         46
    45         26
    46          1
    47          4
    48          8
    49         32
    50         91
    51        168
    52         27
    53         41
    54          3
    55         27
    56        107
    57        174
    58          9
    60         20
    61         78
    62         70
    63        256
    64         18
    65         44
    66          7
    67          3
    68         26
    69         22
    70         11
    71         27
    72          9
    73         30
    74         20
    75        122
    76         20
    77          8
    79         17
    80         32
    81        265
    82        914
    83         79
    84          7
    86          6
    87          3
    88          3
    90          1
    91          3
    92          7
    93          7
    94          1
    97          3
    99         30
   101        287
   102         59
   103          3
   104          1
   110         38
   111          6
   112          6
   113          4
   128          4
   130        999
   131         66
   132          4