##TITLE=Library Entry 26732
##JCAMP-DX=Revision 4.10 
##DATA TYPE=MASS SPECTRUM
##SAMPLE DESCRIPTION=Exported from NIST MS Search
##NAMES=HP
##CAS NAME=Aziridinone, 1-(1,1-dimethylethyl)-3-phenyl-
##MOLFORM=C12H15NO
##CAS REGISTRY NO=27151-60-6
##MP= -300
##BP= -300
##MW= 189
##$RETENTION INDEX=0
##$CONDENSED SPECTRUM=NO
##NPOINTS= 22
##XYDATA=(XY..XY) 1 
    29          5
    39          5
    41         20
    51         50
    57        999
    58         50
    63         40
    68         30
    77        150
    83          5
    89         80
    90         70
    91         30
   104         70
   105         70
   106         80
   107         20
   132        250
   146        140
   161         30
   188         10
   189         10