##TITLE=Library Entry 21817
##JCAMP-DX=Revision 4.10 
##DATA TYPE=MASS SPECTRUM
##SAMPLE DESCRIPTION=Japan AIST/NIMC Database- Spectrum MS-IW-4086
##NAMES=HP
##CAS NAME=2,3-Dihydroxypropyl elaidate
##MOLFORM=C21H40O4
##CAS REGISTRY NO=2716-53-2
##MP= -300
##BP= -300
##MW= 356
##$RETENTION INDEX=0
##$CONDENSED SPECTRUM=NO
##NPOINTS= 280
##XYDATA=(XY..XY) 1 
    13          1
    14          6
    15         19
    16          2
    17          4
    18         14
    19          2
    25          3
    26         17
    27         76
    28         54
    29        179
    30         39
    31         57
    32          2
    36          1
    37          2
    38          3
    39         66
    40         13
    41        436
    42         82
    43        432
    44        120
    45         67
    46         18
    47          2
    50          1
    51          3
    52          3
    53         51
    54        252
    55        999
    56        367
    57        466
    58         25
    59         16
    60         54
    61         60
    62          5
    63          2
    64          1
    65         16
    66         29
    67        418
    68        233
    69        611
    70        317
    71        232
    72         15
    73        129
    74         58
    75         46
    76          3
    77         17
    78         11
    79         77
    80         87
    81        522
    82        452
    83        728
    84        428
    85        132
    86         11
    87         52
    88          7
    89          1
    90          1
    91         54
    92         23
    93         77
    94         97
    95        366
    96        417
    97        573
    98        738
    99         92
   100         47
   101         71
   102         12
   103          4
   104          5
   105         39
   106         15
   107         59
   108         80
   109        216
   110        279
   111        371
   112        330
   113         64
   114         94
   115         48
   116         42
   117         13
   118          7
   119         50
   120         25
   121         92
   122         63
   123        220
   124        213
   125        189
   126        103
   127         72
   128         23
   129        108
   130         14
   131         10
   132          7
   133         65
   134         97
   135         97
   136         46
   137        208
   138        150
   139         89
   140         41
   141         28
   142          9
   143         25
   144          7
   145          6
   146          4
   147         67
   148         74
   149         60
   150         34
   151        178
   152        144
   153         61
   154         29
   155         30
   156          8
   157         17
   158          6
   159          4
   160          2
   161         38
   162         27
   163         32
   164         28
   165         90
   166        105
   167         41
   168         19
   169         33
   170          9
   171         19
   172         12
   173          5
   174          2
   175         29
   176         13
   177         22
   178         14
   179         52
   180         92
   181         34
   182         16
   183         26
   184          7
   185         38
   186         17
   187          4
   188          1
   189         17
   190          8
   191         13
   192          9
   193         39
   194         37
   195         16
   196          9
   197          9
   198          4
   199         16
   200          8
   201          3
   202          2
   203          9
   204          6
   205          7
   206          7
   207         72
   208         37
   209         18
   210         10
   211          7
   212          3
   213          8
   214          7
   215          3
   216          2
   217          7
   218          4
   219          3
   220         72
   221        100
   222         94
   223         22
   224          4
   225          5
   226          2
   227          6
   228          3
   229          2
   230          2
   231          2
   232          1
   233          3
   234          3
   235         47
   236         41
   237          9
   238          4
   239         10
   240          4
   241         10
   242          6
   243          2
   244          1
   245          7
   246         44
   247         32
   248          8
   249         13
   250          3
   251          1
   252          1
   253          7
   254          3
   255          3
   256          4
   257          1
   258          1
   259          1
   260          2
   261          1
   262          5
   263         13
   264        761
   265        275
   266         46
   267         12
   268          2
   269          3
   270          2
   274          5
   276          1
   277          1
   278          3
   279          2
   280          6
   281          4
   282         79
   283         18
   284         18
   285          5
   286          1
   295          6
   296          3
   297          1
   298          1
   307         10
   308          3
   309          2
   322          1
   323          1
   325         37
   326          8
   327          3
   337          1
   338         23
   339         10
   340          2
   354          1
   356         21
   357          7
   358          1