##TITLE=Library Entry 60463
##JCAMP-DX=Revision 4.10 
##DATA TYPE=MASS SPECTRUM
##SAMPLE DESCRIPTION=NIST Mass Spectrometry Data Center, 1994
##NAMES=HP
##CAS NAME=1-Chloro-9-phenylnonane
##MOLFORM=C15H23Cl
##CAS REGISTRY NO=27175-81-1
##MP= -300
##BP= -300
##MW= 238
##$RETENTION INDEX=0
##$CONDENSED SPECTRUM=NO
##NPOINTS= 78
##XYDATA=(XY..XY) 1 
    15          1
    17          2
    18          1
    26          6
    27        128
    29        128
    30          3
    36          3
    38          6
    39        129
    40         18
    41        298
    42         39
    43         82
    44          3
    49         17
    50         11
    51         49
    52         14
    53         29
    54         13
    55        127
    56         17
    57         39
    58          1
    61          1
    62          6
    63         36
    64          8
    65        139
    66         10
    67         17
    68          9
    69         77
    70          7
    71          3
    75          6
    76          5
    77         59
    78         71
    79         46
    80          7
    81          6
    82          3
    83          3
    89         23
    91        999
    92        975
    93         76
    94          5
    95          1
   102          6
   103         27
   104         71
   105         90
   106         16
   107          2
   111          2
   115         17
   116          4
   117         25
   118          7
   119         19
   120          7
   125          2
   127          1
   128          3
   131          3
   133         49
   134         16
   135          1
   147          7
   148          2
   195          1
   238         74
   239         12
   240         25
   241          3