##TITLE=Library Entry 66707
##JCAMP-DX=Revision 4.10 
##DATA TYPE=MASS SPECTRUM
##SAMPLE DESCRIPTION=Japan AIST/NIMC Database- Spectrum MS-IW-4399
##NAMES=HP
##CAS NAME=1-Allyl-3-phenyl-2-thiourea
##MOLFORM=C10H12N2S
##CAS REGISTRY NO=27177-32-8
##MP= -300
##BP= -300
##MW= 192
##$RETENTION INDEX=0
##$CONDENSED SPECTRUM=NO
##NPOINTS= 145
##XYDATA=(XY..XY) 1 
    14          1
    15          6
    25          1
    26         13
    27         36
    28         14
    29          6
    30         51
    31          1
    32         31
    33         27
    34         88
    35          2
    36          5
    37         17
    38         40
    39        300
    40         45
    41        636
    42         28
    43          9
    44         17
    45         36
    46         27
    47          5
    48          1
    49          3
    50         50
    51        170
    52         39
    53         11
    54         38
    55         17
    56        285
    57        261
    58         11
    59         16
    60         20
    61          8
    62         14
    63         42
    64         44
    65        194
    66        290
    67         44
    68          5
    69          6
    70         10
    71         20
    72         92
    73         32
    74         31
    75         14
    76         34
    77        385
    78         55
    79          9
    80          4
    81          9
    82         11
    83         12
    84          4
    85          2
    86          1
    87          1
    88          6
    89          3
    90          9
    91         92
    92        128
    93        999
    94         84
    95          5
    96          6
    97          4
    98         27
    99        297
   100         36
   101         20
   102          4
   103         36
   104         49
   105          8
   106         16
   107          2
   108         11
   109         55
   110         25
   111          4
   112          1
   115         13
   116          6
   117         25
   118         96
   119         71
   120          6
   121          1
   122          1
   123          6
   124          4
   125          1
   128          2
   129          2
   130        131
   131        165
   132         37
   133         10
   134          3
   135        218
   136        128
   137         22
   138          6
   142          8
   143          3
   144          2
   145          3
   149          3
   150         25
   151          7
   152          1
   155          1
   156          8
   157         21
   158        280
   159         62
   160          8
   161          1
   162          1
   163          5
   164          1
   165          1
   174          1
   175          1
   176          1
   177        748
   178         85
   179         38
   180          4
   189          1
   190          1
   191         52
   192        598
   193         82
   194         33
   195          4