##TITLE=Library Entry 65795
##JCAMP-DX=Revision 4.10 
##DATA TYPE=MASS SPECTRUM
##SAMPLE DESCRIPTION=A.A.Kutin, Moscow, Russia
##NAMES=HP
##CAS NAME=Benzenesulfonamide, 2-iodo-N-(1-adamantyl)-
##MOLFORM=C16H20INO2S
##CAS REGISTRY NO=271796-59-9
##MP= -300
##BP= -300
##MW= 417
##$RETENTION INDEX=0
##$CONDENSED SPECTRUM=NO
##NPOINTS= 170
##XYDATA=(XY..XY) 1 
    33          3
    34          3
    36          1
    37          3
    38         13
    39        172
    40         91
    41        551
    42        130
    43         65
    44         56
    45          8
    46          2
    48         12
    50        174
    51         60
    52         27
    53        126
    54         81
    55        190
    56         54
    57         50
    58         63
    59          4
    60          1
    61          1
    62          4
    63         22
    64         38
    65         85
    66         77
    67        295
    68         47
    69         45
    70         23
    71          7
    72          7
    73          5
    74         32
    75         65
    76        354
    77        324
    78         66
    79        278
    80         80
    81        108
    82         22
    83          7
    84          4
    85          2
    89          5
    90          9
    91        200
    92        384
    93        999
    94        360
    95         69
    96         25
    97          5
    98          1
   101          0
   102          1
   103          7
   104          6
   105         29
   106         45
   107         83
   108        193
   109        147
   110         14
   111          2
   115          8
   116          5
   117         11
   118          6
   119          6
   120         10
   121          6
   122          5
   123          2
   124          1
   125          6
   126          3
   127         27
   128         31
   129          5
   130         38
   131         10
   132         50
   133         17
   134         20
   135        238
   136         26
   137          2
   140          1
   141         20
   142          4
   143          6
   144          2
   146          1
   147          0
   148         11
   149         15
   150         88
   151         11
   152          2
   153          1
   154          1
   155          1
   156          3
   158          0
   165          1
   166          2
   167          7
   168         28
   169         42
   170         12
   171          0
   176          0
   177          1
   182          2
   183          1
   184          2
   185          1
   194          0
   196          1
   201          5
   203        253
   204         24
   214          0
   217          2
   218          7
   219          1
   220          8
   224          3
   226        191
   227         32
   228          2
   232          4
   233         12
   234          6
   235          1
   251          8
   252          3
   267         19
   268          4
   269          4
   290          4
   291          3
   296          4
   310          0
   323          0
   324         22
   325          2
   347          2
   348         13
   349          2
   358          1
   360        245
   361         36
   362         14
   363          1
   374         11
   375          3
   376          1
   415          1
   417        228
   418         41
   419         14
   420          2