##TITLE=Library Entry 114423
##JCAMP-DX=Revision 4.10 
##DATA TYPE=MASS SPECTRUM
##SAMPLE DESCRIPTION=Japan AIST/NIMC Database- Spectrum MS-IW-6350
##NAMES=HP
##CAS NAME=Diisodecyl adipate
##MOLFORM=C26H50O4
##CAS REGISTRY NO=27178-16-1
##MP= -300
##BP= -300
##MW= 426
##$RETENTION INDEX=2782
##$CONDENSED SPECTRUM=NO
##NPOINTS= 199
##XYDATA=(XY..XY) 1 
    27          9
    28          7
    29         34
    31          1
    39          9
    40          2
    41        113
    42         28
    43        253
    44          8
    45          2
    53          7
    54          9
    55        264
    56        103
    57        361
    58         17
    59         10
    60          1
    61          1
    65          1
    66          1
    67         24
    68         27
    69        244
    70        183
    71        402
    72         20
    73          9
    74          1
    77          1
    79          4
    80          2
    81         26
    82         44
    83        200
    84        181
    85        384
    86         28
    87         10
    91          2
    93          2
    94          1
    95         20
    96         34
    97        132
    98         98
    99        106
   100         29
   101         86
   102          9
   103          3
   107          1
   108          1
   109         12
   110         25
   111        198
   112        131
   113         18
   114          4
   115         16
   116          1
   119          2
   123          6
   124          8
   125         32
   126         24
   127         23
   128         10
   129        999
   130         67
   131          9
   135          1
   137          2
   138         25
   139         16
   140        226
   141        265
   142         29
   143          4
   144          1
   145          3
   146          3
   147        214
   148         13
   149          3
   151          1
   152          2
   153          1
   154         10
   155         10
   156          8
   157          5
   158          1
   160          1
   161          1
   165          1
   166          2
   167          1
   168          1
   169          2
   170          4
   171          3
   172          1
   174          1
   175          2
   180          1
   181          1
   183          8
   184          8
   185         11
   186          1
   189          1
   193          1
   194          1
   197          9
   198          8
   199          6
   200          1
   201          5
   202          1
   203          3
   211         12
   212          4
   213         24
   214          4
   215          2
   216          1
   217          2
   225         12
   226         15
   227         54
   228         13
   229          4
   231          3
   239          9
   240         35
   241          9
   242          7
   243          2
   245          1
   251          2
   253          9
   255         63
   256         10
   257          1
   259          1
   267          5
   268          5
   269        899
   270        159
   271         21
   272          2
   273         55
   274          9
   275          1
   282          1
   283         34
   284          8
   285          3
   287        953
   288        170
   289         21
   290          2
   299          1
   300          9
   301         42
   302          8
   303          1
   313          9
   314         15
   315          4
   327         14
   328          7
   329          1
   341         47
   342         19
   343          4
   355         25
   356         18
   357          5
   358          1
   369         21
   370         15
   371          6
   383         21
   384          7
   385          1
   397         22
   398          7
   399          1
   411         17
   412          9
   413          4
   425          3
   426         62
   427         33
   428          7
   429          1