##TITLE=Library Entry 45581
##JCAMP-DX=Revision 4.10 
##DATA TYPE=MASS SPECTRUM
##SAMPLE DESCRIPTION=A.A.Kutin, Moscow, Russia
##NAMES=HP
##CAS NAME=Ethanamine, N-(4-chloro-2-iodophenylsulfonyl)-
##MOLFORM=C8H9ClINO2S
##CAS REGISTRY NO=271796-67-9
##MP= -300
##BP= -300
##MW= 345
##$RETENTION INDEX=0
##$CONDENSED SPECTRUM=NO
##NPOINTS= 72
##XYDATA=(XY..XY) 1 
    34         17
    38         37
    39         21
    40         85
    41        117
    42        222
    43        190
    44         75
    45         79
    48         28
    50        260
    51         52
    52         12
    53          9
    55         52
    57         40
    60         17
    62         38
    63        114
    64        243
    69        104
    70         48
    71         23
    73        125
    74        444
    75        999
    76        117
    77         53
    80         35
    81         51
    82          9
    84        105
    85         12
    91         19
    92         48
    95        108
    98          9
    99         27
   101         12
   105          8
   107         10
   108         20
   109         62
   110        736
   111        369
   112        321
   113        103
   117         23
   118         28
   119          9
   125         44
   127         56
   128         27
   130         69
   138         30
   166         10
   175         42
   191          9
   207         21
   237        462
   238         47
   239        144
   253         35
   282         10
   301        326
   302         22
   303        115
   330        308
   331         21
   332        118
   345        181
   347         51