##TITLE=Library Entry 5999
##JCAMP-DX=Revision 4.10 
##DATA TYPE=MASS SPECTRUM
##SAMPLE DESCRIPTION=Philip Morris R&D
##NAMES=HP
##CAS NAME=2-Cyclohexen-1-one, 3-(3-hydroxybutyl)-2,4,4-trimethyl-
##MOLFORM=C13H22O2
##CAS REGISTRY NO=27185-79-1
##MP= -300
##BP= -300
##MW= 210
##$RETENTION INDEX=1726
##$CONDENSED SPECTRUM=NO
##NPOINTS= 84
##XYDATA=(XY..XY) 1 
    38        136
    39        237
    40        244
    41        576
    42        107
    43        999
    44        273
    45        275
    51         49
    52         19
    53        171
    54         48
    55        480
    56        151
    57        276
    58        122
    59         48
    60         87
    61         31
    65         45
    66         23
    67        241
    68         45
    69        246
    70         84
    71        146
    73         95
    77         89
    78         28
    79        127
    80         28
    81        162
    82         78
    83        126
    84         66
    85         71
    91        123
    92         25
    93        157
    94         58
    95        224
    96        102
    97        215
    98        103
    99         77
   105         65
   107        164
   108         75
   109        321
   110        175
   111        183
   112         44
   113         21
   119         61
   120         23
   121        152
   122         56
   123        101
   124         71
   125         50
   126         15
   129         30
   133         57
   135        201
   136         90
   137        386
   138         91
   139        112
   149         76
   150         32
   151         34
   152        296
   153        162
   154        257
   155         23
   163         96
   164         23
   165        209
   166         44
   177         60
   185         14
   192         21
   195        109
   210         77