##TITLE=Library Entry 44896
##JCAMP-DX=Revision 4.10 
##DATA TYPE=MASS SPECTRUM
##SAMPLE DESCRIPTION=A.A.Kutin, Moscow, Russia
##NAMES=HP
##CAS NAME=1,2,4-Thiadiazol-3-amine, 5-phenyl-
##MOLFORM=C8H7N3S
##CAS REGISTRY NO=27182-54-3
##MP= -300
##BP= -300
##MW= 177
##$RETENTION INDEX=0
##$CONDENSED SPECTRUM=NO
##NPOINTS= 101
##XYDATA=(XY..XY) 1 
    33          8
    34         10
    35          2
    36          5
    37         15
    38         24
    39         45
    40         81
    41         20
    42         18
    43         27
    44         53
    45         24
    46         59
    47         92
    48         12
    49         16
    50         88
    51        152
    52         28
    53          8
    54          3
    55         12
    56          5
    57         12
    58          5
    59          3
    60          5
    61          7
    62         10
    63         26
    64         18
    65          7
    66          3
    67          7
    68          3
    69         20
    70         10
    71          6
    72          3
    74        999
    75         60
    76        132
    77        203
    78         16
    79          3
    80          1
    81          8
    82          7
    83         12
    84          8
    85          8
    86          3
    87          2
    89         29
    90          8
    91         17
    92          3
    93          7
    94          3
    95          5
    96          3
    97          6
    98          3
    99          5
   101          4
   102         11
   103         65
   104        494
   105         41
   106          5
   107          5
   108         12
   109          8
   111          5
   112          1
   115          1
   118          5
   119          1
   120          5
   121         23
   122          5
   123          2
   125          2
   129          2
   131          1
   133          5
   135        217
   136         19
   137         12
   138          2
   140          1
   149          8
   150          1
   152          4
   171          3
   176         10
   177        542
   178         62
   179         26
   180          4