##TITLE=Library Entry 62366
##JCAMP-DX=Revision 4.10 
##DATA TYPE=MASS SPECTRUM
##SAMPLE DESCRIPTION=CONTINENTAL OIL CO., PONCA CITY, OKLA, USA
##NAMES=HP
##CAS NAME=Benzene, (1-butyloctyl)-
##MOLFORM=C18H30
##CAS REGISTRY NO=2719-63-3
##MP= -300
##BP= -300
##MW= 246
##$RETENTION INDEX=1730
##$CONDENSED SPECTRUM=NO
##NPOINTS= 108
##XYDATA=(XY..XY) 1 
    27         42
    28         10
    29         62
    30          1
    38          0
    39         18
    40          3
    41         68
    42          6
    43         48
    44          2
    50          1
    51          6
    52          2
    53          5
    54          1
    55         23
    56          3
    57         11
    58          0
    62          0
    63          2
    64          1
    65         11
    66          1
    67          3
    68          1
    69         15
    70          1
    71          4
    74          1
    75          2
    76          3
    77         30
    78         25
    79         14
    80          1
    81          1
    82          0
    83          2
    84          0
    85          9
    86          0
    87          0
    88          0
    89          6
    90          5
    91        999
    92         84
    93          4
    94          0
    95          0
    97          3
    98          0
    99          0
   100          0
   101          2
   102          6
   103         26
   104         79
   105        112
   106         10
   107          0
   111          1
   112          0
   113          0
   114          1
   115         26
   116         10
   117         51
   118         15
   119         29
   120          3
   121          0
   126          0
   127          2
   128          6
   129          5
   130          2
   131          6
   132          2
   133         20
   134          2
   135          0
   141          1
   142          0
   143          0
   145          3
   146         10
   147        231
   148         36
   149          2
   160          0
   161          1
   162          0
   167          0
   175          0
   187          0
   188          4
   189        123
   190         22
   191          2
   203          0
   217          0
   244          0
   246         78
   247         16
   248          1