##TITLE=Library Entry 19294
##JCAMP-DX=Revision 4.10 
##DATA TYPE=MASS SPECTRUM
##SAMPLE DESCRIPTION=Chemical Concepts
##NAMES=HP
##CAS NAME=Oxacyclotetradecan-2-one, 14-methyl-
##MOLFORM=C14H26O2
##CAS REGISTRY NO=27198-63-6
##MP= -300
##BP= -300
##MW= 226
##$RETENTION INDEX=1643
##$CONDENSED SPECTRUM=NO
##NPOINTS= 128
##XYDATA=(XY..XY) 1 
    26          9
    27        212
    28        112
    29        354
    30         10
    31         14
    39        188
    40         47
    41        908
    42        298
    43        491
    44         26
    45         79
    51         10
    52          8
    53         85
    54        133
    55        999
    56        376
    57        235
    58        200
    59         79
    60         80
    61         16
    65         14
    66         18
    67        222
    68        205
    69        601
    70        281
    71        251
    72         27
    73         90
    74         11
    77         13
    78          9
    79         53
    80         49
    81        210
    82        268
    83        448
    84        327
    85         88
    86         22
    87         40
    88          7
    91         14
    92          6
    93         46
    94         56
    95        190
    96        232
    97        375
    98        479
    99         70
   100         69
   101         70
   102         14
   105          7
   107         36
   108         61
   109        101
   110        140
   111        276
   113         49
   114        105
   115         39
   116         16
   119         26
   120         10
   121         39
   122         66
   123         86
   124        186
   125        166
   126         74
   127         72
   128         24
   129         27
   130         14
   133         25
   134         32
   135         47
   136         15
   137         68
   138         69
   139         97
   140         26
   141         20
   142          8
   143         17
   144         11
   147         19
   148         25
   149         24
   150          7
   151         54
   152         39
   153         34
   154         26
   155         15
   157          8
   158          8
   161         16
   164        106
   165         54
   166        111
   167         43
   168          6
   169         10
   175         10
   179         26
   180         15
   182        221
   183         48
   184          9
   190         50
   191          8
   193         10
   197          7
   198          7
   208        192
   209         33
   211         49
   212         10
   225          7
   226         22
   227          4