##TITLE=Library Entry 72892
##JCAMP-DX=Revision 4.10 
##DATA TYPE=MASS SPECTRUM
##SAMPLE DESCRIPTION=NIST Mass Spectrometry Data Center
##NAMES=HP
##CAS NAME=2-Acetamidothiazole
##MOLFORM=C5H6N2OS
##CAS REGISTRY NO=2719-23-5
##MP= -300
##BP= -300
##MW= 142
##$RETENTION INDEX=0
##$CONDENSED SPECTRUM=NO
##NPOINTS= 56
##XYDATA=(XY..XY) 1 
    13          1
    14          6
    15         37
    25          1
    26          7
    27          9
    28         19
    29          4
    32          6
    33          1
    38          6
    39         10
    40         15
    41         16
    42         35
    43        512
    44         22
    45        123
    46         31
    47          8
    48          2
    51          3
    52          3
    53         10
    54          6
    55        103
    56          8
    57         37
    58        206
    59         21
    60         12
    61          1
    66          2
    67          1
    69          1
    70         11
    71         14
    72          7
    73        141
    74          6
    75          6
    82          2
    83          3
    85          1
    86          2
    98          2
    99         14
   100        999
   101         51
   102         47
   103          2
   113          3
   127         10
   142        253
   143         18
   144         12