##TITLE=Library Entry 52166
##JCAMP-DX=Revision 4.10 
##DATA TYPE=MASS SPECTRUM
##SAMPLE DESCRIPTION=Japan AIST/NIMC Database- Spectrum MS-NW-4877
##NAMES=HP
##CAS NAME=Cyclohexanecarbonyl chloride
##MOLFORM=C7H11ClO
##CAS REGISTRY NO=2719-27-9
##MP= -300
##BP= -300
##MW= 146
##$RETENTION INDEX=0
##$CONDENSED SPECTRUM=NO
##NPOINTS= 80
##XYDATA=(XY..XY) 1 
    15          6
    18          1
    26         15
    27        106
    28         15
    29         62
    30          2
    32          1
    35          4
    36         29
    37          5
    38         10
    39        122
    40         27
    41        326
    42         35
    43         27
    44          3
    45          1
    49          2
    50         11
    51         20
    52         10
    53         55
    54         96
    55        589
    56         67
    57          4
    60          3
    61          2
    62          1
    63          8
    64          1
    65          9
    66         10
    67        145
    68         77
    69         14
    70          2
    73          9
    74          2
    75          4
    76          2
    77         10
    78          4
    79         21
    80          5
    81         59
    82         49
    83        999
    84         71
    85          2
    86          1
    87          1
    89          2
    91         14
    92          3
    93          5
    95          2
    96          2
    97          4
    99          3
   102          2
   104         17
   105          4
   106          6
   107          1
   109          9
   110         54
   111        103
   112          9
   113          1
   117          4
   118          4
   119          1
   120          1
   128          2
   146          8
   147          1
   148          3