##TITLE=Library Entry 62080
##JCAMP-DX=Revision 4.10 
##DATA TYPE=MASS SPECTRUM
##SAMPLE DESCRIPTION=CONTINENTAL OIL CO., PONCA CITY, OKLA, USA
##NAMES=HP
##CAS NAME=Benzene, (1-propylnonyl)-
##MOLFORM=C18H30
##CAS REGISTRY NO=2719-64-4
##MP= -300
##BP= -300
##MW= 246
##$RETENTION INDEX=1742
##$CONDENSED SPECTRUM=NO
##NPOINTS= 109
##XYDATA=(XY..XY) 1 
    26          2
    27         48
    28          8
    29         65
    30          1
    38          0
    39         21
    40          3
    41         66
    42          8
    43         50
    44          2
    50          1
    51          6
    52          2
    53          6
    54          2
    55         30
    56          3
    57         23
    58          1
    63          3
    64          1
    65         12
    66          1
    67          3
    68          1
    69         12
    70          1
    71          4
    72          0
    73          0
    74          1
    75          2
    76          3
    77         32
    78         25
    79         13
    80          1
    81          2
    82          0
    83          4
    84          0
    85          3
    86          0
    88          1
    89          6
    90          3
    91        999
    92         87
    93          3
    94          1
    95          0
    96          0
    97          0
    98          0
    99          1
   100          0
   101          1
   102          6
   103         25
   104         48
   105         75
   106          6
   107          0
   109          0
   111          1
   113          1
   114          0
   115         24
   116         10
   117         46
   118         12
   119         25
   120          2
   121          0
   123          0
   125          0
   127          2
   128          6
   129          5
   130          2
   131          7
   132         12
   133        267
   134         39
   135          2
   141          0
   142          0
   144          1
   145          1
   146         13
   147          1
   155          0
   159          0
   160          1
   161          5
   162          0
   175          0
   176          0
   189          1
   202          3
   203        101
   204         20
   205          1
   217          0
   246         77
   247         15
   248          1