##TITLE=Library Entry 100500
##JCAMP-DX=Revision 4.10 
##DATA TYPE=MASS SPECTRUM
##SAMPLE DESCRIPTION=NIST Mass Spectrometry Data Center, 2010
##NAMES=HP
##CAS NAME=Benzoic acid, 2-(acetylamino)-, methyl ester
##MOLFORM=C10H11NO3
##CAS REGISTRY NO=2719-08-6
##MP= -300
##BP= -300
##MW= 193
##$RETENTION INDEX=1615
##$CONDENSED SPECTRUM=NO
##NPOINTS= 92
##XYDATA=(XY..XY) 1 
    14          2
    15         18
    26          1
    27          4
    28          9
    29          7
    30          2
    31          3
    32          1
    37          6
    38         19
    39         48
    40          6
    41         14
    42         16
    43        248
    44          8
    45          6
    49          1
    50         21
    51         22
    52         36
    53         13
    54          3
    55          1
    58          1
    59          7
    60          1
    61          5
    62         18
    63         77
    64         78
    65        112
    66         15
    67          2
    68          1
    69          1
    73          1
    74          7
    75          7
    76         13
    77         26
    78          8
    79          7
    80          2
    81          1
    87          1
    88          3
    89          6
    90         87
    91         53
    92        241
    93         28
    94          4
    95          2
   102          3
   103          1
   104          6
   105          5
   106          3
   107          3
   116          2
   117         14
   118          9
   119        999
   120        206
   121         17
   122          1
   130          1
   132         11
   133          3
   134          8
   135          3
   144          8
   145          1
   146         51
   147          5
   148          1
   150          7
   151        575
   152         52
   153          4
   160          2
   161          7
   162         40
   163          4
   164          1
   178          1
   192          1
   193        193
   194         21
   195          2