##TITLE=Library Entry 58781
##JCAMP-DX=Revision 4.10 
##DATA TYPE=MASS SPECTRUM
##SAMPLE DESCRIPTION=NIST Mass Spectrometry Data Center, 1994
##NAMES=HP
##CAS NAME=2-Nitrophenyl isothiocyanate
##MOLFORM=C7H4N2O2S
##CAS REGISTRY NO=2719-30-4
##MP= -300
##BP= -300
##MW= 180
##$RETENTION INDEX=0
##$CONDENSED SPECTRUM=NO
##NPOINTS= 108
##XYDATA=(XY..XY) 1 
    14          6
    16          9
    25          6
    26         36
    27         46
    28         46
    29          6
    30        222
    31          6
    32         64
    33          2
    36          9
    37        120
    38        144
    39        345
    40         22
    41          4
    44         91
    45        118
    46         70
    47         10
    48         64
    49         55
    50        441
    51        159
    52         71
    53         22
    54          5
    56          6
    57         24
    58         39
    59         13
    60         21
    61         56
    62         92
    63        625
    64        342
    65         25
    66          8
    67          4
    68         14
    69         79
    70         82
    71         21
    72         13
    73         39
    74        197
    75        254
    76        160
    77        266
    78        122
    79         13
    80         10
    81         26
    82         39
    83         45
    84         47
    85          6
    86         15
    87         35
    88         32
    89          6
    90        999
    91         77
    92         28
    93         21
    94         36
    95         59
    96         32
    97         65
    98          7
    99         11
   100          5
   102         10
   104        499
   105         46
   106         89
   107        170
   108         61
   109         52
   110         18
   118         29
   119         18
   120         36
   121         18
   122        108
   123         14
   124         63
   125         31
   126          6
   132         26
   133         75
   134        194
   135         31
   136         49
   137          5
   138         30
   139          3
   148         28
   150        152
   151         19
   152        176
   153         18
   154          7
   164          5
   180        576
   181         55
   182         31