##TITLE=Library Entry 81255
##JCAMP-DX=Revision 4.10 
##DATA TYPE=MASS SPECTRUM
##SAMPLE DESCRIPTION=Japan AIST/NIMC Database- Spectrum MS-IW-2821
##NAMES=HP
##CAS NAME=Benzene, (1-methylbutyl)-
##MOLFORM=C11H16
##CAS REGISTRY NO=2719-52-0
##MP= -300
##BP= -300
##MW= 148
##$RETENTION INDEX=1078
##$CONDENSED SPECTRUM=NO
##NPOINTS= 55
##XYDATA=(XY..XY) 1 
    27         13
    28          1
    29          5
    38          1
    39         14
    40          1
    41         15
    42          1
    43          3
    50          6
    51         19
    52          5
    53          4
    55          5
    57          1
    62          1
    63          7
    64          2
    65         11
    66          1
    70          1
    74          2
    75          2
    76          2
    77         56
    78         19
    79         48
    80          3
    87          1
    89          4
    90          1
    91        143
    92         11
    94          1
   101          1
   102          4
   103         35
   104         28
   105        999
   106        109
   107          6
   115          9
   116          3
   117          6
   118          2
   119          9
   120          1
   128          1
   129          1
   131          1
   133         10
   134          1
   148        196
   149         23
   150          1