##TITLE=Library Entry 80685
##JCAMP-DX=Revision 4.10 
##DATA TYPE=MASS SPECTRUM
##SAMPLE DESCRIPTION=D.HENNEBERG, MAX-PLANCK INSTITUTE, MULHEIM, WEST GERMAN
Y
##NAMES=HP
##CAS NAME=Benzene, (1-methylundecyl)-
##MOLFORM=C18H30
##CAS REGISTRY NO=2719-61-1
##MP= -300
##BP= -300
##MW= 246
##$RETENTION INDEX=1808
##$CONDENSED SPECTRUM=NO
##NPOINTS= 106
##XYDATA=(XY..XY) 1 
    24          0
    25          0
    26          1
    27         19
    28          9
    29         29
    30          1
    34          0
    36          0
    38          0
    39         11
    40          0
    41         50
    42          8
    43         41
    44          0
    45          0
    46          0
    47          0
    50          1
    51          6
    52          1
    53          4
    54          2
    55         20
    56          6
    57         17
    58          1
    59          1
    60          1
    61          0
    62          0
    63          1
    64          0
    65          6
    66          1
    67          1
    68          0
    69          7
    70          2
    71          3
    72          0
    74          0
    75          1
    76          0
    77         27
    78         12
    79         37
    80          2
    81          1
    82          0
    83          1
    84          0
    85          2
    86          0
    87          0
    88          0
    89          1
    90          1
    91         94
    92          7
    93          0
    96          0
    97          0
    99          0
   102          1
   103         19
   104         42
   105        999
   106        125
   107          8
   112          0
   113          0
   114          0
   115          5
   116          2
   117          6
   118          5
   119         10
   120          4
   121          0
   125          0
   127          0
   128          1
   129          1
   131          2
   132          0
   133          3
   134          0
   138          0
   141          0
   147          4
   148          0
   149          0
   162          0
   168          0
   169          0
   175          0
   176          0
   189          1
   207          1
   230          0
   231          1
   245          0
   246         32
   247          6