##TITLE=Library Entry 61008
##JCAMP-DX=Revision 4.10 
##DATA TYPE=MASS SPECTRUM
##SAMPLE DESCRIPTION=D.HENNEBERG, MAX-PLANCK INSTITUTE, MULHEIM, WEST GERMAN
Y
##NAMES=HP
##CAS NAME=Benzene, (1-pentylheptyl)-
##MOLFORM=C18H30
##CAS REGISTRY NO=2719-62-2
##MP= -300
##BP= -300
##MW= 246
##$RETENTION INDEX=1726
##$CONDENSED SPECTRUM=NO
##NPOINTS= 114
##XYDATA=(XY..XY) 1 
    24          0
    25          0
    26          0
    27         23
    28          3
    29         44
    30          0
    32          0
    37          0
    38          0
    39         13
    40          0
    41         61
    42          5
    43         43
    45          0
    46          1
    47          1
    48          0
    50          0
    51          5
    52          2
    53          4
    54          1
    55         35
    56          4
    57         12
    58          1
    59          0
    60          0
    61          0
    63          2
    64          1
    65         11
    66          1
    67          3
    69         10
    70          1
    71          9
    72          0
    73          0
    74          0
    75          1
    76          1
    77         13
    78         14
    79         10
    80          1
    81          2
    82          0
    83         10
    84          1
    85          0
    88          1
    89          4
    90          3
    91        999
    92         79
    93          3
    95          0
    96          0
    97          3
    98          0
    99          0
   100          0
   101          1
   102          2
   103         15
   104         49
   105        185
   106         15
   107          0
   108          0
   109          0
   111          0
   113          0
   114          0
   115         12
   116          4
   117         22
   118          8
   119         75
   120          8
   121          0
   126          0
   127          0
   128          2
   129          2
   130          0
   131          2
   132          1
   133         19
   134          2
   145          0
   146          0
   147          3
   148          0
   159          0
   160          4
   161        100
   162         18
   163          1
   173          0
   174          4
   175         77
   176         13
   177          0
   189          0
   201          0
   203          0
   204          0
   246         29
   247          4
   248          0