##TITLE=Library Entry 76219
##JCAMP-DX=Revision 4.10 
##DATA TYPE=MASS SPECTRUM
##SAMPLE DESCRIPTION=Exported from NIST MS Search
##NAMES=HP
##CAS NAME=Benzo[b]tellurophene
##MOLFORM=C8H6Te
##CAS REGISTRY NO=272-35-5
##MP= -300
##BP= -300
##MW= 232
##$RETENTION INDEX=0
##$CONDENSED SPECTRUM=NO
##NPOINTS= 27
##XYDATA=(XY..XY) 1 
    63         44
    74        100
    75        155
    76        231
    89         17
    90         22
   101         88
   102        999
   103        100
   114         13
   115         13
   116         17
   124         13
   125         13
   126         40
   128         66
   130         82
   224         44
   225         28
   226         88
   227        133
   228        275
   229         40
   230        457
   231         62
   232        488
   233         62