##TITLE=Library Entry 99881
##JCAMP-DX=Revision 4.10 
##DATA TYPE=MASS SPECTRUM
##SAMPLE DESCRIPTION=NIST Mass Spectrometry Data Center, 1994
##NAMES=HP
##CAS NAME=5-Azabenzimidazole
##MOLFORM=C6H5N3
##CAS REGISTRY NO=272-97-9
##MP= -300
##BP= -300
##MW= 119
##$RETENTION INDEX=0
##$CONDENSED SPECTRUM=NO
##NPOINTS= 39
##XYDATA=(XY..XY) 1 
    24          4
    25         13
    26         36
    27         23
    28        138
    36         19
    37        146
    38        274
    39         76
    40         83
    41         91
    42          9
    46          3
    49         10
    50         21
    51         62
    52        184
    53         26
    54          7
    60         13
    62         21
    63         62
    64        224
    65        238
    66         89
    67         24
    68         15
    75          5
    76          6
    77         11
    78          6
    79         15
    90          7
    91         47
    92        328
    93         31
   118         90
   119        999
   120         83