##TITLE=Library Entry 72165
##JCAMP-DX=Revision 4.10 
##DATA TYPE=MASS SPECTRUM
##SAMPLE DESCRIPTION=Japan AIST/NIMC Database- Spectrum MS-NW-9636
##NAMES=HP
##CAS NAME=2H-Pyran-2-one, tetrahydro-6-nonyl-
##MOLFORM=C14H26O2
##CAS REGISTRY NO=2721-22-4
##MP= -300
##BP= -300
##MW= 226
##$RETENTION INDEX=1938
##$CONDENSED SPECTRUM=NO
##NPOINTS= 146
##XYDATA=(XY..XY) 1 
    14          1
    15          1
    16          1
    17          8
    18         41
    26          2
    27         38
    28         21
    29         62
    30          1
    31          2
    32          8
    38          1
    39         30
    40          7
    41        173
    42        163
    43        195
    44         12
    45          5
    50          1
    51          2
    52          1
    53         12
    54         30
    55        271
    56        117
    57         98
    58         15
    59          5
    60         20
    61          2
    65          4
    66          4
    67         58
    68         79
    69        183
    70        307
    71        284
    72         17
    73         41
    74          3
    77          4
    78          2
    79         12
    80          8
    81         62
    82         66
    83        142
    84         95
    85         30
    86         36
    87         15
    88          2
    91          8
    92          2
    93          9
    94         10
    95         51
    96         86
    97        116
    98         70
    99        999
   100        112
   101         22
   102          3
   105          4
   106          2
   107          7
   108         10
   109         23
   110         48
   111         46
   112         35
   113         37
   114        113
   115         24
   116          4
   117          1
   118          1
   119         14
   120          5
   121          8
   122          5
   123         24
   124         33
   125         22
   126          9
   127         16
   128          9
   129          5
   130          2
   131          1
   133         14
   134         26
   135          9
   136          3
   137         24
   138         15
   139          9
   140          2
   141          9
   142          8
   143          4
   144          2
   147          9
   148         10
   149          3
   150          2
   151         18
   152          9
   153          4
   154          4
   155         20
   156          3
   157          2
   158          1
   161          8
   162          2
   164         40
   165         15
   166         21
   167          5
   168          1
   169          3
   170          3
   171          1
   175          1
   179          6
   180          3
   181          1
   183          5
   184          1
   189          1
   190          6
   191          4
   193          1
   197          2
   198          1
   199          1
   208         12
   209          9
   210          1
   225          3
   226         20
   227          3