##TITLE=Library Entry 32649
##JCAMP-DX=Revision 4.10 
##DATA TYPE=MASS SPECTRUM
##SAMPLE DESCRIPTION=Chemical Concepts
##NAMES=HP
##CAS NAME=2,3-Diazabicyclo[2.2.1]-hept-2-ene
##MOLFORM=C5H8N2
##CAS REGISTRY NO=2721-32-6
##MP= -300
##BP= -300
##MW= 96
##$RETENTION INDEX=0
##$CONDENSED SPECTRUM=NO
##NPOINTS= 41
##XYDATA=(XY..XY) 1 
    25          3
    26         46
    27        168
    28         91
    29         14
    30          1
    31          9
    33          2
    34          2
    36          1
    37         24
    38         65
    39        375
    40        241
    41        258
    42        136
    43          4
    49          4
    50         19
    51         30
    52         25
    53        320
    54         24
    55         15
    56          0
    57          1
    60          1
    61          6
    62         10
    63         15
    64          3
    65         74
    66         65
    67        999
    68        457
    69         40
    70          1
    81          1
    95          5
    96          2
    97          6