##TITLE=Library Entry 39574
##JCAMP-DX=Revision 4.10 
##DATA TYPE=MASS SPECTRUM
##SAMPLE DESCRIPTION=J. SHAW, BORRISTON RESEARCH, ROCKVILLE, MD, USA
##NAMES=HP
##CAS NAME=Carbamic acid, dimethyl-, 2-(formylmethylamino)-5,6-dimethyl-4-py
rimidinyl ester
##MOLFORM=C11H16N4O3
##CAS REGISTRY NO=27218-04-8
##MP= -300
##BP= -300
##MW= 252
##$RETENTION INDEX=0
##$CONDENSED SPECTRUM=NO
##NPOINTS= 121
##XYDATA=(XY..XY) 1 
    12          2
    13          1
    14         11
    15        450
    16         21
    17         80
    18        466
    19          2
    20          1
    26         20
    27        144
    28        208
    29         49
    30         47
    31          4
    32          9
    36          1
    37          1
    38          5
    39         40
    40         22
    41         79
    42        282
    43         65
    44         48
    45         12
    46         24
    47          1
    50          4
    51         13
    52         26
    53         72
    54         37
    55         74
    56         91
    57         77
    58          8
    59          1
    60          1
    61          1
    63          1
    64          2
    65          3
    66         12
    67         25
    68         35
    69         52
    70         11
    72        999
    73         80
    74          7
    75          1
    77          2
    78          2
    79          7
    80          9
    81          8
    82         11
    83         41
    84          3
    85          3
    87          1
    90          1
    91          1
    92          1
    93          7
    94          6
    95         28
    96         17
    97         19
    98         33
    99          2
   105          1
   107          3
   108          2
   109         11
   110          4
   111          2
   112          1
   120          3
   121          1
   122          2
   123         12
   124         37
   125          9
   127         32
   128         20
   129          1
   134          3
   135          8
   136          7
   137         11
   138         17
   139          4
   140          3
   141          3
   149          2
   150          1
   151          9
   152        166
   153         66
   154         44
   155          4
   156          1
   165          2
   166          7
   167          3
   171          1
   179          9
   180         15
   181          7
   182          6
   194          1
   207          9
   208          5
   209          2
   224        107
   225         12
   226          1
   252         11
   253          2