##TITLE=Library Entry 4371
##JCAMP-DX=Revision 4.10 
##DATA TYPE=MASS SPECTRUM
##SAMPLE DESCRIPTION=Div. of Experiment Therapeutics WRAIR, WRAMC, Washingto
n DC 20307
##NAMES=HP
##CAS NAME=1-[4-Cyclohexybutyl]-2-[3,4,5-trimethoxybenzyl]naphth[1,2]imidazo
le-4,5-dione
##MOLFORM=C31H36N2O5
##CAS REGISTRY NO=27223-83-2
##MP= -300
##BP= -300
##MW= 516
##$RETENTION INDEX=0
##$CONDENSED SPECTRUM=NO
##NPOINTS= 101
##XYDATA=(XY..XY) 1 
    41        999
    42        101
    43        294
    44        120
    45         96
    47         62
    48         16
    49         21
    51          9
    53         67
    54         29
    55        688
    56         83
    57        117
    58         76
    60         53
    63         13
    64         46
    65         45
    66         12
    67        112
    69        162
    70         63
    71         52
    72         92
    77         68
    78         54
    79         61
    81        105
    83        120
    84         19
    86         15
    88         27
    89         36
    90         27
    91         66
    93         82
    95         78
    97         27
    98         90
   100         57
   102         58
   103         12
   104         41
   107         13
   114         13
   115         52
   116         48
   119         12
   123         12
   129         53
   130        111
   136         40
   137         43
   138         28
   148         76
   151         52
   165         13
   167         30
   168         27
   171         85
   179         15
   181        464
   182         62
   183         74
   192         14
   195         38
   196         12
   209         12
   211         57
   225         32
   233         12
   239         12
   248         13
   249         13
   261         13
   303         50
   305         51
   307        101
   318         42
   319         40
   333         13
   335        182
   336         44
   349         52
   350         72
   363         33
   377        101
   378         60
   379         45
   391         12
   405         46
   473         66
   487         28
   501         59
   502         14
   515        129
   516        702
   517        269
   518        178
   519         52