##TITLE=Library Entry 109548
##JCAMP-DX=Revision 4.10 
##DATA TYPE=MASS SPECTRUM
##SAMPLE DESCRIPTION=Chemical Concepts
##NAMES=HP
##CAS NAME=Econazole
##MOLFORM=C18H15Cl3N2O
##CAS REGISTRY NO=27220-47-9
##MP= -300
##BP= -300
##MW= 380
##$RETENTION INDEX=0
##$CONDENSED SPECTRUM=NO
##NPOINTS= 124
##XYDATA=(XY..XY) 1 
    26         11
    27         41
    28         38
    29          7
    30         24
    38          4
    39         25
    40         16
    41         14
    42          7
    43          4
    45          5
    46         38
    50         18
    51         28
    52         21
    53         14
    54         75
    55          6
    61          3
    62          9
    63         38
    64         11
    65         10
    68          2
    69          3
    73         14
    74         13
    75         40
    76         10
    77         30
    78          5
    79          3
    81        238
    82         16
    84          2
    85          6
    86          3
    87          5
    88          4
    89         94
    90         55
    91         12
    97          2
    98          3
    99         37
   100          4
   101         24
   102         15
   103          4
   104          2
   105          2
   109          8
   110          5
   111         21
   112          6
   113         10
   114          4
   115          5
   123          9
   124          5
   125        999
   126         95
   127        388
   128         31
   135          5
   136          8
   137         19
   138         15
   139         20
   140          8
   141          7
   145          8
   146          3
   147          6
   148          3
   149         10
   150          3
   151          3
   152          3
   159         12
   161          9
   162          2
   163          3
   164          3
   165          3
   166          2
   167          3
   168          6
   169          3
   171          4
   172         44
   173         23
   174         35
   175         17
   176         10
   177          5
   178          3
   203         10
   204          4
   205          7
   206         70
   207         10
   208         24
   209          3
   240          9
   241          2
   242          4
   299         42
   300          6
   301         38
   302          6
   303         14
   304          2
   305          2
   345          5
   346          3
   347          4
   380         33
   381          8
   382         34
   383          8
   384         12
   385          4