##TITLE=Library Entry 80823
##JCAMP-DX=Revision 4.10 
##DATA TYPE=MASS SPECTRUM
##SAMPLE DESCRIPTION=Japan AIST/NIMC Database- Spectrum MS-NW-5575
##NAMES=HP
##CAS NAME=3-Phenyl-1-butanol
##MOLFORM=C10H14O
##CAS REGISTRY NO=2722-36-3
##MP= -300
##BP= -300
##MW= 150
##$RETENTION INDEX=0
##$CONDENSED SPECTRUM=NO
##NPOINTS= 79
##XYDATA=(XY..XY) 1 
    15          4
    17          1
    18          9
    19          1
    26          3
    27         41
    28          9
    29          9
    31         40
    32          1
    37          1
    38          5
    39         52
    40          4
    41         50
    42          3
    43          6
    44          2
    45          2
    50         20
    51         67
    52         16
    53         13
    54          4
    55          5
    57          8
    58          1
    61          1
    62          6
    63         20
    64          5
    65         30
    66          4
    67          1
    71          1
    72          2
    74          8
    75          8
    76          8
    77        139
    78         65
    79        129
    80          9
    86          1
    87          2
    89          9
    90          3
    91        245
    92         21
    93          2
    94          1
   101          2
   102         10
   103         86
   104         55
   105        999
   106        229
   107         20
   108          2
   115         31
   116          9
   117        368
   118         40
   119         14
   120          2
   127          1
   128          3
   129          3
   130          3
   131         58
   132        244
   133         29
   134          2
   135          2
   147          1
   148          2
   150        118
   151         13
   152          1