##TITLE=Library Entry 2358
##JCAMP-DX=Revision 4.10 
##DATA TYPE=MASS SPECTRUM
##SAMPLE DESCRIPTION=Div. of Experiment Therapeutics WRAIR, WRAMC, Washingto
n DC 20307
##NAMES=HP
##CAS NAME=1-Pentyl-2-piperidinomethylnaphth[1,2-d]imidazole-4,5-dione
##MOLFORM=C22H27N3O2
##CAS REGISTRY NO=27223-90-1
##MP= -300
##BP= -300
##MW= 365
##$RETENTION INDEX=0
##$CONDENSED SPECTRUM=NO
##NPOINTS= 90
##XYDATA=(XY..XY) 1 
    41        999
    42        633
    43        874
    44        118
    50         10
    51         41
    52         46
    53         80
    54        108
    55        550
    56        136
    57         40
    63         24
    67         52
    68         50
    69         91
    70         91
    75         32
    76         46
    77         54
    80         21
    82         64
    83         97
    84        325
    86         12
    88         60
    89         75
    96         35
    97         10
    98        459
   100         15
   101         45
   102        110
   103         67
   104         63
   113         10
   114        149
   115        179
   116         61
   126         38
   127         59
   128         70
   129        112
   130        297
   131         23
   140         41
   141         43
   142         49
   143         42
   144         42
   153         11
   154         52
   155         61
   156         65
   157         35
   158         26
   167         10
   168         21
   169         37
   170         41
   171         38
   181         29
   182         23
   183        226
   184        581
   185        107
   197        136
   198         58
   199         42
   209         20
   211         68
   212         75
   213         75
   214        138
   215         10
   225         62
   226        153
   227         12
   228         10
   239        106
   240         13
   253         52
   267        384
   268         83
   269         99
   282        225
   283         52
   284         34
   365         79
   366         19