##TITLE=Library Entry 21868
##JCAMP-DX=Revision 4.10 
##DATA TYPE=MASS SPECTRUM
##SAMPLE DESCRIPTION=Div. of Experiment Therapeutics WRAIR, WRAMC, Washingto
n DC 20307
##NAMES=HP
##CAS NAME=1-[4-Cyclohexylbutyl]-2-[3-cyclohexylpropyl]naphth[1,2-d]imidazol
e-4,5-dione
##MOLFORM=C30H40N2O2
##CAS REGISTRY NO=27223-84-3
##MP= -300
##BP= -300
##MW= 460
##$RETENTION INDEX=0
##$CONDENSED SPECTRUM=NO
##NPOINTS= 232
##XYDATA=(XY..XY) 1 
    41        862
    42         68
    43        261
    44         32
    45         16
    47         24
    48         12
    49         16
    51          7
    52         11
    53         93
    54         67
    55        999
    56         36
    57         84
    58          4
    59          3
    60         14
    63          7
    65         24
    66         12
    67        275
    68         43
    69        217
    70         24
    71         26
    73         12
    75          8
    76          9
    77         43
    78         16
    79         79
    80         26
    81        189
    82         11
    83        163
    84          9
    86          7
    88         31
    89         48
    91         40
    93         37
    94         10
    95        115
    96         11
    97         43
    98          9
    99          6
   100          2
   101         25
   102         64
   103         48
   104         51
   105         18
   106          7
   107         18
   108          5
   109         21
   111         10
   113          4
   114         35
   115         94
   116         48
   117         26
   118         11
   119          4
   121          8
   122          7
   123          4
   125          2
   126         10
   127         19
   128         34
   129         99
   130        145
   131         20
   132         19
   133          7
   135         14
   136          5
   137          2
   139          4
   140         17
   141         18
   142         30
   143         33
   144         35
   145         13
   146          9
   148          2
   149         11
   150         23
   152          9
   153          7
   154         23
   155         29
   156         44
   157         30
   158         49
   159         24
   160          9
   161          6
   166          9
   167         13
   168         22
   169         27
   170         41
   171         55
   172         27
   173          7
   179         10
   180          7
   181         20
   182         32
   183        134
   184        423
   185        112
   186         25
   187          7
   189          3
   192          3
   193          6
   194          6
   195         25
   196         35
   197        206
   198        286
   199         58
   200         12
   201          3
   206          4
   207          6
   208          7
   209         40
   210         37
   211        104
   212        171
   213        106
   214        108
   215         17
   221         13
   222          6
   223         42
   224         23
   225        182
   226        177
   227         45
   228         55
   229          9
   230          7
   231          2
   235          7
   236          7
   237         26
   238         17
   239        251
   240         92
   241         53
   242         15
   249          8
   250          5
   251         47
   252          9
   253        183
   254         64
   255         28
   256          9
   263          6
   265         19
   266          2
   267         86
   268         29
   269         18
   277          4
   279         64
   280         14
   281         18
   282          8
   291          3
   293         22
   294         14
   295         14
   297          9
   307         23
   308          7
   309          8
   319          5
   321         56
   322         69
   323         39
   324          8
   331         11
   332          7
   333         19
   335        958
   336        239
   337         89
   338         18
   347          9
   349         65
   350        337
   351         78
   352         13
   359          3
   360          2
   361         10
   363        487
   364        180
   365         91
   366         21
   375          4
   377         99
   378         30
   379         10
   391          3
   392          6
   403          4
   417         44
   418         14
   419          6
   431         16
   432         10
   444          7
   445         15
   446          5
   457         10
   458         12
   459         74
   460        814
   461        309
   462         80
   463         15