##TITLE=Library Entry 60380
##JCAMP-DX=Revision 4.10 
##DATA TYPE=MASS SPECTRUM
##SAMPLE DESCRIPTION=Div. of Experiment Therapeutics WRAIR, WRAMC, Washingto
n DC 20307
##NAMES=HP
##CAS NAME=1-Benzyl-2-piperidinomethylnaphth[1,2-d]imidazole-4,5-dione
##MOLFORM=C24H23N3O2
##CAS REGISTRY NO=27223-92-3
##MP= -300
##BP= -300
##MW= 385
##$RETENTION INDEX=0
##$CONDENSED SPECTRUM=NO
##NPOINTS= 95
##XYDATA=(XY..XY) 1 
    41        148
    42        129
    43         38
    44         50
    45          2
    47         16
    48          5
    49         11
    50         11
    51          3
    52         13
    53         12
    54         25
    55        105
    56         52
    57         19
    62          2
    63         17
    64          2
    65         96
    67         18
    68         11
    69         22
    70         23
    75          8
    76         10
    77         19
    79          2
    82         17
    83          8
    84        436
    85         10
    86          5
    88         18
    89         31
    91        999
    92         62
    96         12
    98        106
    99          6
   101         11
   102         24
   103         17
   104          8
   105          2
   113          2
   114         18
   115         24
   116         15
   126          8
   127         12
   128         13
   129         14
   130         49
   131          2
   142          8
   144          2
   154          6
   155          5
   156         15
   176          2
   182          2
   183        108
   184         17
   197          2
   199         23
   204          8
   211         21
   212         13
   213        130
   214         19
   216          2
   225          5
   227         16
   232          6
   246          4
   259         11
   271          2
   272          6
   273         12
   274         69
   275         14
   287         22
   288          9
   289         11
   301         83
   302        393
   303         98
   304        106
   305         20
   316          8
   384         18
   385         37
   386         10
   387          2