##TITLE=Library Entry 4064
##JCAMP-DX=Revision 4.10 
##DATA TYPE=MASS SPECTRUM
##SAMPLE DESCRIPTION=NIST Mass Spectrometry Data Center
##NAMES=HP
##CAS NAME=2-Propenoic acid, 2-methyl-3-(1-pyrrolidinyl)-, ethyl ester
##MOLFORM=C10H17NO2
##CAS REGISTRY NO=2723-42-4
##MP= -300
##BP= -300
##MW= 183
##$RETENTION INDEX=0
##$CONDENSED SPECTRUM=NO
##NPOINTS= 92
##XYDATA=(XY..XY) 1 
    12          8
    13          7
    14         27
    15        180
    16         17
    17          1
    18          9
    26        129
    27        662
    28        639
    29        736
    30        162
    32          7
    35          3
    36          4
    37         19
    39        736
    40        205
    41        999
    42        631
    43        329
    44         64
    45          9
    46          5
    50         11
    51         29
    52         67
    53        115
    54        162
    55        388
    56        108
    57         12
    58         15
    63          4
    64          7
    65         20
    67        219
    68        527
    69        385
    70        873
    71        108
    72         10
    77         27
    78          9
    79         43
    80        103
    81        102
    82        223
    83        426
    84         85
    85         96
    86         20
    91         26
    92         24
    93         68
    94         98
    95         28
    96        105
    97         33
    98         23
    99          9
   103         23
   104          6
   105         31
   106         13
   108         80
   110        873
   111        499
   112         53
   113         16
   118         15
   120        126
   121         15
   122         20
   123          3
   124         10
   125          4
   126         37
   127          5
   134          4
   136        101
   138        904
   139        110
   140         15
   152         11
   154        580
   155         77
   156          6
   166          5
   168          5
   183        324
   184         41