##TITLE=Library Entry 30464
##JCAMP-DX=Revision 4.10 
##DATA TYPE=MASS SPECTRUM
##SAMPLE DESCRIPTION=ASES Database, Dalian Institute, P.R. China
##NAMES=HP
##CAS NAME=Allyl dithioacetate
##MOLFORM=C5H8S2
##CAS REGISTRY NO=27249-83-8
##MP= -300
##BP= -300
##MW= 132
##$RETENTION INDEX=0
##$CONDENSED SPECTRUM=NO
##NPOINTS= 14
##XYDATA=(XY..XY) 1 
    39        167
    41        191
    43         59
    44         39
    45         98
    57         39
    58        120
    59        999
    74         59
    76         20
    91         60
    99         39
   117        270
   132        130