##TITLE=Library Entry 66494
##JCAMP-DX=Revision 4.10 
##DATA TYPE=MASS SPECTRUM
##SAMPLE DESCRIPTION=A.A.Kutin, Moscow, Russia
##NAMES=HP
##CAS NAME=Phenol, 4-[(2-nitrophenyl)azo]-
##MOLFORM=C12H9N3O3
##CAS REGISTRY NO=2724-85-8
##MP= -300
##BP= -300
##MW= 243
##$RETENTION INDEX=0
##$CONDENSED SPECTRUM=NO
##NPOINTS= 110
##XYDATA=(XY..XY) 1 
    36          1
    37          9
    38         37
    39        263
    40         26
    41         13
    42          4
    43         15
    44         19
    45          2
    46          2
    50         64
    51         66
    52         89
    53         69
    54          9
    55         18
    56          4
    57          6
    59         33
    60          5
    61          5
    62         17
    63         83
    64         96
    65        398
    66         25
    67          6
    68          3
    69          7
    71          6
    72         15
    73          3
    74         12
    75         17
    76         35
    77         26
    78         16
    79         18
    80         14
    81         31
    82          4
    83          4
    84          2
    85          2
    86          1
    87          2
    88          2
    89          5
    90          4
    93        999
    94         63
    95          5
    96          1
    97          2
    98          2
    99          1
   100          1
   101          2
   102          2
   103          1
   104          1
   105          2
   106          3
   107         20
   108          3
   109         29
   110          2
   111          2
   112          2
   113          3
   114          3
   115         13
   116          3
   119          5
   121        660
   122         44
   126          3
   127          4
   128          8
   129          2
   135          1
   136          1
   138          1
   139         20
   140          6
   141          3
   142          1
   150          6
   151          2
   152          3
   153          1
   154          7
   155          2
   167          1
   168          5
   169          2
   170          2
   171          1
   182          4
   183          1
   196          1
   211         30
   212          4
   227          3
   240          1
   241          3
   243        226
   244         31
   245          3