##TITLE=Library Entry 66689
##JCAMP-DX=Revision 4.10 
##DATA TYPE=MASS SPECTRUM
##SAMPLE DESCRIPTION=Japan AIST/NIMC Database- Spectrum MS-IW-2427
##NAMES=HP
##CAS NAME=Thiourea, N-methyl-N'-phenyl-
##MOLFORM=C8H10N2S
##CAS REGISTRY NO=2724-69-8
##MP= -300
##BP= -300
##MW= 166
##$RETENTION INDEX=0
##$CONDENSED SPECTRUM=NO
##NPOINTS= 105
##XYDATA=(XY..XY) 1 
    15          8
    26          1
    27          8
    28         28
    29          2
    30         32
    31          2
    32          3
    33          1
    34          1
    37          4
    38         11
    39         52
    40         10
    41          9
    42         19
    43          2
    44          4
    45         12
    46          3
    47         21
    49          2
    50         33
    51        104
    52         19
    53          5
    54          6
    55          4
    57        103
    58          4
    59         12
    60          9
    61          5
    62          8
    63         22
    64         19
    65        105
    66        108
    67         10
    68          1
    69          5
    70          3
    71          1
    72          9
    73          8
    74        243
    75         17
    76         24
    77        184
    78         30
    79          6
    80          7
    81          1
    82          9
    83         49
    84          4
    88          1
    89          1
    90          6
    91         49
    92         87
    93        999
    94         74
    95          3
    96          7
    97          6
   103          5
   104         26
   105          4
   106         30
   107          3
   108          5
   109         48
   110         88
   111          9
   112          4
   116          1
   117          3
   118         53
   119         10
   120          1
   122          3
   123          9
   124         16
   125          2
   131         15
   132         31
   133        164
   134         16
   135         26
   136         45
   137          5
   138          2
   148          5
   149          4
   150         33
   151          9
   152          2
   163          2
   164          1
   165         69
   166        862
   167         89
   168         41
   169          3