##TITLE=Library Entry 5442
##JCAMP-DX=Revision 4.10 
##DATA TYPE=MASS SPECTRUM
##SAMPLE DESCRIPTION=James Little
##NAMES=HP
##CAS NAME=3H-Pyrazol-3-one, 5-amino-2,4-dihydro-2-(2,4,6-trichlorophenyl)-
##MOLFORM=C9H6Cl3N3O
##CAS REGISTRY NO=27241-31-2
##MP= -300
##BP= -300
##MW= 277
##$RETENTION INDEX=0
##$CONDENSED SPECTRUM=NO
##NPOINTS= 231
##XYDATA=(XY..XY) 1 
    36         12
    37          8
    38          7
    39          4
    40         21
    41        272
    42        999
    43         29
    44          3
    45          1
    47          4
    48          1
    49          5
    50          6
    51          3
    52          2
    53          2
    54          2
    55         18
    56          4
    57          2
    58          1
    59          1
    60          3
    61         11
    62          8
    63          4
    64          2
    65          1
    66          1
    67          3
    68         15
    69          3
    70          3
    71          5
    72         10
    73         24
    74         37
    75          9
    76          3
    77          1
    78          1
    79          1
    80          1
    81          1
    82          1
    83          7
    84         18
    85          7
    86         10
    87         11
    88         18
    89          2
    90          1
    91          1
    92          1
    93          1
    94          1
    95          2
    96          3
    97         10
    98         16
    99          5
   100          7
   101          1
   102          3
   103          1
   104          1
   105          1
   106          2
   107         10
   108         22
   109         35
   110         12
   111         12
   112          3
   113          1
   114          1
   115          1
   116          1
   117          1
   118          2
   119          1
   120          2
   121          4
   122          9
   123          4
   124          5
   125          2
   126          1
   127          1
   128          1
   129          1
   130          6
   131         11
   132          4
   133          4
   134          3
   135          2
   136          3
   137          5
   138          9
   139         10
   140          3
   141          1
   142          1
   143         33
   144         22
   145         28
   146         16
   147          8
   148          4
   149          1
   150          1
   151          3
   152          1
   153          1
   154          1
   155          1
   156          1
   157          1
   158        100
   159         10
   160         65
   161          6
   162         11
   163          1
   164          1
   165          1
   166          1
   167          5
   168          1
   169          5
   170          3
   171          3
   172          7
   173          4
   174          4
   175          3
   176          1
   177          1
   178          1
   179         49
   180         21
   181         60
   182         21
   183         27
   184          7
   185          6
   186          7
   187          2
   188          8
   189          1
   190          3
   191          1
   192          1
   193         94
   194         16
   195         96
   196         16
   197         35
   198          6
   199          6
   200         11
   201          3
   202          7
   203          2
   204          2
   205          2
   206          5
   207         22
   208          6
   209         24
   210          8
   211         10
   212          5
   213          2
   214          3
   215          5
   216          1
   217          3
   218          1
   219          1
   220          1
   221          4
   222          1
   223          4
   224          1
   225          2
   226          1
   227          1
   228          1
   229          1
   232          1
   233          1
   234          1
   235          1
   236          1
   237          1
   238          1
   239          1
   240          1
   241          1
   242         83
   243         10
   244         53
   245          6
   246          9
   247          1
   248          1
   249          1
   250          1
   251          1
   254          1
   255          1
   256          1
   257          1
   258          1
   259          1
   260         36
   261          5
   262         34
   263          4
   264         11
   265          1
   266          1
   267          1
   276          2
   277        425
   278         52
   279        414