##TITLE=Library Entry 107740
##JCAMP-DX=Revision 4.10 
##DATA TYPE=MASS SPECTRUM
##SAMPLE DESCRIPTION=Exported from NIST MS Search
##NAMES=HP
##CAS NAME=Methanol, (o-methoxyphenoxy)-, acetate
##MOLFORM=C10H12O4
##CAS REGISTRY NO=27257-11-0
##MP= -300
##BP= -300
##MW= 196
##$RETENTION INDEX=0
##$CONDENSED SPECTRUM=NO
##NPOINTS= 30
##XYDATA=(XY..XY) 1 
    38         10
    39         30
    41         20
    42         10
    43        380
    50         20
    51         40
    52         50
    53         20
    63         30
    64         30
    65         30
    77         90
    80         20
    81         70
    92         30
    93         10
    95         20
   109        310
   110         20
   121         20
   122         80
   123         10
   124        999
   125         80
   137        130
   138         10
   166         12
   196        120
   197         10