##TITLE=Library Entry 99687
##JCAMP-DX=Revision 4.10 
##DATA TYPE=MASS SPECTRUM
##SAMPLE DESCRIPTION=A.A.Kutin, Moscow, Russia
##NAMES=HP
##CAS NAME=Benzamide, N,N-diethyl-4-methyl-
##MOLFORM=C12H17NO
##CAS REGISTRY NO=2728-05-4
##MP= -300
##BP= -300
##MW= 191
##$RETENTION INDEX=0
##$CONDENSED SPECTRUM=NO
##NPOINTS= 116
##XYDATA=(XY..XY) 1 
    33          0
    34          0
    35          0
    36          3
    38          4
    39         29
    40         12
    41         15
    42         33
    43          4
    44         22
    45          2
    46          0
    50          5
    51         13
    52          3
    53          2
    54          2
    55          2
    56         19
    57          5
    58         11
    59          1
    60          0
    61          0
    62          5
    63         23
    65        120
    66          6
    67          0
    68          0
    69          1
    70          7
    71          2
    72         12
    73          3
    74          1
    75          2
    76          3
    77         10
    78          2
    79          1
    80          0
    81          1
    82          0
    83          0
    84          0
    85          0
    86          0
    87          1
    89         40
    90         34
    91        318
    92         23
    93          2
    95          1
    96          0
   100          1
   101          0
   102          0
   103          1
   104          2
   105         16
   106          2
   107          3
   108          3
   109          0
   111          0
   112          0
   113          0
   115          0
   116          1
   117          3
   119        999
   120         74
   121          5
   122          0
   123          0
   125          0
   127          0
   128          0
   130          0
   132          1
   133          2
   134          1
   135          2
   136         12
   137          1
   138          0
   139          4
   140          0
   141          0
   144          0
   146          1
   147          1
   148         16
   149          2
   150          0
   153          0
   155          2
   160          0
   162         24
   163          3
   166          0
   171          2
   174          0
   175          0
   176          7
   177          1
   178          0
   180          0
   188          0
   190        240
   191        168
   192         19
   193          1