##TITLE=Library Entry 38961
##JCAMP-DX=Revision 4.10 
##DATA TYPE=MASS SPECTRUM
##SAMPLE DESCRIPTION=A.S.Moskovkin,I.M.Karnaukh, Russian Center on Disaster
 Medicine
##NAMES=HP
##CAS NAME=1-Pyrrolidinyloxy, 3-(hydroxymethyl)-2,2,5,5-tetramethyl-
##MOLFORM=C9H18NO2
##CAS REGISTRY NO=27298-75-5
##MP= -300
##BP= -300
##MW= 172
##$RETENTION INDEX=0
##$CONDENSED SPECTRUM=NO
##NPOINTS= 73
##XYDATA=(XY..XY) 1 
    39          2
    40         20
    41        180
    42         40
    43        150
    44         20
    53         50
    54          7
    55        120
    56        140
    57         61
    58         11
    59         19
    65         26
    66          2
    67         91
    68        180
    69        190
    70         29
    71        999
    72         57
    73         16
    74        380
    75         20
    76          6
    77         17
    78          5
    79         27
    80          3
    81        110
    82         17
    83         57
    84         19
    85        270
    86        140
    87         13
    91          4
    93          1
    94          5
    95         26
    96         12
    97          5
    98         20
    99          2
   100          9
   105         12
   106          4
   107         65
   108          9
   109         94
   110          5
   111         22
   112          9
   113          1
   114          5
   121          3
   122          1
   123         43
   124         13
   125         35
   126        120
   127         20
   128          1
   130          1
   133          1
   139          4
   140         25
   141         15
   142          9
   157         21
   158          2
   172        150
   173          9