##TITLE=Library Entry 78675
##JCAMP-DX=Revision 4.10 
##DATA TYPE=MASS SPECTRUM
##SAMPLE DESCRIPTION=A.A.Kutin, Moscow, Russia
##NAMES=HP
##CAS NAME=N-(4-Pyridinecarboxamido)phenylcarboxamide
##MOLFORM=C13H11N3O2
##CAS REGISTRY NO=27293-29-4
##MP= -300
##BP= -300
##MW= 241
##$RETENTION INDEX=0
##$CONDENSED SPECTRUM=NO
##NPOINTS= 127
##XYDATA=(XY..XY) 1 
    33          4
    34          2
    35          0
    36          2
    37          7
    38         18
    39         30
    40         34
    41         10
    42          4
    43         11
    44         14
    45          1
    50        173
    51        360
    52         35
    53          9
    54          2
    55          7
    56          3
    57          8
    58          0
    59          0
    60          0
    61          1
    62          4
    63          7
    64          5
    65          4
    66          1
    67          1
    68          0
    69          3
    70          3
    71          3
    72          0
    74         19
    75         17
    77        542
    78        166
    79         14
    80          1
    81          1
    82          0
    83          2
    84          1
    85          0
    86          0
    87          0
    88          0
    89          0
    90          0
    91          3
    92          1
    93          0
    94          0
    95          0
    96          0
    97          1
    98          1
    99          0
   100          0
   101          1
   102          1
   105        999
   106        123
   107          8
   108          0
   109          0
   110          0
   111          0
   112          2
   113          0
   114          0
   118          0
   119          0
   120          0
   121          2
   122          3
   123          0
   124          0
   125          0
   126          0
   127          0
   128          0
   129          0
   131          0
   133          0
   134          0
   135          0
   136          0
   137          0
   139          0
   140          0
   143          0
   149          0
   151          0
   152          0
   153          0
   154          0
   155          0
   157          0
   165          0
   166          0
   167          0
   170          0
   171          3
   172          0
   181          0
   183          5
   184          0
   185          0
   189          0
   208          0
   209          0
   211         68
   212          9
   213          0
   222          0
   223          0
   224          0
   237          0
   239          0
   240          8
   241         38
   242          5
   243          0