##TITLE=Library Entry 85276
##JCAMP-DX=Revision 4.10 
##DATA TYPE=MASS SPECTRUM
##SAMPLE DESCRIPTION=A.A.Kutin, Moscow, Russia
##NAMES=HP
##CAS NAME=1,2,3-Benzothiadiazole
##MOLFORM=C6H4N2S
##CAS REGISTRY NO=273-77-8
##MP= -300
##BP= -300
##MW= 136
##$RETENTION INDEX=0
##$CONDENSED SPECTRUM=NO
##NPOINTS= 86
##XYDATA=(XY..XY) 1 
    33         16
    34         21
    36         16
    37         88
    38        111
    39        131
    40        253
    41         32
    42         11
    43         49
    44         82
    45         90
    46         16
    47          5
    48         23
    49         26
    50         73
    51         40
    53         47
    54         41
    55         34
    56         18
    57         69
    58        152
    59         16
    61         58
    62         65
    63        134
    64         53
    65         22
    66          6
    67          9
    69        531
    70         34
    71         49
    72          5
    73         17
    74         36
    75         16
    76          9
    77         11
    78          5
    79          6
    80         12
    81         84
    82        246
    83         28
    84         17
    85         16
    86          2
    87          1
    90          3
    91          9
    93         38
    94         21
    95         14
    96          7
    97         13
    98          4
    99          4
   104          1
   105          7
   106         10
   108        999
   109         84
   110         54
   111         11
   112          4
   113          4
   118          3
   119          3
   120          3
   121          3
   122          3
   123          4
   125          9
   126          1
   127          3
   128          1
   131          2
   132          0
   134          3
   136        589
   138         68
   139         22
   140          2