##TITLE=Library Entry 95320
##JCAMP-DX=Revision 4.10 
##DATA TYPE=MASS SPECTRUM
##SAMPLE DESCRIPTION=MASS SPECTROMETRY CENTER, UNIV. OF UTAH EPA-PTSEL 5200
##NAMES=HP
##CAS NAME=2,5-Methano-2H-indeno[1,2-b]oxirene, 2,3,4,5,6,6a,7,7-octachloro-
1a,1b,5,5a,6,6a-hexahydro-, (1a.alpha.,1b.beta.,2.alpha.,5.alpha.,5a.beta.,6
.beta.,6a.alpha.)-
##MOLFORM=C10H4Cl8O
##CAS REGISTRY NO=27304-13-8
##MP= -300
##BP= -300
##MW= 420
##$RETENTION INDEX=2033
##$CONDENSED SPECTRUM=NO
##NPOINTS= 199
##XYDATA=(XY..XY) 1 
    26          7
    27         19
    28         11
    29         47
    36         34
    37         10
    39         12
    47          4
    49         26
    50         63
    51        298
    52         20
    53          2
    55          2
    60         52
    61        104
    62         38
    63         83
    65         10
    72         29
    73        119
    74         49
    75         49
    79          4
    83         83
    84         58
    85        149
    86         61
    87        166
    89         73
    90         16
    91         18
    95         47
    96         58
    97         84
    98         32
    99         42
   106          2
   107         86
   108         77
   109        153
   110         46
   111         73
   112         30
   114         16
   115        999
   116         77
   117        412
   118         28
   119        101
   120         52
   121        123
   122         10
   123         72
   125          2
   126         28
   127         50
   128          8
   130         25
   131         37
   132         30
   133         49
   134          6
   135          4
   137          2
   139          2
   141         70
   142          2
   143        121
   144         37
   145         97
   147         52
   149        441
   150         26
   151        281
   152          2
   153         53
   155         15
   157        100
   158         12
   159         80
   161          7
   165         11
   167         59
   169         42
   171          2
   179         15
   181         65
   182         19
   183         98
   184          4
   185        717
   186         41
   187        656
   188         38
   189        220
   191         86
   193         41
   195          7
   201          4
   203         25
   204         64
   205         15
   206         53
   208          2
   214          2
   215         10
   216         55
   217         84
   218         56
   219         84
   220         46
   221         40
   222          2
   223          4
   226          1
   227          8
   228         11
   229         17
   235        141
   237        215
   238         63
   239        178
   240         76
   241        107
   242         29
   243         33
   244          2
   248          4
   250         18
   251        109
   252         32
   253        124
   254         22
   255         99
   256          7
   257         67
   259         19
   261        143
   263        216
   264          2
   265        150
   266          2
   267         48
   270         54
   272         91
   273        105
   274        112
   275        151
   276         86
   277        105
   278         44
   279         31
   280          5
   283          2
   285         59
   286         38
   287        104
   288         58
   289         81
   290         36
   291         25
   299          4
   301          5
   308         69
   309         10
   310        132
   311         40
   312        109
   313         48
   314         78
   315         44
   316         61
   317          7
   318         10
   320          2
   321         35
   323         87
   325         64
   327         20
   349         14
   351         65
   353         39
   355          9
   359         10
   361          2
   385        208
   386         29
   387        445
   388         68
   389        431
   390         60
   391        244
   392         17
   393         87
   395          2
   422         10
   424         11
   426          2