##TITLE=Library Entry 96810
##JCAMP-DX=Revision 4.10 
##DATA TYPE=MASS SPECTRUM
##SAMPLE DESCRIPTION=Div. of Experiment Therapeutics WRAIR, WRAMC, Washingto
n DC 20307
##NAMES=HP
##CAS NAME=4-[1,3-Dihydroxy-2-diethylaminopropyl]-2-[2-thienyl]quinoline
##MOLFORM=C20H24N2O2S
##CAS REGISTRY NO=27302-84-7
##MP= -300
##BP= -300
##MW= 356
##$RETENTION INDEX=0
##$CONDENSED SPECTRUM=NO
##NPOINTS= 167
##XYDATA=(XY..XY) 1 
    41         10
    42         39
    43         20
    44         29
    45         10
    47          1
    49          7
    50          3
    51         12
    52          2
    53          1
    54          3
    55          3
    56         28
    57          6
    58         54
    59          3
    60         32
    61          0
    62          2
    63          5
    64          1
    65          2
    68          2
    69          4
    70         15
    71          4
    72         20
    73          3
    74          4
    75         14
    76          5
    77         16
    78          2
    81          0
    82          2
    83          2
    84         11
    85          1
    86        106
    87          8
    88         30
    89          5
    90          1
    91          2
    93          1
    96          1
    97          3
    98          5
    99          3
   100         18
   101         17
   102          8
   103          5
   104          1
   105          2
   106          3
   108          1
   109          2
   110          2
   111          4
   112          0
   113          3
   114          9
   115         34
   116        999
   117         72
   118          4
   119          1
   121          4
   125          2
   126          2
   127          4
   128         37
   129          8
   130          8
   131          3
   132          1
   134          0
   138          0
   139          6
   140          6
   141          2
   146          0
   149          2
   150          0
   151          2
   152          4
   153          2
   154          2
   156          1
   157          1
   158         42
   159          4
   163          4
   164          2
   165          1
   166          7
   167          8
   168          3
   170          2
   171          1
   177          3
   178          6
   179          2
   180          6
   181          0
   183          3
   184          3
   185          2
   186          2
   190          1
   191          2
   195          0
   196          1
   197          0
   204          1
   208          3
   209         11
   210         32
   211         18
   212         61
   213         10
   214          3
   222          4
   223          8
   224          6
   225          3
   226          2
   236          4
   237          2
   238          5
   239         26
   240         32
   241        151
   242         28
   243          9
   244          1
   249          1
   250          2
   251          2
   252          4
   253          1
   254          3
   255          3
   263          2
   264          2
   265          1
   266          1
   267          0
   279          4
   280          1
   281          1
   283          0
   293          2
   297          0
   308          2
   309          1
   323          2
   325         30
   326          7
   327          2
   341          1
   355          3
   356          5
   357          1
   358          0