##TITLE=Library Entry 96650
##JCAMP-DX=Revision 4.10 
##DATA TYPE=MASS SPECTRUM
##SAMPLE DESCRIPTION=Div. of Experiment Therapeutics WRAIR, WRAMC, Washingto
n DC 20307
##NAMES=HP
##CAS NAME=1-[2-t-Butyl-4-quinolyl]-2-[diethylamino]-1,3-propanediol
##MOLFORM=C20H30N2O2
##CAS REGISTRY NO=27302-61-0
##MP= -300
##BP= -300
##MW= 330
##$RETENTION INDEX=0
##$CONDENSED SPECTRUM=NO
##NPOINTS= 94
##XYDATA=(XY..XY) 1 
    41         12
    42         16
    43          8
    44         13
    45          0
    47          4
    48          1
    54          0
    55          1
    56         11
    57         10
    58         23
    60         16
    63          0
    70          7
    71          2
    72         13
    73          1
    74          0
    75          1
    76          0
    77          5
    78          0
    84          3
    86         70
    88         29
    89          2
    91          2
    93          0
    98          3
    99          1
   100         12
   101          5
   102          3
   103          2
   114          5
   115         13
   116        999
   117         72
   118          4
   127          3
   128         13
   129          3
   130         15
   131          1
   140          1
   141          1
   142          5
   143          4
   144          2
   149          0
   151          0
   154          5
   155          1
   156          3
   157          2
   158          5
   159          5
   160          0
   166          0
   167          7
   168          7
   169          3
   170         14
   171          6
   172          1
   173         14
   174          1
   180          1
   181          1
   182          3
   183          3
   184          4
   185          1
   186          1
   194          1
   196          1
   197          2
   198         25
   199          7
   200         42
   201          5
   203          0
   210          0
   212          5
   213          5
   214         15
   215         27
   216          3
   228          1
   253          2
   283          0
   299          6
   300          1