##TITLE=Library Entry 11761
##JCAMP-DX=Revision 4.10 
##DATA TYPE=MASS SPECTRUM
##SAMPLE DESCRIPTION=T.Hofmann ET AL.JAFC, 46,2721(1998)
##NAMES=HP
##CAS NAME=2-Acetyl-3,4,5,6-tetrahydropyridine
##MOLFORM=C7H11NO
##CAS REGISTRY NO=27300-27-2
##MP= -300
##BP= -300
##MW= 125
##$RETENTION INDEX=1110
##$CONDENSED SPECTRUM=NO
##NPOINTS= 29
##XYDATA=(XY..XY) 1 
    39         96
    40         17
    41        186
    42         86
    43        999
    44         18
    52         27
    53         57
    54        678
    55        797
    56         47
    58          7
    68         18
    70         57
    71          7
    80         17
    82        797
    83        717
    84         39
    85          7
    96         27
    97        247
    98          7
   110         18
   122          7
   124         49
   125        818
   126         49
   127          8