##TITLE=Library Entry 33976
##JCAMP-DX=Revision 4.10 
##DATA TYPE=MASS SPECTRUM
##SAMPLE DESCRIPTION=NIST Mass Spectrometry Data Center, 1990.
##NAMES=HP
##CAS NAME=3-Pentyn-2-ol
##MOLFORM=C5H8O
##CAS REGISTRY NO=27301-54-8
##MP= -300
##BP= -300
##MW= 84
##$RETENTION INDEX=0
##$CONDENSED SPECTRUM=NO
##NPOINTS= 32
##XYDATA=(XY..XY) 1 
    15         14
    26         13
    27         29
    29         38
    31          7
    37         36
    38         66
    39        250
    40         61
    41        229
    42         32
    43        193
    44         15
    45         22
    49         12
    50         46
    51         46
    52         14
    53         21
    55         24
    56         12
    61         22
    62         34
    63         39
    64          9
    65         55
    66         53
    67         73
    68          9
    69        999
    70         42
    83         23