##TITLE=Library Entry 70445
##JCAMP-DX=Revision 4.10 
##DATA TYPE=MASS SPECTRUM
##SAMPLE DESCRIPTION=NIST Mass Spectrometry Data Center
##NAMES=HP
##CAS NAME=2,4-Hexadiene, 1,1-diethoxy-
##MOLFORM=C10H18O2
##CAS REGISTRY NO=27310-22-1
##MP= -300
##BP= -300
##MW= 170
##$RETENTION INDEX=0
##$CONDENSED SPECTRUM=NO
##NPOINTS= 98
##XYDATA=(XY..XY) 1 
    15         10
    19          2
    26         11
    27        125
    29        306
    30         12
    31         32
    37          2
    38         11
    39        180
    40         39
    41        440
    42         37
    43        326
    44         14
    45         27
    46          2
    47         88
    48          1
    49          1
    50         14
    51         39
    52         23
    53        109
    54         18
    55        235
    56         16
    57         60
    58          5
    59         13
    60         25
    61          7
    62          4
    63         14
    64          3
    65         73
    66         42
    67        220
    68        137
    69        207
    70         27
    71        146
    72          9
    73         23
    74          2
    75         39
    76          2
    77         76
    78         19
    79        188
    80         41
    81        324
    82         52
    83         42
    84          5
    85         12
    86          3
    87          3
    88         44
    89          5
    91          2
    93          1
    94          2
    95        135
    96         82
    97        999
    98         76
    99        151
   100         10
   101         10
   102          3
   103         19
   104          1
   107          2
   109          5
   111         12
   112          2
   113         66
   114         16
   115          2
   116         26
   117          1
   123          3
   124         28
   125        619
   126         62
   127          9
   128          1
   129          2
   141         86
   142         23
   143          2
   155         27
   156          2
   169          4
   170        173
   171         18
   172          1