##TITLE=Library Entry 64712
##JCAMP-DX=Revision 4.10 
##DATA TYPE=MASS SPECTRUM
##SAMPLE DESCRIPTION=A.A.Kutin, Moscow, Russia
##NAMES=HP
##CAS NAME=Chromone, 2,3-dihydro-7-benzyloxy-2,2-dimethyl-, semicarbazone
##MOLFORM=C19H21N3O3
##CAS REGISTRY NO=273217-51-9
##MP= -300
##BP= -300
##MW= 339
##$RETENTION INDEX=0
##$CONDENSED SPECTRUM=NO
##NPOINTS= 250
##XYDATA=(XY..XY) 1 
    34          1
    35          1
    36          5
    37          1
    38          5
    39         33
    40         26
    41         30
    42         11
    43         43
    44         49
    45          6
    46          1
    47          0
    49          1
    50          5
    51         20
    52          6
    53          8
    54          4
    55         25
    56          9
    57         11
    58          5
    59          1
    60          3
    61          1
    62          4
    63         18
    64          6
    65         62
    66          8
    67          6
    68          3
    69         14
    70          5
    71         14
    72          2
    73          2
    74          1
    75          3
    76          5
    77         18
    78         10
    79         16
    80          5
    81          4
    82          5
    83          9
    84          3
    85          3
    86          1
    87          1
    88          2
    89         29
    90         26
    91        999
    92         77
    93          8
    94          4
    95          5
    96          3
    97          4
    98          2
    99          2
   100          1
   101          1
   102          2
   103          6
   104          6
   105         13
   106          8
   107          7
   108          3
   109          2
   110          2
   111          3
   112          1
   113          2
   114          0
   115          8
   116          4
   117         14
   118          6
   119          7
   120          6
   121          9
   122          3
   123          2
   124          1
   125          2
   126          2
   127          3
   128          4
   129          3
   130          4
   131          8
   132         10
   133          8
   134          5
   135          6
   136          2
   137          2
   138          1
   139          2
   140          1
   141          3
   142          2
   143          2
   144          3
   145          5
   146          5
   147         10
   148          7
   149         28
   150          5
   151          2
   152          2
   153          1
   154          1
   155          1
   156          0
   157          1
   158          2
   159          5
   160         26
   161         13
   162          7
   163          7
   164          3
   165          4
   166          1
   167          2
   168          0
   169          1
   170          1
   171          2
   172          2
   173          5
   174          6
   175          9
   176          7
   177         14
   178          4
   179          1
   180          1
   181          1
   182          0
   184          1
   185          0
   186          1
   187          3
   188         38
   189         15
   190         14
   191          7
   192          2
   193          2
   195          0
   196          2
   197          1
   198          1
   199          1
   200          0
   201          1
   202          2
   203          2
   204          5
   205         59
   206         10
   207          2
   208          1
   209          0
   210          1
   211          1
   212          0
   214          0
   215          0
   216          1
   217          2
   219          1
   220          1
   221          1
   222          2
   223          2
   224          1
   225          1
   226          0
   227          1
   230          0
   231          9
   232          2
   233          1
   234          1
   235          1
   236          1
   237          1
   238          2
   239          2
   240          1
   241          0
   245          0
   247          1
   248         14
   249          4
   250          1
   251          4
   252          2
   253          1
   255          0
   256          0
   259          0
   261          1
   262          0
   263          1
   264          2
   265          3
   266         23
   267          6
   268          1
   273          0
   277          1
   278          5
   279          4
   280          9
   281         43
   282         14
   283          3
   284          0
   295          7
   296         28
   297          6
   298          0
   299          0
   300          0
   307          7
   308          1
   314          0
   317          0
   322         22
   323          5
   324         17
   325          4
   328          0
   330          0
   338          2
   339        102
   340         21
   341          3
   342          0