##TITLE=Library Entry 46183
##JCAMP-DX=Revision 4.10 
##DATA TYPE=MASS SPECTRUM
##SAMPLE DESCRIPTION=A.A.Kutin, Moscow, Russia
##NAMES=HP
##CAS NAME=Benzenesulfonamide, 5-bromo-2-iodo-N-methyl-
##MOLFORM=C7H7BrINO2S
##CAS REGISTRY NO=273208-20-1
##MP= -300
##BP= -300
##MW= 375
##$RETENTION INDEX=0
##$CONDENSED SPECTRUM=NO
##NPOINTS= 212
##XYDATA=(XY..XY) 1 
    33          3
    34          5
    35          1
    36          5
    37         37
    38         39
    39         25
    40         57
    41         24
    42          9
    43         31
    44         43
    45         29
    46          5
    47          4
    48         29
    49         33
    50        129
    51         37
    52         10
    53         15
    54          4
    55         21
    56          8
    57         21
    58          5
    59          6
    60         67
    61         29
    62        105
    63        119
    64         32
    65         17
    66         10
    67          7
    68          6
    69         44
    70          7
    71         22
    72          8
    73         90
    74        554
    75        999
    76        142
    77         45
    78        143
    79         22
    80         18
    81         17
    82         17
    83          9
    84          5
    85          7
    86          1
    87          3
    88          4
    89          5
    90         18
    91          7
    92         13
    93         26
    94         63
    95         48
    96         10
    97         10
    98          2
    99          4
   101          2
   102          3
   103          5
   104         83
   105        161
   106         26
   107         16
   108          6
   109          6
   110          6
   111          8
   112          3
   113          1
   115          2
   116          4
   117          8
   118          1
   119          8
   120          3
   121         12
   122          4
   123         10
   124          4
   125          4
   126          5
   127         82
   128         43
   129          6
   130         14
   131          7
   132          1
   133          3
   135          4
   136          1
   137          1
   139          2
   140          4
   141          6
   142          6
   143         20
   144          7
   145         18
   146          1
   147          1
   148          1
   149         37
   150          4
   151          9
   152         13
   153         27
   154        346
   155        204
   156        342
   157        183
   158         17
   159          8
   160          4
   161          2
   163          1
   164          4
   165          2
   168          4
   169         22
   170         14
   171         27
   172         21
   173         13
   174         25
   175          9
   176         45
   177         16
   178          1
   182         16
   183         15
   184        481
   185         50
   186        446
   187         38
   188         10
   189          6
   190          3
   191          3
   199          2
   200        110
   201         37
   202        134
   203         19
   204          5
   205          1
   206          0
   214          1
   216          1
   218          7
   219        126
   220         13
   221        120
   222         13
   223          6
   230          3
   231          3
   232         25
   233          5
   247          2
   248         18
   249          5
   250         16
   251          3
   252          1
   254          2
   256          1
   265          1
   267          2
   269          4
   271          5
   280          7
   281        550
   282         78
   283        561
   284         70
   285          3
   297          5
   298         62
   299          9
   300         62
   301          5
   303          1
   310         37
   311         66
   312         42
   313         67
   314          6
   317          0
   329          4
   331          5
   345         30
   346         10
   347         33
   348         12
   349          1
   375        652
   376         68
   377        684
   378         55
   379         32
   380          1