##TITLE=Library Entry 21875
##JCAMP-DX=Revision 4.10 
##DATA TYPE=MASS SPECTRUM
##SAMPLE DESCRIPTION=Chemical Concepts
##NAMES=HP
##CAS NAME=15-Tetracosenoic acid, methyl ester, (Z)-
##MOLFORM=C25H48O2
##CAS REGISTRY NO=2733-88-2
##MP= -300
##BP= -300
##MW= 380
##$RETENTION INDEX=2710
##$CONDENSED SPECTRUM=NO
##NPOINTS= 232
##XYDATA=(XY..XY) 1 
    27         61
    29        195
    30          3
    31          8
    39         44
    40         39
    41        527
    42         88
    43        541
    44         17
    45         18
    53         30
    54        165
    55        999
    56        246
    57        428
    58         21
    59         72
    60          4
    65          9
    66         14
    67        279
    68        167
    69        748
    70        194
    71        157
    72         10
    73         32
    74        437
    75        100
    76          4
    77          9
    78          4
    79         47
    80         48
    81        271
    82        225
    83        561
    84        281
    85         98
    86          7
    87        307
    88         29
    91         12
    92          6
    93         34
    94         58
    95        217
    96        309
    97        470
    98        305
    99         51
   100          6
   101         48
   102          5
   105          8
   106          3
   107         33
   108         44
   109        134
   110        164
   111        225
   112         88
   113         27
   114         23
   115         46
   116         11
   118          0
   119         23
   120         11
   121         60
   122         32
   123        112
   124        105
   125        125
   126         34
   127         33
   128         38
   129         50
   130         23
   131          1
   133         23
   134         37
   135         66
   136         22
   137         83
   138         86
   139         88
   140         23
   141         90
   142         18
   143         67
   144          9
   147         18
   148         36
   149         44
   150         16
   151         62
   152        116
   153         71
   154         17
   155         18
   156          5
   157         25
   158          4
   161         15
   162          9
   163         28
   164         11
   165         45
   166         65
   167         50
   168         14
   169         12
   170          2
   171         17
   172          5
   175         12
   176          6
   177         22
   178          9
   179         30
   180         39
   181         33
   182         11
   183          9
   185         19
   186          9
   189          9
   190          4
   191         14
   192          8
   193         23
   194         39
   195         28
   196          8
   197          7
   199         19
   200          3
   203          6
   204          0
   205         12
   206          7
   207         26
   208         47
   209         24
   210          9
   211          7
   213         12
   214          0
   217          5
   219          8
   220          5
   221         35
   222         52
   223         21
   224          9
   225          8
   227         10
   228          4
   233          5
   234          7
   235         42
   236         57
   237         20
   238         10
   239         10
   240          0
   241         10
   242          2
   245          0
   247          2
   248          9
   249         48
   250         73
   251         24
   252         12
   253         14
   254          4
   255         11
   260          0
   261          1
   262          1
   263         48
   264        101
   265         29
   266         12
   267         12
   269          8
   270          4
   271          0
   273          0
   277         46
   278         41
   279         12
   280          4
   281          7
   283         14
   284         10
   291         40
   292         33
   293         10
   294          1
   295          5
   297         10
   298          9
   304         37
   305         49
   306         90
   307         31
   308          5
   311          1
   312          4
   319         26
   320         18
   321          3
   330         40
   331         12
   333          2
   337         12
   347          8
   348        998
   349        348
   350         60
   351          9
   362         10
   363          1
   378          2
   379          4
   380        179
   381         49
   382         12