##TITLE=Library Entry 90161
##JCAMP-DX=Revision 4.10 
##DATA TYPE=MASS SPECTRUM
##SAMPLE DESCRIPTION=Exported from NIST MS Search
##NAMES=HP
##CAS NAME=Isothiazole, 3,4-dimethyl-
##MOLFORM=C5H7NS
##CAS REGISTRY NO=27330-46-7
##MP= -300
##BP= -300
##MW= 113
##$RETENTION INDEX=0
##$CONDENSED SPECTRUM=NO
##NPOINTS= 12
##XYDATA=(XY..XY) 1 
    39        170
    42        160
    45        270
    69         70
    71        529
    72        430
    73        150
    80        100
    98        167
   112        266
   113        999
   114         77