##TITLE=Library Entry 90272
##JCAMP-DX=Revision 4.10 
##DATA TYPE=MASS SPECTRUM
##SAMPLE DESCRIPTION=Exported from NIST MS Search
##NAMES=HP
##CAS NAME=Isothiazole, 4,5-dimethyl-
##MOLFORM=C5H7NS
##CAS REGISTRY NO=27330-47-8
##MP= -300
##BP= -300
##MW= 113
##$RETENTION INDEX=974
##$CONDENSED SPECTRUM=NO
##NPOINTS= 13
##XYDATA=(XY..XY) 1 
    39         90
    45        130
    53        100
    58         57
    59        146
    69         45
    71        235
    80         90
    85        150
    86         80
    98        356
   112        335
   113        999