##TITLE=Library Entry 52471
##JCAMP-DX=Revision 4.10 
##DATA TYPE=MASS SPECTRUM
##SAMPLE DESCRIPTION=F. TURECEK,HEYROVSKY INST PHYS CHEM & ELECTROCHEM,PRAGU
E,CZECH
##NAMES=HP
##CAS NAME=trans-7-Oxabicyclo[4.3.0]nonane
##MOLFORM=C8H14O
##CAS REGISTRY NO=27345-70-6
##MP= -300
##BP= -300
##MW= 126
##$RETENTION INDEX=0
##$CONDENSED SPECTRUM=NO
##NPOINTS= 42
##XYDATA=(XY..XY) 1 
    38         10
    39        100
    40         20
    41        140
    42         50
    43         30
    50          5
    51         10
    52         10
    53         40
    54         70
    55        260
    56         20
    57         20
    65         10
    66         20
    67        190
    68         50
    69         40
    70         40
    71         10
    77         10
    78         10
    79         50
    80         10
    81         80
    82         10
    83        999
    84         60
    85          5
    91         10
    93         20
    95         20
    96         10
    97         40
    98         20
   107          7
   108         10
   111          5
   125        120
   126        230
   127         20