##TITLE=Library Entry 48973
##JCAMP-DX=Revision 4.10 
##DATA TYPE=MASS SPECTRUM
##SAMPLE DESCRIPTION=NIST Mass Spectrometry Data Center
##NAMES=HP
##CAS NAME=5,8,11,14,17-Eicosapentaenoic acid, methyl ester, (all-Z)-
##MOLFORM=C21H32O2
##CAS REGISTRY NO=2734-47-6
##MP= -300
##BP= -300
##MW= 316
##$RETENTION INDEX=2282
##$CONDENSED SPECTRUM=NO
##NPOINTS= 224
##XYDATA=(XY..XY) 1 
    15          5
    26          1
    27         26
    28          5
    29         36
    30          1
    31          3
    33          1
    39         89
    40         17
    41        317
    42         23
    43         88
    44          4
    45         11
    50          5
    51         29
    52         21
    53        122
    54         48
    55        282
    56         16
    57         20
    58          2
    59        102
    60          4
    61          2
    62          1
    63         10
    64          5
    65        143
    66        129
    67        548
    68         55
    69         90
    70         19
    71         19
    72          2
    73         13
    74        113
    75          9
    77        374
    78        211
    79        999
    80        345
    81        235
    82         53
    83         31
    84         13
    85         41
    86          4
    87         54
    88         21
    89          8
    91        848
    92        221
    93        514
    94        180
    95        173
    96         22
    97         27
    98          9
    99         17
   100          3
   101         13
   102          9
   103         49
   104         86
   105        460
   106        343
   107        202
   108        281
   109         78
   110         11
   111          9
   112          2
   113          3
   114          2
   115         64
   116         30
   117        242
   118         71
   119        387
   120        155
   121         99
   122         55
   123         25
   124          5
   125          4
   126          2
   127         13
   128         27
   129         65
   130         43
   131        205
   132         61
   133        208
   134         75
   135         75
   136         21
   137          7
   138          2
   139          2
   140          5
   141         21
   142          9
   143         29
   144         18
   145        108
   146         47
   147        113
   148         84
   149         34
   150          7
   151          3
   152          4
   153          4
   154          5
   155         11
   156          4
   157         24
   158         10
   159         67
   160         34
   161         69
   162         35
   163         10
   164          3
   165          4
   166          4
   167          6
   168          3
   169         11
   170          4
   171         24
   172          7
   173         54
   174         22
   175         64
   176         13
   177          3
   178          2
   179          4
   180         65
   181         14
   182          3
   183         11
   184          3
   185         12
   186          5
   187         31
   188         13
   189         10
   190          2
   191          3
   192          3
   193          6
   194         15
   195          5
   196          2
   197         12
   198          2
   199          9
   200          4
   201         48
   202         10
   203          3
   204          1
   205          4
   206          3
   207          6
   208          7
   209          3
   210          1
   211          2
   212          1
   213          7
   214          2
   215         28
   216          6
   217          1
   218          1
   219          5
   220         20
   221          6
   222          2
   223          4
   224          1
   225          1
   227          3
   228          2
   229          4
   230          1
   231          1
   232          1
   233          5
   234          9
   235          3
   236          5
   237          3
   238          1
   241          4
   242          2
   243          1
   245          2
   246          2
   247         15
   248          7
   249          1
   255          3
   256          1
   259          2
   260          2
   261          2
   262          6
   263          1
   267          1
   273          5
   274          1
   275          2
   287          7
   288          2
   301          1
   316          1