##TITLE=Library Entry 61971
##JCAMP-DX=Revision 4.10 
##DATA TYPE=MASS SPECTRUM
##SAMPLE DESCRIPTION=Chemical Concepts
##NAMES=HP
##CAS NAME=Cyclopropanecarboxylic acid, 1-(phenylmethyl)-
##MOLFORM=C11H12O2
##CAS REGISTRY NO=27356-91-8
##MP= -300
##BP= -300
##MW= 176
##$RETENTION INDEX=0
##$CONDENSED SPECTRUM=NO
##NPOINTS= 122
##XYDATA=(XY..XY) 1 
    26          7
    27         64
    28         10
    29         17
    30          1
    31          7
    36          0
    37          3
    38         14
    39        127
    40         14
    41         70
    42         15
    43         70
    44          8
    45         23
    46          2
    47          2
    49          2
    50         52
    51        147
    52         38
    53         57
    54         10
    55         20
    56          6
    57         14
    58          4
    59         10
    60          2
    61          4
    62         18
    63         68
    64         53
    65        179
    66         15
    67          4
    68          3
    69         17
    70          7
    71          6
    72          6
    73          4
    74         20
    75         26
    76         25
    77        133
    78        176
    79         45
    80          4
    81          7
    82          2
    83          3
    84          1
    85          5
    86          4
    87         12
    88          4
    89         39
    90         15
    91        999
    92         95
    93          5
    94          5
    95          3
    96          1
    97          3
    98         11
    99          9
   100          1
   101          9
   102         63
   103        103
   104         73
   105         31
   106          4
   107         35
   108          4
   109          1
   110          1
   111          2
   113          3
   114          5
   115        213
   116         97
   117        114
   118         13
   119         11
   120         14
   121          4
   122          2
   123          1
   125          2
   126          5
   127         34
   128         74
   129        189
   130        546
   131        361
   132         46
   133         28
   134          4
   135          2
   142          1
   143          7
   144          1
   145          3
   146          2
   147        104
   148         23
   149          5
   157         39
   158         51
   159         18
   160          2
   161         42
   162          5
   174          2
   175        183
   176        428
   177         59
   178          5