##TITLE=Library Entry 4822
##JCAMP-DX=Revision 4.10 
##DATA TYPE=MASS SPECTRUM
##SAMPLE DESCRIPTION=H.W.ROESKY INORG CHEM INST, UNIV., GOTTINGEN, GERMANY,
 F.R.G
##NAMES=HP
##CAS NAME=Phosphoramidothioic difluoride, [(dimethylamino)difluorophosphora
nylidene]-
##MOLFORM=C2H6F4N2P2S
##CAS REGISTRY NO=27352-02-9
##MP= -300
##BP= -300
##MW= 228
##$RETENTION INDEX=0
##$CONDENSED SPECTRUM=NO
##NPOINTS= 17
##XYDATA=(XY..XY) 1 
    42        999
    44        262
    50         38
    69        999
    88         16
    96         70
   101         33
   107         76
   115         33
   120         15
   133         16
   146          8
   152         57
   165         29
   184         41
   213         31
   228         70