##TITLE=Library Entry 6214
##JCAMP-DX=Revision 4.10 
##DATA TYPE=MASS SPECTRUM
##SAMPLE DESCRIPTION=Japan AIST/NIMC Database- Spectrum MS-NW-5121
##NAMES=HP
##CAS NAME=Isobutyryl bromide
##MOLFORM=C4H7BrO
##CAS REGISTRY NO=2736-37-0
##MP= -300
##BP= -300
##MW= 150
##$RETENTION INDEX=0
##$CONDENSED SPECTRUM=NO
##NPOINTS= 71
##XYDATA=(XY..XY) 1 
    12          2
    13          3
    14          9
    15         36
    16          1
    17          1
    18          3
    24          2
    25         12
    26         82
    27        508
    28        124
    29         25
    31          1
    36         10
    37         36
    38         57
    39        258
    40         72
    41        697
    42        110
    43        999
    44         33
    45          5
    48          1
    49          3
    50          6
    51          4
    52          1
    53          9
    54          2
    55         19
    56          9
    57          1
    58          2
    59          1
    60          1
    61          1
    63          1
    64          2
    65          1
    66          1
    67          1
    68          3
    69          2
    70        100
    71        542
    72         24
    73         14
    77          1
    78          1
    79         31
    80         34
    81         29
    82         34
    83          1
    87          1
    88          4
    91          1
    93          6
    94          2
    95          1
    96          1
   104          1
   105          1
   106          1
   107         18
   108          1
   109         18
   121          2
   123          2