##TITLE=Library Entry 44660
##JCAMP-DX=Revision 4.10 
##DATA TYPE=MASS SPECTRUM
##SAMPLE DESCRIPTION=Leung Pu, NIH, Bethesda, Maryland, U.S.
##NAMES=HP
##CAS NAME=2,4-Dichloro-5-sulfamoylbenzoic acid
##MOLFORM=C7H5Cl2NO4S
##CAS REGISTRY NO=2736-23-4
##MP= -300
##BP= -300
##MW= 269
##$RETENTION INDEX=0
##$CONDENSED SPECTRUM=NO
##NPOINTS= 165
##XYDATA=(XY..XY) 1 
    41         27
    42         15
    43         28
    44         58
    45        260
    46         59
    47         35
    48        106
    49         60
    50        100
    51         42
    52         19
    53         53
    54         15
    55         19
    56          5
    57         16
    58          3
    59          3
    60         21
    61         69
    62        113
    63        142
    64        459
    65         51
    66         40
    67         14
    68         18
    69         70
    70         18
    71         39
    72         75
    73        417
    74        999
    75        316
    76         37
    77         79
    78        133
    79         65
    80        209
    81         37
    82         31
    83         93
    84        255
    85        172
    86        102
    87        107
    88         22
    89         60
    90         64
    91         40
    92         10
    93         28
    94         15
    95         18
    96         34
    97        270
    98         47
    99        118
   100         17
   101         23
   102          4
   103         10
   104          4
   105         13
   106         21
   107         40
   108        139
   109        296
   110         71
   111        102
   112         20
   113         21
   114         11
   115         11
   116          4
   117          5
   118          6
   119          7
   120          4
   121         11
   122          4
   123          6
   124         20
   125         47
   126         45
   127         18
   128         11
   129         11
   130          2
   131          7
   132         12
   133        308
   134         24
   135        185
   136         13
   137         39
   138          2
   139          3
   140          4
   141         10
   142          9
   143         30
   144         59
   145         24
   146         34
   147          8
   148          5
   149         10
   151          6
   152          3
   153         14
   154          4
   155          8
   156          2
   157         14
   158          3
   159          8
   160         14
   161         16
   162         10
   163          9
   164          2
   165          2
   168          1
   169          4
   170          7
   171         12
   172         13
   173         11
   174          7
   175          3
   176          2
   177          3
   178          2
   179          1
   186          2
   187          4
   188          8
   189         60
   190         11
   191         35
   192          3
   193          4
   202          5
   204          7
   205         98
   206         89
   207         67
   208         55
   209         14
   210          6
   234          3
   235          1
   251          4
   252         18
   253          4
   254         12
   255          1
   256          1
   269         53
   270          4
   271         35
   272          2
   273          7