##TITLE=Library Entry 38368
##JCAMP-DX=Revision 4.10 
##DATA TYPE=MASS SPECTRUM
##SAMPLE DESCRIPTION=NIST Mass Spectrometry Data Center
##NAMES=HP
##CAS NAME=2-Ethylbutyryl chloride
##MOLFORM=C6H11ClO
##CAS REGISTRY NO=2736-40-5
##MP= -300
##BP= -300
##MW= 134
##$RETENTION INDEX=851
##$CONDENSED SPECTRUM=NO
##NPOINTS= 71
##XYDATA=(XY..XY) 1 
    14          1
    15          5
    25          1
    26         16
    27        123
    28         18
    29        116
    30          3
    31          1
    35          2
    36          3
    37          9
    38         22
    39        186
    40         26
    41        286
    42         71
    43        933
    44         33
    45          1
    47          1
    48          1
    49          9
    50         16
    51         24
    52          7
    53         46
    54         14
    55        373
    56         31
    57          5
    60          1
    61          5
    62          5
    63         49
    64          2
    65         19
    66          2
    67          7
    68          3
    69         34
    70         77
    71        999
    72         59
    73          3
    75          2
    76          1
    77          3
    78          2
    79          2
    80          2
    81          1
    83          7
    84          1
    87          1
    89          1
    91         41
    92          4
    93         14
    94          1
    98          6
    99        168
   100         11
   101          1
   105         19
   106        202
   107         15
   108         67
   109          3
   119          2
   121          1