##TITLE=Library Entry 29781
##JCAMP-DX=Revision 4.10 
##DATA TYPE=MASS SPECTRUM
##SAMPLE DESCRIPTION=A.Pleshkova, Nesmeyanov Inst.Org.Elem.Cpds, Moscow
##NAMES=HP
##CAS NAME=2,5-Dimethyl-1,4-bis(benzylcarbonyl)-1,2,4,5-tetraazacyclohexane
##MOLFORM=C20H24N4O2
##CAS REGISTRY NO=27377-31-7
##MP= -300
##BP= -300
##MW= 352
##$RETENTION INDEX=0
##$CONDENSED SPECTRUM=NO
##NPOINTS= 77
##XYDATA=(XY..XY) 1 
    30         32
    31        122
    32         13
    39         54
    40         19
    41        114
    42         94
    43        909
    44         61
    45         60
    46         20
    53         12
    55        114
    56         29
    57        209
    58         76
    59        999
    60         55
    61         68
    68        120
    69         89
    70         18
    71        458
    72         33
    73        128
    74         45
    75         12
    83         41
    84         16
    85        696
    86         32
    87         26
    90         17
    91        288
    92         37
    97         23
    98         20
    99         49
   100        127
   101         68
   102         10
   103         72
   104         12
   113         38
   114         30
   115         27
   117         26
   118         21
   119         16
   129         93
   130         11
   131        138
   132         26
   143         52
   145         10
   149         46
   157         24
   159         51
   160         12
   161         19
   162         10
   164         26
   167         12
   173        629
   174         62
   175        330
   176        343
   177        270
   178         36
   188         36
   189         29
   218        122
   219         26
   233         23
   309         24
   352         33
   353         10