##TITLE=Library Entry 31252
##JCAMP-DX=Revision 4.10 
##DATA TYPE=MASS SPECTRUM
##SAMPLE DESCRIPTION=NIST Mass Spectrometry Data Center
##NAMES=HP
##CAS NAME=3-Hydroxy-2,4,6-tribromobenzaldehyde
##MOLFORM=C7H3Br3O2
##CAS REGISTRY NO=2737-22-6
##MP= -300
##BP= -300
##MW= 356
##$RETENTION INDEX=0
##$CONDENSED SPECTRUM=NO
##NPOINTS= 199
##XYDATA=(XY..XY) 1 
    12          1
    24          4
    25         14
    26          9
    29        214
    30          3
    31          2
    36         56
    37        184
    38         58
    39         14
    41          2
    42          2
    43          1
    45         13
    48         21
    49         75
    50         41
    51         11
    52         17
    53        256
    54         10
    55          1
    58          5
    60        203
    61        999
    62        869
    63        334
    64         24
    65         16
    66         20
    67          1
    70         42
    71         42
    72         29
    73        127
    74        118
    75         26
    76          6
    77         27
    78          3
    79         52
    80         24
    81         54
    82         23
    84         45
    85         60
    86         19
    88          9
    89        112
    90        401
    91        139
    92         20
    93         26
    94          5
    95          1
    98         11
    99         12
   101         10
   102          2
   103          9
   104         15
   105          9
   106         14
   107          8
   109          9
   110         23
   111         32
   115         39
   116         50
   117         95
   118         50
   119         67
   120          9
   121          2
   122          6
   124         27
   125         51
   126         26
   127          6
   128         18
   129          8
   130         18
   131         64
   132          2
   133         59
   134          2
   135          2
   139         78
   140        270
   141        524
   142        293
   143        464
   144         62
   145         10
   146          9
   147          4
   149          2
   151          7
   152         31
   153         16
   154         33
   155         14
   156          4
   157          4
   158          1
   160          1
   163          1
   164          6
   165         16
   166         15
   167          8
   168         75
   169        152
   170        154
   171        154
   172         85
   173         17
   174          1
   175          5
   177          2
   178          9
   179          7
   180          3
   181          2
   194          4
   195         14
   196         10
   197         69
   198         16
   199         54
   200         10
   208          1
   218          2
   219         32
   220         27
   221         92
   222         54
   223         98
   224         27
   225         32
   226          1
   231          1
   233          3
   235          2
   247         12
   248        116
   249         35
   250        224
   251         35
   252        110
   253         11
   254          1
   259          1
   261          3
   263          2
   275          6
   276         31
   277         29
   278         71
   279         40
   280         52
   281         17
   282         10
   298          1
   299         29
   300          5
   301         85
   302          7
   303         81
   304          5
   305         26
   306          1
   326          2
   327          5
   328         35
   329         18
   330         99
   331         20
   332         90
   333         10
   334         28
   335          2
   338          2
   340          7
   342          6
   344          2
   352          2
   353          2
   355        277
   356        251
   357        797
   358        686
   359        799
   360        671
   361        293
   362        221
   363         16
   364          1