##TITLE=Library Entry 7458
##JCAMP-DX=Revision 4.10 
##DATA TYPE=MASS SPECTRUM
##SAMPLE DESCRIPTION=A.A.Kutin, Moscow, Russia
##NAMES=HP
##CAS NAME=6-Oxo-1,4,5,6-tetrahydropyridazin-3-carboxylic acid
##MOLFORM=C5H6N2O3
##CAS REGISTRY NO=27372-38-9
##MP= -300
##BP= -300
##MW= 142
##$RETENTION INDEX=0
##$CONDENSED SPECTRUM=NO
##NPOINTS= 73
##XYDATA=(XY..XY) 1 
    33         19
    34         13
    37         24
    38         74
    39        601
    40         87
    41        599
    42        688
    43        999
    44        189
    45        382
    46         48
    47          3
    48          4
    49          9
    50         13
    51         57
    52        119
    53        207
    54        489
    55        847
    56        115
    57         38
    58         49
    59         10
    60         18
    61          0
    62          0
    63          1
    64          2
    65          4
    66         17
    67         43
    68        169
    69        388
    70        190
    71         74
    72         90
    73          7
    74          1
    76          0
    77          3
    80        111
    81         15
    82         46
    83          9
    84         11
    86        280
    87         38
    88          1
    89          0
    91          1
    93          1
    95        180
    96        172
    97         71
    98         32
    99         65
   100          3
   101          2
   113        115
   114        115
   115          6
   116          0
   124        402
   125         41
   126         22
   127          2
   128          1
   142        819
   143         53
   144          6
   145          0