##TITLE=Library Entry 99302
##JCAMP-DX=Revision 4.10 
##DATA TYPE=MASS SPECTRUM
##SAMPLE DESCRIPTION=Div. of Experiment Therapeutics WRAIR, WRAMC, Washingto
n DC 20307
##NAMES=HP
##CAS NAME=2-p-Tolyl-5-[trichloromethyl]-1,3,4-oxadiazole
##MOLFORM=C10H7Cl3N2O
##CAS REGISTRY NO=27389-46-4
##MP= -300
##BP= -300
##MW= 276
##$RETENTION INDEX=0
##$CONDENSED SPECTRUM=NO
##NPOINTS= 87
##XYDATA=(XY..XY) 1 
    47        129
    48         47
    49         44
    50         52
    51         63
    52         16
    53          9
    54          0
    55          1
    56          2
    57          0
    59          7
    61          9
    62         30
    63         91
    64         25
    65        243
    66         13
    70          3
    72          2
    73          2
    74         10
    75         11
    76         13
    77         35
    78          6
    79          3
    82         55
    83        250
    84         35
    85        158
    86         12
    87         32
    88          1
    89         75
    90         28
    91        498
    92         35
    93          2
    94          8
    96          5
    98          1
    99          3
   100          1
   101          3
   102          8
   103          9
   104          4
   105          1
   106          2
   108          0
   110          5
   112          3
   114          2
   115          1
   116         10
   117         40
   119        999
   120         82
   121         10
   122          3
   124          0
   127          5
   129          4
   131          5
   132          1
   135          1
   136          4
   139          1
   150         31
   151          4
   152          0
   159          9
   165          2
   177          5
   179          3
   208          1
   241         40
   242          5
   243         26
   244          3
   245          4
   250          2
   276         11
   278         11
   279          1
   280          3