##TITLE=Library Entry 33986
##JCAMP-DX=Revision 4.10 
##DATA TYPE=MASS SPECTRUM
##SAMPLE DESCRIPTION=Exported from NIST MS Search
##NAMES=HP
##CAS NAME=2-Hexene, 2-methyl-
##MOLFORM=C7H14
##CAS REGISTRY NO=2738-19-4
##MP= -300
##BP= -300
##MW= 98
##$RETENTION INDEX=692
##$CONDENSED SPECTRUM=NO
##NPOINTS= 71
##XYDATA=(XY..XY) 1 
    12          2
    13          2
    14          8
    15         73
    16          3
    24          1
    25          2
    26         38
    27        320
    28         54
    29        133
    30          3
    31          1
    32          1
    36          1
    37         10
    38         28
    39        294
    40         49
    41        877
    42         53
    43         76
    44          3
    45          1
    46          1
    47          1
    48          1
    49          2
    50         25
    51         43
    52         18
    53        103
    54         28
    55        241
    56        262
    57         23
    58          1
    60          1
    61          2
    62          5
    63          9
    64          2
    65         14
    66          6
    67         50
    68         40
    69        999
    70         69
    71          2
    73          1
    74          2
    75          1
    76          1
    77          9
    78          2
    79          8
    80          2
    81         14
    82          5
    83         77
    84          5
    85          1
    91          1
    92          1
    93          1
    95          1
    96          1
    97          2
    98        250
    99         19
   100          1