##TITLE=Library Entry 14496
##JCAMP-DX=Revision 4.10 
##DATA TYPE=MASS SPECTRUM
##SAMPLE DESCRIPTION=DENNIS H SMITH DEPT OF CHEM STANFORD UNIV STANFORD CALI
F 9430
##NAMES=HP
##CAS NAME=Pregn-4-ene-3,20-dione, 17-hydroxy-6,16-dimethyl-, (6.alpha.,16.a
lpha.)-
##MOLFORM=C23H34O3
##CAS REGISTRY NO=2738-39-8
##MP= -300
##BP= -300
##MW= 358
##$RETENTION INDEX=0
##$CONDENSED SPECTRUM=NO
##NPOINTS= 128
##XYDATA=(XY..XY) 1 
    41        362
    42         12
    43        999
    44         14
    45         36
    51         11
    53        138
    55        367
    56         12
    57         61
    65         45
    66         13
    67        206
    69        220
    71         39
    72         35
    77        128
    78         42
    79        224
    81        203
    82         11
    83         89
    85         42
    91        287
    92         29
    93        206
    94         35
    95        161
    96         12
    97        152
    99         19
   101        207
   104         11
   105        246
   106         39
   107        261
   108         35
   109        188
   110         22
   111         40
   115         22
   116         15
   117         57
   119        147
   120         40
   121        242
   122         34
   123        182
   124         22
   125         13
   128         26
   129         36
   131         62
   132         13
   133         99
   134         19
   135        139
   136        104
   137        476
   138        136
   139         11
   142         13
   143         38
   145         94
   146         19
   147        127
   148         34
   149         36
   150         32
   151         19
   155         14
   157         38
   158         11
   159        210
   160         33
   161        140
   162         27
   163         66
   164         14
   169         31
   171         30
   173        105
   175         79
   176         21
   177         35
   183         22
   184         11
   185         90
   186         22
   187        110
   188         18
   189         79
   190         11
   191         14
   197         11
   199         44
   200         14
   201         52
   203         18
   213         17
   215         48
   216         13
   225         36
   227         50
   229         29
   231         11
   239         21
   240         13
   241         26
   242         12
   243        409
   244         84
   255         27
   256         34
   257         77
   258        287
   259        123
   260         17
   279         16
   282         12
   297        886
   298        204
   315        871
   316        202
   330         23
   343         28
   358        311
   359         86