##TITLE=Library Entry 20159
##JCAMP-DX=Revision 4.10 
##DATA TYPE=MASS SPECTRUM
##SAMPLE DESCRIPTION=Japan AIST/NIMC Database- Spectrum MS-NW-4704
##NAMES=HP
##CAS NAME=3-Heptene, 2,6-dimethyl-
##MOLFORM=C9H18
##CAS REGISTRY NO=2738-18-3
##MP= -300
##BP= -300
##MW= 126
##$RETENTION INDEX=812
##$CONDENSED SPECTRUM=NO
##NPOINTS= 75
##XYDATA=(XY..XY) 1 
    15         13
    26          6
    27        161
    28          3
    29        106
    30          3
    31          2
    36          2
    37          3
    38          9
    39        157
    40         32
    41        634
    42         79
    43        384
    44         11
    45          5
    46          4
    47          2
    50          9
    51         23
    52          9
    53         70
    54         18
    55        999
    56        681
    57        186
    58          9
    59          9
    60          1
    61          1
    62          3
    63          6
    64          1
    65         18
    66          9
    67        104
    68         64
    69        877
    70        303
    71         34
    72          5
    73          4
    74          2
    77         14
    78          5
    79         18
    80          4
    81         27
    82         21
    83        182
    84         58
    85         13
    86          3
    87          2
    91          6
    92          1
    93          4
    94          1
    95         16
    96          2
    97          9
    98         15
    99          7
   107          3
   109          8
   110          1
   111         28
   112          4
   123          2
   124          4
   125          3
   126        196
   127         21
   128          1