##TITLE=Library Entry 60
##JCAMP-DX=Revision 4.10 
##DATA TYPE=MASS SPECTRUM
##SAMPLE DESCRIPTION=A.Pleshkova, Nesmeyanov Inst.Org.Elem.Cpds, Moscow
##NAMES=HP
##CAS NAME=Methyldicyanophosphine
##MOLFORM=C3H3N2P
##CAS REGISTRY NO=27388-03-0
##MP= -300
##BP= -300
##MW= 98
##$RETENTION INDEX=0
##$CONDENSED SPECTRUM=NO
##NPOINTS= 26
##XYDATA=(XY..XY) 1 
    14        101
    15        105
    26        354
    27        999
    28        403
    29         36
    31         81
    32         95
    39         51
    40         32
    43         35
    44        154
    45        132
    46        245
    47         23
    57        314
    58         35
    69         46
    70        103
    71        367
    72         47
    73         61
    83         42
    84          1
    98        254
    99         10