##TITLE=Library Entry 71365
##JCAMP-DX=Revision 4.10 
##DATA TYPE=MASS SPECTRUM
##SAMPLE DESCRIPTION=Div. of Experiment Therapeutics WRAIR, WRAMC, Washingto
n DC 20307
##NAMES=HP
##CAS NAME=2-[3,4-Dichlorostyryl]quinoline-3,4-dicarboxylic N-[.beta.-N-pipe
ridylethylimide
##MOLFORM=C26H23Cl2N3O2
##CAS REGISTRY NO=27388-40-5
##MP= -300
##BP= -300
##MW= 479
##$RETENTION INDEX=0
##$CONDENSED SPECTRUM=NO
##NPOINTS= 101
##XYDATA=(XY..XY) 1 
    41         34
    42         33
    43          1
    44         27
    49          1
    51          2
    53          2
    55         37
    56          5
    57          1
    58          0
    67          2
    68          1
    69         15
    70         18
    71          1
    74          1
    75          1
    77          1
    80          0
    82          2
    83          2
    84          2
    86          0
    87          0
    96         12
    98        999
    99         53
   100          2
   101          1
   102          0
   103          0
   110          1
   111          2
   112          0
   113          2
   114          1
   123          0
   125          0
   126          1
   127          0
   128          3
   131          1
   134          0
   135          0
   136          0
   138          0
   140          1
   145          1
   149          1
   152          0
   153          0
   154          1
   159         14
   161         11
   162          0
   163          2
   167          0
   170          1
   172          0
   173          0
   175          0
   177          0
   198          0
   199          0
   200          1
   202          0
   222          0
   225          2
   226          2
   227          5
   228          2
   235          0
   240          0
   241          0
   242          0
   255          0
   261          2
   262          3
   263          2
   264          1
   265          1
   275          0
   289          1
   290          0
   296          1
   297          3
   298          1
   299          1
   300          1
   326          0
   328          0
   367          0
   395          2
   397          1
   410          0
   478          1
   479          4
   480          2
   481          3
   483          0