##TITLE=Library Entry 109654
##JCAMP-DX=Revision 4.10 
##DATA TYPE=MASS SPECTRUM
##SAMPLE DESCRIPTION=Div. of Experiment Therapeutics WRAIR, WRAMC, Washingto
n DC 20307
##NAMES=HP
##CAS NAME=2-[p-Chlorobenzyl]-5-[trichloromethyl]-1,3,4-oxadiazole
##MOLFORM=C10H6Cl4N2O
##CAS REGISTRY NO=27389-53-3
##MP= -300
##BP= -300
##MW= 310
##$RETENTION INDEX=0
##$CONDENSED SPECTRUM=NO
##NPOINTS= 128
##XYDATA=(XY..XY) 1 
    41          5
    42          3
    43          8
    44         19
    45         10
    47         22
    48          4
    49         12
    50         27
    51         33
    52          5
    53          0
    54          1
    55          6
    56          1
    57          1
    58          0
    59          6
    60          1
    61          9
    62         30
    63         92
    64         17
    65         19
    66          1
    69          0
    72          2
    73         23
    74         11
    75         36
    76         10
    77         13
    78          2
    82         27
    83         12
    84         18
    85         12
    86          8
    87          9
    88          4
    89        162
    90         62
    91         19
    92          1
    94          6
    95          0
    96          5
    97          4
    98          3
    99         54
   100          4
   101         24
   102         10
   103          1
   104          1
   105          4
   107          2
   108          2
   110          8
   111          5
   112          6
   113          3
   114          3
   115          1
   116         11
   117         21
   118          1
   119         20
   121          7
   122          1
   123         10
   124         21
   125        999
   126         87
   127        343
   128         23
   129          3
   131          2
   132          9
   133          2
   136          2
   137          6
   138          7
   139         14
   140          4
   141         14
   142          0
   143          6
   145          1
   149          2
   150          4
   152        272
   153         54
   154         88
   155         17
   156          0
   159          3
   161          1
   164          6
   166          7
   167          2
   168          2
   169          0
   170          3
   172          0
   183          3
   184          4
   185          2
   186          2
   187          0
   188          0
   193         11
   195          3
   211          6
   212          1
   213          2
   275         23
   276          3
   277         21
   278          2
   279          6
   310         14
   311          3
   312         18
   313          3
   314          9
   315          0
   316          1