##TITLE=Library Entry 97907
##JCAMP-DX=Revision 4.10 
##DATA TYPE=MASS SPECTRUM
##SAMPLE DESCRIPTION=NIST Mass Spectrometry Data Center
##NAMES=HP
##CAS NAME=2-Pyridylacetonitrile
##MOLFORM=C7H6N2
##CAS REGISTRY NO=2739-97-1
##MP= -300
##BP= -300
##MW= 118
##$RETENTION INDEX=1157
##$CONDENSED SPECTRUM=NO
##NPOINTS= 50
##XYDATA=(XY..XY) 1 
    25          2
    26         29
    27         34
    31          1
    36          2
    37         40
    38         66
    39         94
    40         35
    41         23
    42          1
    44          3
    45          4
    48          2
    49         17
    50        108
    51        266
    52         93
    53         15
    54          2
    59          3
    60          3
    61         22
    62         39
    63         96
    64        114
    65         46
    66         11
    67         11
    73          1
    74          4
    75         15
    76         19
    77          8
    78        669
    79         42
    80          1
    86          3
    87          7
    88          9
    89          6
    90         33
    91        194
    92         21
    93          1
   116          1
   117         15
   118        999
   119         88
   120          3