##TITLE=Library Entry 66223
##JCAMP-DX=Revision 4.10 
##DATA TYPE=MASS SPECTRUM
##SAMPLE DESCRIPTION=Japan AIST/NIMC Database- Spectrum MS-NW-5489
##NAMES=HP
##CAS NAME=Ethyl 2-pyridylacetate
##MOLFORM=C9H11NO2
##CAS REGISTRY NO=2739-98-2
##MP= -300
##BP= -300
##MW= 165
##$RETENTION INDEX=0
##$CONDENSED SPECTRUM=NO
##NPOINTS= 66
##XYDATA=(XY..XY) 1 
    14          3
    15         10
    25          1
    26         20
    27         80
    28         20
    29        432
    30          9
    31         15
    32          2
    37          9
    38         26
    39        156
    40         17
    41         15
    42          7
    43          7
    44          5
    45          8
    46          7
    49          2
    50         22
    51         49
    52         30
    53         10
    54          3
    55          1
    60          2
    61          4
    62         11
    63         42
    64         49
    65        287
    66         76
    67         12
    68          1
    74          1
    75          1
    76          2
    77          4
    78         21
    79         13
    80          6
    81          1
    88          1
    90          3
    91         34
    92        767
    93        999
    94         72
    95          3
   106         28
   107          3
   108          5
   109          1
   118          1
   119         39
   120        256
   121         23
   122          4
   136         27
   137          4
   138          3
   165        112
   166         12
   167          1