##TITLE=Library Entry 56160
##JCAMP-DX=Revision 4.10 
##DATA TYPE=MASS SPECTRUM
##SAMPLE DESCRIPTION=Div. of Experiment Therapeutics WRAIR, WRAMC, Washingto
n DC 20307
##NAMES=HP
##CAS NAME=6-Amino-4-[.gamma.-[diethylamino]-.beta.-[hydroxy]propylamino]-5-
[.beta.,.beta.-dimethyl-.alpha.-[4-chlorostyryl]]pyrimidine
##MOLFORM=C21H30ClN5O
##CAS REGISTRY NO=27398-42-1
##MP= -300
##BP= -300
##MW= 403
##$RETENTION INDEX=0
##$CONDENSED SPECTRUM=NO
##NPOINTS= 94
##XYDATA=(XY..XY) 1 
    41         47
    42        172
    43        101
    44         74
    45         98
    49         10
    50         15
    51         18
    53         18
    54         26
    55         17
    56         87
    57         46
    58        281
    60         32
    63          7
    67         10
    68         17
    70         39
    71         16
    72         70
    77         24
    78         18
    81          7
    84         17
    86        999
    87         64
    88         16
    96         29
    98         11
   100         17
   105         15
   111         17
   112        109
   113          8
   114         17
   115         40
   116         79
   117          9
   119          7
   123         19
   125         48
   126         17
   127         30
   128         26
   129         16
   130         18
   139         19
   140          8
   141         17
   149         22
   152         24
   153         25
   154         19
   161         23
   162         26
   167         17
   168          9
   177         20
   179         19
   194          7
   195          8
   215         16
   221          9
   230         19
   231         18
   232          8
   245         18
   257         46
   258         48
   259         74
   260         24
   261         20
   271         20
   273         56
   274         16
   275         25
   287         22
   299          9
   301         21
   314         20
   315          8
   317        256
   318         51
   319         99
   320         22
   331          7
   356         52
   357          8
   358         19
   385         59
   386         19
   388         19
   403         27