##TITLE=Library Entry 97963
##JCAMP-DX=Revision 4.10 
##DATA TYPE=MASS SPECTRUM
##SAMPLE DESCRIPTION=Exported from NIST MS Search
##NAMES=HP
##CAS NAME=Pyrazolo[1,5-a]pyridine
##MOLFORM=C7H6N2
##CAS REGISTRY NO=274-56-6
##MP= -300
##BP= -300
##MW= 118
##$RETENTION INDEX=0
##$CONDENSED SPECTRUM=NO
##NPOINTS= 22
##XYDATA=(XY..XY) 1 
    37        120
    38        260
    39        260
    40         60
    41        120
    50        130
    51        210
    52        160
    53         40
    61         75
    62        150
    63        105
    64        185
    65        160
    78         18
    79          1
    90        200
    91        410
    92        150
   117        170
   118        999
   119        110