##TITLE=Library Entry 99890
##JCAMP-DX=Revision 4.10 
##DATA TYPE=MASS SPECTRUM
##SAMPLE DESCRIPTION=Exported from NIST MS Search
##NAMES=HP
##CAS NAME=Imidazo[1,2-a]pyrimidine
##MOLFORM=C6H5N3
##CAS REGISTRY NO=274-95-3
##MP= -300
##BP= -300
##MW= 119
##$RETENTION INDEX=0
##$CONDENSED SPECTRUM=NO
##NPOINTS= 16
##XYDATA=(XY..XY) 1 
    37         73
    38        216
    39        220
    40        294
    41         91
    52        106
    53        106
    59         66
    64         91
    65        330
    66        128
    79         73
    92        349
   118         69
   119        999
   120         73