##TITLE=Library Entry 97977
##JCAMP-DX=Revision 4.10 
##DATA TYPE=MASS SPECTRUM
##SAMPLE DESCRIPTION=V.A.Korolev, Moscow, Russia
##NAMES=HP
##CAS NAME=Pyrrolo[1,2-a]pyrazine
##MOLFORM=C7H6N2
##CAS REGISTRY NO=274-45-3
##MP= -300
##BP= -300
##MW= 118
##$RETENTION INDEX=0
##$CONDENSED SPECTRUM=NO
##NPOINTS= 56
##XYDATA=(XY..XY) 1 
    27         13
    28         49
    29          6
    36         14
    37        183
    38        359
    39        350
    40        145
    41        186
    42         32
    43         22
    44         22
    45         26
    48          4
    49         25
    50        106
    51        162
    52        186
    53         67
    54         17
    55          6
    56          3
    57          5
    59         92
    61         56
    62        128
    63        399
    64        505
    65        182
    66         48
    67        111
    68         15
    69          1
    74          2
    75         14
    76         15
    77         20
    78        103
    79         33
    80         19
    81         19
    82          7
    87          3
    88          6
    89          7
    90         62
    91        592
    92        141
    93         31
    94         11
    95          3
   116          1
   117         75
   118        999
   119         86
   120          3