##TITLE=Library Entry 100171
##JCAMP-DX=Revision 4.10 
##DATA TYPE=MASS SPECTRUM
##SAMPLE DESCRIPTION=ASES Database, Dalian Institute, P.R. China
##NAMES=HP
##CAS NAME=Imidazo(1,5-a)pyrimidine
##MOLFORM=C6H5N3
##CAS REGISTRY NO=274-67-9
##MP= -300
##BP= -300
##MW= 119
##$RETENTION INDEX=0
##$CONDENSED SPECTRUM=NO
##NPOINTS= 14
##XYDATA=(XY..XY) 1 
    37         91
    39         71
    40         59
    51         49
    53         89
    64         89
    65        171
    66        168
    79         40
    92         89
    93         70
   117         90
   118        321
   119        999