##TITLE=Library Entry 7335
##JCAMP-DX=Revision 4.10 
##DATA TYPE=MASS SPECTRUM
##SAMPLE DESCRIPTION=Chemical Concepts
##NAMES=HP
##CAS NAME=Cholestan-3-ol
##MOLFORM=C27H48O
##CAS REGISTRY NO=27409-41-2
##MP= -300
##BP= -300
##MW= 388
##$RETENTION INDEX=0
##$CONDENSED SPECTRUM=NO
##NPOINTS= 219
##XYDATA=(XY..XY) 1 
    27         77
    29        294
    31         11
    39         55
    41        614
    42         66
    43        999
    44         27
    45          8
    53         84
    54         38
    55        920
    56        113
    57        556
    58         26
    59         16
    65         26
    66         22
    67        589
    68        224
    69        541
    70         72
    71        240
    72         14
    73          4
    77        102
    78         26
    79        445
    80        118
    81        785
    82        189
    83        339
    84         30
    85         47
    86          4
    87          5
    88          6
    91        300
    92         97
    93        536
    94        248
    95        765
    96        105
    97        252
    98         24
    99         11
   100          5
   101          5
   103         11
   104         22
   105        292
   106        206
   107        731
   108        545
   109        424
   110         80
   111        142
   112         21
   113          7
   115         20
   116          6
   117         48
   118         27
   119        235
   120        198
   121        463
   122        282
   123        342
   124        175
   125         79
   126         13
   127          6
   128         14
   129         15
   130          7
   131         67
   132         28
   133        222
   134        146
   135        298
   136        134
   137        115
   138         55
   139         15
   140          7
   142          4
   143         11
   144          7
   145        122
   146         42
   147        303
   148        143
   149        251
   150         38
   151         52
   152         27
   153         11
   157         10
   158          6
   159         84
   160         53
   161        178
   162         90
   163        108
   164         37
   165        546
   166        176
   167         42
   168          4
   171          9
   172          2
   173         81
   174         39
   175         95
   176         34
   177         45
   178         38
   179         25
   180         12
   181          4
   183          4
   185          8
   186          3
   187         56
   188         46
   189         47
   190        113
   191         85
   192         34
   193         24
   194          7
   199          5
   200          4
   201        117
   202         24
   203         37
   204         19
   205         32
   206         43
   207         11
   208         19
   209          7
   213          8
   214          8
   215        698
   216        308
   217        352
   218         52
   219        107
   220         30
   221          7
   228          3
   229         34
   230         84
   231         77
   232         35
   233        732
   234        542
   235         77
   236          7
   241          6
   243         13
   245          9
   246          4
   247         20
   248        135
   249         27
   250          4
   255          8
   257         52
   258         11
   259         11
   260          4
   261         12
   262         95
   263         37
   264         13
   271          5
   273         17
   274         14
   275         31
   276         17
   277          6
   285         20
   286          5
   287          3
   288         27
   289         15
   290          4
   299          4
   301         12
   302          5
   303          8
   313          7
   314          8
   315          8
   316         10
   317          5
   327          4
   329          4
   331         42
   332         12
   344          4
   353          2
   355        120
   356         29
   357          2
   359          3
   369         11
   370         20
   371         17
   372          1
   373        228
   374         59
   375          5
   387         17
   388        501
   389        140
   390         20