##TITLE=Library Entry 8054
##JCAMP-DX=Revision 4.10 
##DATA TYPE=MASS SPECTRUM
##SAMPLE DESCRIPTION=A.S.Moskovkin,I.M.Karnaukh, Russian Center on Disaster
 Medicine
##NAMES=HP
##CAS NAME=3-Ethyl-4-hydroxy-4,6,6-trimethylhexahydropyrimidin-2-thione
##MOLFORM=C9H18N2OS
##CAS REGISTRY NO=27406-61-7
##MP= -300
##BP= -300
##MW= 202
##$RETENTION INDEX=0
##$CONDENSED SPECTRUM=NO
##NPOINTS= 91
##XYDATA=(XY..XY) 1 
    39        250
    40         62
    41        450
    42        420
    43        999
    44        230
    45         83
    46         20
    51          7
    52          7
    53         15
    54          8
    55        200
    56        150
    57        230
    58        730
    59         70
    60        230
    61        150
    62         18
    63          8
    64          7
    65         27
    66         17
    67         83
    68         57
    69        120
    70        180
    71        310
    72        150
    73         52
    74         18
    80         22
    81         80
    82         98
    83        250
    84         75
    85        120
    86         60
    87         67
    88         33
    93          7
    94          8
    95         12
    96         25
    97          7
    98        120
    99        100
   100         45
   101          7
   102          3
   103        100
   104         17
   105         77
   106          3
   107         15
   108          7
   109         13
   110         13
   111         73
   114          5
   115         13
   118          5
   121          3
   123         10
   124         12
   125          3
   126          3
   127          8
   128          5
   129          7
   137          8
   141        140
   142          2
   143         17
   144          7
   145          7
   158          2
   159         20
   167         23
   169         98
   170          8
   171          8
   183         20
   184         95
   185         27
   186         12
   202        300
   203         34
   204         15
   205          1