##TITLE=Library Entry 85931
##JCAMP-DX=Revision 4.10 
##DATA TYPE=MASS SPECTRUM
##SAMPLE DESCRIPTION=NIST Mass Spectrometry Data Center, 1994
##NAMES=HP
##CAS NAME=4-Fluorobenzyl isothiocyanate
##MOLFORM=C8H6FNS
##CAS REGISTRY NO=2740-88-7
##MP= -300
##BP= -300
##MW= 167
##$RETENTION INDEX=0
##$CONDENSED SPECTRUM=NO
##NPOINTS= 86
##XYDATA=(XY..XY) 1 
    12          1
    14          0
    26          9
    27         13
    28         15
    31         32
    32         29
    33          8
    34          1
    36          1
    37         15
    38         24
    39         60
    40          6
    41          2
    44         23
    45         28
    46          4
    47          1
    48          1
    49          9
    50         57
    51         41
    52          7
    55          2
    56         15
    57        116
    58         35
    59         31
    60          7
    61         20
    62         40
    63         70
    64         10
    65          3
    68         15
    69         21
    70         25
    71         14
    72         16
    73          8
    74         22
    75         37
    76          9
    77          3
    78          1
    79          1
    80          7
    81         42
    82          1
    83        253
    84         17
    85          6
    86          8
    87          9
    88          7
    89         35
    90          3
    92          3
    93          5
    94          9
    95         16
    96         10
   100          1
   102          1
   103          1
   104          1
   105          4
   107         74
   109        999
   110         77
   111          2
   115          1
   119          1
   120          2
   121          5
   122          2
   134          9
   135          6
   138          2
   139         28
   140          2
   141          1
   167         93
   168          9
   169          4