##TITLE=Library Entry 76211
##JCAMP-DX=Revision 4.10 
##DATA TYPE=MASS SPECTRUM
##SAMPLE DESCRIPTION=Japan AIST/NIMC Database- Spectrum MS-NW-4092
##NAMES=HP
##CAS NAME=Benzalbarbituric acid
##MOLFORM=C11H8N2O3
##CAS REGISTRY NO=27402-47-7
##MP= -300
##BP= -300
##MW= 216
##$RETENTION INDEX=0
##$CONDENSED SPECTRUM=NO
##NPOINTS= 147
##XYDATA=(XY..XY) 1 
    12          4
    13          2
    14          2
    15          6
    16         14
    17          1
    18          3
    25          5
    26         32
    27         63
    28         35
    29         31
    30          3
    31          1
    36          3
    37         56
    38         88
    39        226
    40         24
    41         11
    42         33
    43         94
    44        115
    45          6
    48          2
    49         42
    50        378
    51        465
    52        215
    53        126
    54          9
    55          4
    56          2
    57          9
    58         49
    59          6
    60          6
    61         73
    62        147
    63        325
    64         74
    65         51
    66         12
    67         10
    68          8
    69         22
    70        126
    71          5
    72          9
    73         42
    74        260
    75        310
    76        450
    77        166
    78         66
    79         10
    80          3
    81          1
    83          1
    84          3
    85         14
    86         23
    87         69
    88         35
    89        316
    90        297
    91         66
    92         10
    93          7
    94          6
    95          1
    96          5
    97          9
    98         42
    99         26
   100         25
   101        124
   102        999
   103        125
   104         42
   105         15
   106          9
   107         11
   108          3
   109          2
   110          2
   111          2
   112          2
   113          2
   114         10
   115         21
   116        266
   117        319
   118        232
   119         24
   120          3
   121          1
   123          2
   124          1
   125          1
   126          7
   127         20
   128        235
   129        389
   130        105
   131         17
   132          7
   133          3
   137          2
   138          1
   139          4
   141          2
   142          2
   143         18
   144         63
   145        162
   146         30
   147          3
   149          1
   153          1
   154          7
   155          2
   156         10
   157          5
   158          1
   160          2
   161          1
   162          1
   169          2
   170          2
   171         21
   172        881
   173        108
   174          9
   175          3
   187         15
   188          6
   189          1
   197          2
   198          3
   199          1
   214          9
   215        938
   216        767
   217        101
   218         15
   219          2