##TITLE=Library Entry 21441
##JCAMP-DX=Revision 4.10 
##DATA TYPE=MASS SPECTRUM
##SAMPLE DESCRIPTION=A.A.Kutin, Moscow, Russia
##NAMES=HP
##CAS NAME=Cyclooctane-1,1-dicarboxylic acid, 5-oxo-, diethyl ester
##MOLFORM=C14H22O5
##CAS REGISTRY NO=274255-51-5
##MP= -300
##BP= -300
##MW= 270
##$RETENTION INDEX=0
##$CONDENSED SPECTRUM=NO
##NPOINTS= 148
##XYDATA=(XY..XY) 1 
    33          1
    34          3
    39        322
    40        315
    41        771
    42        170
    43        487
    44         99
    45        208
    46         10
    47         17
    48          8
    50          7
    51         33
    52         38
    53        299
    54        131
    55        999
    56         99
    57        157
    59         69
    60         34
    61         24
    62          2
    63          5
    65        104
    66         95
    67        640
    68        348
    69        206
    70         58
    71        125
    72         21
    73         96
    74          9
    77         83
    78         33
    79        303
    80        179
    81        576
    82        102
    83        108
    84         55
    85         98
    86         90
    87         30
    88         32
    89          8
    91         57
    92         15
    93         91
    94        138
    95        669
    96        150
    97        209
    98         56
    99        182
   100         35
   101         32
   102          5
   103          8
   104         25
   105        164
   106         43
   107        109
   108        142
   109        238
   110        480
   111        213
   112         94
   113        201
   114         32
   115         18
   116          5
   117          1
   119          2
   121         74
   122        231
   123        836
   124        136
   125         94
   126         39
   127        326
   128        112
   129         19
   132         27
   133        146
   134         51
   135         28
   136         25
   137        104
   138         17
   139         93
   140        197
   141        280
   142         35
   143          6
   145         25
   150        364
   151        579
   152         76
   153         37
   154         94
   155         99
   156        277
   157         25
   158          5
   160          5
   161         82
   163          7
   165         73
   166         15
   167        226
   168        180
   169        270
   170         27
   171         11
   173        603
   174         55
   175          8
   178        374
   179         63
   180         51
   181         10
   182         22
   183        176
   184         37
   186        490
   187         74
   188          8
   195         30
   196         63
   197         38
   199          3
   200          3
   202         14
   206         35
   207          4
   213         10
   215          2
   224         59
   225        192
   226         23
   242         14
   252         51
   253          7
   270         44
   271          6