##TITLE=Library Entry 50075
##JCAMP-DX=Revision 4.10 
##DATA TYPE=MASS SPECTRUM
##SAMPLE DESCRIPTION=A.A.Kutin, Moscow, Russia
##NAMES=HP
##CAS NAME=Benzoic acid, 2,4-dinitro-, bicyclo[3.2.1]oct-6-yl ester
##MOLFORM=C15H16N2O6
##CAS REGISTRY NO=274255-64-0
##MP= -300
##BP= -300
##MW= 320
##$RETENTION INDEX=0
##$CONDENSED SPECTRUM=NO
##NPOINTS= 180
##XYDATA=(XY..XY) 1 
    33          0
    34          1
    35          0
    36          1
    37          6
    38         26
    39        217
    40         58
    41        484
    42         40
    43        154
    44         66
    45         18
    46         10
    47          1
    48          6
    49          3
    50         23
    51         38
    52         33
    53        187
    54        174
    55        538
    56         31
    57         76
    58          4
    59          5
    60          4
    61          5
    62         27
    63         86
    64         41
    65        105
    66        896
    67        637
    68         64
    69         64
    70         11
    71         11
    72          2
    73         16
    74        126
    75        459
    76         54
    77        184
    78        142
    79        821
    80        516
    81        999
    82        138
    83         44
    84          6
    85          5
    86          1
    87          2
    88          3
    89          7
    90         12
    91        149
    92         41
    93        188
    94         24
    95        126
    96         24
    97         90
    98          7
    99          2
   101          5
   103        144
   104         26
   105         49
   106         29
   107        280
   108        687
   109        125
   110         10
   111          4
   112          3
   113          2
   114          1
   115          2
   116          0
   117          2
   118          3
   119         19
   120         59
   121          8
   122         12
   123         22
   124         71
   125         38
   126          4
   127          1
   128          1
   129          1
   130          0
   131          1
   133          2
   134          5
   135          3
   136          9
   137          2
   138          1
   139          1
   140          3
   141          4
   142          0
   143          0
   144          0
   145          0
   146          0
   147          1
   148          5
   149         85
   150         14
   151          2
   152          4
   153          0
   155          1
   157          0
   158          0
   159          0
   161          0
   163          1
   164          3
   165         15
   166          8
   167          2
   168          1
   171          0
   173          0
   174          0
   177          0
   179         18
   180         14
   181          3
   182         19
   183          2
   184          0
   185          0
   188          0
   191          1
   192          0
   193          4
   195        203
   196        176
   197         16
   198          4
   199          0
   201          0
   206          0
   208          0
   211          0
   213          0
   221          1
   222          1
   223          0
   224          0
   228          0
   230          1
   231          0
   235          0
   247          0
   249          1
   256          0
   259          0
   260          0
   267          0
   273          1
   274          0
   282          0
   290          2
   291          0
   303         11
   304          2
   305          0
   311          0
   320         17
   321          3
   322          0