##TITLE=Library Entry 85784
##JCAMP-DX=Revision 4.10 
##DATA TYPE=MASS SPECTRUM
##SAMPLE DESCRIPTION=A.A.Kutin, Moscow, Russia
##NAMES=HP
##CAS NAME=Cyclopropane, 1,1-dibromo-2-butyl-3-methyl-
##MOLFORM=C8H14Br2
##CAS REGISTRY NO=274266-02-3
##MP= -300
##BP= -300
##MW= 268
##$RETENTION INDEX=0
##$CONDENSED SPECTRUM=NO
##NPOINTS= 129
##XYDATA=(XY..XY) 1 
    36          1
    37          3
    38         16
    39        175
    40         29
    41        301
    42         79
    43        113
    44          3
    45          2
    46          1
    49          0
    50         21
    51         75
    52         32
    53        211
    54         23
    55        328
    56         60
    57         56
    58          2
    61          1
    62          5
    63         13
    65        112
    66         57
    67        412
    68         46
    69         97
    70         27
    71          4
    73          0
    74          2
    75          1
    77         52
    78         11
    79         78
    80         28
    81        103
    82         10
    83          6
    84         86
    85          6
    86          0
    87          0
    89          0
    91         17
    92          2
    93         15
    94          7
    95          7
    96          0
    97         12
    98          1
   103          0
   104          1
   105          6
   106          2
   107         27
   109        999
   110         93
   111          4
   116          0
   117          8
   119        103
   120          8
   121         94
   122          5
   123          2
   129          0
   131         36
   132         10
   133        129
   134         15
   135         94
   136          6
   137          1
   143          1
   144          1
   145          6
   146         12
   147         37
   148         19
   149         30
   150          8
   151          0
   159          1
   160          0
   161          2
   162          0
   170          1
   171          1
   172          1
   173          2
   174          1
   175          1
   184          1
   185          0
   186          2
   187          0
   188          2
   189         23
   190          3
   191         22
   192          1
   197          0
   198        182
   199         21
   200        354
   201         19
   202        171
   203          5
   210          1
   211         15
   212          6
   213         28
   214         10
   215         14
   216          4
   225          1
   226          1
   227          3
   228          2
   229          1
   230          0
   268          3
   270          6
   271          0
   272          3