##TITLE=Library Entry 79249
##JCAMP-DX=Revision 4.10 
##DATA TYPE=MASS SPECTRUM
##SAMPLE DESCRIPTION=Japan AIST/NIMC Database- Spectrum MS-NW-5940
##NAMES=HP
##CAS NAME=Butanedioic acid, 2,3-bis(benzoyloxy)-, (2R,3R)-
##MOLFORM=C18H14O8
##CAS REGISTRY NO=2743-38-6
##MP= -300
##BP= -300
##MW= 358
##$RETENTION INDEX=0
##$CONDENSED SPECTRUM=NO
##NPOINTS= 79
##XYDATA=(XY..XY) 1 
    12          1
    13          2
    14          5
    15          5
    16          1
    17          2
    18          7
    25          2
    26          4
    27         10
    28          5
    29          9
    30          2
    31          5
    36          1
    37          7
    38         10
    39         17
    40          2
    41          9
    42         16
    43          6
    44         20
    45          8
    47          2
    49          5
    50         54
    51        132
    52         14
    53          5
    55          1
    56          1
    60          1
    61          3
    62          3
    63          3
    64          1
    65          6
    66          4
    68          1
    69         12
    70          9
    71          7
    72          1
    73          4
    74         17
    75         12
    76         22
    77        374
    78         32
    79          2
    86          1
    91          1
    92          1
    93          1
    94          7
   103          1
   104          6
   105        999
   106         77
   107          5
   114          1
   121          2
   122        233
   123         21
   124          2
   135          1
   136          1
   139          1
   147          1
   162          4
   163          1
   164          2
   191          1
   192          2
   227          9
   228          2
   236          3
   268          1