##TITLE=Library Entry 58958
##JCAMP-DX=Revision 4.10 
##DATA TYPE=MASS SPECTRUM
##SAMPLE DESCRIPTION=R.A. ABRAMOVITCH, DEP. CHEM., ALABAMA UNIV., ALABAMA, U
SA
##NAMES=HP
##CAS NAME=1-Benzylbenzimidazole 3-oxide
##MOLFORM=C14H12N2O
##CAS REGISTRY NO=27430-55-3
##MP= -300
##BP= -300
##MW= 224
##$RETENTION INDEX=0
##$CONDENSED SPECTRUM=NO
##NPOINTS= 22
##XYDATA=(XY..XY) 1 
    39        150
    40        440
    41        120
    43        100
    44        220
    51         70
    55         90
    57         90
    63         90
    65        190
    69         60
    71         50
    73         90
    77         70
    90         50
    91        999
    92        110
   119         10
   208        100
   209         56
   223         12
   224         24