##TITLE=Library Entry 55833
##JCAMP-DX=Revision 4.10 
##DATA TYPE=MASS SPECTRUM
##SAMPLE DESCRIPTION=Exported from NIST MS Search
##NAMES=HP
##CAS NAME=L-Leucine, ethyl ester
##MOLFORM=C8H17NO2
##CAS REGISTRY NO=2743-60-4
##MP= -300
##BP= -300
##MW= 159
##$RETENTION INDEX=0
##$CONDENSED SPECTRUM=NO
##NPOINTS= 88
##XYDATA=(XY..XY) 1 
    25          1
    26         15
    27        175
    28        179
    29        186
    30        380
    31         12
    32          1
    34          1
    35          1
    37          1
    38          4
    39         51
    40          8
    41        114
    42         83
    43        233
    44        500
    45         20
    46         23
    47          5
    48          1
    49          1
    50          1
    51          3
    52          2
    53          8
    54          8
    55         12
    56         31
    57         18
    58          3
    59          2
    60          1
    61          1
    62          1
    63          1
    64          1
    65          1
    66          1
    67          3
    68          5
    69         12
    70         37
    71          4
    72          1
    73          5
    74         84
    75          4
    76          1
    80          1
    81          1
    82          1
    83          1
    84          5
    85          2
    86        999
    87         60
    88          3
    89          1
    95          1
    96          1
    97          1
    98          2
    99          4
   100          1
   101          2
   102        101
   103          8
   104          1
   112          1
   113          1
   114          1
   115          1
   116          3
   117          1
   127          2
   128          1
   129          1
   130          1
   141          1
   142          1
   143          1
   144          1
   157          1
   158          1
   159          1
   160          1