##TITLE=Library Entry 85515
##JCAMP-DX=Revision 4.10 
##DATA TYPE=MASS SPECTRUM
##SAMPLE DESCRIPTION=CARL DJERASSI DEPT OF CHEM STANFORD UNIV STANFORD CALIF
 94305
##NAMES=HP
##CAS NAME=4,5-Secoakuammilan-17-oic acid, 2,5-epoxy-1,2-dihydro-16-(hydroxy
methyl)-, methyl ester, (2.alpha.)-
##MOLFORM=C21H26N2O4
##CAS REGISTRY NO=2744-47-0
##MP= -300
##BP= -300
##MW= 370
##$RETENTION INDEX=0
##$CONDENSED SPECTRUM=NO
##NPOINTS= 226
##XYDATA=(XY..XY) 1 
    60         90
    61         30
    63         10
    64         10
    65         30
    66         10
    67         70
    68         50
    69        120
    70         50
    71         70
    72         10
    73         60
    74         10
    75         10
    76         10
    77         60
    78         20
    79         50
    80         30
    81         80
    82         40
    83        110
    84         40
    85         70
    86         20
    87         20
    89         20
    90         10
    91         50
    92         20
    93         60
    94         40
    95         50
    96         20
    97         40
    98         20
    99         20
   101         30
   102         10
   103         20
   104         10
   105         20
   106         70
   107         60
   108        999
   109        130
   110         60
   111         40
   112         20
   113         20
   114         10
   115         30
   116         10
   117         30
   118         10
   119         10
   120         10
   121         10
   122         40
   123         20
   124         20
   125         20
   126         10
   127         20
   128         30
   129         40
   130         60
   131         20
   132         10
   133         20
   134         20
   135         20
   136         20
   137         10
   138         10
   139         20
   140         20
   141         10
   142         10
   143         30
   144         50
   145         20
   146         20
   147         20
   149         20
   150         10
   151         20
   152         20
   153         20
   154         30
   155         20
   156         60
   157         20
   158         30
   159         50
   160         20
   161         10
   163         10
   164         10
   165         10
   166         20
   167         40
   168         30
   169         20
   170         20
   171         20
   172         30
   173         10
   174         20
   178         20
   179         10
   180         40
   181         20
   182         20
   183         10
   184         20
   185         20
   186         20
   187         20
   191         10
   192         20
   193         20
   194         40
   195         30
   196         20
   197         10
   198         20
   199         40
   200         50
   201         30
   202         70
   203         20
   204         60
   205         20
   206         30
   207         10
   208         30
   209         50
   210         20
   211         20
   212         20
   213         10
   214         30
   215         10
   216         10
   218         20
   219         10
   220         10
   221         20
   222         30
   223         50
   224         20
   225         10
   226         10
   227         10
   230         20
   231         10
   232         80
   233         20
   234         10
   235         40
   236         40
   237         30
   238         20
   239         10
   240         10
   241         10
   242         10
   245         20
   246         10
   247         30
   248         30
   249         50
   250         20
   251         20
   252         60
   253         20
   254         10
   255         10
   256         30
   257         10
   261         10
   262         70
   263        120
   264         30
   265         10
   266         40
   267        100
   268         30
   269         10
   270         20
   278         10
   279         10
   280         10
   281         10
   282         10
   284         10
   285         10
   293         10
   295         10
   307         10
   309         10
   310         10
   311         30
   312         10
   321         10
   322         10
   323         10
   324         10
   325         30
   326         20
   327         30
   328         20
   329         10
   338         10
   339         60
   340         30
   341         10
   353         10
   355         10
   368         30
   369         20
   370        210
   371         60
   372         10