##TITLE=Library Entry 100512
##JCAMP-DX=Revision 4.10 
##DATA TYPE=MASS SPECTRUM
##SAMPLE DESCRIPTION=V.A.KOPTYUG, ATLAS OF MASS SPECTRA OF ORGANIC COMPOUNDS
##NAMES=HP
##CAS NAME=1-Chloromethyl-3,5-dimethylbenzene
##MOLFORM=C9H11Cl
##CAS REGISTRY NO=2745-54-2
##MP= -300
##BP= -300
##MW= 154
##$RETENTION INDEX=1196
##$CONDENSED SPECTRUM=NO
##NPOINTS= 20
##XYDATA=(XY..XY) 1 
    39         98
    41         64
    50         31
    51         78
    57         35
    58         37
    63         38
    65         38
    77         87
    78         33
    91        120
   103         47
   104         36
   105         37
   115         39
   117         42
   119        999
   120        110
   154        210
   156         60