##TITLE=Library Entry 25353
##JCAMP-DX=Revision 4.10 
##DATA TYPE=MASS SPECTRUM
##SAMPLE DESCRIPTION=Japan AIST/NIMC Database- Spectrum MS-NW-6807
##NAMES=HP
##CAS NAME=Disulfide, di-tert-dodecyl
##MOLFORM=C24H50S2
##CAS REGISTRY NO=27458-90-8
##MP= -300
##BP= -300
##MW= 402
##$RETENTION INDEX=0
##$CONDENSED SPECTRUM=NO
##NPOINTS= 160
##XYDATA=(XY..XY) 1 
    14          1
    15          4
    16          1
    17          4
    18         13
    26          3
    27         86
    28         16
    29        162
    30          4
    32         10
    33          8
    34         24
    35          1
    36          3
    38          3
    39         75
    40         13
    41        386
    42         38
    43        518
    44         17
    45          8
    46          1
    47          9
    48          1
    49          1
    50          2
    51          9
    52          4
    53         48
    54         15
    55        460
    56        130
    57        999
    58         45
    59         18
    60          4
    61         15
    62          1
    63          3
    64         23
    65         10
    66          4
    67         53
    68         21
    69        489
    70        214
    71        637
    72         35
    73          7
    74         20
    75         31
    76          2
    77         12
    78          2
    79         11
    80          3
    81         35
    82         22
    83        301
    84        170
    85        485
    86         33
    87          8
    88         13
    89         20
    90          3
    91          7
    92          1
    93          6
    94          1
    95         27
    96         12
    97        152
    98         91
    99        264
   100         19
   101          5
   102          4
   103          9
   104          1
   105          1
   107          8
   108          1
   109         17
   110          9
   111         64
   112         38
   113        141
   114         12
   115          5
   116          1
   117          6
   119          1
   121          6
   122          1
   123         12
   124          4
   125         23
   126         11
   127         28
   128          3
   129          4
   130          2
   131          4
   133          1
   135          2
   137          8
   138          2
   139         13
   140          4
   141          9
   142          1
   143          4
   144          1
   145          4
   147          1
   149          2
   151          6
   152          3
   153          9
   154         20
   155         59
   156          7
   157          3
   159          3
   163          2
   165          3
   166          5
   167          9
   168         52
   169        120
   170         16
   171          3
   173          2
   177          2
   178          2
   180          1
   181          1
   182          6
   183          9
   184          1
   185          2
   187          1
   188          1
   191          2
   200          1
   201          1
   202          1
   205          3
   206          1
   207          1
   219          3
   220          2
   233          1
   234          2
   374          2
   402          4
   403          1