##TITLE=Library Entry 42088
##JCAMP-DX=Revision 4.10 
##DATA TYPE=MASS SPECTRUM
##SAMPLE DESCRIPTION=RADIAN CORP
##NAMES=HP
##CAS NAME=1,3,4-Thiadiazole, 2,5-dimethyl-
##MOLFORM=C4H6N2S
##CAS REGISTRY NO=27464-82-0
##MP= -300
##BP= -300
##MW= 114
##$RETENTION INDEX=0
##$CONDENSED SPECTRUM=NO
##NPOINTS= 60
##XYDATA=(XY..XY) 1 
    12          2
    13          4
    15         40
    24          8
    25         64
    26        232
    27        235
    29         12
    32         48
    33         27
    34          7
    35          2
    37          5
    38         78
    39        121
    40        242
    41         78
    42         46
    43          1
    44         50
    45        198
    46        291
    47         63
    48         16
    49          2
    50          6
    51          9
    52          7
    53         20
    54          9
    55          3
    56         45
    57        260
    58        538
    59        907
    60         55
    61         43
    62          1
    66          1
    67          3
    68          5
    69         39
    70         66
    71         65
    72        455
    73        999
    74         62
    75         52
    76          2
    81          5
    82          3
    83          2
    84          3
    85         15
    86          1
    99          7
   114        981
   115         97
   116         51
   117          4