##TITLE=Library Entry 80134
##JCAMP-DX=Revision 4.10 
##DATA TYPE=MASS SPECTRUM
##SAMPLE DESCRIPTION=A.A.Kutin, Moscow, Russia
##NAMES=HP
##CAS NAME=Propenoic acid, 2-benzoylamino-3-(3,4-dimethoxyphenyl)-, ethyl es
ter
##MOLFORM=C20H21NO5
##CAS REGISTRY NO=274691-51-9
##MP= -300
##BP= -300
##MW= 355
##$RETENTION INDEX=0
##$CONDENSED SPECTRUM=NO
##NPOINTS= 206
##XYDATA=(XY..XY) 1 
    36          0
    37          0
    38          3
    39         10
    40          4
    41          4
    42          2
    43          6
    44         10
    45          8
    46          2
    48          0
    49          1
    50         18
    51         63
    52          6
    53          4
    54          1
    55          3
    56          0
    57          1
    58          0
    59          1
    60          0
    61          0
    62          3
    63         15
    64         12
    65         16
    66          3
    67          1
    68          1
    69          3
    70          0
    71          1
    72          0
    73          1
    74          3
    75          9
    76         42
    77        366
    78         30
    79          9
    80          1
    81          1
    82          0
    83          1
    84          0
    85          0
    86          0
    87          1
    88          2
    89         10
    90          9
    91         15
    92          7
    93          1
    94          2
    95          1
    96          1
    97          0
    98          0
    99          0
   100          0
   101          1
   102          4
   103         17
   105        999
   106         79
   107         16
   108          3
   109          1
   110          0
   111          0
   113          0
   114          1
   115          3
   116         11
   117          3
   118          3
   119         10
   120          3
   121          1
   122          0
   123          1
   124          2
   125          0
   126          0
   127          0
   128          0
   129          1
   130          5
   131          5
   132          9
   133          5
   134         16
   135          3
   136          0
   137          0
   138          4
   139          5
   140          1
   141          0
   144          4
   145          2
   146          5
   147         11
   148          4
   149          3
   150          1
   151         10
   152          1
   153          0
   155          1
   156          0
   157          0
   158          1
   159          1
   160          5
   161          5
   162         58
   163         19
   164          3
   165          2
   166          0
   167          1
   168          0
   171          0
   172          1
   173          5
   174          2
   175         13
   176         14
   177         67
   178         32
   179          3
   180          0
   181          0
   182          0
   188          0
   189          1
   190          1
   191          2
   192          1
   193          0
   194          0
   195          1
   196          0
   202          0
   203          2
   204         23
   205          3
   206          2
   207          0
   208          0
   209          0
   210          0
   219          1
   220          0
   221          2
   222          5
   223          2
   224          0
   227          0
   231          1
   232          1
   233          0
   234          2
   235          0
   236          0
   237          0
   238          0
   239          0
   241          0
   246          0
   249          1
   250          5
   251          1
   252          0
   253          0
   255          0
   256          1
   264          0
   266          0
   271          0
   273          0
   274          1
   278          1
   279          0
   280          0
   281          1
   282          2
   283          0
   308          2
   309         13
   310          8
   311          1
   324          0
   327          0
   338          1
   339          0
   353          0
   355        176
   356         36
   357          5
   358          0