##TITLE=Library Entry 82132
##JCAMP-DX=Revision 4.10 
##DATA TYPE=MASS SPECTRUM
##SAMPLE DESCRIPTION=Div. of Experiment Therapeutics WRAIR, WRAMC, Washingto
n DC 20307
##NAMES=HP
##CAS NAME=6-Chloro-5-[4-phenyl-1-piperazinyl]-2,4-pyrimidinediamine
##MOLFORM=C14H17ClN6
##CAS REGISTRY NO=274679-83-3
##MP= -300
##BP= -300
##MW= 304
##$RETENTION INDEX=0
##$CONDENSED SPECTRUM=NO
##NPOINTS= 179
##XYDATA=(XY..XY) 1 
    41         21
    42        170
    43        373
    44         19
    45          5
    47         20
    49        107
    51        196
    52         37
    53         44
    54         74
    55         35
    56         71
    57         12
    58          3
    60          5
    62         20
    63         22
    64         23
    65         53
    66         55
    67         68
    68         58
    69         32
    70          7
    71          3
    73          8
    74          7
    75         11
    77        532
    78         67
    79         35
    80         13
    81         18
    82         21
    84         48
    86         38
    87         14
    88         12
    89         29
    91        174
    92         35
    93         14
    94         45
    95         15
    96          8
    97          3
    98          3
   101         24
   102         19
   104        524
   105        999
   106        211
   107         29
   108         14
   109         51
   110          6
   111          1
   112          2
   114          0
   115         25
   117         54
   118         30
   119         30
   120         60
   121         12
   122         15
   123          7
   124          4
   125          0
   128         27
   130         27
   132        450
   133         39
   134        190
   136         46
   137          9
   138          5
   140          1
   141          0
   142          7
   143         11
   144         35
   145          9
   146         22
   147         17
   148         91
   149         11
   150          9
   152         41
   155          3
   157        281
   159        117
   160         17
   161          3
   162         28
   163          6
   164         62
   165          2
   167          2
   170        467
   171         13
   172        272
   173         34
   174         14
   176          3
   177          3
   178          0
   179          0
   181          5
   182          2
   184         97
   185         38
   186         46
   187          8
   188          0
   189          0
   191          2
   196          4
   198         74
   199         57
   200         25
   201         19
   203          0
   205          0
   207          0
   209          0
   210          1
   211          1
   212          3
   213          4
   214          0
   215          1
   216          0
   219          0
   222          0
   224          1
   225          2
   226          1
   227          1
   228          0
   229          0
   238          1
   239          5
   240          2
   241         13
   245          0
   246          0
   247          1
   248          7
   250          1
   251          0
   253          6
   254          0
   255          0
   260          0
   262          2
   263          0
   267          4
   268         18
   269         16
   270          8
   274          2
   275          0
   276          1
   285          2
   286          0
   287          0
   289        117
   290          6
   291         36
   292          3
   301          8
   303          4
   304        699
   305        154
   306        262
   307         49
   308          3