##TITLE=Library Entry 28199
##JCAMP-DX=Revision 4.10 
##DATA TYPE=MASS SPECTRUM
##SAMPLE DESCRIPTION=Japan AIST/NIMC Database- Spectrum MS-NW-9933
##NAMES=HP
##CAS NAME=1-Methylcyclopropanemethanol
##MOLFORM=C5H10O
##CAS REGISTRY NO=2746-14-7
##MP= -300
##BP= -300
##MW= 86
##$RETENTION INDEX=0
##$CONDENSED SPECTRUM=NO
##NPOINTS= 47
##XYDATA=(XY..XY) 1 
    14          1
    15          9
    18          2
    25          1
    26         22
    27        169
    28         84
    29        229
    30         87
    31        148
    32          2
    37          8
    38         19
    39        197
    40         78
    41        294
    42         31
    43        131
    44         58
    45         30
    49          4
    50         21
    51         28
    52          9
    53        111
    54         36
    55        240
    56        460
    57        492
    58        999
    59         40
    60          3
    61          3
    62          2
    63          3
    65          9
    66          4
    67         67
    68         87
    69         25
    70          4
    71        114
    72          5
    83          3
    84          3
    85          4
    86          4