##TITLE=Library Entry 47590
##JCAMP-DX=Revision 4.10 
##DATA TYPE=MASS SPECTRUM
##SAMPLE DESCRIPTION=NIST Mass Spectrometry Data Center, 1998.
##NAMES=HP
##CAS NAME=Suxibuzone
##MOLFORM=C24H26N2O6
##CAS REGISTRY NO=27470-51-5
##MP= -300
##BP= -300
##MW= 438
##$RETENTION INDEX=2385
##$CONDENSED SPECTRUM=NO
##NPOINTS= 172
##XYDATA=(XY..XY) 1 
    15          1
    26          2
    27         46
    28          9
    29         46
    30          1
    37          2
    38          8
    39         57
    40         10
    41         95
    42         19
    43          9
    44          1
    50         18
    51        136
    52         20
    53         15
    54          6
    55        151
    56         10
    57         51
    58          2
    61          1
    62          4
    63         30
    64         80
    65         61
    66         11
    67          8
    68          4
    69         43
    70          5
    71          1
    74          3
    75          6
    76         20
    77        999
    78         79
    79          6
    80          4
    81         10
    82          1
    83          6
    86          1
    87          1
    88          1
    89          4
    90          9
    91        126
    92         30
    93        114
    94         16
    95          4
    96          1
    97          8
    98          2
   101          1
   102          5
   103          6
   104         32
   105        184
   106         18
   107          3
   113          1
   114          1
   115         12
   116          3
   117         10
   118         23
   119         57
   120         12
   121          1
   123          1
   125         37
   126          6
   127          6
   128         13
   129          5
   130         14
   131          3
   132         14
   133          6
   134          3
   135          1
   139          4
   140          1
   141          1
   142          1
   143          2
   144          7
   145          6
   146         15
   147          2
   148          2
   150          2
   151         11
   152         54
   153         28
   154         15
   155          3
   156          3
   157          4
   158          2
   159          2
   160         18
   161          3
   162          1
   165          1
   166          9
   167         12
   168          7
   169          4
   170          1
   171          1
   172          5
   173          4
   174         19
   175          2
   179          1
   180          3
   181         15
   182         34
   183        992
   184        326
   185         35
   186          3
   188          3
   189          2
   193          1
   194          1
   195          5
   196          1
   197          1
   198          1
   200          1
   207          2
   208          1
   209          2
   210          3
   211         12
   212          2
   214          1
   219          2
   220          1
   221          3
   222          1
   223          2
   224          1
   235         10
   236          2
   237          4
   238          1
   247          2
   248          1
   249          1
   251         21
   252         98
   253         20
   254          2
   263          1
   264          1
   265         22
   266          4
   291          4
   292          1
   293          3
   306          1
   308        403
   309         86
   310         10
   311          1