##TITLE=Library Entry 30850
##JCAMP-DX=Revision 4.10 
##DATA TYPE=MASS SPECTRUM
##SAMPLE DESCRIPTION=Chemical Concepts
##NAMES=HP
##CAS NAME=Acetamide, N-(4-hydroxycyclohexyl)-, cis-
##MOLFORM=C8H15NO2
##CAS REGISTRY NO=27489-61-8
##MP= -300
##BP= -300
##MW= 157
##$RETENTION INDEX=0
##$CONDENSED SPECTRUM=NO
##NPOINTS= 48
##XYDATA=(XY..XY) 1 
    38          9
    39         84
    41        189
    42        114
    43        863
    44         13
    46         11
    51         10
    52         12
    53         38
    54        142
    55         84
    56        716
    57        631
    58         58
    59         63
    60        999
    61         28
    67         23
    68         35
    69        162
    70         62
    71         11
    72          6
    73          7
    77         22
    78         10
    79         97
    80        222
    81         57
    82         61
    83         47
    84         25
    85         46
    86         22
    94          5
    96         63
    97        114
    98        147
    99        133
   100         14
   101          9
   114         61
   124         54
   139        150
   140         13
   157         44
   158          2