##TITLE=Library Entry 22196
##JCAMP-DX=Revision 4.10 
##DATA TYPE=MASS SPECTRUM
##SAMPLE DESCRIPTION=NIST Mass Spectrometry Data Center, 2010
##NAMES=HP
##CAS NAME=Cyclohexanol, 4-amino-, trans-
##MOLFORM=C6H13NO
##CAS REGISTRY NO=27489-62-9
##MP= -300
##BP= -300
##MW= 115
##$RETENTION INDEX=0
##$CONDENSED SPECTRUM=NO
##NPOINTS= 58
##XYDATA=(XY..XY) 1 
    15          3
    18          6
    26          4
    27         24
    28         50
    29         29
    30         47
    31         15
    37          1
    38          3
    39         33
    40          7
    41         63
    42         71
    43        353
    44         27
    45          3
    46          7
    50          3
    51          6
    52          5
    53         12
    54         24
    55         27
    56        999
    57        243
    58         14
    59         16
    63          1
    65          4
    66          2
    67          9
    68         21
    69         26
    70          7
    71          1
    77         13
    78          2
    79         14
    80          7
    81         10
    82         13
    83          4
    84          1
    85          1
    86          5
    87          1
    93          1
    94          3
    95          1
    96         14
    97         16
    98         14
    99          1
   100          1
   114          2
   115         53
   116          4