##TITLE=Library Entry 8256
##JCAMP-DX=Revision 4.10 
##DATA TYPE=MASS SPECTRUM
##SAMPLE DESCRIPTION=NIST Mass Spectrometry Data Center, 2010
##NAMES=HP
##CAS NAME=Acetamide, N-(4-hydroxycyclohexyl)-, trans-
##MOLFORM=C8H15NO2
##CAS REGISTRY NO=27489-60-7
##MP= -300
##BP= -300
##MW= 157
##$RETENTION INDEX=0
##$CONDENSED SPECTRUM=NO
##NPOINTS= 72
##XYDATA=(XY..XY) 1 
    15         38
    18         18
    20          2
    26          7
    27         68
    28        127
    29         91
    30         86
    31         45
    38          3
    39         99
    40         21
    41        213
    42        144
    43        999
    44        105
    45         25
    46          8
    50          6
    51         16
    52         12
    53         41
    54        153
    55        102
    56        718
    57        536
    58         54
    59         50
    60        926
    61         24
    62          1
    65          9
    66          4
    67         28
    68         52
    69        163
    70         65
    71         10
    72         10
    73          9
    77         26
    78          7
    79        112
    80        276
    81         77
    82         72
    83         45
    84         33
    85         56
    86         36
    87          2
    94          8
    95          8
    96        100
    97        123
    98        186
    99        152
   100         24
   101          6
   111          3
   112          1
   113          1
   114         80
   115          5
   119          9
   124         87
   125          6
   138          1
   139        266
   140         33
   157         82
   158          6