##TITLE=Library Entry 65183
##JCAMP-DX=Revision 4.10 
##DATA TYPE=MASS SPECTRUM
##SAMPLE DESCRIPTION=CARL DJERASSI DEPT OF CHEM STANFORD UNIV STANFORD CALIF
 94305
##NAMES=HP
##CAS NAME=Benzene, 1,1'-[methylenebis(oxymethylene)]bis-
##MOLFORM=C15H16O2
##CAS REGISTRY NO=2749-70-4
##MP= -300
##BP= -300
##MW= 228
##$RETENTION INDEX=0
##$CONDENSED SPECTRUM=NO
##NPOINTS= 20
##XYDATA=(XY..XY) 1 
    41         20
    51         50
    63         20
    65        110
    77         70
    78         20
    79         70
    89         30
    90         60
    91        950
    92        999
    93         80
   105         20
   106         20
   107        220
   108         30
   119         70
   120         60
   121         20
   137         30