##TITLE=Library Entry 15210
##JCAMP-DX=Revision 4.10 
##DATA TYPE=MASS SPECTRUM
##SAMPLE DESCRIPTION=Japan AIST/NIMC Database- Spectrum MS-NW-6786
##NAMES=HP
##CAS NAME=1-Propanol, 2-amino-, (S)-
##MOLFORM=C3H9NO
##CAS REGISTRY NO=2749-11-3
##MP= -300
##BP= -300
##MW= 75
##$RETENTION INDEX=0
##$CONDENSED SPECTRUM=NO
##NPOINTS= 44
##XYDATA=(XY..XY) 1 
    13          1
    14          4
    15         37
    16          2
    17         11
    18         42
    25          2
    26         10
    27         45
    28         84
    29         27
    30         44
    31         38
    32          2
    37          2
    38          5
    39         16
    40         15
    41         43
    42        142
    43         40
    44        999
    45         34
    46          1
    51          2
    52          4
    53          2
    54          8
    55          7
    56         39
    57         23
    58         33
    59          5
    60         33
    61          1
    68          2
    69          1
    70          7
    71          2
    72          9
    73          2
    74          5
    75          3
    76          1