##TITLE=Library Entry 62561
##JCAMP-DX=Revision 4.10 
##DATA TYPE=MASS SPECTRUM
##SAMPLE DESCRIPTION=A.A.Kutin, Moscow, Russia
##NAMES=HP
##CAS NAME=Bicyclo[2.2.1]heptane-7-carbonitrile, 2-(4-methylphenylsulfonylox
y)-
##MOLFORM=C15H17NO3S
##CAS REGISTRY NO=274908-61-1
##MP= -300
##BP= -300
##MW= 291
##$RETENTION INDEX=0
##$CONDENSED SPECTRUM=NO
##NPOINTS= 167
##XYDATA=(XY..XY) 1 
    33          0
    34          0
    37          5
    38         21
    39        240
    40         41
    41        192
    42         25
    43         10
    44         11
    45          8
    46          0
    47          0
    48          4
    49          1
    50         27
    51         67
    52         47
    53         79
    54         33
    55         23
    56          2
    57          3
    58          2
    59          2
    60          1
    61          3
    62         16
    63         70
    64         57
    65        381
    66        147
    67         78
    68          8
    69          5
    70          3
    71          2
    72          0
    73          1
    74          4
    75          5
    76          9
    77         92
    78         35
    79        110
    80         44
    81         95
    82          8
    83          2
    84          1
    85          1
    86          2
    87          3
    89         77
    90         87
    91        999
    92        283
    93         80
    94         16
    95          3
    96          1
    97          1
    98          0
    99          0
   100          0
   101          0
   102          2
   103          6
   104         31
   105         10
   106         13
   107         60
   108        144
   109        141
   110         12
   111          2
   112          0
   113          0
   115          2
   116          6
   117          9
   118         75
   119        131
   120        131
   121         14
   122          2
   123          2
   124         12
   125          1
   126          0
   127          0
   128          1
   129          1
   130          1
   131          3
   132          0
   133          0
   134          6
   136        292
   137         28
   138          3
   139         21
   140          7
   141          2
   142          1
   143          1
   144          1
   145          0
   149          0
   150          0
   151          1
   152          2
   155        636
   156         71
   157         63
   158          5
   159          1
   160          0
   161          0
   165          0
   166          0
   167          0
   168          0
   169          1
   170          4
   171         11
   172        112
   173         24
   174          7
   175          1
   180          0
   181          0
   182          0
   183          0
   184          0
   196          0
   198         12
   199          2
   200          0
   208          0
   209          2
   210          1
   211          0
   212          0
   215          0
   222          0
   223          0
   225          0
   226          0
   227          0
   228          0
   235          1
   236          0
   237          0
   248          7
   249          1
   250          0
   251          0
   262          2
   263          1
   264          0
   265          0
   289          0
   291         50
   292          9
   293          3
   294          0