##TITLE=Library Entry 67229
##JCAMP-DX=Revision 4.10 
##DATA TYPE=MASS SPECTRUM
##SAMPLE DESCRIPTION=Div. of Experiment Therapeutics WRAIR, WRAMC, Washingto
n DC 20307
##NAMES=HP
##CAS NAME=Ethyl 3-aminopicolinate
##MOLFORM=C8H10N2O2
##CAS REGISTRY NO=27507-15-9
##MP= -300
##BP= -300
##MW= 166
##$RETENTION INDEX=0
##$CONDENSED SPECTRUM=NO
##NPOINTS= 58
##XYDATA=(XY..XY) 1 
    41         78
    42         18
    43         17
    44          4
    45          8
    46          2
    47          8
    48          3
    49          3
    50          9
    51         21
    52         34
    53         31
    54         13
    55          4
    56          2
    62          1
    63          6
    64         38
    65         89
    66        217
    67        294
    68         18
    69          0
    75          3
    76          5
    77          4
    78          6
    79          3
    80          4
    81          2
    82          2
    83          1
    84          2
    86          1
    88          2
    90          1
    91         11
    92        236
    93        323
    94        999
    95         67
    96          2
   104          1
   105          2
   106          1
   107          2
   119          4
   120         44
   121         59
   122        172
   123         12
   137          5
   138          1
   165          2
   166        188
   167         25
   168          2