##TITLE=Library Entry 21123
##JCAMP-DX=Revision 4.10 
##DATA TYPE=MASS SPECTRUM
##SAMPLE DESCRIPTION=NIST Mass Spectrometry Data Center, 1998.
##NAMES=HP
##CAS NAME=9-Tricosene, (Z)-
##MOLFORM=C23H46
##CAS REGISTRY NO=27519-02-4
##MP= -300
##BP= -300
##MW= 322
##$RETENTION INDEX=2278
##$CONDENSED SPECTRUM=NO
##NPOINTS= 128
##XYDATA=(XY..XY) 1 
    26          1
    27         38
    28          6
    29        135
    30          3
    38          1
    39         56
    40         12
    41        559
    42        107
    43        764
    44         25
    50          1
    51          3
    52          3
    53         57
    54        235
    55        999
    56        472
    57        947
    58         42
    59          1
    65         19
    66         22
    67        282
    68        168
    69        790
    70        450
    71        459
    72         24
    73          1
    77         14
    78          3
    79         48
    80         20
    81        177
    82        282
    83        968
    84        323
    85        317
    86         20
    87          1
    91          8
    92          1
    93          9
    94          6
    95         97
    96        200
    97        993
    98        217
    99         87
   100          6
   105          1
   107          2
   108          2
   109         40
   110         88
   111        546
   112        141
   113         47
   114          4
   121          1
   122          3
   123         23
   124         58
   125        266
   126         85
   127         27
   128          2
   136          2
   137         14
   138         37
   139         97
   140         53
   141         16
   142          1
   151          4
   152         21
   153         46
   154         35
   155         10
   156          1
   165          2
   166         17
   167         30
   168         27
   169          8
   170          1
   179          1
   180         12
   181         17
   182         18
   183          5
   184          1
   193          1
   194         11
   195         13
   196         14
   197          3
   208          8
   209          8
   210         10
   211          2
   222          6
   223          5
   224          7
   225          2
   236          4
   237          3
   238          5
   239          1
   250          3
   251          2
   252          3
   253          1
   264          2
   265          2
   266          3
   267          1
   278          1
   279          1
   280          1
   292          1
   294          9
   295          2
   322        129
   323         32
   324          4