##TITLE=Library Entry 6047
##JCAMP-DX=Revision 4.10 
##DATA TYPE=MASS SPECTRUM
##SAMPLE DESCRIPTION=NIST Mass Spectrometry Data Center, 1990.
##NAMES=HP
##CAS NAME=1-Pentanol, 2-ethyl-
##MOLFORM=C7H16O
##CAS REGISTRY NO=27522-11-8
##MP= -300
##BP= -300
##MW= 116
##$RETENTION INDEX=0
##$CONDENSED SPECTRUM=NO
##NPOINTS= 35
##XYDATA=(XY..XY) 1 
    14          0
    26         19
    27        179
    28         40
    29        159
    30         11
    31        133
    32          7
    39        202
    40         51
    41        555
    42        136
    43        999
    44         45
    45         30
    50         12
    51         26
    53         60
    54         46
    55        362
    56        482
    57        361
    58         16
    59         17
    65          9
    67         25
    69        469
    70        295
    71         18
    72         13
    83         79
    84        231
    85        321
    86         19
    98         90