##TITLE=Library Entry 28211
##JCAMP-DX=Revision 4.10 
##DATA TYPE=MASS SPECTRUM
##SAMPLE DESCRIPTION=A.A.Kutin, Moscow, Russia
##NAMES=HP
##CAS NAME=Propan-1-one, 3-dimethylamino-1-(2-naphthyl)-
##MOLFORM=C15H17NO
##CAS REGISTRY NO=2752-87-6
##MP= -300
##BP= -300
##MW= 227
##$RETENTION INDEX=0
##$CONDENSED SPECTRUM=NO
##NPOINTS= 104
##XYDATA=(XY..XY) 1 
    35          7
    36         49
    37          2
    38         18
    39          2
    40          2
    41          5
    42         50
    43         21
    44         26
    45         12
    46          0
    50          3
    51          6
    52          1
    53          0
    54          1
    55         10
    56         14
    57        105
    58        999
    59         35
    60          0
    62          0
    63          5
    64          1
    65          0
    67          0
    68          0
    69          0
    70          7
    71         11
    72         57
    73          3
    74          4
    75          6
    76          4
    77         17
    78          2
    82          1
    83          0
    84          0
    85          0
    86          0
    87          2
    88          0
    89          1
    90          0
    91          1
    96          0
    98          4
    99          1
   100          3
   101          8
   102          4
   103          0
   105          1
   113          0
   115         10
   116          0
   121          1
   125          2
   126         20
   127         83
   128         18
   129          2
   133          0
   134          2
   135          0
   139          2
   141         19
   142          2
   143          0
   149          0
   150          0
   151          1
   152          4
   153          4
   154          6
   155         47
   156          7
   157          0
   165          1
   166          1
   167          0
   169          0
   170          3
   171          0
   181          1
   182          7
   183          4
   184          0
   196          0
   198          0
   200          1
   201          0
   210          3
   211          0
   212          1
   225          0
   226          4
   227         59
   228          9
   229          0