##TITLE=Library Entry 45707
##JCAMP-DX=Revision 4.10 
##DATA TYPE=MASS SPECTRUM
##SAMPLE DESCRIPTION=Institute of Chemistry, SAS, Bratislava, Slovakia
##NAMES=HP
##CAS NAME=.alpha.-D-Glucopyranosiduronamide, methyl
##MOLFORM=C7H13NO6
##CAS REGISTRY NO=27531-18-6
##MP= -300
##BP= -300
##MW= 207
##$RETENTION INDEX=0
##$CONDENSED SPECTRUM=NO
##NPOINTS= 34
##XYDATA=(XY..XY) 1 
    45         80
    59         44
    60         65
    61         44
    71        139
    73        139
    74        148
    75        999
    85         78
    86         89
    87        499
    88         53
   100         37
   101         27
   103        241
   104        379
   105        258
   112         58
   115         75
   116         86
   117         65
   129         44
   130         23
   131         44
   133        719
   145         16
   149         20
   157         47
   158         71
   160         25
   175         18
   176         27
   189          5
   207         16