##TITLE=Library Entry 88602
##JCAMP-DX=Revision 4.10 
##DATA TYPE=MASS SPECTRUM
##SAMPLE DESCRIPTION=A.A.Kutin, Moscow, Russia
##NAMES=HP
##CAS NAME=Benzenamine, 4-chloro-N-[2-[1-(4-chlorophenyl)-5-tetrazolyl]ethen
yl]-
##MOLFORM=C15H11Cl2N5
##CAS REGISTRY NO=275370-28-0
##MP= -300
##BP= -300
##MW= 331
##$RETENTION INDEX=0
##$CONDENSED SPECTRUM=NO
##NPOINTS= 210
##XYDATA=(XY..XY) 1 
    33         31
    34          8
    35         22
    36         91
    37         49
    38        121
    39        163
    40        142
    41         59
    42         35
    43         31
    44         72
    45          7
    47          7
    48          2
    50        248
    51        200
    52         97
    53         23
    54         18
    55         65
    56         31
    57         24
    61         58
    62         95
    63        274
    64        114
    65         66
    66         15
    67         15
    68         10
    69         21
    70         13
    71          9
    73        119
    74        135
    75        713
    76        162
    77        170
    78         30
    79         11
    80          6
    81          6
    82         10
    83         21
    84         17
    85         65
    86         13
    87         33
    88         38
    89        192
    90        252
    91         50
    92         29
    93          7
    95          9
    96          6
    97         13
    98         31
    99        127
   100         42
   101         95
   102        142
   103         76
   104         47
   105          9
   108          4
   109         11
   111        999
   112        161
   113        296
   114         72
   115         51
   116        190
   117        165
   118         17
   120         11
   121          6
   123         34
   124         61
   125        213
   126         85
   127        121
   128         59
   129         63
   131        248
   132         25
   134         49
   135         51
   136         26
   137        122
   138        757
   139        144
   140        246
   141         56
   142         73
   143         40
   144          5
   149         16
   150         63
   151        142
   152         77
   153         60
   154         20
   155          9
   156         28
   157         81
   158          8
   162         13
   163         54
   164         56
   165        157
   166         58
   167         50
   168         14
   176         15
   177         61
   178        123
   179         36
   180         41
   181          6
   190         19
   191         22
   192         73
   193         16
   194         30
   195          2
   199         19
   200         11
   201         10
   202          3
   203          6
   204         13
   205         25
   206         28
   207         10
   211          2
   212          9
   213         15
   214          9
   215          5
   216          4
   217          6
   218         18
   222          6
   224         13
   225         12
   226         14
   227         17
   228          2
   229          2
   231         17
   232         35
   233         69
   234         13
   235          7
   237          2
   238          2
   239         16
   240         32
   241         32
   242         15
   243          8
   246         15
   247         16
   248         42
   249         17
   250         27
   252         49
   253         20
   254         17
   255          6
   260         60
   261         21
   262         56
   263         17
   264         15
   265          8
   266         24
   267         84
   268         89
   269         38
   270         28
   271          2
   275         42
   276         10
   277         25
   278          3
   279          2
   284          3
   285         14
   287        422
   288         89
   289        254
   290         50
   291         44
   292          7
   300          4
   302        424
   303        126
   304        261
   305         80
   306         46
   307          8
   331        357
   332         73
   333        217
   334         39
   335         34
   336          2