##TITLE=Library Entry 69090
##JCAMP-DX=Revision 4.10 
##DATA TYPE=MASS SPECTRUM
##SAMPLE DESCRIPTION=A.A.Kutin, Moscow, Russia
##NAMES=HP
##CAS NAME=Benzenamine, 4-trifluoromethoxy-N-[2-[1-(4-fluorophenyl)-5-tetraz
olyl]ethenyl]-
##MOLFORM=C16H11F4N5O
##CAS REGISTRY NO=275370-60-0
##MP= -300
##BP= -300
##MW= 365
##$RETENTION INDEX=0
##$CONDENSED SPECTRUM=NO
##NPOINTS= 264
##XYDATA=(XY..XY) 1 
    33         12
    34          0
    37         17
    38         64
    39        100
    40         27
    41         27
    42         10
    43         13
    44          8
    45          7
    46          3
    47          7
    50         99
    51        114
    52        147
    53         69
    54         21
    55         46
    56         48
    57         98
    58         13
    59          3
    61         15
    62         74
    63        197
    64        171
    65        103
    66         20
    67         15
    69        509
    70         21
    71          3
    72          1
    74         61
    75        296
    76         68
    77        110
    78         59
    79         33
    80         29
    81         59
    82        172
    83        135
    84         18
    85          2
    86          2
    87          6
    88         19
    89        113
    90         56
    91         35
    92        122
    93         53
    95        999
    96         98
    97          7
    98          3
    99          3
   100          7
   101         34
   102         33
   103         34
   104        103
   105         49
   106         17
   107         38
   108         97
   109        382
   110        117
   111         28
   112         10
   113          9
   114         21
   115         30
   116         95
   117         93
   118         27
   119         38
   120         52
   121        120
   122        334
   123         68
   124          9
   126         34
   127          4
   128         13
   129         29
   130         26
   131        126
   132        121
   133         42
   134         34
   135         36
   136         39
   137         14
   138          2
   139          2
   141         80
   142         32
   143         17
   144         12
   145         15
   146         26
   147         43
   148         24
   149        135
   150         52
   151          9
   152          2
   153          1
   154          1
   155          2
   156          9
   157         21
   158         31
   159         99
   160         36
   161        187
   162         45
   163          5
   164          1
   165          0
   166          1
   167          1
   168          2
   169          5
   170          6
   171          6
   172         12
   173         13
   174         16
   175         34
   176         66
   177         11
   178          7
   179          2
   181          2
   183         27
   184         18
   185         27
   186         22
   188        550
   189         55
   190          9
   191          2
   192          1
   193          2
   194          3
   195          4
   196         10
   197         10
   198         15
   199         13
   200         44
   201         66
   202         20
   203          6
   204          1
   205          3
   206          2
   208         22
   209         10
   210         12
   211         21
   212         24
   213         72
   214         67
   215         89
   216         13
   217          1
   218          1
   220          4
   221          4
   223         50
   224         68
   225         38
   226         26
   227         48
   228        118
   229         13
   230          3
   231          2
   232          1
   233          2
   234          2
   235         13
   236         13
   237         11
   238         16
   239         25
   240         21
   241         24
   242         46
   243          6
   244          1
   246          0
   247          1
   248          5
   249         14
   250         54
   251         30
   252         27
   253         16
   254          5
   255          4
   256          7
   257          1
   262          0
   263          0
   264          1
   265          1
   266          6
   267         22
   268         58
   269         14
   270          4
   271          0
   274          0
   276          0
   277          1
   278          3
   280         83
   281         35
   282         62
   283         10
   284          1
   288          0
   289          2
   290          2
   292          9
   294        129
   295         36
   296         21
   297          7
   298          1
   306          3
   307          8
   308         10
   309         83
   310         17
   311          2
   316          8
   317          9
   318         13
   319         19
   321        696
   322        115
   323         32
   324          4
   325          0
   332         13
   333         11
   336        765
   337        255
   338         37
   339          3
   346          0
   360          4
   361          7
   365        680
   366        115
   367         13
   368          1