##TITLE=Library Entry 62237
##JCAMP-DX=Revision 4.10 
##DATA TYPE=MASS SPECTRUM
##SAMPLE DESCRIPTION=Institute of Organic Chemistry, Novosibirsk, USSR 1988
##NAMES=HP
##CAS NAME=Benzyl 2,3-diacetamido-2,3-dideoxy-.alpha.-D-glucopyranoside
##MOLFORM=C17H24N2O6
##CAS REGISTRY NO=27539-64-6
##MP= -300
##BP= -300
##MW= 352
##$RETENTION INDEX=0
##$CONDENSED SPECTRUM=NO
##NPOINTS= 84
##XYDATA=(XY..XY) 1 
    56         26
    57         41
    58         89
    59        119
    60        159
    65         75
    68         22
    69         28
    70         29
    72         84
    77         28
    83        119
    84        109
    85         39
    86         29
    87         29
    91        999
    92         89
    95         37
    96        229
    97         99
    98         41
   100        139
   101        199
   102         49
   110         22
   111         22
   112         22
   113         37
   114         91
   125         99
   126         57
   129         22
   137        199
   138        419
   139        149
   140         29
   142        139
   143         59
   144         33
   150         69
   155         57
   156         29
   157         45
   160          6
   162         14
   163          0
   167         14
   168         11
   169         31
   170          2
   171          7
   172          2
   179        169
   180         14
   183          6
   184         29
   185        103
   186         14
   187         14
   191          2
   195          7
   197         16
   198         14
   199         91
   200         11
   201         14
   202         68
   203          7
   204          7
   208         13
   213          7
   214         12
   215          0
   219          6
   226          7
   243          7
   244        289
   245         57
   246         13
   261         60
   262         11
   275          7
   353          2