##TITLE=Library Entry 83641
##JCAMP-DX=Revision 4.10 
##DATA TYPE=MASS SPECTRUM
##SAMPLE DESCRIPTION=J.Martin, J.Agr.Food Chem.,36,1257(1988)
##NAMES=HP
##CAS NAME=2-Methylenebornane
##MOLFORM=C11H18
##CAS REGISTRY NO=27538-47-2
##MP= -300
##BP= -300
##MW= 150
##$RETENTION INDEX=1020
##$CONDENSED SPECTRUM=NO
##NPOINTS= 32
##XYDATA=(XY..XY) 1 
    42         46
    43         94
    50         66
    52         64
    53        130
    54         46
    55        112
    57         57
    58         46
    63         57
    65         94
    67        153
    68         64
    69        151
    77        146
    79        265
    80         52
    81        119
    82         87
    83         46
    91        203
    92         59
    93        228
    94         68
    95         68
   105         91
   106        112
   107        999
   108        158
   121        192
   135        132
   150        199