##TITLE=Library Entry 60232
##JCAMP-DX=Revision 4.10 
##DATA TYPE=MASS SPECTRUM
##SAMPLE DESCRIPTION=Chemical Concepts
##NAMES=HP
##CAS NAME=5-(2-Furyl)-1,3-diphenyl-2-pyrazoline
##MOLFORM=C19H16N2O
##CAS REGISTRY NO=2755-71-7
##MP= -300
##BP= -300
##MW= 288
##$RETENTION INDEX=0
##$CONDENSED SPECTRUM=NO
##NPOINTS= 110
##XYDATA=(XY..XY) 1 
    34          5
    35          9
    36         26
    38        139
    39        237
    40        105
    41         69
    43         22
    44         25
    50        168
    51        320
    52         69
    53         39
    55         30
    56          4
    57          6
    59          3
    63        191
    64        286
    65        180
    66         73
    67          9
    68          8
    69          5
    70          4
    72          3
    74         32
    75         44
    77        458
    78         51
    79          9
    81         59
    82          5
    83          4
    84          3
    86          5
    87          9
    89         82
    91        999
    92         73
    93         38
    94         77
    95          6
    97          4
   100          4
   101         10
   102         29
   103         35
   104         45
   105         12
   106          7
   110          4
   113          6
   115         57
   116         13
   117         15
   118          8
   119          4
   122          5
   125          3
   126         10
   127         20
   128         29
   129         16
   130          8
   139          9
   140          8
   141         13
   142          9
   143         13
   144         27
   149          5
   150          7
   151         13
   152         31
   153         30
   154         19
   155         22
   156         28
   157          8
   165         27
   166         17
   167         56
   168         85
   169         14
   170          9
   180          4
   181          7
   182          6
   183         14
   184         13
   185         19
   186          3
   192         22
   193         52
   194        101
   195         45
   196        112
   197         14
   219          6
   220          7
   221         10
   232          4
   257          6
   259         54
   260         10
   271         19
   288        441
   289         61
   290          6