##TITLE=Library Entry 24224
##JCAMP-DX=Revision 4.10 
##DATA TYPE=MASS SPECTRUM
##SAMPLE DESCRIPTION=Exported from NIST MS Search
##NAMES=HP
##CAS NAME=Undecane, 5-ethyl-5-propyl-
##MOLFORM=C16H34
##CAS REGISTRY NO=2755-07-9
##MP= -300
##BP= -300
##MW= 226
##$RETENTION INDEX=0
##$CONDENSED SPECTRUM=NO
##NPOINTS= 108
##XYDATA=(XY..XY) 1 
    36          2
    37          3
    38          5
    39        111
    40         23
    41        581
    42         77
    43        821
    44         28
    45          1
    49          1
    50          3
    51          7
    52          5
    53         48
    54         21
    55        384
    56         90
    57        999
    58         46
    59          1
    62          1
    63          1
    64          1
    65          9
    66          5
    67         44
    68         15
    69        174
    70        111
    71        684
    72         38
    73          1
    75          1
    76          1
    77          9
    78          2
    79         10
    80          2
    81         17
    82          7
    83         61
    84         31
    85        543
    86         38
    87          2
    88          1
    89          1
    90          1
    91          4
    92          1
    93          2
    94          1
    95          7
    96          4
    97         35
    98         48
    99        147
   100         12
   101          1
   102          1
   105          1
   107          1
   109          2
   110          3
   111         20
   112         12
   113         80
   114          7
   115          1
   123          1
   124          2
   125          7
   126          6
   127         54
   128          5
   129          1
   137          1
   138          1
   139          5
   140         49
   141        216
   142         24
   143          1
   151          1
   152          1
   153          2
   154          3
   155          9
   156          1
   167          1
   168         20
   169        127
   170         17
   171          1
   179          1
   181          1
   182         13
   183        111
   184         16
   185          1
   193          1
   195          1
   196          8
   197        107
   198         16
   199          1
   207          1