##TITLE=Library Entry 26107
##JCAMP-DX=Revision 4.10 
##DATA TYPE=MASS SPECTRUM
##SAMPLE DESCRIPTION=NIST Mass Spectrometry Data Center, 1994
##NAMES=HP
##CAS NAME=Isobornyl propionate
##MOLFORM=C13H22O2
##CAS REGISTRY NO=2756-56-1
##MP= -300
##BP= -300
##MW= 210
##$RETENTION INDEX=1384
##$CONDENSED SPECTRUM=NO
##NPOINTS= 82
##XYDATA=(XY..XY) 1 
    14          6
    15         24
    26         33
    27        269
    28         98
    29        720
    30         20
    31          6
    39        164
    41        476
    42         47
    43        190
    44          9
    45         12
    50          5
    51         30
    52         16
    53        118
    54          5
    55        229
    56          5
    57        999
    58         34
    59          8
    63          5
    65         48
    67        191
    68         71
    69        195
    70         18
    71         34
    72         35
    73          6
    74          3
    75          6
    76          3
    77         90
    78         20
    79        132
    80         86
    81        139
    82         95
    83         83
    84         26
    85          7
    91         92
    92        117
    93        388
    94          7
    95        817
    96         65
    97         24
    98          9
    99          7
   100          5
   103          2
   105         29
   107        101
   108        270
   109        224
   110        150
   111         53
   112          4
   113          4
   119          8
   121        356
   122         37
   123         15
   124          2
   125          6
   126          4
   127          4
   136        444
   137         91
   138          8
   139         24
   140          3
   152          4
   153         12
   154         70
   155          7
   210          4