##TITLE=Library Entry 70695
##JCAMP-DX=Revision 4.10 
##DATA TYPE=MASS SPECTRUM
##SAMPLE DESCRIPTION=Japan AIST/NIMC Database- Spectrum MS-NW-9376
##NAMES=HP
##CAS NAME=Cyclohexanecarboxylic acid, 1-amino-
##MOLFORM=C7H13NO2
##CAS REGISTRY NO=2756-85-6
##MP= -300
##BP= -300
##MW= 143
##$RETENTION INDEX=0
##$CONDENSED SPECTRUM=NO
##NPOINTS= 74
##XYDATA=(XY..XY) 1 
    15          8
    16          6
    17          3
    18         10
    26          3
    27         28
    28         64
    29         23
    30        180
    31          3
    32          5
    36          2
    37          1
    38          3
    39         32
    40          6
    41         78
    42         61
    43         20
    44         19
    45          6
    46          4
    47          3
    50          2
    51          6
    52          4
    53         22
    54         80
    55         50
    56        118
    57         25
    58          1
    59          3
    63          1
    65          5
    66          4
    67         12
    68         12
    69         23
    70          9
    71          2
    72          2
    74          2
    77          9
    78          1
    79         42
    80          9
    81        150
    82         23
    83          5
    84          1
    85          1
    87         39
    88          2
    91          1
    93          1
    94          2
    95          1
    96         11
    97         10
    98        999
    99         72
   100         82
   101          4
   108          1
   109          1
   110          1
   111          1
   112          2
   113          7
   114          2
   125          2
   126          2
   144          3