##TITLE=Library Entry 88030
##JCAMP-DX=Revision 4.10 
##DATA TYPE=MASS SPECTRUM
##SAMPLE DESCRIPTION=Chemical Concepts
##NAMES=HP
##CAS NAME=1,4-Cyclododecanedione
##MOLFORM=C12H20O2
##CAS REGISTRY NO=27567-77-7
##MP= -300
##BP= -300
##MW= 196
##$RETENTION INDEX=0
##$CONDENSED SPECTRUM=NO
##NPOINTS= 133
##XYDATA=(XY..XY) 1 
    26         27
    27        316
    28        332
    29        288
    30          9
    31         24
    38          6
    39        320
    40         74
    41        804
    42        355
    43        320
    44         20
    45         14
    46          1
    47          3
    48          9
    49          2
    50          7
    51         25
    52         15
    53        176
    54        133
    55        948
    56        329
    57        250
    58         54
    59         15
    60          3
    61          3
    62          3
    63          6
    64          4
    65         31
    66         23
    67        215
    68        119
    69        223
    70        212
    71        345
    72         80
    73         21
    74          5
    75          4
    76          3
    77         37
    78         15
    79        127
    80         97
    81        255
    82        133
    83        348
    84        177
    85         97
    86         15
    87          4
    91         28
    92         10
    93         94
    94         76
    95        157
    96        191
    97        247
    98        545
    99        172
   100         16
   101         11
   102          3
   103          3
   104          3
   105         14
   106         11
   107         90
   108        213
   109         90
   110         31
   111        999
   112        143
   113         39
   114         86
   115         12
   116          3
   117          7
   118          4
   119          6
   120         16
   121         90
   122         96
   123        156
   124         86
   125        202
   126         49
   127         65
   128          7
   129          2
   130          2
   131          9
   132          9
   133          5
   134         12
   135         48
   136        158
   137         34
   138         21
   139        114
   140         65
   141         81
   142         11
   149         27
   150        138
   151         16
   152          5
   153        109
   154         53
   155          6
   156          1
   159          1
   160          1
   161          3
   162          1
   163          4
   166          1
   167         46
   168        409
   169         53
   170          4
   178         20
   179          3
   181          1
   195          2
   196         92
   197         22
   198          0