##TITLE=Library Entry 41022
##JCAMP-DX=Revision 4.10 
##DATA TYPE=MASS SPECTRUM
##SAMPLE DESCRIPTION=NIST Mass Spectrometry Data Center
##NAMES=HP
##CAS NAME=N-Methyldodecanamide
##MOLFORM=C13H27NO
##CAS REGISTRY NO=27563-67-3
##MP= -300
##BP= -300
##MW= 213
##$RETENTION INDEX=0
##$CONDENSED SPECTRUM=NO
##NPOINTS= 78
##XYDATA=(XY..XY) 1 
    15          8
    26          1
    27         37
    29         74
    30         35
    31         28
    32         74
    33          1
    39         33
    40          6
    41        170
    42         41
    43        160
    44         15
    45         54
    46          1
    51          1
    52          1
    53         12
    54         10
    55        120
    56         29
    57         76
    58        304
    59         12
    60          2
    65          2
    66          1
    67         12
    68          6
    69         26
    70         10
    71         21
    73        999
    74         48
    75          2
    77          1
    79          3
    80          1
    81          7
    82          2
    83         17
    84         25
    85         11
    86        244
    87         50
    88          2
    93          1
    95          7
    96          1
    97         12
    98         14
    99          3
   100         60
   101          6
   109          3
   110          1
   111          3
   112          3
   114         23
   115          9
   123          1
   128         42
   129          7
   142         30
   143          3
   156          9
   157          1
   170         19
   171          2
   182          2
   183          8
   184         11
   185          1
   198          1
   212          1
   213         10
   214          2