##TITLE=Library Entry 30819
##JCAMP-DX=Revision 4.10 
##DATA TYPE=MASS SPECTRUM
##SAMPLE DESCRIPTION=Japan AIST/NIMC Database- Spectrum MS-IW-3729
##NAMES=HP
##CAS NAME=Chlorocarbonylsulfenyl chloride
##MOLFORM=CCl2OS
##CAS REGISTRY NO=2757-23-5
##MP= -300
##BP= -300
##MW= 130
##$RETENTION INDEX=0
##$CONDENSED SPECTRUM=NO
##NPOINTS= 58
##XYDATA=(XY..XY) 1 
    12          5
    16          1
    18          2
    27          1
    28         73
    29          1
    30         42
    31          2
    32        343
    33          3
    34         15
    35         58
    36        300
    37         19
    38         99
    43          1
    44         58
    45          1
    46          2
    47          3
    48          2
    49          1
    60        999
    61         23
    62         56
    63        243
    64         10
    65         78
    66          1
    67        182
    68          1
    69         67
    70          3
    71          2
    72          1
    76          8
    77          1
    79          4
    80          5
    81          3
    82          5
    95        178
    96          3
    97         66
    98          1
    99          3
   102         32
   104         21
   106          4
   111          2
   113          2
   127         13
   128          3
   130        105
   131          2
   132         73
   133          1
   134         14