##TITLE=Library Entry 29830
##JCAMP-DX=Revision 4.10 
##DATA TYPE=MASS SPECTRUM
##SAMPLE DESCRIPTION=NIST Mass Spectrometry Data Center
##NAMES=HP
##CAS NAME=2-Methyltetradecan-2-ol
##MOLFORM=C15H32O
##CAS REGISTRY NO=27570-83-8
##MP= -300
##BP= -300
##MW= 228
##$RETENTION INDEX=1631
##$CONDENSED SPECTRUM=NO
##NPOINTS= 70
##XYDATA=(XY..XY) 1 
    27          8
    29         16
    31         12
    39          9
    41         73
    42         13
    43         95
    45         10
    49          1
    50          1
    51          2
    52          3
    53          4
    54          5
    55         56
    56         37
    57         51
    58         43
    59        999
    60         33
    61          2
    65          6
    66          2
    67          9
    69         67
    70         14
    71         52
    72          3
    74          2
    75          2
    78          2
    80          1
    81          8
    82          3
    83         37
    84          5
    85          9
    95          8
    97         24
    98          6
    99          2
   103          1
   106          2
   107         10
   108          6
   110          3
   111         14
   113          5
   117          2
   120          3
   125          3
   128          2
   132          1
   134          1
   137          3
   142          2
   145          3
   149          2
   154          3
   164          2
   165         12
   166          3
   169          2
   182          2
   184          1
   187          1
   210          2
   211          2
   213         88
   214         12