##TITLE=Library Entry 17089
##JCAMP-DX=Revision 4.10 
##DATA TYPE=MASS SPECTRUM
##SAMPLE DESCRIPTION=A.A.Kutin, Moscow, Russia
##NAMES=HP
##CAS NAME=Propanoic acid, 2,2-dichloro-3-methoxy-, methyl ester
##MOLFORM=C5H8Cl2O3
##CAS REGISTRY NO=27579-25-5
##MP= -300
##BP= -300
##MW= 186
##$RETENTION INDEX=0
##$CONDENSED SPECTRUM=NO
##NPOINTS= 120
##XYDATA=(XY..XY) 1 
    35          2
    36          1
    37          1
    38          1
    39          3
    40          2
    41          7
    42         13
    43          6
    45        999
    46         35
    47         15
    48         11
    49         98
    50          5
    51         32
    52          0
    53         11
    54          7
    55          3
    56          0
    57         17
    59        102
    60         13
    61         85
    62         10
    63         39
    64          3
    65          4
    66          0
    67          0
    68          0
    69          3
    70          0
    71          1
    72          0
    73          0
    75         43
    76         24
    77         77
    78          9
    79         27
    81          0
    82          6
    83          8
    84          4
    85         12
    86          1
    87          1
    89         36
    90          4
    91         25
    92         15
    93          4
    94          4
    96         92
    97          6
    98         60
    99          4
   100          9
   101          1
   102          2
   103          2
   104          6
   105          2
   106          2
   107          7
   108          0
   109          2
   110          5
   111          7
   112          4
   113         11
   114          1
   115          6
   116          0
   117          1
   119         92
   120          6
   121         49
   122          2
   123         11
   124          0
   125          3
   126          8
   127         39
   128          6
   129         25
   130          1
   131          4
   132          0
   133          0
   135          8
   136          0
   137          3
   138          0
   139          0
   141          2
   142          0
   143          1
   144          0
   145          0
   150         16
   151         30
   152          7
   153         10
   154          1
   155          7
   156          3
   157          4
   158          1
   159          0
   160          0
   185          0
   186          1
   187          3
   188          1
   189          2
   190          0
   191          0