##TITLE=Library Entry 70761
##JCAMP-DX=Revision 4.10 
##DATA TYPE=MASS SPECTRUM
##SAMPLE DESCRIPTION=Japan AIST/NIMC Database- Spectrum MS-NW-6068
##NAMES=HP
##CAS NAME=1-Piperidineethanamine
##MOLFORM=C7H16N2
##CAS REGISTRY NO=27578-60-5
##MP= -300
##BP= -300
##MW= 128
##$RETENTION INDEX=1560
##$CONDENSED SPECTRUM=NO
##NPOINTS= 59
##XYDATA=(XY..XY) 1 
    14          1
    15         21
    26          4
    27         32
    28         40
    29         21
    30         91
    31          1
    38          1
    39         22
    40          5
    41        141
    42        131
    43         31
    44        115
    45          5
    50          1
    51          2
    52          3
    53          7
    54         10
    55        139
    56         34
    57         10
    58          3
    65          1
    67          7
    68          9
    69         49
    70         51
    71          3
    78          1
    79          3
    80          2
    81          2
    82          6
    83          9
    84         36
    85          7
    86          1
    94          2
    95          1
    96         12
    97          6
    98        999
    99         69
   100          2
   106          1
   110          3
   111          1
   112          1
   122          1
   123          4
   124          2
   125          3
   126          2
   127          1
   128         12
   129          1