##TITLE=Library Entry 62673
##JCAMP-DX=Revision 4.10 
##DATA TYPE=MASS SPECTRUM
##SAMPLE DESCRIPTION=A.A.Kutin, Moscow, Russia
##NAMES=HP
##CAS NAME=Benzenamine, 4-chloro-2-fluoro-N-[2-[1-(4-methylphenyl)-5-tetrazo
lyl]ethenyl]-
##MOLFORM=C16H13ClFN5
##CAS REGISTRY NO=275802-76-1
##MP= -300
##BP= -300
##MW= 329
##$RETENTION INDEX=0
##$CONDENSED SPECTRUM=NO
##NPOINTS= 128
##XYDATA=(XY..XY) 1 
    33         32
    34         41
    37         29
    39        222
    46          6
    49         11
    50        116
    51        230
    52        309
    58         14
    62         34
    63        220
    65        661
    66         47
    74         52
    75        100
    76         87
    77        234
    78        305
    79         24
    84         38
    86         10
    88          7
    89        164
    90        110
    91        999
    92        152
    93        126
    94        216
    95         18
   101         10
   103         14
   104        386
   105        590
   106        185
   107        162
   108         50
   109        159
   112         69
   116         55
   117        110
   118        252
   119         83
   120         88
   122         10
   124         14
   126          5
   128         43
   129        289
   130        109
   131        188
   132         79
   134         77
   135         86
   136        141
   138         24
   143         32
   144         41
   145         79
   146         41
   147          6
   149         15
   150         19
   152         29
   154        154
   156        689
   157        122
   158        190
   160        123
   161         50
   164         43
   165         50
   168         78
   169        117
   170        157
   171         10
   173          6
   174         18
   175         47
   178         11
   181         39
   182         60
   183        246
   184          6
   187         29
   191         30
   195        105
   196        112
   197        108
   198         23
   199         28
   202         34
   203         11
   207         19
   209         16
   210          5
   211         43
   213         29
   215          5
   219         51
   222         42
   228         18
   229         69
   237          6
   239         91
   241         12
   246        347
   247         52
   251          6
   253         24
   255         12
   264         30
   265         33
   266        174
   267        109
   280        275
   281        105
   282        487
   283        310
   284        100
   285        358
   286         39
   287         60
   300        432
   302         51
   329        645
   330         63
   331        145