##TITLE=Library Entry 45810
##JCAMP-DX=Revision 4.10 
##DATA TYPE=MASS SPECTRUM
##SAMPLE DESCRIPTION=A.A.Kutin, Moscow, Russia
##NAMES=HP
##CAS NAME=Propenone, 1-(3-bromophenyl)-3-(4-chlorophenylthio)-
##MOLFORM=C15H10BrClOS
##CAS REGISTRY NO=275802-50-1
##MP= -300
##BP= -300
##MW= 352
##$RETENTION INDEX=0
##$CONDENSED SPECTRUM=NO
##NPOINTS= 199
##XYDATA=(XY..XY) 1 
    35          1
    37         26
    38         66
    39         40
    45         65
    47          1
    49         44
    50        774
    51        228
    52         20
    53        118
    58        122
    61         14
    62         76
    63        238
    64         16
    65         10
    69         37
    73         47
    74        347
    75        999
    76        914
    77        120
    78          4
    82         77
    85        160
    86         35
    87         19
    88         14
    89        148
    90         43
    92         10
    93         12
    99        214
   100         24
   101        126
   102        175
   103         27
   104         79
   105         71
   106         25
   107         62
   108        930
   109        114
   110         45
   111         81
   112         15
   113         30
   114          9
   118         11
   119          8
   120          5
   123          4
   125         93
   126          6
   127         29
   128         12
   129         14
   130         22
   131         23
   132         13
   133        169
   134        610
   135         62
   136         55
   137         17
   138          4
   139         14
   140          1
   141          1
   143        761
   144        787
   145        334
   146        295
   147         28
   148         11
   150          0
   151          3
   152         11
   153          0
   155        976
   156         84
   157        934
   158         66
   159          3
   160          1
   161         15
   162        256
   163         37
   164         18
   165         53
   166          8
   167          3
   168         60
   169        190
   170         42
   171         72
   172          7
   173          3
   174          0
   175          0
   176         14
   177          9
   178         19
   179          3
   180         10
   181         25
   183        627
   184         72
   185        582
   186         46
   187         11
   188          4
   189          8
   190          1
   193          1
   194          0
   195          5
   197        716
   198         79
   199        276
   200         30
   201         23
   202          3
   203          0
   205          6
   206          4
   209        604
   210        170
   211        592
   212        104
   213         11
   214         20
   215         16
   216          3
   217          5
   218          4
   219          3
   220          5
   221         18
   222          2
   223          4
   224          3
   225         14
   226          3
   227         11
   228          1
   229          0
   230          2
   231          4
   237         42
   238         24
   239          9
   241        343
   242         54
   243        341
   244         51
   245         24
   246          9
   247          3
   255         16
   256          4
   257          6
   258          6
   267          2
   271          6
   273        900
   274        157
   275        339
   276         58
   277         20
   278          3
   279          5
   281          4
   283          3
   289          4
   290          3
   291          5
   298          8
   299          3
   300         11
   301          1
   302          4
   317          5
   319         12
   320          3
   321          9
   323          4
   325          2
   326          2
   335          4
   337          5
   352        607
   353        199
   354        792
   355        163
   356        227
   357         39
   358         11