##TITLE=Library Entry 26178
##JCAMP-DX=Revision 4.10 
##DATA TYPE=MASS SPECTRUM
##SAMPLE DESCRIPTION=TNO Volatile Compounds in Food - Chemical Concepts
##NAMES=HP
##CAS NAME=1,2-Cyclopentanediol, 3-methyl-
##MOLFORM=C6H12O2
##CAS REGISTRY NO=27583-37-5
##MP= -300
##BP= -300
##MW= 116
##$RETENTION INDEX=0
##$CONDENSED SPECTRUM=NO
##NPOINTS= 61
##XYDATA=(XY..XY) 1 
    26         19
    27        119
    28        108
    29        124
    30         22
    31         60
    32          2
    33          1
    37          2
    38         10
    39        114
    40         21
    41        231
    42        185
    43        190
    44         85
    45         44
    46          2
    47          8
    50          8
    51         13
    52          5
    53         32
    54         32
    55        221
    56        130
    57        999
    58        116
    59         20
    60         67
    61          8
    63          4
    64          1
    65          7
    66          1
    67         62
    68         35
    69        175
    70         93
    71         56
    72         11
    73         22
    74         27
    75          4
    77          8
    78          2
    79         22
    80         14
    81         17
    82         11
    83        219
    84         15
    87          4
    88          3
    95          4
    96         13
    97         34
    98        241
    99         14
   101          1
   116          9