##TITLE=Library Entry 69209
##JCAMP-DX=Revision 4.10 
##DATA TYPE=MASS SPECTRUM
##SAMPLE DESCRIPTION=Japan AIST/NIMC Database- Spectrum MS-IW- 687
##NAMES=HP
##CAS NAME=2-Cyclopenten-1-one, 3-methyl-
##MOLFORM=C6H8O
##CAS REGISTRY NO=2758-18-1
##MP= -300
##BP= -300
##MW= 96
##$RETENTION INDEX=972
##$CONDENSED SPECTRUM=NO
##NPOINTS= 56
##XYDATA=(XY..XY) 1 
    14          2
    15          4
    25          1
    26         17
    27         85
    28         44
    29          9
    31          8
    32          3
    33          3
    34          2
    36          1
    37         15
    38         37
    39        207
    40        178
    41        127
    42         52
    43         20
    44          1
    49          5
    50         26
    51         36
    52         19
    53        357
    54         21
    55         15
    56         43
    57          3
    60          1
    61          6
    62          8
    63         11
    64          2
    65         46
    66         22
    67        448
    68        119
    69         44
    70          2
    71          2
    73          1
    74          1
    77          3
    78          2
    79          3
    80          1
    81        325
    82         18
    83          1
    94          1
    95        218
    96        999
    97         87
    98          5
    99          5