##TITLE=Library Entry 49376
##JCAMP-DX=Revision 4.10 
##DATA TYPE=MASS SPECTRUM
##SAMPLE DESCRIPTION=NIST Mass Spectrometry Data Center, 1994
##NAMES=HP
##CAS NAME=2,3,4,5,6-Pentafluorobenzhydrol
##MOLFORM=C13H7F5O
##CAS REGISTRY NO=27599-16-2
##MP= -300
##BP= -300
##MW= 274
##$RETENTION INDEX=0
##$CONDENSED SPECTRUM=NO
##NPOINTS= 137
##XYDATA=(XY..XY) 1 
    17          6
    18          8
    27         25
    29        198
    30          0
    37          9
    38         24
    39         92
    40          5
    49         12
    50        134
    51        327
    52         64
    53         34
    54          2
    55          6
    57          6
    61         10
    62         17
    63         36
    64          5
    65          6
    68          5
    69         21
    73          5
    74         15
    75         49
    76         31
    77        481
    78        287
    79        999
    80         86
    81         13
    85          6
    86         12
    87          7
    89          8
    90          6
    91          3
    92          9
    93         47
    94         13
    97          2
    98         32
    99        100
   100          8
   102         10
   103         29
   104         11
   105        151
   106         29
   107        186
   108         17
   109          5
   110          6
   111          8
   112          8
   113          2
   115          3
   117        112
   118         16
   119         44
   120          2
   122          4
   123         17
   124          4
   125          5
   127         11
   128          7
   129         19
   130          8
   136          5
   137         10
   141          5
   142          5
   143          6
   147          8
   148         24
   149         37
   150          5
   151          2
   154          4
   155          7
   156          4
   157          6
   161         11
   167        148
   168         34
   169         36
   174          6
   175          8
   176          5
   177         13
   178          3
   179         11
   180          6
   181          6
   185          9
   186          9
   187         20
   188         21
   192         11
   193          7
   195        563
   196         48
   197        143
   198         17
   199          3
   204          7
   205         24
   206         41
   207         18
   209          3
   211         12
   216          6
   217         13
   218          5
   219          9
   224         20
   225         14
   226          8
   229          5
   234          6
   235         12
   237        163
   238         26
   245          8
   253         24
   254         10
   255         66
   256         38
   257         28
   258          6
   273         82
   274        697
   275         94
   276          9