##TITLE=Library Entry 62093
##JCAMP-DX=Revision 4.10 
##DATA TYPE=MASS SPECTRUM
##SAMPLE DESCRIPTION=NIST Mass Spectrometry Data Center
##NAMES=HP
##CAS NAME=1-Benzylpiperazine
##MOLFORM=C11H16N2
##CAS REGISTRY NO=2759-28-6
##MP= -300
##BP= -300
##MW= 176
##$RETENTION INDEX=1516
##$CONDENSED SPECTRUM=NO
##NPOINTS= 100
##XYDATA=(XY..XY) 1 
    15          3
    26          2
    27         12
    28         49
    29         31
    30         28
    31          1
    37          1
    38          3
    39         33
    40          5
    41         30
    42         76
    43         21
    44         21
    45          4
    49          1
    50         10
    51         27
    52          8
    53          3
    54         20
    55         19
    56        237
    57         42
    58         46
    59          2
    61          1
    62          6
    63         26
    64          8
    65        125
    66          7
    67          1
    68          3
    69          2
    70          7
    71         14
    72          3
    74          2
    75          2
    76          3
    77         14
    78          5
    79          3
    80          2
    81          3
    82          2
    83         14
    84          5
    85         97
    86          6
    87          2
    88          1
    89         31
    90         18
    91        999
    92         85
    93          3
    97          1
    98          1
    99         14
   100          1
   102          1
   103          5
   104         32
   105         12
   106          4
   115          2
   116          2
   117         12
   118         58
   119         27
   120         72
   121         13
   122          1
   130          5
   131         13
   132         23
   133         27
   134        629
   135         65
   136          3
   144          2
   145          6
   146         45
   147         22
   148          3
   149          1
   158          2
   159          4
   160          1
   161          5
   162          1
   173          1
   174          2
   175         18
   176        139
   177         18
   178          1