##TITLE=Library Entry 36451
##JCAMP-DX=Revision 4.10 
##DATA TYPE=MASS SPECTRUM
##SAMPLE DESCRIPTION=Tox21 Consortium/NIST Mass Spectrometry Data Center, 20
12
##NAMES=HP
##CAS NAME=Cyclopropanecarboxanilide, 3',4'-dichloro-
##MOLFORM=C10H9Cl2NO
##CAS REGISTRY NO=2759-71-9
##MP= -300
##BP= -300
##MW= 229
##$RETENTION INDEX=1996
##$CONDENSED SPECTRUM=NO
##NPOINTS= 156
##XYDATA=(XY..XY) 1 
    15          4
    26          6
    27         18
    28         10
    29          3
    30          1
    31          1
    35          2
    36          2
    37         15
    38         28
    39        268
    40         39
    41        728
    42         33
    43          2
    44          3
    47          4
    48          1
    49         10
    50         15
    51         12
    52         15
    53          5
    54          4
    55         20
    56          1
    57          1
    60          3
    61         26
    62         61
    63         91
    64         20
    65         10
    66          2
    67          2
    68         15
    69        999
    70         43
    71          5
    72         15
    73         48
    74         37
    75         42
    76          6
    77          4
    78          1
    79          1
    83         10
    84         10
    85         12
    86          7
    87         10
    88         22
    89         19
    90         47
    91          9
    92          1
    94          1
    95          1
    96          4
    97         33
    98         17
    99         38
   100         10
   101         11
   102          4
   103          3
   104          2
   106          1
   107         14
   108          4
   109         44
   110         11
   111         18
   112          4
   113          2
   114          2
   115          1
   116          1
   117          1
   118          1
   119          1
   120          1
   121          1
   122          1
   123          3
   124         45
   125         52
   126         38
   127         21
   128         10
   129          2
   130          7
   131          4
   132          2
   133         84
   134         11
   135         53
   136          9
   137         11
   138          4
   139          3
   140          2
   141          1
   144          1
   145         19
   146          3
   147         12
   148          2
   149          3
   150          1
   151          2
   152          1
   153          1
   154          1
   158          2
   159          7
   160         31
   161        794
   162         77
   163        497
   164         45
   165         85
   166         10
   167          3
   168          1
   171          1
   172          2
   173          1
   174         11
   175          1
   176          6
   177          1
   178          1
   185          1
   187          4
   188          4
   189          2
   190          2
   191          1
   192          1
   193          1
   194          2
   196          1
   198          1
   200          2
   201          1
   202          1
   228          1
   229        153
   230         18
   231         99
   232         12
   233         16
   234          2