##TITLE=Library Entry 67619
##JCAMP-DX=Revision 4.10 
##DATA TYPE=MASS SPECTRUM
##SAMPLE DESCRIPTION=A.A.Kutin, Moscow, Russia
##NAMES=HP
##CAS NAME=2H-Pyran-2-one, 6-pentyl-
##MOLFORM=C10H14O2
##CAS REGISTRY NO=27593-23-3
##MP= -300
##BP= -300
##MW= 166
##$RETENTION INDEX=1453
##$CONDENSED SPECTRUM=NO
##NPOINTS= 59
##XYDATA=(XY..XY) 1 
    36          1
    37         10
    39        784
    40         94
    41        198
    42         51
    43         75
    44          9
    50         21
    51         32
    52         39
    53        141
    54         38
    55         78
    56         10
    57         15
    62          5
    63         22
    64         20
    65         35
    66         22
    67         59
    68        251
    69         33
    70         14
    71          5
    74          1
    77         19
    78          3
    79         23
    80         37
    81        414
    82        392
    83         38
    84          7
    91          5
    92         13
    93         11
    95        999
    96         59
    97         15
    98          2
   105          1
   107          8
   108          3
   109         32
   110        328
   111         35
   112          4
   120          4
   121         12
   122          6
   123        260
   124         31
   137          3
   138         52
   139          2
   166        157
   167         18