##TITLE=Library Entry 19678
##JCAMP-DX=Revision 4.10 
##DATA TYPE=MASS SPECTRUM
##SAMPLE DESCRIPTION=CARL DJERASSI DEPT OF CHEM STANFORD UNIV STANFORD CALIF
 94305
##NAMES=HP
##CAS NAME=5.alpha.-Androstan-16-one, cyclic ethylene mercaptole
##MOLFORM=C21H34S2
##CAS REGISTRY NO=2759-86-6
##MP= -300
##BP= -300
##MW= 350
##$RETENTION INDEX=0
##$CONDENSED SPECTRUM=NO
##NPOINTS= 183
##XYDATA=(XY..XY) 1 
    40        173
    41        217
    42        260
    43        695
    44         65
    45        608
    46         86
    47         86
    51         86
    52         86
    53        391
    54        130
    55        999
    56        108
    57        130
    58        130
    59        239
    60        173
    61        376
    63         21
    64         21
    65        130
    66         65
    67        630
    68        130
    69        195
    70         21
    71         65
    73         21
    74         21
    75         21
    76         21
    77        152
    78         43
    79        260
    80         65
    81        282
    82         21
    83         65
    85         43
    90         21
    91        173
    92         43
    93        152
    94         43
    95        152
    96         21
    97         43
    98         21
    99         21
   103         21
   104         21
   105        108
   106         21
   107         86
   108         21
   109        108
   110         21
   111         43
   112         21
   113         21
   115         21
   116         21
   117         21
   118         65
   119         65
   120         21
   121         65
   122         21
   123         21
   125         21
   129         21
   130         21
   131         65
   132         21
   133         21
   135         43
   141          5
   142          3
   143         10
   144          8
   145         35
   146         10
   147         31
   148          7
   149         21
   150          3
   151          5
   152          2
   153          2
   154          2
   155          2
   156          1
   157          6
   158          5
   159         12
   160          4
   161         15
   162          3
   163          6
   164          0
   165          5
   166          1
   167          2
   168          0
   169          1
   170          1
   171         13
   172          5
   173         10
   174          2
   175          5
   176          0
   177          2
   178          1
   179          5
   180          1
   181          1
   182          0
   183          2
   184          0
   185          3
   186          1
   187          3
   188          2
   189          5
   190          1
   191          0
   193          1
   194          0
   195          0
   197          1
   198          0
   199          2
   200          1
   201          3
   202          1
   203          6
   204          2
   205          3
   206          0
   207          2
   208          5
   209          1
   210          1
   211          0
   212          2
   213          1
   214          2
   215          0
   216          7
   217          5
   218         28
   219          5
   220          0
   222          0
   226          0
   227          0
   228          0
   230          0
   231          2
   232          4
   233          1
   234          0
   240          0
   242          2
   243          0
   255          0
   256          0
   257          1
   275          0
   289          1
   290          0
   307          0
   322         18
   323          4
   324          2
   325          0
   335          2
   336          0
   350          5
   351          1
   352          1