##TITLE=Library Entry 46690
##JCAMP-DX=Revision 4.10 
##DATA TYPE=MASS SPECTRUM
##SAMPLE DESCRIPTION=Chemical Concepts
##NAMES=HP
##CAS NAME=3,5-Dioxa-2,6-dithia-4-stannaheptane, 1,1,1,7,7,7-hexafluoro-4,4-
diphenyl-, 2,2,6,6-tetraoxide
##MOLFORM=C14H10F6O6S2Sn
##CAS REGISTRY NO=27607-86-9
##MP= -300
##BP= -300
##MW= 572
##$RETENTION INDEX=0
##$CONDENSED SPECTRUM=NO
##NPOINTS= 386
##XYDATA=(XY..XY) 1 
    23          1
    25          4
    26         21
    27        105
    29          3
    31         15
    36          2
    37         15
    38         35
    39        175
    41          7
    42          1
    43          1
    44          5
    47          8
    48         48
    49         11
    50        235
    51        888
    52        106
    53          6
    54          0
    55          3
    56          0
    57          0
    58          0
    60          0
    61          4
    62         14
    63         49
    64         70
    65         65
    66          8
    67          3
    68          0
    69        196
    70          3
    71          0
    72          0
    73          7
    74         43
    75         45
    76         97
    77        999
    78        319
    79         20
    80          6
    81          6
    82          2
    83          0
    85          0
    86          2
    87          5
    88          2
    89          9
    90          0
    91         11
    92          8
    93         15
    94          2
    95          0
    96          4
    97          0
    98          3
    99          1
   100          0
   101          4
   102         13
   103          6
   104          1
   105         18
   106          2
   107          1
   108          1
   109          0
   110          1
   111          0
   112          5
   113          3
   114          3
   115         21
   116         68
   117         41
   118        120
   119         50
   120        157
   121         13
   122         21
   123          1
   124         27
   125          1
   126         10
   127         28
   128         14
   129          1
   130          0
   131         16
   132          4
   133         38
   134         25
   135        272
   136        142
   137        423
   138        134
   139        501
   140          2
   141         90
   142          6
   143        106
   144          6
   145         23
   146          6
   147         11
   148          0
   149          4
   150          7
   151         29
   152        109
   153        127
   154        333
   155         42
   156          4
   157          8
   158          6
   159          6
   160          0
   161          1
   162          9
   163          0
   165          3
   166          0
   167          5
   168          3
   169          8
   170         14
   171          5
   172          0
   173          0
   175          0
   178          0
   179          0
   180          4
   181          4
   182          8
   183          7
   184          9
   185          8
   186          5
   187          4
   188          2
   189         12
   190          0
   191          6
   192          4
   193         97
   194         55
   195        165
   196         64
   197        206
   198         16
   199         39
   200          8
   201         45
   202          5
   203         17
   204          0
   205          5
   206          0
   207          3
   208         13
   209         23
   210         32
   211         46
   212         52
   213         45
   214         26
   215         22
   216         33
   217         12
   218          5
   219          9
   220          4
   221          2
   223          0
   224          2
   225          1
   226         29
   227          9
   228         23
   229         14
   230         33
   231         48
   232         61
   233         61
   234         31
   235         77
   236         11
   237         12
   238          0
   239         15
   240          0
   243          0
   244          0
   245          0
   246          0
   247          1
   249          3
   250          0
   251          4
   252          0
   253          3
   255          0
   257          0
   258          0
   259          0
   260          0
   261         17
   262          3
   263         12
   264          6
   265        258
   266        137
   267        420
   268        168
   269        591
   270         30
   271        112
   272         26
   273        108
   274         13
   275         10
   276          7
   277          3
   278          3
   280          0
   281          1
   283          0
   284          0
   285         46
   286         21
   287         63
   288         36
   289        299
   290        166
   291        428
   292        197
   293        560
   294         75
   295         76
   296         11
   297         96
   298         13
   299          1
   301          0
   303          0
   304          2
   305          9
   306          9
   307         15
   308         14
   309         20
   310          5
   311          7
   312          2
   313          4
   315          0
   317          0
   319          1
   321          0
   322          0
   325          0
   335          0
   336          0
   337          1
   338         13
   339          3
   340          9
   341         17
   342        190
   343        133
   344        325
   345        166
   346        422
   347         56
   348         85
   349         40
   350         89
   351         50
   352         18
   353         29
   354          8
   355         19
   356          3
   357          6
   358          0
   359          4
   360          0
   361         28
   362         17
   363         45
   364         20
   365         62
   366          6
   367         12
   368          1
   369         11
   370          1
   371          0
   377          0
   379          1
   380          0
   381          3
   382          0
   383          0
   385          0
   386          0
   388          0
   390          0
   392          0
   399          0
   401          0
   402          0
   403          0
   404          0
   405          0
   415          8
   416          1
   417          7
   418          5
   419        147
   420        100
   421        255
   422        130
   423        335
   424         54
   425         63
   426          9
   427         60
   428          9
   429          4
   430          1
   431          0
   432          0
   435          4
   436          3
   437          8
   438          4
   439         11
   440          1
   441          3
   442          0
   443          2
   445          0
   447          0
   448          0
   450          0
   451          0
   461          0
   462          0
   487          4
   488          0
   489          3
   490          2
   491         81
   492         53
   493        154
   494         70
   495        205
   496         25
   497         48
   498          5
   499         37
   500          4
   501          4
   502          0
   517          1
   518          0
   519          0
   568          4
   569          2
   570          6
   571          4
   572          9
   573          1
   574          1
   576          0