##TITLE=Library Entry 99004
##JCAMP-DX=Revision 4.10 
##DATA TYPE=MASS SPECTRUM
##SAMPLE DESCRIPTION=NIST Mass Spectrometry Data Center
##NAMES=HP
##CAS NAME=(1S,4aR,5S,8aR)-1,4a-Dimethyl-6-methylene-5-((E)-3-methylpenta-2,
4-dien-1-yl)decahydronaphthalene-1-carboxylic acid
##MOLFORM=C20H30O2
##CAS REGISTRY NO=2761-77-5
##MP= -300
##BP= -300
##MW= 302
##$RETENTION INDEX=2405
##$CONDENSED SPECTRUM=NO
##NPOINTS= 218
##XYDATA=(XY..XY) 1 
    26          1
    27         36
    28          5
    29         68
    30          2
    31          3
    38          3
    39        133
    40         29
    41        493
    42         28
    43        222
    44          6
    45         46
    46          2
    47          2
    49          1
    50          7
    51         38
    52         25
    53        280
    54         33
    55        456
    56         31
    57         56
    58          6
    59         41
    61          4
    62          2
    63         14
    64          6
    65        153
    66         62
    67        344
    68         51
    69        192
    70         16
    71         36
    72          6
    73         10
    74         14
    75          7
    76          6
    77        407
    78         97
    79        941
    80        191
    81        818
    82         83
    83         60
    84          5
    85         17
    86          8
    87         53
    88          4
    89          8
    90          4
    91        637
    92        205
    93        677
    94        175
    95        304
    96         42
    97         56
    98         12
    99         15
   100         11
   101          8
   102         11
   103         78
   104         37
   105        662
   106        170
   107        501
   108         88
   109        187
   110         25
   111         45
   112          4
   113         12
   114          9
   115         98
   116         38
   117        173
   118         66
   119        999
   120        223
   121        720
   122        118
   123        126
   124         17
   125         50
   126          6
   127         13
   128         56
   129         64
   130         26
   131        166
   132         64
   133        482
   134        724
   135        787
   136        179
   137         43
   138          7
   139        134
   140         14
   141         21
   142         12
   143         37
   144         14
   145        126
   146         56
   147        562
   148        368
   149        137
   150         21
   151         16
   152          7
   153         13
   154          5
   155         10
   156          5
   157         24
   158         11
   159        126
   160         34
   161        197
   162         39
   163         36
   164          7
   165         11
   166         18
   167         37
   168          6
   169          6
   170          3
   171         20
   172          8
   173         62
   174         25
   175        532
   176         85
   177         13
   179         13
   180          6
   181          2
   182          2
   183          5
   184          2
   185         75
   186         12
   187         81
   188         32
   189         29
   190          5
   193         26
   194          7
   195          3
   197          5
   199         36
   200         24
   201        109
   202         25
   203         30
   204          7
   205         15
   206         12
   207         32
   208         13
   209          4
   211          3
   212          3
   213         14
   215         12
   216          4
   217          6
   219         18
   220         29
   221         30
   222          9
   223          3
   224          1
   225          5
   226          2
   227         22
   228          9
   229         12
   230          2
   231        127
   232         24
   233          9
   234          7
   235          1
   240          1
   241        146
   242         31
   245         63
   246        156
   247         44
   248          5
   256         24
   257         91
   258         19
   259         14
   260         21
   269         19
   273         45
   274         15
   275          4
   284         15
   285          3
   287        316
   288         57
   289         10
   302        369
   303         79
   304         14