##TITLE=Library Entry 34077
##JCAMP-DX=Revision 4.10 
##DATA TYPE=MASS SPECTRUM
##SAMPLE DESCRIPTION=Exported from NIST MS Search
##NAMES=HP
##CAS NAME=2-Propenoic acid, 2-methyl-, 3-hydroxypropyl ester
##MOLFORM=C7H12O3
##CAS REGISTRY NO=2761-09-3
##MP= -300
##BP= -300
##MW= 144
##$RETENTION INDEX=0
##$CONDENSED SPECTRUM=NO
##NPOINTS= 72
##XYDATA=(XY..XY) 1 
    24          2
    25         10
    26         66
    27        164
    28        103
    29        214
    30         23
    31        284
    36          3
    37         32
    38         68
    39        499
    40        123
    41        954
    42        108
    43        169
    44         34
    45        326
    46          8
    47          1
    49          1
    50          2
    51          2
    52          2
    53         14
    54         19
    55        114
    56         38
    57         43
    58        228
    59         47
    60          5
    61          2
    66          1
    67          2
    68         14
    69        999
    70         88
    71         15
    72         10
    73          8
    74          2
    75         16
    76          1
    77          1
    79          1
    80          1
    81          3
    82         26
    83          5
    84          2
    85         52
    86         15
    87         52
    88          3
    89          1
    95          1
    96          1
    97          1
    98         24
    99        111
   100        277
   101         20
   102          2
   111          1
   112          1
   113         30
   114         22
   115          2
   126          2
   127          1
   129          4