##TITLE=Library Entry 27857
##JCAMP-DX=Revision 4.10 
##DATA TYPE=MASS SPECTRUM
##SAMPLE DESCRIPTION=A. Brossi, LC, NIDDK, NIH, Bethesda, MD 20892
##NAMES=HP
##CAS NAME=3-Azonia-5-hexyn-1-ol, N,N-dimethyl-O-acetyl-, bromide
##MOLFORM=C9H16NO2
##CAS REGISTRY NO=27624-12-0
##MP= -300
##BP= -300
##MW= 170
##$RETENTION INDEX=0
##$CONDENSED SPECTRUM=NO
##NPOINTS= 130
##XYDATA=(XY..XY) 1 
    42        955
    43        721
    44        330
    45         86
    46          5
    47          8
    48          4
    49         16
    50          7
    51         15
    52         14
    53         19
    54         28
    55         45
    56        108
    57        109
    58        999
    59         52
    60         22
    61          6
    62          0
    63          3
    64          3
    65          8
    66         22
    67         17
    68         44
    69         17
    70         42
    71        129
    72         44
    73         11
    74         10
    75          2
    76          1
    77          7
    78          3
    79        104
    80         32
    81        106
    82        772
    83         62
    84         25
    85          8
    86         31
    87         77
    88         24
    89         11
    91         34
    92         16
    93         73
    94        402
    95         72
    96        322
    97         15
    98          7
    99          3
   100          1
   101          0
   102          0
   103          6
   104          0
   105          3
   106         21
   107          8
   108         15
   109          8
   110          6
   111          5
   112         15
   113         11
   114          3
   115          3
   116          2
   117          4
   118         38
   119          6
   120         37
   121          6
   122          3
   123          4
   124          5
   125          5
   126          3
   127          2
   128          1
   129          2
   130         14
   131          7
   132          5
   133          1
   134          2
   135          2
   136          2
   137          2
   138          2
   139          3
   140          1
   141          1
   142          0
   143          1
   144          0
   145          0
   146          0
   147          0
   148          1
   149          1
   150          1
   151          1
   152          1
   153          1
   154          2
   155          6
   156          1
   157          1
   158          1
   159          0
   160          0
   161          0
   162          1
   163          1
   164          0
   165          0
   166          0
   167          0
   168          0
   169          0
   170          3
   171          0
   172          0