##TITLE=Library Entry 37427
##JCAMP-DX=Revision 4.10 
##DATA TYPE=MASS SPECTRUM
##SAMPLE DESCRIPTION=TNO Volatile Compounds in Food - Chemical Concepts
##NAMES=HP
##CAS NAME=Butanoic acid, 2-methyl-, 3-methylbutyl ester
##MOLFORM=C10H20O2
##CAS REGISTRY NO=27625-35-0
##MP= -300
##BP= -300
##MW= 172
##$RETENTION INDEX=1101
##$CONDENSED SPECTRUM=NO
##NPOINTS= 41
##XYDATA=(XY..XY) 1 
    38          2
    39         79
    40         30
    41        302
    42        121
    43        673
    44         28
    45         19
    47          3
    51          2
    53         15
    54         11
    55        355
    56         77
    57        837
    58         38
    59          2
    67          2
    68          3
    69         57
    70        999
    71        298
    72         14
    73          8
    74         55
    75          4
    83          0
    84          4
    85        488
    86         30
    87         31
    88          1
   101          1
   102         21
   103        195
   104         13
   115         15
   116          1
   129         24
   130          3
   144          7