##TITLE=Library Entry 114060
##JCAMP-DX=Revision 4.10 
##DATA TYPE=MASS SPECTRUM
##SAMPLE DESCRIPTION=Institute of Organic Chemistry, USSR, 1990
##NAMES=HP
##CAS NAME=1-Cyano-4-cyclohexylbenzene
##MOLFORM=C13H15N
##CAS REGISTRY NO=27634-88-4
##MP= -300
##BP= -300
##MW= 185
##$RETENTION INDEX=0
##$CONDENSED SPECTRUM=NO
##NPOINTS= 57
##XYDATA=(XY..XY) 1 
    41        138
    43         27
    50         14
    51         20
    52         12
    53         32
    54         32
    55         36
    56          5
    62          5
    63         39
    65         14
    67         80
    69         50
    74          7
    75         21
    76         33
    77         41
    78         12
    79          8
    81          6
    82         90
    88          8
    89         91
    90         31
    91         31
    92          6
    97          6
    99          6
   100          7
   101         40
   102         87
   103         49
   104         59
   113          7
   114         10
   115         99
   116        265
   117        108
   118         15
   127         24
   128         76
   129        999
   130        187
   131         24
   141         28
   142        221
   143        122
   144         46
   155         11
   156         49
   157         21
   158          8
   184         22
   185        501
   186         56
   187          5