##TITLE=Library Entry 49194
##JCAMP-DX=Revision 4.10 
##DATA TYPE=MASS SPECTRUM
##SAMPLE DESCRIPTION=D.HENNEBERG, MAX-PLANCK INSTITUTE, MULHEIM, WEST GERMAN
Y
##NAMES=HP
##CAS NAME=Cyclopentanone, 3,4-bis(methylene)-
##MOLFORM=C7H8O
##CAS REGISTRY NO=27646-73-7
##MP= -300
##BP= -300
##MW= 108
##$RETENTION INDEX=949
##$CONDENSED SPECTRUM=NO
##NPOINTS= 71
##XYDATA=(XY..XY) 1 
    23          0
    25          3
    26         23
    27        127
    28         87
    29          5
    30          2
    31          3
    32          5
    33          1
    34          2
    35          3
    36          3
    37         59
    38        142
    39        647
    40        280
    41        114
    42         18
    43          2
    44          3
    46          2
    47          1
    48          1
    49         16
    50         81
    51        122
    52        162
    53        106
    54         34
    55         34
    56          1
    57          1
    58          1
    59          4
    60          7
    61         19
    62         26
    63         61
    64         12
    65        160
    66         26
    67         38
    68         31
    69         62
    70          3
    72          0
    73          4
    74         15
    75         37
    76          8
    77        245
    78         98
    79        999
    80        457
    81         32
    82          6
    86          1
    89          0
    90          1
    91         10
    92          4
    93         26
    94          2
    97          1
   105          1
   106          6
   107         21
   108        961
   109         70
   110          3