##TITLE=Library Entry 67736
##JCAMP-DX=Revision 4.10 
##DATA TYPE=MASS SPECTRUM
##SAMPLE DESCRIPTION=James Little,Eastman Chem.Co.,Kingsport,TN
##NAMES=HP
##CAS NAME=1H-1,2,4-Triazole, 1-vinyl-
##MOLFORM=C4H5N3
##CAS REGISTRY NO=2764-83-2
##MP= -300
##BP= -300
##MW= 95
##$RETENTION INDEX=0
##$CONDENSED SPECTRUM=NO
##NPOINTS= 17
##XYDATA=(XY..XY) 1 
    25         13
    26         65
    27        163
    28        124
    38         71
    39        112
    40        296
    41        634
    42         47
    51         15
    52         15
    53         43
    54         19
    68        542
    69         35
    95        999
    96         58