##TITLE=Library Entry 54613
##JCAMP-DX=Revision 4.10 
##DATA TYPE=MASS SPECTRUM
##SAMPLE DESCRIPTION=Chemical Concepts
##NAMES=HP
##CAS NAME=1,5-Heptadien-4-ol, 3,3,6-trimethyl-
##MOLFORM=C10H18O
##CAS REGISTRY NO=27644-04-8
##MP= -300
##BP= -300
##MW= 154
##$RETENTION INDEX=1084
##$CONDENSED SPECTRUM=NO
##NPOINTS= 78
##XYDATA=(XY..XY) 1 
    26          4
    27         70
    29         79
    30          3
    31         11
    33          2
    34          0
    37          1
    38          5
    39        103
    40         10
    41        313
    42         30
    43        126
    44          6
    45          4
    50          6
    51         20
    52          6
    53         41
    54          9
    55        127
    56         11
    57         81
    58          3
    59         15
    60          0
    61          1
    62          2
    63          5
    65         35
    66          5
    67         90
    68          8
    69         40
    70         62
    71          5
    72          2
    77         43
    78          9
    79         57
    80         12
    81         16
    82          3
    83         42
    84         16
    85        999
    86         50
    87          3
    91         60
    92          9
    93        103
    94         19
    95         11
    96          7
    97          5
    98          0
   103          5
   104          0
   105         35
   106          8
   107         34
   108         15
   109          5
   110          1
   111          2
   112          1
   113          0
   115          0
   119          6
   120          0
   121         72
   122          7
   123          1
   135          0
   136         14
   137          2
   139          5