##TITLE=Library Entry 59467
##JCAMP-DX=Revision 4.10 
##DATA TYPE=MASS SPECTRUM
##SAMPLE DESCRIPTION=Humboldt-Universitat zu Berlin, Department of Chemistry
, Analytical Group
##NAMES=HP
##CAS NAME=2,4,5-Triphenyl-1,2,3-triazol
##MOLFORM=C20H15N3
##CAS REGISTRY NO=27653-10-7
##MP= -300
##BP= -300
##MW= 297
##$RETENTION INDEX=0
##$CONDENSED SPECTRUM=NO
##NPOINTS= 124
##XYDATA=(XY..XY) 1 
    14          2
    15          2
    16          1
    17          3
    18         12
    26          9
    27         56
    28         23
    29          2
    31          2
    32          1
    37         11
    38         52
    39        150
    40         28
    41         98
    42          3
    43          2
    45          1
    50         92
    51        292
    52         72
    53          7
    61          5
    62         28
    63        173
    64        389
    65         98
    66          6
    69          0
    74         15
    75         29
    76        116
    77        292
    78         21
    79          1
    83          4
    85          1
    86          4
    87          9
    88         14
    89         84
    91        999
    92         92
    93          4
    95          2
    98          1
    99          3
   100          2
   101          2
   102          8
   103         71
   104         25
   105          3
   111          1
   112          1
   113          4
   114          5
   115          7
   116          2
   118          0
   120          3
   125          1
   126          3
   127          3
   128          1
   133          1
   134          3
   135          1
   137          2
   138          2
   139          7
   140          5
   141          1
   149         15
   150          2
   151          5
   152          4
   153          1
   154          0
   161          0
   162          1
   163         10
   164         12
   165         61
   166         12
   167         12
   168          2
   175          0
   176          1
   177          5
   178          2
   179          2
   180          1
   188          1
   189          1
   190         10
   191          8
   192         18
   193         13
   194         32
   195          4
   196          0
   203          0
   204          0
   205          4
   206          0
   220          1
   239          0
   241          0
   254          0
   266          0
   267          1
   268          0
   269          0
   270          0
   282          1
   283          0
   294          0
   296          8
   297        134
   298         30
   299          3
   300          0