##TITLE=Library Entry 18740
##JCAMP-DX=Revision 4.10 
##DATA TYPE=MASS SPECTRUM
##SAMPLE DESCRIPTION=NIST Mass Spectrometry Data Center, 1990.
##NAMES=HP
##CAS NAME=1,5,9-Cyclododecatriene, (E,Z,Z)-
##MOLFORM=C12H18
##CAS REGISTRY NO=2765-29-9
##MP= -300
##BP= -300
##MW= 162
##$RETENTION INDEX=1296
##$CONDENSED SPECTRUM=NO
##NPOINTS= 75
##XYDATA=(XY..XY) 1 
    14         10
    16          6
    26         12
    27        132
    28         15
    29         33
    37          4
    39        527
    40         63
    41        395
    42         21
    43          6
    44          5
    50         32
    51        111
    52         70
    53        242
    54        999
    55         93
    56          4
    62          8
    63         39
    65        184
    66        161
    67        551
    68         37
    69          6
    74          5
    75          6
    77        229
    78        137
    79        658
    80        427
    81         76
    82          8
    83          3
    89          9
    91        328
    92        130
    93        381
    94         83
    95         46
    96         10
   102          4
   103         12
   104         10
   105        108
   106         66
   107         42
   108         41
   109          2
   115         15
   116          4
   117         12
   118          2
   119        170
   120        102
   121         71
   122          7
   128          7
   129          7
   130          6
   131          5
   132          4
   133        178
   134        152
   135         15
   147         28
   148          3
   152          5
   153          7
   154          4
   161         11
   162         47
   163          6