##TITLE=Library Entry 31081
##JCAMP-DX=Revision 4.10 
##DATA TYPE=MASS SPECTRUM
##SAMPLE DESCRIPTION=AP-2135
##NAMES=HP
##CAS NAME=1,3,5-Trithiane, 2,4,6-trimethyl-
##MOLFORM=C6H12S3
##CAS REGISTRY NO=2765-04-0
##MP= -300
##BP= -300
##MW= 180
##$RETENTION INDEX=1356
##$CONDENSED SPECTRUM=NO
##NPOINTS= 51
##XYDATA=(XY..XY) 1 
    26         15
    27         92
    28          7
    29         12
    32          7
    33          5
    34         10
    35         29
    39          8
    41         10
    43          5
    44          8
    45        223
    46         12
    47         19
    53         10
    54         21
    55        227
    56         13
    57         20
    58         89
    59        176
    60        999
    61        212
    62         47
    63          8
    64         28
    73         19
    85         12
    86          4
    87         42
    88        147
    89         26
    90          9
    92        113
    93          5
    94         11
   105         12
   115         61
   116          6
   119         11
   120        255
   121         18
   122         24
   124         65
   126          9
   180        629
   181         55
   182         83
   183          7
   184          4