##TITLE=Library Entry 51206
##JCAMP-DX=Revision 4.10 
##DATA TYPE=MASS SPECTRUM
##SAMPLE DESCRIPTION=V.G. Zaikin, R.S.Borisov, TIPS RAS, Moscow, Russia
##NAMES=HP
##CAS NAME=Pentadecanal-
##MOLFORM=C15H30O
##CAS REGISTRY NO=2765-11-9
##MP= -300
##BP= -300
##MW= 226
##$RETENTION INDEX=1715
##$CONDENSED SPECTRUM=NO
##NPOINTS= 94
##XYDATA=(XY..XY) 1 
    26         11
    27        127
    28        126
    29        317
    30          6
    31          6
    37          1
    38          3
    39         98
    40         20
    41        663
    42        157
    43        920
    44        302
    45        135
    46          2
    51          4
    52          2
    53         47
    54        165
    55        740
    56        355
    57        969
    58         65
    59          8
    65          8
    66         86
    67        507
    68        622
    69        566
    70        337
    71        478
    72         80
    73         10
    77          7
    78          1
    79         33
    80         34
    81        488
    82        999
    83        587
    84        208
    85        253
    86         32
    87          2
    91          3
    93         14
    94         26
    95        488
    96        598
    97        396
    98        127
    99         71
   100          7
   107          3
   108          8
   109        226
   110        188
   111        144
   112         67
   113         25
   114          2
   121          1
   122          5
   123        100
   124         98
   125         51
   126         37
   127         14
   128          1
   136          2
   137         51
   138         52
   139         16
   140         24
   141          6
   151         25
   152         44
   153          8
   154         20
   155          3
   165         10
   166         13
   167          1
   179          4
   180         42
   181          5
   182         63
   183          9
   193          1
   198          4
   208         14
   209          1
   226          1