##TITLE=Library Entry 27244
##JCAMP-DX=Revision 4.10 
##DATA TYPE=MASS SPECTRUM
##SAMPLE DESCRIPTION=Div. of Experiment Therapeutics, WRAIR, WRAMC, Wash. DC
 20307
##NAMES=HP
##CAS NAME=Benzothiazole, 2-(t-butyl)dithio-
##MOLFORM=C11H13NS3
##CAS REGISTRY NO=27657-22-3
##MP= -300
##BP= -300
##MW= 255
##$RETENTION INDEX=0
##$CONDENSED SPECTRUM=NO
##NPOINTS= 111
##XYDATA=(XY..XY) 1 
    41        335
    42         19
    43         23
    44         19
    45         75
    46          1
    47         29
    48          7
    52          9
    53         11
    54          4
    55         31
    57        999
    58         65
    59         52
    60          5
    61         10
    62         13
    63         71
    64         40
    65         16
    66          1
    67          3
    69        105
    70         37
    71         16
    72          3
    73          8
    74         14
    75         21
    76         17
    77         10
    78         18
    79          2
    80          0
    81         15
    82         43
    83          4
    87          6
    88          7
    89          6
    90         51
    91         53
    93         13
    94          7
    95         19
    96         20
    97          5
    98          2
    99          1
   100          1
   102         40
   103          5
   105          3
   106          5
   107         20
   108        168
   109         18
   110          9
   111          2
   112          1
   114          2
   115          0
   120          3
   121          6
   122         60
   123         15
   124          5
   125          2
   126          0
   127          1
   129          0
   133         19
   134         43
   135        181
   136         17
   137          8
   139         13
   140         47
   141          5
   142          4
   149          1
   154         17
   155          1
   156          1
   160          7
   161          0
   165          7
   166         89
   167         27
   168         16
   169          3
   170          1
   171          1
   176          1
   181          1
   183          1
   185          0
   199        914
   200         88
   201        122
   202         10
   203          6
   204          3
   213          0
   232          0
   240          0
   255         75
   256         13
   257         10
   258          1