##TITLE=Library Entry 9805
##JCAMP-DX=Revision 4.10 
##DATA TYPE=MASS SPECTRUM
##SAMPLE DESCRIPTION=A.A.Kutin, Moscow, Russia
##NAMES=HP
##CAS NAME=Stannane, dichlorodihexyl-
##MOLFORM=C12H26Cl2Sn
##CAS REGISTRY NO=2767-41-1
##MP= -300
##BP= -300
##MW= 360
##$RETENTION INDEX=0
##$CONDENSED SPECTRUM=NO
##NPOINTS= 226
##XYDATA=(XY..XY) 1 
    33          1
    34          1
    35          2
    36         12
    37          2
    38          8
    39         51
    40         34
    41        231
    42         78
    43        999
    44         46
    45          7
    46          0
    50          1
    51          3
    53         13
    54          9
    55         73
    56         52
    57        175
    58          8
    60          7
    62          0
    64          2
    65          2
    67          6
    69         14
    70          2
    71          8
    72          0
    73          2
    74          1
    77          2
    78          1
    79          2
    80          0
    81          2
    82          3
    83         20
    84         43
    85        620
    86         41
    87          2
    91          2
    92          1
    93          1
    95          0
    97          1
    99          1
   101          0
   105          1
   107          0
   110          1
   111          0
   113          1
   115          2
   116          5
   117         13
   118         14
   119         20
   120         14
   121         22
   122          2
   123          4
   124          2
   125          4
   126          0
   127          4
   128          3
   130          1
   131          1
   132          1
   133          3
   134          1
   135          3
   137          1
   138          0
   139          0
   145          2
   146          2
   147          3
   148          0
   149          5
   150          3
   151         27
   152         17
   153         50
   154         21
   155         66
   156          6
   157         25
   159         14
   160          0
   161          4
   163          1
   171          0
   173          1
   175          3
   176          1
   177          2
   178          1
   179          3
   180          0
   181          3
   182          2
   183          3
   184          0
   185          1
   186          1
   187          2
   188          3
   189          2
   190          3
   191          1
   192          1
   193          0
   194          0
   195          1
   196          1
   197          2
   198          0
   199          3
   200          1
   201          8
   202          6
   203         14
   204          6
   205         15
   206          1
   207          3
   208          2
   209          4
   210          1
   211          2
   212          1
   213          1
   214          1
   215          1
   216          1
   217          1
   218          2
   219          0
   220          0
   222          3
   223          0
   231          1
   232          0
   233          1
   234          2
   235          5
   236         16
   237         22
   238         31
   239         32
   240         43
   241         22
   242         17
   243         21
   244         15
   245         26
   246         12
   247         29
   248          0
   249          5
   251          5
   259          0
   267          2
   268          0
   269          1
   270          1
   271         12
   272          9
   273         27
   274         13
   275         40
   276          8
   277         21
   278          4
   279          9
   280          4
   281          5
   282          4
   283          2
   284          2
   285          1
   286          1
   287          2
   288          0
   289          1
   290          0
   292          0
   293          0
   295          1
   296          0
   297          2
   298          0
   299          2
   300          0
   301          1
   303          1
   305          0
   306          0
   307          3
   308          0
   309          0
   315          0
   317          5
   318          1
   319          6
   320          5
   321         39
   322         28
   323         77
   324         44
   325        102
   326         22
   327         37
   328          7
   329         20
   330          5
   331         10
   332          4
   333          6
   334          0
   335          0