##TITLE=Library Entry 29932
##JCAMP-DX=Revision 4.10 
##DATA TYPE=MASS SPECTRUM
##SAMPLE DESCRIPTION=NIST Mass Spectrometry Data Center
##NAMES=HP
##CAS NAME=2-Propenoic acid, 3-methoxybutyl ester
##MOLFORM=C8H14O3
##CAS REGISTRY NO=2768-07-2
##MP= -300
##BP= -300
##MW= 158
##$RETENTION INDEX=909
##$CONDENSED SPECTRUM=NO
##NPOINTS= 52
##XYDATA=(XY..XY) 1 
    12          1
    14          2
    15         55
    16          3
    18          1
    26         49
    27        267
    28         45
    29        169
    30          9
    31        137
    33         19
    37          1
    39         54
    40         12
    41        116
    42         43
    43        118
    44          6
    45         38
    46          1
    50          1
    51          2
    53         21
    55        452
    56         47
    57         13
    59        999
    60         32
    61          4
    68          1
    69          5
    71        280
    72         22
    73         35
    81          1
    82          4
    83          1
    84          5
    85         38
    86        116
    87         23
    97          1
    98          1
    99          9
   100          5
   103          6
   112          1
   113          3
   126          1
   127          2
   130          1