##TITLE=Library Entry 59206
##JCAMP-DX=Revision 4.10 
##DATA TYPE=MASS SPECTRUM
##SAMPLE DESCRIPTION=K. Kirk, LC, NIDDK, NIH, Bethesda, MD 20892
##NAMES=HP
##CAS NAME=1,2-Dibenzyloxybenzene, 4-oxiranylmethoxy-
##MOLFORM=C23H22O4
##CAS REGISTRY NO=27688-87-5
##MP= -300
##BP= -300
##MW= 362
##$RETENTION INDEX=0
##$CONDENSED SPECTRUM=NO
##NPOINTS= 120
##XYDATA=(XY..XY) 1 
    41         36
    42         28
    43          9
    44        317
    45         13
    46          4
    48          8
    49          2
    50         13
    51         29
    52         13
    53         11
    54          4
    55         14
    56          2
    57         53
    58          3
    59          3
    60          4
    61          2
    62          4
    63         14
    64          3
    65         68
    66          6
    67          2
    68          5
    69         13
    70          4
    71          4
    73          5
    74          3
    75          2
    76          2
    77         27
    78          9
    79         20
    80          3
    81          4
    82          4
    83          4
    84          3
    85          2
    86          0
    89         14
    91        999
    92         67
    93          4
    94          2
    95          9
    96          4
    97          2
    98          3
    99          0
   100          3
   103          4
   104          4
   105         18
   106         12
   107         12
   108          9
   109          8
   110          1
   111          3
   113          0
   115          4
   117          2
   118          3
   121          2
   122          1
   123          7
   124          1
   125          2
   126          0
   128          1
   129          4
   131         11
   132          0
   137          1
   139          0
   141          4
   143          1
   149          3
   165          3
   167          1
   169         20
   170          3
   173          0
   178          1
   181         10
   182          2
   183          0
   185          0
   187          2
   188          3
   197          2
   199          4
   201          1
   202          0
   213          3
   219          1
   221          1
   227          0
   243          0
   252          1
   255          6
   257          0
   262          1
   264          1
   270          0
   271         38
   272          9
   273          0
   289          0
   338          1
   346          5
   357          1
   362         40
   363          9
   364          1