##TITLE=Library Entry 61309
##JCAMP-DX=Revision 4.10 
##DATA TYPE=MASS SPECTRUM
##SAMPLE DESCRIPTION=Japan AIST/NIMC Database- Spectrum MS-NW-2512
##NAMES=HP
##CAS NAME=DL-Serine, N-[(phenylmethoxy)carbonyl]-
##MOLFORM=C11H13NO5
##CAS REGISTRY NO=2768-56-1
##MP= -300
##BP= -300
##MW= 239
##$RETENTION INDEX=0
##$CONDENSED SPECTRUM=NO
##NPOINTS= 99
##XYDATA=(XY..XY) 1 
    12          1
    13          1
    14          7
    15        118
    16          2
    17          4
    18         16
    25          1
    26          9
    27         40
    28        181
    29         47
    30         28
    31         51
    32          4
    33          2
    34          6
    36          1
    37          8
    38         16
    39         73
    40         16
    41         40
    42        373
    43         30
    44         45
    45         44
    46          6
    47          1
    49          5
    50         44
    51        109
    52         32
    53         24
    54          7
    55         15
    56          7
    57          5
    58         50
    59          4
    60         38
    61          5
    62         11
    63         35
    64         10
    65         97
    66          7
    68          2
    69          7
    70          4
    71          2
    72          8
    73         19
    74         31
    75         12
    76          8
    77        255
    78         60
    79        556
    80         57
    81          3
    83         13
    84          9
    85         13
    86        684
    87         29
    88          5
    89         52
    90         78
    91        999
    92        106
    93          5
   101         41
   102          2
   104          9
   105         29
   106          9
   107        438
   108        889
   109         69
   110          4
   113          1
   116          2
   118          4
   120          1
   131         19
   132          6
   133          3
   147          1
   148         35
   149          4
   150         14
   151          2
   164          2
   177          2
   194          3
   209          3
   239         19
   240          2