##TITLE=Library Entry 34862
##JCAMP-DX=Revision 4.10 
##DATA TYPE=MASS SPECTRUM
##SAMPLE DESCRIPTION=TNO Volatile Compounds in Food - Chemical Concepts
##NAMES=HP
##CAS NAME=2-Butyne, 1-methoxy-
##MOLFORM=C5H8O
##CAS REGISTRY NO=2768-41-4
##MP= -300
##BP= -300
##MW= 84
##$RETENTION INDEX=0
##$CONDENSED SPECTRUM=NO
##NPOINTS= 41
##XYDATA=(XY..XY) 1 
    25          3
    26         44
    27        323
    29        134
    30         13
    31         12
    33          3
    34          0
    36          4
    37         27
    38         49
    39        353
    40         11
    41        210
    42         21
    43         23
    44          8
    45         42
    46          0
    48          0
    49         16
    50        111
    51        156
    52         97
    53        680
    54         84
    55         78
    56         78
    57          7
    58          9
    65          2
    66          4
    67         10
    68         63
    69        999
    70         46
    71          2
    81          2
    82          3
    83         82
    84         26