##TITLE=Library Entry 49108
##JCAMP-DX=Revision 4.10 
##DATA TYPE=MASS SPECTRUM
##SAMPLE DESCRIPTION=Div. of Experiment Therapeutics WRAIR, WRAMC, Washingto
n DC 20307
##NAMES=HP
##CAS NAME=4-[2-Pyridyl]piperazine-1-carbothioic acid, 2-[1-[2-pyrimidyl]eth
ylidene]hydrazide
##MOLFORM=C16H19N7S
##CAS REGISTRY NO=276855-77-7
##MP= -300
##BP= -300
##MW= 341
##$RETENTION INDEX=0
##$CONDENSED SPECTRUM=NO
##NPOINTS= 180
##XYDATA=(XY..XY) 1 
    41        137
    42        276
    43         58
    44        105
    45         33
    46         12
    47          8
    48          4
    49         22
    50         57
    51        307
    52        510
    53        551
    54        115
    55         63
    56        276
    57         80
    58        152
    59         80
    60         33
    61          6
    62          4
    63         12
    64         38
    65         51
    66         59
    67         59
    68         32
    69         31
    70         31
    71         18
    72         39
    73          9
    74          7
    75         11
    76         32
    77         41
    78        496
    79        999
    80        413
    81         54
    82          8
    83         18
    84         19
    85         22
    86         21
    87          2
    88          4
    89          2
    90          3
    91         11
    92         60
    93         86
    94         76
    95        744
    96         51
    97          8
    98          3
    99         31
   100          4
   101         12
   102          2
   103          6
   104         19
   105        108
   106        108
   107        595
   108        134
   109         13
   110          4
   111          3
   112          3
   113          2
   114          4
   115          5
   116          4
   117         10
   118         50
   119        194
   120        142
   121        564
   122        164
   123         22
   124          6
   125          2
   126          1
   127          2
   128          2
   129          2
   130          2
   131         13
   132         14
   133        173
   134         35
   135         16
   136          7
   137          4
   138          5
   139          5
   140          1
   141          0
   142          6
   143          1
   144          2
   145         47
   146         19
   147         21
   148          7
   149        108
   150         42
   151         13
   152          9
   153          3
   154          0
   156          2
   157          7
   158          2
   159          3
   160         23
   161         40
   162         33
   163        194
   164         27
   165          2
   166          0
   170          1
   172          1
   173          1
   174          2
   175          1
   176          0
   177          7
   178        237
   179         49
   180         15
   181          2
   182          0
   185          0
   186          0
   187         24
   188          4
   189          1
   190          0
   191          0
   192          1
   193          0
   195          0
   204          3
   205          0
   206          6
   207          1
   208          1
   209          0
   210          0
   213          0
   214          0
   215          0
   216          0
   219          0
   220         60
   221          9
   222          7
   223          1
   237          2
   262          1
   278          0
   293          3
   294          0
   308          0
   324          0
   326          2
   336          3
   337          0
   338          0
   339          3
   340          1
   341         71
   342         16
   343          4
   344          0