##TITLE=Library Entry 59737
##JCAMP-DX=Revision 4.10 
##DATA TYPE=MASS SPECTRUM
##SAMPLE DESCRIPTION=A. Brossi, LC, NIDDK, NIH, Bethesda, MD 20892
##NAMES=HP
##CAS NAME=3,4-Dibenzyloxyphenol
##MOLFORM=C20H18O3
##CAS REGISTRY NO=27688-86-4
##MP= -300
##BP= -300
##MW= 306
##$RETENTION INDEX=0
##$CONDENSED SPECTRUM=NO
##NPOINTS= 100
##XYDATA=(XY..XY) 1 
    41         18
    42          1
    43          3
    44          0
    45          1
    49          0
    50          8
    51         24
    52         11
    53          9
    54          2
    55         15
    56          0
    57          2
    61          1
    62          4
    63         27
    64         10
    65        133
    66          7
    67          0
    68         22
    69         10
    70          4
    71          0
    74          1
    75          1
    76          1
    77         10
    78          2
    79          5
    80          0
    81          7
    82          1
    83          0
    87          0
    89         35
    91        999
    92         77
    93          3
    95          3
    96         23
    97          3
   102          0
   103          0
   104          2
   105          5
   107          2
   108          0
   109          9
   110          0
   114          0
   115          3
   116          0
   117          2
   118          0
   123          0
   125          1
   126          4
   127          2
   128          2
   129          1
   131          1
   132          0
   137          4
   138          1
   139          0
   141          6
   142          0
   145          1
   152          0
   153          0
   157          0
   159          1
   165          2
   166          0
   167          1
   168          0
   169          2
   173          1
   178          0
   179          0
   180          0
   181         20
   182          3
   183          0
   185          0
   186          0
   187          4
   188          0
   197          4
   198          0
   213          3
   214          3
   215         35
   216          5
   217          0
   306         64
   307         14
   308          1