##TITLE=Library Entry 2442
##JCAMP-DX=Revision 4.10 
##DATA TYPE=MASS SPECTRUM
##SAMPLE DESCRIPTION=W HEERMA
##NAMES=HP
##CAS NAME=Butane, 1-isocyano-
##MOLFORM=C5H9N
##CAS REGISTRY NO=2769-64-4
##MP= -300
##BP= -300
##MW= 83
##$RETENTION INDEX=0
##$CONDENSED SPECTRUM=NO
##NPOINTS= 26
##XYDATA=(XY..XY) 1 
    14          7
    15         27
    25          4
    26         69
    27        450
    28        254
    29        199
    37         18
    38         35
    39        213
    40         76
    41        999
    42         60
    43        812
    50         17
    51         29
    52         37
    53         30
    54        148
    55        622
    56        247
    57         23
    64          7
    66         11
    68         27
    82         35