##TITLE=Library Entry 40540
##JCAMP-DX=Revision 4.10 
##DATA TYPE=MASS SPECTRUM
##SAMPLE DESCRIPTION=D.HENNEBERG, MAX-PLANCK INSTITUTE, MULHEIM, WEST GERMAN
Y
##NAMES=HP
##CAS NAME=Butane, 2-methoxy-2,3,3-trimethyl-
##MOLFORM=C8H18O
##CAS REGISTRY NO=27705-21-1
##MP= -300
##BP= -300
##MW= 130
##$RETENTION INDEX=0
##$CONDENSED SPECTRUM=NO
##NPOINTS= 68
##XYDATA=(XY..XY) 1 
    23          0
    24          0
    25          0
    26          1
    27         20
    28         51
    29         59
    30          4
    31         28
    32          7
    33          3
    34          0
    35          0
    36          0
    37          1
    38          4
    39         70
    40         11
    41        187
    42         27
    43        163
    44          4
    45         30
    46          0
    50          2
    51          5
    52          2
    53         13
    54          2
    55        169
    56         18
    57        124
    58          6
    59          9
    60          2
    61          0
    62          0
    63          1
    65         25
    66          1
    67         11
    68          1
    69         15
    70          1
    71          0
    72          8
    73        999
    74         46
    75          3
    77          1
    78          0
    79          1
    81          2
    82          0
    83        169
    84         13
    85         14
    86          0
    91          0
    92          0
    97          1
    98          7
    99         10
   100          3
   101          0
   115         75
   116          5
   117          0