##TITLE=Library Entry 17731
##JCAMP-DX=Revision 4.10 
##DATA TYPE=MASS SPECTRUM
##SAMPLE DESCRIPTION=Chemical Concepts
##NAMES=HP
##CAS NAME=Benzene, 1-chloro-2-(methoxymethoxy)-
##MOLFORM=C8H9ClO2
##CAS REGISTRY NO=27701-22-0
##MP= -300
##BP= -300
##MW= 172
##$RETENTION INDEX=0
##$CONDENSED SPECTRUM=NO
##NPOINTS= 113
##XYDATA=(XY..XY) 1 
    25          0
    26          3
    27          6
    28         11
    29         78
    30          6
    31          7
    35          1
    36          5
    37         10
    38         24
    39         38
    40          2
    41          5
    42          1
    43          6
    44         12
    45        999
    46         47
    47          4
    48          0
    49          7
    50         37
    51         26
    52          3
    53          6
    54          1
    55          5
    56          2
    57          5
    58          0
    59          0
    60          2
    61          9
    62         19
    63         63
    64         28
    65          9
    66          2
    67          1
    68          0
    69          3
    70          2
    71          3
    72          5
    73         59
    74         20
    75         89
    76         17
    77         46
    78          9
    79          7
    80          1
    81          2
    82          1
    83          2
    84          4
    85         11
    86          2
    87          4
    89          0
    91          2
    92          7
    93          2
    94          3
    95          1
    96          1
    97          2
    98          1
    99         90
   100          6
   101         30
   102          2
   104          1
   105          2
   106          1
   107          4
   108          4
   109          1
   110          2
   111         87
   112         10
   113         52
   114          5
   115          8
   116          0
   119          1
   121          4
   122          2
   123          0
   125          0
   126          1
   127         40
   128         17
   129         13
   130          5
   131          0
   133          0
   135          0
   138          1
   139          1
   140          0
   141         50
   142         99
   143         23
   144         32
   145          2
   171          3
   172        250
   173         25
   174         84
   175          8
   176          1