##TITLE=Library Entry 75276
##JCAMP-DX=Revision 4.10 
##DATA TYPE=MASS SPECTRUM
##SAMPLE DESCRIPTION=Institute of Organic Chemistry, Novosibirsk, USSR 1988
##NAMES=HP
##CAS NAME=Methyl 3,4,6-tri-O-acetyl-2-acetamido-2-deoxy-.beta.-D-glucopyran
oside
##MOLFORM=C15H23NO9
##CAS REGISTRY NO=2771-48-4
##MP= -300
##BP= -300
##MW= 361
##$RETENTION INDEX=0
##$CONDENSED SPECTRUM=NO
##NPOINTS= 81
##XYDATA=(XY..XY) 1 
    55         34
    56         31
    57         19
    58         22
    59        239
    60         59
    61         16
    68         25
    69         41
    70         63
    71         25
    72         69
    73         99
    74         36
    80         59
    81         41
    82         20
    83         99
    84         95
    85         52
    86         25
    87         25
    88         36
    96        109
    97        139
    98        189
    99         49
   101        999
   102        189
   103         49
   108         31
   109         20
   110         19
   111         19
   112        119
   114        179
   115         99
   116         41
   122         59
   124         19
   125         14
   126         46
   127         84
   128         19
   130         19
   138         46
   139        219
   140        229
   141         59
   143        269
   144         39
   145         29
   150         14
   156         89
   157         69
   158         59
   167          9
   168         39
   169        109
   170         17
   181         63
   182         57
   183         41
   184          9
   186          5
   187          5
   198         31
   199         73
   200         41
   209          4
   210          4
   228          4
   241         36
   242        139
   243         41
   270          1
   288         17
   301          4
   302         41
   330          9
   362         14