##TITLE=Library Entry 8378
##JCAMP-DX=Revision 4.10 
##DATA TYPE=MASS SPECTRUM
##SAMPLE DESCRIPTION=Exported from NIST MS Search
##NAMES=HP
##CAS NAME=Spiro[5.5]undecane, 1-methylene-
##MOLFORM=C12H20
##CAS REGISTRY NO=27723-50-8
##MP= -300
##BP= -300
##MW= 164
##$RETENTION INDEX=0
##$CONDENSED SPECTRUM=NO
##NPOINTS= 59
##XYDATA=(XY..XY) 1 
    31         19
    32         19
    36         19
    37         53
    38         66
    39        438
    40         80
    41        552
    42        152
    43        999
    44         34
    50         47
    51        114
    52        133
    53        152
    54        152
    55        337
    56         32
    57         49
    58        651
    59         49
    63         34
    65         51
    66         47
    67        704
    68        184
    69         64
    74         19
    76         19
    77        182
    78        470
    79        388
    80        133
    81        533
    82        619
    83        346
    84         15
    91        133
    92         32
    93        300
    94        152
    95        247
    96        198
    97        133
   105         19
   107        152
   108        228
   109        152
   110         38
   120         15
   121        266
   122        266
   123         51
   135        186
   136         60
   149         99
   150         19
   164        299
   165         34