##TITLE=Library Entry 84799
##JCAMP-DX=Revision 4.10 
##DATA TYPE=MASS SPECTRUM
##SAMPLE DESCRIPTION=Chemical Concepts
##NAMES=HP
##CAS NAME=Phenol, 2,2'-sulfinylbis[4-methyl-
##MOLFORM=C14H14O3S
##CAS REGISTRY NO=27725-15-1
##MP= -300
##BP= -300
##MW= 262
##$RETENTION INDEX=0
##$CONDENSED SPECTRUM=NO
##NPOINTS= 170
##XYDATA=(XY..XY) 1 
    34         12
    36          8
    37         12
    38         49
    39        428
    40        108
    41        123
    43        128
    44         54
    45        190
    47         20
    49         15
    50        124
    51        495
    52        232
    53        300
    54         26
    55        118
    56         17
    57         46
    58         42
    59         34
    61         18
    62         36
    63        130
    65        237
    66        167
    67        106
    69        106
    70         42
    71         58
    72          7
    73         10
    74         22
    75         20
    77        614
    78        332
    79        157
    80         31
    81         24
    82         38
    83         39
    84         48
    85         29
    86         11
    87          9
    89         23
    90         22
    91         41
    92         15
    93         20
    94         26
    95         84
    97         54
    98         13
    99         20
   100          8
   101          8
   102          6
   103         10
   105         80
   106         50
   107        238
   108        999
   109        159
   110        154
   111         81
   112         21
   113          9
   114          7
   115         47
   116          5
   117          4
   119          6
   121         36
   122         45
   123         64
   124         69
   125         14
   127         90
   128         33
   129         21
   130          6
   131         10
   132          6
   133          5
   134         10
   135         18
   136          5
   137         12
   139         96
   140        105
   141         30
   142         14
   143          7
   144          5
   145         14
   146          4
   147          9
   148         10
   150         13
   151         17
   152         16
   153         22
   155        207
   156         21
   157         13
   158          9
   159         11
   160          9
   161          7
   163          6
   164         13
   165         13
   166          7
   167          6
   168         13
   169         12
   171         43
   172         12
   173         17
   174          6
   175          9
   176          6
   177         33
   178          6
   179          4
   181         12
   182          9
   183         37
   184         26
   185         16
   186         15
   187         29
   188         33
   189         12
   194          6
   195         24
   196         44
   197         36
   198         19
   199         37
   201        220
   202         37
   203         11
   211         20
   212         14
   213         22
   214         84
   215        146
   216        149
   217         30
   218          9
   227         16
   228         20
   229         33
   230         81
   231         11
   232          5
   243         26
   244        102
   245         38
   246         95
   247         15
   248          5
   259          8
   260         20
   262        406
   263         69
   264         24