##TITLE=Library Entry 56976
##JCAMP-DX=Revision 4.10 
##DATA TYPE=MASS SPECTRUM
##SAMPLE DESCRIPTION=A.A.Kutin, Moscow, Russia
##NAMES=HP
##CAS NAME=Pyridazine, 3-(4-morpholyl)-4,5,6-triphenyl-
##MOLFORM=C26H23N3O
##CAS REGISTRY NO=277298-95-0
##MP= -300
##BP= -300
##MW= 393
##$RETENTION INDEX=0
##$CONDENSED SPECTRUM=NO
##NPOINTS= 219
##XYDATA=(XY..XY) 1 
    38          3
    39         56
    40         10
    41         44
    42        142
    43         74
    44         12
    45         68
    50         34
    51        146
    52         29
    53         10
    54         25
    55         45
    56         90
    57        111
    58         46
    59          7
    61          7
    62         11
    63         46
    64         13
    65         24
    66          6
    68         10
    69          8
    71          8
    73          6
    74         19
    75         35
    76         52
    77        219
    78        106
    79         14
    86        999
    87         66
    88         27
    89         69
    90         15
    91         44
    92          7
    94          6
    98          8
    99          9
   100         19
   101         49
   102        153
   103        102
   104         55
   105         15
   107         13
   108          7
   111         10
   112         16
   113         39
   114         30
   115        127
   116         32
   117         21
   119         24
   120         39
   121         13
   124         12
   125         48
   126         97
   127         36
   128        150
   129        276
   130         59
   132        187
   135          6
   137         30
   138        119
   139        101
   141         19
   142         12
   143         11
   144         11
   145         27
   146         60
   147         24
   148         10
   149         10
   150         38
   151         94
   152        150
   155          7
   156         27
   157          8
   159         53
   160         42
   161         42
   162         14
   163         30
   164         25
   165        111
   166         66
   173         17
   174         38
   175         23
   176        125
   177         73
   178        269
   179         45
   180         18
   182         23
   186         30
   187        170
   188         43
   189         74
   190         31
   191         21
   192          6
   200         26
   201         34
   202         73
   203         66
   204        157
   205         67
   206         12
   207          3
   213         14
   214         26
   215         26
   216         48
   217         18
   218         10
   219         12
   224          8
   225          6
   226         13
   227         13
   228         15
   229         28
   230         24
   231         83
   232         23
   233          7
   237         12
   238          8
   239         30
   240         12
   241          6
   242          8
   243          9
   244          8
   245         12
   250         18
   251         10
   252         41
   253         12
   256          8
   257          7
   258          9
   259         16
   260         15
   261         20
   262         10
   263         50
   264         24
   265         93
   266         32
   267        170
   268         40
   269          7
   272         12
   274         12
   275          7
   276         34
   277         31
   278         39
   279         21
   280         24
   281         10
   286         10
   287         11
   288         13
   289         16
   290         26
   291         23
   292         20
   293         16
   294          7
   302         11
   303          8
   304         16
   305         23
   306         26
   307        152
   308        133
   309         55
   310         12
   316         50
   317         14
   318          8
   319          8
   320         18
   321         36
   322         27
   323          8
   332          9
   334         99
   335        214
   336        302
   337         85
   338         11
   348        117
   349         36
   350         23
   351          9
   362        226
   363         68
   364        106
   365         42
   366          9
   392        611
   393        475
   394        113
   395         14