##TITLE=Library Entry 83206
##JCAMP-DX=Revision 4.10 
##DATA TYPE=MASS SPECTRUM
##SAMPLE DESCRIPTION=A.A.Kutin, Moscow, Russia
##NAMES=HP
##CAS NAME=Acetamide, 2-hydroximino-N-[3,5-bis(trifluoromethyl)phenyl]-
##MOLFORM=C10H6F6N2O2
##CAS REGISTRY NO=277299-08-8
##MP= -300
##BP= -300
##MW= 300
##$RETENTION INDEX=0
##$CONDENSED SPECTRUM=NO
##NPOINTS= 189
##XYDATA=(XY..XY) 1 
    37         10
    38         25
    39         50
    40         11
    41         14
    42         27
    43        543
    44        374
    45          8
    46          5
    47          2
    49          2
    50         42
    51        122
    52         33
    53          6
    54         26
    55          6
    56          6
    57         20
    58          1
    60          1
    61         10
    62         26
    63         63
    64         30
    65         36
    66          7
    67          1
    69        126
    70          5
    71         40
    72        572
    73         18
    74         20
    75         57
    76         16
    77        212
    78         31
    79         26
    80          5
    81         18
    82          6
    83          2
    85          1
    86          2
    87         11
    88         24
    89         11
    90         10
    91         21
    92          9
    93         21
    94          9
    95         14
    96          1
    97          1
    99         14
   100          6
   101         11
   102          3
   103          0
   104         97
   105         63
   106        999
   107         86
   108         16
   109          6
   110          1
   111          3
   112         13
   113         18
   114          4
   116          2
   117          7
   118         16
   119         12
   120         10
   121          1
   123          3
   124          2
   125         12
   126          4
   127          1
   128          1
   129          0
   130          3
   131         12
   132         67
   133          9
   134          3
   135          1
   136          1
   137          3
   138         16
   139         45
   140         14
   141          1
   143         28
   144         27
   145          9
   146        347
   147         37
   148          3
   149          1
   150          7
   151          5
   152          1
   155          0
   156          1
   157         15
   158         19
   159         15
   160         13
   161          9
   162          5
   163         76
   164          7
   165          0
   167          1
   168          2
   169          1
   170          5
   171          0
   173          2
   174          4
   175          0
   176          0
   177          7
   178          4
   179          8
   180          3
   181         25
   182         64
   183          6
   185          0
   186         12
   188         76
   189          9
   190          3
   193          9
   194          9
   195          3
   199          0
   200          5
   201          7
   202          5
   204          0
   205          5
   206          2
   207          5
   208         27
   209         19
   210         18
   211          2
   213         81
   214          8
   215          2
   216          0
   220          1
   227         16
   228        128
   229        628
   230         64
   231          5
   234          0
   236         52
   237          6
   238          0
   240          5
   241          3
   245          1
   250          0
   255         51
   256         38
   257          4
   261          0
   263          1
   265          1
   269         25
   270          3
   279          0
   281        105
   282         15
   283          5
   284          4
   300        244
   301         29
   302          2