##TITLE=Library Entry 40589
##JCAMP-DX=Revision 4.10 
##DATA TYPE=MASS SPECTRUM
##SAMPLE DESCRIPTION=Chemical Concepts
##NAMES=HP
##CAS NAME=[1,4,7]Trioxonane
##MOLFORM=C6H12O3
##CAS REGISTRY NO=27725-91-3
##MP= -300
##BP= -300
##MW= 132
##$RETENTION INDEX=0
##$CONDENSED SPECTRUM=NO
##NPOINTS= 19
##XYDATA=(XY..XY) 1 
    26         35
    27        129
    29        295
    30        151
    31        185
    41          0
    42        376
    43        952
    44        752
    45        241
    57         35
    58        458
    59         35
    72        105
    73        999
    74         41
    87         58
    88         47
   102        117