##TITLE=Library Entry 3872
##JCAMP-DX=Revision 4.10 
##DATA TYPE=MASS SPECTRUM
##SAMPLE DESCRIPTION=A.A.Kutin, Moscow, Russia
##NAMES=HP
##CAS NAME=2H-Imidazo[2,1-d]1,3-thiazin-3-one, 3,5,6,7-tetrahydro-2-(4-nitro
benzylideno)-
##MOLFORM=C13H11N3O3S
##CAS REGISTRY NO=277327-21-6
##MP= -300
##BP= -300
##MW= 289
##$RETENTION INDEX=0
##$CONDENSED SPECTRUM=NO
##NPOINTS= 163
##XYDATA=(XY..XY) 1 
    33          8
    34          2
    37          4
    38         16
    39         89
    41        999
    42         40
    43          7
    44         23
    45         50
    46         18
    47          7
    48          0
    50         28
    51         27
    52          7
    53          6
    54          7
    55          4
    56         16
    57          6
    58         11
    59          9
    60         15
    61          8
    62         32
    63         39
    64         17
    65         10
    66          6
    67         33
    68          3
    69          8
    70          9
    72        598
    73         33
    74         40
    75         26
    76         21
    77         15
    78          5
    79          8
    80          1
    81          2
    82          3
    83          3
    84          4
    85          5
    86         25
    87         19
    88         56
    89         50
    90          7
    91          3
    92          2
    93          4
    94          1
    95          3
    96          1
    98         16
   100        699
   101         54
   102         38
   103         12
   104          6
   105          3
   106          2
   107          3
   108          3
   111          1
   112          1
   113          4
   114         42
   115         63
   116         25
   117          7
   118          1
   119          1
   120          3
   121          6
   122          0
   123          0
   126          0
   127          4
   128         10
   129         12
   130          5
   131         24
   132         18
   133          5
   134          2
   135          0
   136          0
   140          1
   141          4
   142          5
   143         15
   144         13
   145          9
   146          6
   147          3
   148          2
   149          2
   150          1
   153          1
   154          1
   155          5
   156          6
   157          6
   158          5
   159         14
   160          5
   161          6
   162         10
   163          2
   169          1
   170          1
   171          6
   172          1
   173          2
   174          3
   175          7
   176          2
   177          0
   184          0
   185          0
   186          1
   187          4
   188          2
   189          3
   201          2
   202          8
   203         19
   204          4
   205         15
   206          2
   207          0
   213          0
   214          4
   215         30
   216          4
   217          0
   230          0
   231          3
   232          0
   233          5
   234          0
   242         25
   243         42
   244          9
   245          2
   259         25
   260         12
   261          4
   272          2
   273          3
   274          0
   285          3
   288        202
   289        609
   290         97
   291         35
   292          5