##TITLE=Library Entry 64870
##JCAMP-DX=Revision 4.10 
##DATA TYPE=MASS SPECTRUM
##SAMPLE DESCRIPTION=A.A.Kutin, Moscow, Russia
##NAMES=HP
##CAS NAME=2-Propen-1-one, 1-[2-(phenylmethoxy)phenyl]-3-(3,4,5-trimethoxyph
enyl)-
##MOLFORM=C25H24O5
##CAS REGISTRY NO=277325-64-1
##MP= -300
##BP= -300
##MW= 404
##$RETENTION INDEX=0
##$CONDENSED SPECTRUM=NO
##NPOINTS= 257
##XYDATA=(XY..XY) 1 
    33          0
    34          1
    37          1
    38          5
    39         39
    40         17
    41         13
    42          1
    43          7
    44         18
    45          5
    46          0
    50         11
    51         23
    52          6
    53         14
    54          1
    55          6
    56          1
    57          4
    58          0
    59          3
    60          1
    61          1
    62          6
    63         38
    64         26
    65        129
    66         16
    67          3
    68          0
    69          8
    70          2
    71          1
    72          0
    73          1
    74          3
    75         10
    76         23
    77         43
    78         11
    79         13
    80          2
    81          8
    82          1
    83          2
    84          2
    85          2
    86          1
    87          3
    88          6
    89         31
    91        999
    92        100
    93         20
    94          4
    95          3
    96          2
    97          1
    98          0
    99          1
   100          1
   101          5
   102         11
   103          7
   104          9
   105         22
   106          7
   107         10
   108          2
   109          7
   110          2
   111          1
   112          0
   113          3
   115         27
   116          5
   117          8
   118         10
   119         15
   120         22
   121        142
   122         15
   123          4
   124          2
   125          2
   126          4
   127         10
   128         21
   129          5
   130          3
   131          9
   132          7
   133         13
   134         10
   135         12
   136          3
   137          8
   138          3
   139         15
   140          6
   141          8
   142          2
   143          1
   144          1
   145          3
   146          3
   147         20
   148          8
   149         15
   150          5
   151         27
   152         18
   153         12
   154          4
   155         12
   156          8
   157          2
   158          1
   159          2
   160          3
   161          5
   162          7
   163         14
   164          5
   165         17
   166          7
   167         24
   168         19
   169          9
   170          2
   171          5
   172          1
   173          0
   174          0
   175          4
   176          4
   177         21
   178         12
   179         25
   181        184
   182        140
   183         22
   184         16
   185          3
   186          0
   189          1
   190          4
   191          4
   192          7
   193         39
   194         34
   195         18
   196          8
   197          7
   198          2
   199          3
   200          0
   205          2
   206          2
   207          6
   208          5
   209         13
   210         16
   211         13
   212          7
   213          3
   214          0
   218          0
   219          1
   220          2
   221         14
   222          8
   223         57
   224         14
   225          8
   226          7
   227         11
   228          2
   229          0
   234          0
   235          6
   236          3
   237         15
   238          8
   239         13
   240          5
   241          6
   242          2
   243          0
   249          2
   250          4
   251         14
   252         21
   253         30
   254         21
   255         14
   257         78
   258         14
   259          1
   263          0
   264          1
   265          4
   266          4
   267         21
   268         10
   269         19
   270          8
   271         10
   272          2
   273          1
   279          6
   280          7
   281         12
   282         27
   283         67
   284         34
   285         32
   286          6
   287          1
   295          3
   297         13
   298         21
   299          5
   300          1
   309          1
   310          1
   313        302
   314         58
   315          8
   316          1
   325          0
   327          1
   328          0
   329          0
   339          0
   340          1
   341          0
   343          0
   355          1
   356          0
   357          0
   371          1
   373         10
   374          3
   375          0
   385          0
   386          3
   387          1
   388          0
   389          1
   401          0
   402          2
   404        307
   405         74
   406         13
   407          2