##TITLE=Library Entry 72407
##JCAMP-DX=Revision 4.10 
##DATA TYPE=MASS SPECTRUM
##SAMPLE DESCRIPTION=Exported from NIST MS Search
##NAMES=HP
##CAS NAME=Estra-1,3,5(10)-trien-17-one, 3-(acetyloxy)-, cyclic 1,2-ethanedi
yl acetal
##MOLFORM=C22H28O4
##CAS REGISTRY NO=27736-68-1
##MP= -300
##BP= -300
##MW= 356
##$RETENTION INDEX=0
##$CONDENSED SPECTRUM=NO
##NPOINTS= 72
##XYDATA=(XY..XY) 1 
    41         40
    42         30
    43        100
    44         10
    45         20
    50         10
    51         10
    53         20
    55         70
    56         30
    65         10
    67         20
    69         20
    73         20
    76         10
    77         20
    78         10
    79         20
    81         20
    86         40
    87         20
    91         30
    93         10
    95         10
    97         10
    98         10
    99        999
   100        250
   101         20
   103         10
   105         10
   107         20
   113         10
   115         20
   116         10
   117         10
   127         20
   128         20
   129         20
   131         20
   133         30
   141         20
   144         20
   145         30
   146         20
   147         10
   157         30
   158         20
   159         30
   160         20
   171         10
   172         10
   185         10
   212         20
   213         10
   214         40
   215         10
   227         20
   252        140
   253         50
   254         20
   255         10
   268         10
   269         10
   270         20
   294         70
   295         20
   311         10
   314         40
   315         10
   356         40
   357         10