##TITLE=Library Entry 72743
##JCAMP-DX=Revision 4.10 
##DATA TYPE=MASS SPECTRUM
##SAMPLE DESCRIPTION=Exported from NIST MS Search
##NAMES=HP
##CAS NAME=Androstan-17-one, cyclic 1,2-ethanediyl acetal
##MOLFORM=C21H34O2
##CAS REGISTRY NO=27736-67-0
##MP= -300
##BP= -300
##MW= 318
##$RETENTION INDEX=0
##$CONDENSED SPECTRUM=NO
##NPOINTS= 54
##XYDATA=(XY..XY) 1 
    41         50
    42         10
    43         30
    44         20
    45         10
    53         10
    54         10
    55         70
    56         10
    57         10
    67         50
    68         10
    69         20
    73         10
    77         10
    79         30
    80         10
    81         40
    82         10
    83         10
    86         50
    87         40
    91         20
    93         30
    94         20
    95         30
    97         10
    99        999
   100        120
   101         10
   105         20
   107         20
   108         20
   109         30
   113         10
   119         10
   121         20
   122         10
   123         10
   125         10
   133         10
   134         20
   135         20
   136         10
   161         10
   217         10
   230         20
   241         10
   243         10
   256         20
   258         20
   303         10
   318        150
   319         30