##TITLE=Library Entry 12516
##JCAMP-DX=Revision 4.10 
##DATA TYPE=MASS SPECTRUM
##SAMPLE DESCRIPTION=Exported from NIST MS Search
##NAMES=HP
##CAS NAME=Androstan-17-ol, acetate, (17.beta.)-
##MOLFORM=C21H34O2
##CAS REGISTRY NO=27736-62-5
##MP= -300
##BP= -300
##MW= 318
##$RETENTION INDEX=0
##$CONDENSED SPECTRUM=NO
##NPOINTS= 135
##XYDATA=(XY..XY) 1 
    41        400
    42         40
    43        999
    44         60
    45         20
    50         10
    51         10
    52         10
    53        120
    54         50
    55        550
    56         40
    57         50
    58         10
    60         10
    65         40
    66         30
    67        450
    68        120
    69        170
    70         20
    71         30
    77        120
    78         30
    79        270
    80         90
    81        520
    82        100
    83        160
    84         30
    85         20
    86         10
    87         10
    88         10
    89         10
    90         10
    91        190
    92         60
    93        350
    94        600
    95        550
    96         90
    97        100
    98         20
   103         10
   104         10
   105        180
   106         60
   107        300
   108        340
   109        590
   110        110
   111         40
   115         10
   116         10
   117         30
   118         20
   119        120
   120         80
   121        270
   122        230
   123        160
   124         20
   125         10
   128         10
   129         10
   131         40
   132         20
   133        180
   134         80
   135        230
   136         70
   137         60
   138         10
   145         40
   146         30
   147        300
   148        800
   149        880
   150        270
   151        100
   152         10
   159         40
   160         20
   161        160
   162        200
   163        120
   164         30
   165         20
   173         30
   174         30
   175        140
   176         60
   177         20
   178         10
   179         10
   187         30
   188         30
   189         50
   190         30
   191         10
   201        140
   202         50
   203         90
   204         20
   208         80
   209         20
   215         50
   216         30
   217        480
   218        110
   219         80
   220         20
   229         30
   230         70
   231         20
   232         80
   243        630
   244        140
   245         20
   248         20
   257         50
   258        850
   259        180
   260         20
   261         50
   262         20
   275         10
   276         20
   303        150
   304         50
   305         10
   318        200
   319         50
   320         10