##TITLE=Library Entry 3177
##JCAMP-DX=Revision 4.10 
##DATA TYPE=MASS SPECTRUM
##SAMPLE DESCRIPTION=NIST Mass Spectrometry Data Center, 1990.
##NAMES=HP
##CAS NAME=10-Undecyn-1-ol
##MOLFORM=C11H20O
##CAS REGISTRY NO=2774-84-7
##MP= -300
##BP= -300
##MW= 168
##$RETENTION INDEX=2318
##$CONDENSED SPECTRUM=NO
##NPOINTS= 57
##XYDATA=(XY..XY) 1 
    14          4
    15         12
    16         13
    18         13
    26         29
    27        304
    28         63
    29        309
    31        371
    32         29
    39        382
    40        113
    41        999
    42        153
    43        236
    44         37
    45         34
    50         19
    51         54
    52         46
    53        217
    54        282
    55        703
    56         86
    57        105
    58         14
    63         11
    65         82
    66         95
    67        811
    68        272
    69        236
    70         46
    71        108
    77        104
    79        586
    80        201
    81        583
    82        180
    83         50
    84         18
    85         28
    91         74
    93        291
    94        103
    95        192
    96         45
    97         29
    98         12
   105         14
   107        109
   108         23
   109         54
   111         15
   121         30
   122         11
   135         14