##TITLE=Library Entry 37280
##JCAMP-DX=Revision 4.10 
##DATA TYPE=MASS SPECTRUM
##SAMPLE DESCRIPTION=Exported from NIST MS Search
##NAMES=HP
##CAS NAME=Pregn-5-en-18-ol, 20-amino-3-(methylamino)-, (3.beta.,20S)-
##MOLFORM=C22H38N2O
##CAS REGISTRY NO=27741-48-6
##MP= -300
##BP= -300
##MW= 346
##$RETENTION INDEX=0
##$CONDENSED SPECTRUM=NO
##NPOINTS= 71
##XYDATA=(XY..XY) 1 
    41         70
    42         80
    43         20
    44        500
    45         20
    53         20
    55         50
    56         60
    57         80
    58         10
    65         10
    67         30
    68         10
    69         10
    70        999
    71         50
    77         30
    78         10
    79         30
    80         10
    81         30
    82         10
    83         10
    84         50
    92         70
    93         10
    94         30
    95         10
    96         10
    97         10
   105         30
   106         10
   107         20
   108         20
   109         10
   110         10
   117         20
   118         10
   119         60
   120         10
   121         10
   122         10
   123         10
   129         20
   131         10
   132         20
   133         20
   134         20
   135         10
   144         10
   145         20
   146         10
   147         10
   157         20
   159         20
   160         20
   171         20
   230         10
   241         20
   272        100
   273         30
   274         10
   277        200
   278         60
   290         10
   299         20
   303        100
   304         20
   316         10
   345         20
   346         30