##TITLE=Library Entry 52625
##JCAMP-DX=Revision 4.10 
##DATA TYPE=MASS SPECTRUM
##SAMPLE DESCRIPTION=Chemical Concepts
##NAMES=HP
##CAS NAME=1-Cyclohexanone, 3,5,5-trimethyl-3-vinyl-
##MOLFORM=C11H18O
##CAS REGISTRY NO=27749-07-1
##MP= -300
##BP= -300
##MW= 166
##$RETENTION INDEX=0
##$CONDENSED SPECTRUM=NO
##NPOINTS= 94
##XYDATA=(XY..XY) 1 
    26         13
    27        269
    28         56
    29        238
    30          4
    31          2
    32          4
    38          9
    39        300
    40        100
    41        648
    42         73
    43         81
    44          2
    45          2
    50          9
    51         48
    52         28
    53        229
    54         54
    55        527
    56        356
    57         82
    58          3
    59          3
    61          1
    62          1
    63          6
    64          3
    65         65
    66         29
    67        945
    68        555
    69        241
    70        137
    71         11
    76          1
    77         57
    78          8
    79         74
    80         12
    81        166
    82        587
    83        999
    84         45
    85         12
    87          0
    91         38
    92         15
    93         49
    94         12
    95        479
    96         54
    97         60
    98         11
    99          3
   103          2
   105          9
   106          2
   107         61
   108         28
   109        373
   110        433
   111        118
   112         11
   113          0
   115          1
   117          1
   119          2
   121          6
   122          6
   123        108
   124         21
   125         15
   126          1
   127          1
   133         11
   134          1
   135          6
   137          8
   138         41
   139         19
   140          1
   145          1
   148          1
   151        288
   152         33
   153          4
   163          1
   165          8
   166        839
   167         97
   168          7
   169          0