##TITLE=Library Entry 43022
##JCAMP-DX=Revision 4.10 
##DATA TYPE=MASS SPECTRUM
##SAMPLE DESCRIPTION=M.G.HORNING,INST.FOR LIPID RES,BAYLOR COLL.OF MED,HOUST
ON,TEX
##NAMES=HP
##CAS NAME=4-Hydroxybenzeneacetic acid, 2TMS derivative
##MOLFORM=C14H24O3Si2
##CAS REGISTRY NO=27750-57-8
##MP= -300
##BP= -300
##MW= 296
##$RETENTION INDEX=1648
##$CONDENSED SPECTRUM=NO
##NPOINTS= 77
##XYDATA=(XY..XY) 1 
    40         17
    41          6
    43         26
    44         19
    45         87
    46          6
    47         20
    51          7
    52          8
    55         17
    57          8
    58          6
    59         13
    61         16
    69          8
    72         18
    73        999
    74         89
    75        184
    76         15
    77         18
    78          7
    79         16
    83          6
    85          7
    89         26
    90         16
    91          9
    93         12
    95          7
   103          7
   104          7
   105         10
   117         21
   129          9
   131          7
   133         37
   134          6
   135         12
   147         61
   148         12
   149         35
   150          8
   161          9
   163         43
   164        128
   165         23
   166          7
   169         12
   177         28
   178         15
   179        256
   180         43
   181         13
   187          8
   191         20
   193          9
   206          7
   223          6
   225          7
   237         10
   249          6
   250          7
   251          8
   252        120
   253         42
   254         15
   267         11
   280          6
   281        120
   282         31
   283         15
   294          6
   295          9
   296        143
   297         41
   298         17