##TITLE=Library Entry 43306
##JCAMP-DX=Revision 4.10 
##DATA TYPE=MASS SPECTRUM
##SAMPLE DESCRIPTION=WASHINGTON UNIVERSITY MEDICAL SCHOOL W.R. SHERMAN
##NAMES=HP
##CAS NAME=Homoveratric acid, TMS derivative
##MOLFORM=C13H20O4Si
##CAS REGISTRY NO=27750-60-3
##MP= -300
##BP= -300
##MW= 268
##$RETENTION INDEX=1727
##$CONDENSED SPECTRUM=NO
##NPOINTS= 94
##XYDATA=(XY..XY) 1 
    20          3
    27          5
    28        200
    29          5
    32          4
    39         20
    43         13
    44          8
    45         62
    46          5
    47         17
    50          3
    51         17
    52          4
    53          4
    55          4
    57          6
    58          7
    59         13
    60          4
    61         17
    63         13
    64         10
    65         34
    66          4
    69          3
    72         11
    73        999
    74         80
    75        156
    76         15
    77         36
    78         33
    79         19
    80          5
    89         27
    90         45
    91         30
    92         19
    93          7
   104          4
   105         32
   106         44
   107         67
   108         25
   117          5
   118          8
   119          9
   120          4
   121          6
   127         37
   132          3
   133          3
   134          3
   135         31
   136          8
   137          3
   147          3
   149          8
   150          7
   151        392
   152         40
   153          5
   163         22
   164          6
   165          7
   177          7
   178         20
   179         19
   180          5
   192          3
   193          5
   195          8
   197         18
   198          3
   207          3
   208          8
   209        747
   210        135
   211         36
   212          6
   224          5
   225         42
   226          8
   238         42
   239         12
   240          3
   253        191
   254         37
   255         13
   268        446
   269         92
   270         26
   271          3