##TITLE=Library Entry 41525
##JCAMP-DX=Revision 4.10 
##DATA TYPE=MASS SPECTRUM
##SAMPLE DESCRIPTION=Chemical Concepts
##NAMES=HP
##CAS NAME=3-Methoxyphenylacetic acid, TMS derivative
##MOLFORM=C12H18O3Si
##CAS REGISTRY NO=27750-49-8
##MP= -300
##BP= -300
##MW= 238
##$RETENTION INDEX=1496
##$CONDENSED SPECTRUM=NO
##NPOINTS= 114
##XYDATA=(XY..XY) 1 
    38          1
    39          8
    40          6
    41          2
    42          1
    43         13
    44          9
    45         48
    46          3
    47         21
    48          0
    49          0
    50          2
    51         13
    52          8
    53          1
    54          0
    55          3
    56          0
    57          2
    58          7
    59          8
    60          3
    61         19
    62          2
    63          8
    64          2
    65         21
    66          2
    67          0
    68          0
    69          0
    70          0
    71          1
    72         11
    73        999
    74         91
    75        234
    76         17
    77         33
    78         26
    79          2
    81          0
    82          0
    83          0
    85          0
    87          0
    88          0
    89         61
    90         13
    91         61
    92          6
    93          1
    95          0
   101          0
   103          1
   104          1
   105          8
   106          3
   107          1
   111         19
   112          4
   114          0
   116          0
   117         10
   118          1
   119          4
   120          2
   121         34
   122          3
   123          0
   131          0
   132          0
   133          0
   134          0
   135          2
   136          0
   137          0
   145          0
   147          1
   148          7
   149          5
   150          0
   151          1
   161          0
   162          0
   163          1
   164          2
   165          3
   166          0
   167         14
   168          2
   169          0
   177          2
   178          1
   179         32
   180          8
   181          1
   193          0
   194        105
   195         42
   196          8
   197          1
   207          0
   208          0
   209          0
   221          0
   223        103
   224         19
   225          5
   237          0
   238        128
   239         24
   240          6