##TITLE=Library Entry 43027
##JCAMP-DX=Revision 4.10 
##DATA TYPE=MASS SPECTRUM
##SAMPLE DESCRIPTION=Diagnosis of Organic Acidemias by GC/MS
##NAMES=HP
##CAS NAME=4-Hydroxyphenyllactic acid, 3TMS derivative
##MOLFORM=C18H34O4Si3
##CAS REGISTRY NO=27750-67-0
##MP= -300
##BP= -300
##MW= 398
##$RETENTION INDEX=1920
##$CONDENSED SPECTRUM=NO
##NPOINTS= 40
##XYDATA=(XY..XY) 1 
    43         16
    44         18
    45        140
    46          2
    47         69
    58          2
    59         20
    72          2
    73        999
    74         87
    75         87
    91         16
   105          2
   117          2
   119         22
   131         10
   133         37
   135          6
   147        237
   148         36
   149         34
   151          2
   163         16
   177         14
   179        844
   180        132
   181         34
   193         18
   219         10
   281         39
   292         12
   293         33
   294          6
   308        155
   309         33
   310         10
   355         27
   383         14
   384          4
   398          6