##TITLE=Library Entry 90312
##JCAMP-DX=Revision 4.10 
##DATA TYPE=MASS SPECTRUM
##SAMPLE DESCRIPTION=J.E. WILKINSON S-CUBED, SAN DIEGO, CA.
##NAMES=HP
##CAS NAME=2-Thiophenemethanamine
##MOLFORM=C5H7NS
##CAS REGISTRY NO=27757-85-3
##MP= -300
##BP= -300
##MW= 113
##$RETENTION INDEX=1237
##$CONDENSED SPECTRUM=NO
##NPOINTS= 66
##XYDATA=(XY..XY) 1 
    41         76
    42         19
    43          8
    44          3
    45        321
    46         19
    47         21
    48          5
    49         20
    50         62
    51         71
    52         62
    53        124
    54         48
    56         33
    57        104
    58        126
    59         29
    60         18
    61         13
    62         16
    63         22
    64          7
    65          8
    66          8
    67         18
    68         48
    69         83
    70         36
    71         26
    72          4
    73          6
    74          1
    75          6
    76          9
    77          1
    78         31
    79          6
    80        117
    81         39
    82         32
    83         28
    84         87
    85        511
    86         43
    87         25
    88          1
    92          1
    93          9
    94          1
    95         19
    96         38
    97        466
    98         31
    99         22
   100          0
   107          0
   108          0
   109         19
   110         51
   111         39
   112        924
   113        999
   114        112
   115         47
   116          2