##TITLE=Library Entry 43139
##JCAMP-DX=Revision 4.10 
##DATA TYPE=MASS SPECTRUM
##SAMPLE DESCRIPTION=NIST Mass Spectrometry Data Center
##NAMES=HP
##CAS NAME=3-Phenyllactic acid, 2TMS derivative
##MOLFORM=C15H26O3Si2
##CAS REGISTRY NO=27750-45-4
##MP= -300
##BP= -300
##MW= 310
##$RETENTION INDEX=1599
##$CONDENSED SPECTRUM=NO
##NPOINTS= 116
##XYDATA=(XY..XY) 1 
    14          2
    18         15
    27          2
    28          3
    29          8
    30          1
    31          5
    39         11
    41          4
    43         31
    44         17
    45        104
    46         10
    47         30
    50          6
    51          6
    52          8
    54          2
    55          8
    56          3
    57         10
    58         12
    59         27
    60          8
    62          2
    63          2
    64          3
    65         16
    66          6
    67          3
    70          4
    72         27
    73        999
    74         83
    75        150
    76          2
    77         33
    79          5
    84          2
    85          4
    88          1
    89          8
    90         10
    91        160
   100          1
   101         10
   102          7
   103         62
   104         23
   105          3
   106          1
   111          1
   113          2
   116          7
   117         19
   118         11
   119          1
   120          6
   121         13
   122          4
   123          1
   128          2
   129          2
   130          1
   131         40
   132          7
   133         61
   135         27
   136          2
   137          5
   138          1
   144          2
   147        647
   148         96
   149         65
   150          2
   157          1
   159          7
   161         14
   162          1
   163         34
   165          5
   175          4
   176          4
   177          9
   179         10
   180          1
   189          2
   190         19
   191         19
   192          4
   193        770
   194        111
   195         37
   196          5
   197          2
   204          4
   205         19
   206          6
   208          2
   209          2
   218          1
   219         67
   220        149
   221         16
   222          5
   223          5
   235          4
   251          1
   253          2
   267         58
   268         13
   269          4
   295         50
   296          6
   297          4