##TITLE=Library Entry 42917
##JCAMP-DX=Revision 4.10 
##DATA TYPE=MASS SPECTRUM
##SAMPLE DESCRIPTION=NIST Mass Spectrometry Data Center
##NAMES=HP
##CAS NAME=3-Hydroxyphenylacetic acid, 2TMS derivative
##MOLFORM=C14H24O3Si2
##CAS REGISTRY NO=27750-55-6
##MP= -300
##BP= -300
##MW= 296
##$RETENTION INDEX=1618
##$CONDENSED SPECTRUM=NO
##NPOINTS= 165
##XYDATA=(XY..XY) 1 
    27          1
    29          2
    31          1
    39          4
    42          2
    43         23
    44         11
    45         85
    46          6
    47         26
    48          1
    49          1
    50          1
    51          6
    52          3
    53          4
    54          1
    55          5
    56          1
    57          6
    58         14
    59         25
    60          6
    61         24
    62          4
    63         13
    64          4
    65          4
    66          1
    67          4
    68          4
    69          3
    70          3
    71          4
    73        999
    74        109
    75        286
    76         22
    77         28
    78         12
    79          9
    80          1
    81          3
    82          6
    83          6
    84          1
    85          5
    86          1
    87          3
    88          3
    89         57
    90         33
    91         18
    92          2
    93          3
    94          1
    95          6
    96          2
    97          2
    98          1
    99          4
   101          2
   102          4
   103         20
   104         10
   105         73
   106          8
   107          9
   108          1
   109          5
   110          1
   111          2
   113          1
   115          7
   116          3
   117         22
   118          5
   119         13
   120          3
   121         14
   122          2
   123          3
   125          1
   129          1
   130          1
   131         14
   132          3
   133         72
   134         14
   135         41
   136          6
   137          9
   138          1
   139          1
   143          2
   145          7
   147        295
   148         53
   149        119
   150         16
   151          9
   152          1
   159          2
   161         32
   162          7
   163         48
   164        440
   165         80
   166         21
   167          3
   175          4
   176          1
   177         31
   178          6
   179         48
   180         23
   181          7
   182          1
   189          1
   191         64
   192         11
   193         12
   194          2
   195          5
   196          1
   205          1
   206          5
   207          6
   208          4
   209         10
   210          2
   211          1
   219          2
   221          5
   222          1
   223          4
   224          1
   225          6
   226          1
   233          1
   235          2
   236          2
   237         23
   238          5
   239          2
   249          2
   250          1
   252         95
   253         25
   254         10
   255          2
   265         10
   266          2
   267          2
   279          1
   281        268
   282         67
   283         27
   284          4
   285          1
   296        281
   297         73
   298         29
   299          5
   300          1