##TITLE=Library Entry 42712
##JCAMP-DX=Revision 4.10 
##DATA TYPE=MASS SPECTRUM
##SAMPLE DESCRIPTION=NIST Mass Spectrometry Data Center
##NAMES=HP
##CAS NAME=2-Hydroxybenzeneacetic acid, 2TMS derivative
##MOLFORM=C14H24O3Si2
##CAS REGISTRY NO=27750-52-3
##MP= -300
##BP= -300
##MW= 296
##$RETENTION INDEX=1572
##$CONDENSED SPECTRUM=NO
##NPOINTS= 167
##XYDATA=(XY..XY) 1 
    15          1
    27          2
    28          1
    29          5
    31          2
    39          4
    41          1
    42          2
    43         34
    44         19
    45        144
    46         10
    47         25
    48          1
    49          1
    50          2
    51         10
    52          4
    53          5
    54          1
    55          6
    56          2
    57          8
    58         14
    59         30
    60          6
    61         19
    62          3
    63          9
    64          3
    65          6
    66          2
    67          3
    68          2
    69          3
    70          4
    71          5
    73        999
    74        133
    75        180
    76         14
    77         39
    78         22
    79         11
    80          1
    81          2
    82          3
    83          3
    85          4
    86          1
    87          3
    88          2
    89         29
    90         16
    91         33
    92          3
    93          3
    94          1
    95          4
    96          1
    97          1
    98          1
    99          1
   101          2
   102          5
   103         26
   104         11
   105         50
   106         16
   107          5
   108          1
   109          3
   110          1
   111          3
   113          1
   115          9
   116          3
   117         15
   118          6
   119         35
   121         18
   122          2
   123          5
   124          1
   129          1
   131         20
   132          4
   133         80
   134         36
   135         67
   136          9
   137         15
   138          2
   139          1
   140          1
   143          1
   145          6
   147        597
   148        114
   149        346
   150         49
   151         31
   152          4
   153          1
   159          2
   161         35
   162          7
   163         68
   164        313
   165         60
   166         16
   167          2
   175          2
   177         45
   178         10
   179         65
   180         12
   181          8
   182          1
   183          1
   191          1
   193          4
   194          1
   195         11
   196          2
   197          1
   205          1
   206         12
   207          6
   208          8
   209         42
   210          8
   211          4
   212          1
   219          1
   221          4
   222          1
   223          6
   224          2
   225         22
   226          5
   227          2
   233          1
   235         14
   236          4
   237         77
   238         17
   239          8
   240          1
   251          2
   253        390
   254         95
   255         38
   256          6
   257          1
   265          1
   267          2
   281        154
   282         39
   283         16
   284          3
   285          1
   296        314
   297         83
   298         33
   299          6
   300          1