##TITLE=Library Entry 78627
##JCAMP-DX=Revision 4.10 
##DATA TYPE=MASS SPECTRUM
##SAMPLE DESCRIPTION=Chemical Concepts
##NAMES=HP
##CAS NAME=3-Benzoyluracil
##MOLFORM=C11H8N2O3
##CAS REGISTRY NO=2775-87-3
##MP= -300
##BP= -300
##MW= 216
##$RETENTION INDEX=0
##$CONDENSED SPECTRUM=NO
##NPOINTS= 48
##XYDATA=(XY..XY) 1 
    34          5
    36          6
    37         12
    38         35
    39         59
    40        195
    41         66
    42         33
    43         23
    44         34
    48          2
    50        137
    51        320
    53         15
    54          5
    55          6
    56          4
    57          3
    58          3
    61          4
    62          5
    63          7
    64          5
    65          7
    66          5
    67         12
    68         15
    69         19
    70          9
    73          7
    74         29
    75         27
    77        690
    78         31
    79          3
    89          2
    93          2
    94          3
    95          7
    96         11
   105        999
   106         78
   108          2
   112         22
   121          4
   122          3
   216         34
   217          4