##TITLE=Library Entry 28837
##JCAMP-DX=Revision 4.10 
##DATA TYPE=MASS SPECTRUM
##SAMPLE DESCRIPTION=C.Conn ET AL.J.Foronsic Sci.,41,645(1996)
##NAMES=HP
##CAS NAME=Methamphetamine acetylated
##MOLFORM=C12H17NO
##CAS REGISTRY NO=27765-80-6
##MP= -300
##BP= -300
##MW= 191
##$RETENTION INDEX=1630
##$CONDENSED SPECTRUM=NO
##NPOINTS= 50
##XYDATA=(XY..XY) 1 
    27         22
    28         48
    29         19
    30         67
    39         63
    40         10
    41         33
    42        136
    43        218
    50         10
    51         35
    52          6
    53          2
    54          7
    55          2
    56         97
    58        999
    59         57
    62          5
    63         22
    65         88
    66          6
    71          2
    72          2
    74         10
    75          4
    77         21
    78          9
    79          5
    89         24
    91        162
    92         17
   100        780
   101         49
   102          6
   103          9
   104          5
   105          5
   115         34
   116         11
   117         56
   118         38
   119         12
   129          2
   132          6
   134         21
   146          2
   148          7
   176          2
   191         19