##TITLE=Library Entry 73230
##JCAMP-DX=Revision 4.10 
##DATA TYPE=MASS SPECTRUM
##SAMPLE DESCRIPTION=O A MAMER, MCGILL UNIVERSITY, MONTRE
##NAMES=HP
##CAS NAME=Phenmetrazine, TMS derivative
##MOLFORM=C14H23NOSi
##CAS REGISTRY NO=27765-86-2
##MP= -300
##BP= -300
##MW= 249
##$RETENTION INDEX=0
##$CONDENSED SPECTRUM=NO
##NPOINTS= 90
##XYDATA=(XY..XY) 1 
    27         22
    28         42
    29         22
    30          8
    31         26
    39         19
    41         30
    42         79
    43         68
    44         34
    45        164
    46         12
    47         10
    50         10
    51         23
    52          9
    54         19
    55         17
    56         38
    57         13
    58         38
    59        236
    60         20
    61         14
    63          8
    65         12
    68         11
    69         11
    70         76
    71         32
    72         40
    73        638
    74         60
    75         43
    76          7
    77         54
    78         14
    79         15
    82         16
    85          9
    86         34
    87         23
    89         14
    90         12
    91         56
    92          7
    96         16
    99          9
   100        999
   101        106
   102         45
   103         24
   104          8
   105         57
   106         11
   113          7
   114        241
   115        616
   116         86
   117         65
   118         27
   119          9
   121          9
   128         73
   129         11
   130         13
   131         11
   133          7
   135          9
   142         17
   143        368
   144         64
   145         12
   149         15
   158         10
   162         11
   173         14
   177          8
   188         10
   228          7
   234         96
   235         20
   236         11
   241         17
   247         15
   248          8
   249        109
   250         24
   251          7
   252          8