##TITLE=Library Entry 37240
##JCAMP-DX=Revision 4.10 
##DATA TYPE=MASS SPECTRUM
##SAMPLE DESCRIPTION=Japan AIST/NIMC Database- Spectrum MS-IW- 742
##NAMES=HP
##CAS NAME=Bicyclo[3.1.1]heptan-3-ol, 2,6,6-trimethyl-, (1.alpha.,2.beta.,3.
alpha.,5.alpha.)-
##MOLFORM=C10H18O
##CAS REGISTRY NO=27779-29-9
##MP= -300
##BP= -300
##MW= 154
##$RETENTION INDEX=1179
##$CONDENSED SPECTRUM=NO
##NPOINTS= 93
##XYDATA=(XY..XY) 1 
    15          7
    18          2
    26          2
    27         56
    28          8
    29         79
    30          2
    31         10
    38          2
    39         72
    40         11
    41        279
    42         64
    43        548
    44         16
    45          9
    48          1
    50          3
    51         13
    52          6
    53         51
    54         16
    55        405
    56         59
    57         63
    58         16
    59          8
    60          1
    61          1
    62          2
    63          4
    64          1
    65         20
    66          9
    67        124
    68         37
    69        462
    70        999
    71        151
    72         14
    73          1
    77         44
    78          9
    79         94
    80         45
    81        317
    82         67
    83        208
    84        520
    85         73
    86          4
    89          1
    91         49
    92         70
    93        227
    94         48
    95        205
    96         37
    97         29
    98        121
    99         63
   100          5
   103          2
   104          1
   105         17
   106          6
   107         60
   108         13
   109          9
   110         89
   111         27
   112          6
   113          6
   115          1
   117          1
   119          5
   120          1
   121        108
   122         10
   123          5
   124          1
   125          2
   126          1
   134          2
   135          3
   136         51
   137         10
   138          1
   139         11
   140          1
   152          2
   153          1
   154          1