##TITLE=Library Entry 19351
##JCAMP-DX=Revision 4.10 
##DATA TYPE=MASS SPECTRUM
##SAMPLE DESCRIPTION=NIST Mass Spectrometry Data Center
##NAMES=HP
##CAS NAME=6-Octadecenoic acid, methyl ester, (Z)-
##MOLFORM=C19H36O2
##CAS REGISTRY NO=2777-58-4
##MP= -300
##BP= -300
##MW= 296
##$RETENTION INDEX=2105
##$CONDENSED SPECTRUM=NO
##NPOINTS= 214
##XYDATA=(XY..XY) 1 
    15         16
    26          2
    27         73
    28         21
    29        197
    30          5
    31          6
    33          2
    38          2
    39        121
    40         28
    41        768
    42        128
    43        716
    44         28
    45         24
    46          1
    47          1
    48          1
    50          2
    51          9
    52          9
    53        121
    54        295
    55        999
    56        203
    57        386
    58         22
    59        294
    60         11
    61          5
    62          1
    63          2
    64          2
    65         44
    66         35
    67        526
    68        313
    69        508
    70        137
    71        162
    72         21
    73         51
    74        755
    75        106
    76          7
    77         49
    78         21
    79        214
    80        131
    81        556
    82        320
    83        495
    84        640
    85        155
    86         13
    87        401
    88         44
    89          4
    90          1
    91         56
    92         16
    93         85
    94         90
    95        428
    96        630
    97        556
    98        444
    99         69
   100         20
   101        100
   102         11
   103          3
   104          1
   105         22
   106         12
   107         39
   108         46
   109        183
   110        298
   111        265
   112         90
   113         58
   114         63
   115         87
   116         12
   117          4
   118          4
   119         46
   120         17
   121         57
   122         24
   123        245
   124        136
   125        112
   126         25
   127         54
   128         63
   129         43
   130         13
   131          3
   132          2
   133         34
   134         36
   135         47
   136         16
   137        115
   138         89
   139         53
   140         12
   141         89
   142         18
   143         35
   144          5
   145          1
   146          1
   147         21
   148         26
   149         24
   150         12
   151         65
   152         76
   153         29
   154          5
   155         19
   156          5
   157         12
   158          2
   159          1
   161         14
   162          7
   163         12
   164         12
   165         35
   166         61
   167         19
   168          5
   169         33
   170          5
   171          9
   172          2
   173          1
   175          8
   176          3
   177          6
   178          5
   179         18
   180        123
   181         25
   182          5
   183         17
   184          2
   185          5
   186          2
   187          1
   189          5
   190          2
   191          3
   192          2
   193         14
   194         18
   195          5
   196          1
   197          3
   198          1
   199         10
   200          6
   201          1
   203          2
   204          1
   205          2
   206          2
   207         13
   208         10
   209          5
   210          2
   211          1
   213          9
   214          5
   215          1
   217          2
   218          1
   220         36
   221         31
   222        130
   223         29
   224          3
   225          1
   227          3
   228          2
   229          1
   233          1
   235         18
   236         14
   237          3
   239          1
   241          2
   245          1
   246         13
   247         15
   248          3
   249          3
   250          1
   253          7
   254          1
   255          1
   264        158
   265         70
   266         11
   267          3
   278          2
   296         30
   297          6
   298          1