##TITLE=Library Entry 50014
##JCAMP-DX=Revision 4.10 
##DATA TYPE=MASS SPECTRUM
##SAMPLE DESCRIPTION=Japan AIST/NIMC Database- Spectrum MS-NW-8226
##NAMES=HP
##CAS NAME=Undec-10-ynoic acid
##MOLFORM=C11H18O2
##CAS REGISTRY NO=2777-65-3
##MP= -300
##BP= -300
##MW= 182
##$RETENTION INDEX=0
##$CONDENSED SPECTRUM=NO
##NPOINTS= 121
##XYDATA=(XY..XY) 1 
    15          4
    18          2
    26          6
    27        148
    28         36
    29        141
    30          5
    31         16
    37          2
    38          8
    39        188
    40         40
    41        459
    42         66
    43        199
    44         12
    45         93
    46          2
    47          2
    50          9
    51         27
    52         18
    53        127
    54        430
    55        653
    56         57
    57         55
    58         22
    59         99
    60        282
    61         23
    62          3
    63          6
    64          1
    65         38
    66         36
    67        554
    68        340
    69        180
    70         38
    71         42
    72         14
    73        128
    74         15
    75          2
    77         38
    78         14
    79        180
    80        169
    81        999
    82        290
    83        176
    84         75
    85         45
    86         12
    87         36
    88          3
    91         27
    92         11
    93        119
    94        110
    95        458
    96        133
    97         93
    98         33
    99         28
   100         24
   101         28
   102          3
   103          1
   104          3
   105         12
   106          6
   107         91
   108         40
   109        113
   110         29
   111         29
   112         24
   113         13
   114          8
   115          3
   117          3
   118          4
   119          4
   120         23
   121         51
   122        148
   123         60
   124         48
   125         45
   126         44
   127         28
   128          5
   129          1
   131          7
   133          2
   135         27
   136         32
   137          7
   138          2
   139          9
   140         20
   141          7
   142          3
   143          4
   145          1
   146          2
   147          5
   148          1
   149         19
   150          2
   153          5
   154          4
   163          1
   164          2
   165          5
   166          1
   167          3
   182          4
   183          2