##TITLE=Library Entry 44613
##JCAMP-DX=Revision 4.10 
##DATA TYPE=MASS SPECTRUM
##SAMPLE DESCRIPTION=NIST Mass Spectrometry Data Center
##NAMES=HP
##CAS NAME=10-Undecynoic acid, methyl ester
##MOLFORM=C12H20O2
##CAS REGISTRY NO=2777-66-4
##MP= -300
##BP= -300
##MW= 196
##$RETENTION INDEX=1446
##$CONDENSED SPECTRUM=NO
##NPOINTS= 129
##XYDATA=(XY..XY) 1 
    14          1
    15         24
    26          6
    27         83
    28         26
    29         85
    30          4
    31         11
    33          3
    37          3
    38         13
    39        225
    40         51
    41        431
    42         97
    43        241
    44         12
    45         36
    46          2
    47          1
    48          1
    49          1
    50         17
    51         48
    52         32
    53        178
    54        206
    55        730
    56         61
    57         60
    59        350
    60         11
    61          5
    62          3
    63         11
    64          3
    65         68
    66         42
    67        442
    68        191
    69        165
    70         16
    71         28
    72          9
    73         69
    74        999
    75         79
    76          7
    77         74
    78         24
    79        255
    80        158
    81        679
    82        172
    83        137
    84         64
    85         37
    87        307
    88         38
    89          4
    91         71
    92         20
    93        155
    94        127
    95        338
    96        104
    97         91
    98         29
    99         21
   100         12
   101         47
   102          4
   103          3
   104          6
   105         37
   106          9
   107        131
   108         89
   109         95
   110         32
   111         29
   112          7
   113         24
   114         22
   115         29
   116          4
   117          9
   118          9
   119         21
   120         46
   121         99
   122        194
   123         79
   124         37
   125         36
   126         14
   127         11
   128          5
   129          7
   130          1
   131         14
   132          2
   133          3
   135         41
   136         47
   137         11
   138          6
   139         12
   140         11
   141         13
   142          2
   143          1
   145          3
   146          5
   147         13
   148          2
   149         25
   150          3
   153          6
   154          2
   155          2
   156          1
   157          2
   163          3
   164          3
   165         12
   166          1
   167          2
   181          1