##TITLE=Library Entry 60588
##JCAMP-DX=Revision 4.10 
##DATA TYPE=MASS SPECTRUM
##SAMPLE DESCRIPTION=Chemical Concepts
##NAMES=HP
##CAS NAME=Glycine, N-[N-[(phenylmethoxy)carbonyl]-l-phenylalanyl]-, ethyl e
ster
##MOLFORM=C21H24N2O5
##CAS REGISTRY NO=2778-34-9
##MP= -300
##BP= -300
##MW= 384
##$RETENTION INDEX=0
##$CONDENSED SPECTRUM=NO
##NPOINTS= 132
##XYDATA=(XY..XY) 1 
    25          4
    27         29
    28         34
    29         54
    30         22
    31          6
    37          2
    38          5
    39         25
    40          3
    41         11
    42          6
    43          5
    44          2
    45          2
    49          1
    50         17
    51         38
    52         11
    53          6
    55          4
    56         37
    57          7
    58          2
    60          1
    61          3
    62          8
    63         25
    64          8
    65         66
    66          5
    70          2
    73          1
    74         23
    75          5
    76          5
    77         65
    78         20
    79         80
    80          9
    81          1
    83          6
    84          3
    85          8
    86          2
    87          1
    88          1
    89         27
    90         25
    91        999
    92         86
    93          5
   102         24
   103         21
   104         21
   105         14
   106          2
   107         46
   108         72
   109          6
   112         19
   113          3
   115          2
   116          4
   117         16
   118         20
   119         15
   120         27
   121          3
   128         23
   129          3
   130         10
   131         27
   132         22
   133          2
   145          3
   146         52
   147          6
   148          1
   153          1
   158          1
   159          2
   160          4
   161          1
   162          1
   163          3
   164          7
   165          1
   173          2
   174          4
   175         27
   176          3
   181          1
   185          7
   186          2
   187          2
   188          0
   191          1
   192          1
   193          1
   194          0
   199          0
   201          5
   202         24
   204          7
   205          1
   209          1
   210         39
   211          8
   212          0
   229          4
   230         12
   231         13
   233         44
   234         26
   235          4
   238          0
   249         10
   251          1
   254         15
   255          2
   276         68
   277         17
   278          2
   282          0
   293          0
   339          3
   340          0
   341          0
   367          0
   384          2
   385          1