##TITLE=Library Entry 60559
##JCAMP-DX=Revision 4.10 
##DATA TYPE=MASS SPECTRUM
##SAMPLE DESCRIPTION=Japan AIST/NIMC Database- Spectrum MS-NW-7278
##NAMES=HP
##CAS NAME=Tetracyclo[3.2.0.0(2,7).0(4,6)]heptane
##MOLFORM=C7H8
##CAS REGISTRY NO=278-06-8
##MP= -300
##BP= -300
##MW= 92
##$RETENTION INDEX=0
##$CONDENSED SPECTRUM=NO
##NPOINTS= 44
##XYDATA=(XY..XY) 1 
    25          1
    26          9
    27         24
    31          1
    36          1
    37         13
    38         32
    39        130
    40         46
    41         14
    42          1
    43          5
    44          3
    45         13
    46          1
    49          5
    50         29
    51         52
    52         18
    53         17
    60          1
    61         10
    62         23
    63         57
    64         15
    65        236
    66        265
    67         15
    73          1
    74          5
    75          3
    76          2
    77         12
    78          2
    84          1
    85          3
    86          4
    87          3
    89         32
    90         10
    91        999
    92        301
    93         19
    94          1