##TITLE=Library Entry 33599
##JCAMP-DX=Revision 4.10 
##DATA TYPE=MASS SPECTRUM
##SAMPLE DESCRIPTION=CARL DJERASSI DEPT OF CHEM STANFORD UNIV STANFORD CALIF
 94305
##NAMES=HP
##CAS NAME=3-Oxatricyclo[3.2.2.0(2,4)]nonane
##MOLFORM=C8H12O
##CAS REGISTRY NO=278-84-2
##MP= -300
##BP= -300
##MW= 124
##$RETENTION INDEX=0
##$CONDENSED SPECTRUM=NO
##NPOINTS= 45
##XYDATA=(XY..XY) 1 
    41        440
    42         50
    43         30
    44         10
    50         40
    51        100
    52         40
    53        200
    54        330
    55        310
    56         20
    57        810
    58         30
    62         20
    63         40
    64         10
    65        100
    66        100
    67        580
    68        999
    69         60
    70        130
    77        190
    78        770
    79        340
    80        820
    81        230
    82         50
    83         90
    91        290
    92         40
    93        150
    94         40
    95        140
    96         60
   105         40
   106        220
   107         30
   108         20
   109         40
   120         30
   122         50
   123         10
   124        330
   125         30