##TITLE=Library Entry 62043
##JCAMP-DX=Revision 4.10 
##DATA TYPE=MASS SPECTRUM
##SAMPLE DESCRIPTION=D. P. MAIER, KODAK RESEARCH LABORATORIES, ROCHESTER,N.Y
.
##NAMES=HP
##CAS NAME=3H-Pyrazol-3-one, 2,4-dihydro-5-methyl-2-phenyl-4-(phenylimino)-
##MOLFORM=C16H13N3O
##CAS REGISTRY NO=27807-95-0
##MP= -300
##BP= -300
##MW= 263
##$RETENTION INDEX=0
##$CONDENSED SPECTRUM=NO
##NPOINTS= 55
##XYDATA=(XY..XY) 1 
    28          7
    37          4
    38         15
    39         34
    40          9
    41         19
    42          4
    50         34
    51        114
    52         22
    53          3
    54          1
    56          2
    62          4
    63         34
    64         95
    65         28
    66          8
    67          4
    69          2
    74          7
    75         11
    76         38
    77        258
    78         26
    88          1
    89          1
    90         12
    91        999
    92         76
    93         30
    94          1
   102          4
   103         83
   104         15
   105         15
   106          1
   118          9
   119         45
   120          3
   128          5
   129          3
   130          7
   131          3
   132        874
   133         76
   134          3
   158          2
   174          3
   194          6
   235         19
   262          2
   263        646
   264        121
   265         16