##TITLE=Library Entry 5513
##JCAMP-DX=Revision 4.10 
##DATA TYPE=MASS SPECTRUM
##SAMPLE DESCRIPTION=CARL DJERASSI DEPT OF CHEM STANFORD UNIV STANFORD CALIF
 94305
##NAMES=HP
##CAS NAME=1,5-Hexadiene-3,4-diol, 3,4-dimethyl-
##MOLFORM=C8H14O2
##CAS REGISTRY NO=2781-29-5
##MP= -300
##BP= -300
##MW= 142
##$RETENTION INDEX=0
##$CONDENSED SPECTRUM=NO
##NPOINTS= 53
##XYDATA=(XY..XY) 1 
    26         50
    27        420
    28        120
    29         90
    30         30
    31         20
    32         10
    38         20
    39        150
    40         30
    41        190
    42        130
    43        999
    44        150
    45         30
    50         30
    51         40
    52         20
    53        120
    54         40
    55        380
    56         30
    57         60
    58        160
    59         60
    65         20
    66         10
    67         20
    68         10
    69         50
    70        110
    71        290
    72        200
    73        130
    74         30
    77         40
    78         10
    79         60
    80         20
    81        120
    82         60
    83         10
    84        180
    85        100
    86         20
    91         30
    93         30
    97         10
   108         10
   109        100
   110         40
   124         30
   125         20