##TITLE=Library Entry 62803
##JCAMP-DX=Revision 4.10 
##DATA TYPE=MASS SPECTRUM
##SAMPLE DESCRIPTION=NIST Mass Spectrometry Data Center, 1994
##NAMES=HP
##CAS NAME=3',4'-Dichlorophenylacetanilide
##MOLFORM=C14H11Cl2NO
##CAS REGISTRY NO=27816-82-6
##MP= -300
##BP= -300
##MW= 279
##$RETENTION INDEX=0
##$CONDENSED SPECTRUM=NO
##NPOINTS= 91
##XYDATA=(XY..XY) 1 
    17          3
    18          5
    26          2
    27          7
    28          8
    35          3
    36          4
    37         12
    38         28
    39        138
    40         17
    41         28
    42          3
    44          2
    46          7
    47          3
    49          9
    50         34
    51         57
    52         22
    53          4
    60          1
    61         14
    62         56
    63        125
    64         38
    65        280
    66         16
    72          9
    73         33
    74         20
    75         30
    76          7
    77          7
    78          5
    83          7
    84          5
    85          9
    86          5
    87          8
    88         14
    89         79
    90        131
    91        999
    92        127
    93          8
    97         20
    98         11
    99         18
   100          6
   101          5
   107          7
   109         26
   110          6
   111          9
   118        261
   119         27
   120          2
   124         36
   125         38
   126         21
   127         13
   128          5
   133         53
   134          6
   135         32
   136          3
   137          5
   145         15
   147          9
   151          1
   161        501
   162         68
   163        324
   164         29
   165         52
   166          4
   180          5
   181          4
   187         21
   188          8
   189         15
   190          5
   191          3
   214          2
   279        162
   280         25
   281        108
   282         17
   283         18
   284          2