##TITLE=Library Entry 48908
##JCAMP-DX=Revision 4.10 
##DATA TYPE=MASS SPECTRUM
##SAMPLE DESCRIPTION=Institute of Organic Chemistry, Novosibirsk, USSR 1988
##NAMES=HP
##CAS NAME=Tetrahydrophthalimide
##MOLFORM=C8H9NO2
##CAS REGISTRY NO=27813-21-4
##MP= -300
##BP= -300
##MW= 151
##$RETENTION INDEX=0
##$CONDENSED SPECTRUM=NO
##NPOINTS= 35
##XYDATA=(XY..XY) 1 
    30        226
    31         42
    32         51
    38         29
    39        256
    40         37
    41         32
    44         60
    45         25
    50         73
    51        147
    52        115
    53         87
    54         65
    63         21
    65         40
    66         20
    73         48
    76         28
    77        259
    78        195
    79        999
    80        693
    81         51
    96         40
   104         20
   105         33
   106         44
   107         36
   108         35
   122         97
   123        124
   124         21
   151        471
   152         46