##TITLE=Library Entry 15935
##JCAMP-DX=Revision 4.10 
##DATA TYPE=MASS SPECTRUM
##SAMPLE DESCRIPTION=Japan AIST/NIMC Database- Spectrum MS-NW-1872
##NAMES=HP
##CAS NAME=Thiourea, tetramethyl-
##MOLFORM=C5H12N2S
##CAS REGISTRY NO=2782-91-4
##MP= -300
##BP= -300
##MW= 132
##$RETENTION INDEX=1872
##$CONDENSED SPECTRUM=NO
##NPOINTS= 69
##XYDATA=(XY..XY) 1 
    13          1
    14          9
    15        179
    16          2
    26          5
    27         20
    28         75
    29         11
    30         29
    32         16
    33          3
    34          2
    35          1
    38          3
    39          6
    40         29
    41         43
    42        386
    43         79
    44        999
    45         84
    46         20
    47         68
    48          3
    49          3
    51          1
    52          3
    53          4
    54          9
    55          9
    56         74
    57          5
    58         37
    59          9
    60          4
    61         21
    63          1
    65          3
    66          2
    67          1
    68          1
    69         60
    70         23
    71         18
    72        140
    73        204
    74        541
    75         24
    76         37
    77          1
    83          1
    84          1
    85        186
    86          9
    87         14
    88        892
    89        206
    90         58
    91          9
   100          5
   102          1
   103          6
   115          2
   116          2
   117          2
   132        782
   133         57
   134         36
   135          2