##TITLE=Library Entry 22701
##JCAMP-DX=Revision 4.10 
##DATA TYPE=MASS SPECTRUM
##SAMPLE DESCRIPTION=NIST Mass Spectrometry Data Center
##NAMES=HP
##CAS NAME=Ethyl 2-hexenoate, trans-
##MOLFORM=C8H14O2
##CAS REGISTRY NO=27829-72-7
##MP= -300
##BP= -300
##MW= 142
##$RETENTION INDEX=1049
##$CONDENSED SPECTRUM=NO
##NPOINTS= 70
##XYDATA=(XY..XY) 1 
    13          2
    15         59
    17          1
    18          6
    19          3
    21          1
    26         68
    27        482
    29        579
    30         19
    31         24
    36          1
    37         11
    38         43
    39        376
    40        127
    41        471
    42        169
    43        121
    44          8
    45         66
    49          3
    50          1
    51         15
    52         29
    53         13
    55         89
    56        999
    57         61
    58         62
    59         10
    60         42
    61         43
    62          9
    63          5
    64          6
    65          1
    66         21
    67         11
    68         59
    69        284
    70        169
    71         36
    73         65
    74        343
    75         16
    77          2
    79          1
    81          3
    82         65
    83         13
    85         15
    86         39
    87         33
    88         16
    89         34
    90          1
    95          1
    97         20
    99        679
   100        554
   101         46
   102         69
   109          4
   111          1
   114         37
   115         95
   127         19
   128         16
   143         28