##TITLE=Library Entry 20266
##JCAMP-DX=Revision 4.10 
##DATA TYPE=MASS SPECTRUM
##SAMPLE DESCRIPTION=Exported from NIST MS Search
##NAMES=HP
##CAS NAME=11-Dodecen-1-ol, 2,4,6-trimethyl-, (R,R,R)-
##MOLFORM=C15H30O
##CAS REGISTRY NO=27829-54-5
##MP= -300
##BP= -300
##MW= 226
##$RETENTION INDEX=0
##$CONDENSED SPECTRUM=NO
##NPOINTS= 89
##XYDATA=(XY..XY) 1 
    16          4
    18         12
    27         83
    28         15
    29        154
    31        115
    39        106
    40         10
    41        613
    42        115
    43        401
    44         21
    45        103
    51         10
    53         57
    54         72
    55        999
    56        204
    57        348
    58         86
    59         69
    60          7
    65          9
    66          9
    67        119
    68        242
    69        924
    70        148
    71        177
    72         40
    73         12
    74          7
    77          7
    79         21
    81        212
    82        434
    83        709
    84        124
    85         87
    87          4
    91          9
    93          6
    94         10
    95        171
    96        124
    97        242
    98         60
    99         69
   100         24
   101         63
   109        104
   110        139
   111        192
   112         36
   113         27
   114          6
   115         22
   123        184
   124         51
   125         78
   126         62
   127         27
   129          1
   135         15
   136          4
   137         28
   138          6
   141         71
   142         12
   151         57
   152         15
   153        169
   154         24
   155          4
   165         10
   166         12
   167          9
   168         83
   169         51
   170          9
   171          6
   179          4
   193         12
   195         12
   205          6
   207          1
   208          1
   225          7
   226          9