##TITLE=Library Entry 11397
##JCAMP-DX=Revision 4.10 
##DATA TYPE=MASS SPECTRUM
##SAMPLE DESCRIPTION=Chemical Concepts
##NAMES=HP
##CAS NAME=.alpha.-l-Mannopyranose, 6-deoxy-, tetraacetate
##MOLFORM=C14H20O9
##CAS REGISTRY NO=27821-11-0
##MP= -300
##BP= -300
##MW= 332
##$RETENTION INDEX=0
##$CONDENSED SPECTRUM=NO
##NPOINTS= 120
##XYDATA=(XY..XY) 1 
    24          0
    25          0
    26          1
    27         10
    29         14
    30          1
    31          3
    37          0
    38          0
    39          8
    41          9
    42         19
    43        999
    44         25
    45         13
    46          0
    47          0
    50          0
    51          1
    52          0
    53          3
    54          2
    55         11
    56          3
    57          7
    58          6
    59          0
    60          7
    61          5
    62          0
    65          0
    66          0
    67          0
    68          1
    69          8
    70          1
    71         22
    72          2
    73         32
    74          2
    75          0
    80          0
    81          1
    82         17
    83         38
    84          7
    85          6
    86          3
    87          6
    88          0
    89          0
    92          0
    94          0
    95          1
    96          2
    97          5
    98          1
    99         16
   100         24
   101          3
   102         17
   103         40
   104          1
   105          0
   106          0
   109          1
   110          3
   111         42
   112          5
   113          9
   114          2
   115        181
   116         17
   117          2
   125          0
   126          5
   127          7
   128          8
   129         12
   130          1
   131          1
   138          0
   139          0
   140          1
   141          1
   142         40
   143          7
   144          5
   145         12
   146          0
   147          0
   152          1
   153         38
   154          3
   155          0
   157        126
   158         14
   159          1
   166          0
   169          0
   170          4
   171          8
   172          0
   178          0
   184         53
   185          6
   186          2
   187          1
   188          0
   201          0
   212          0
   213          3
   221          0
   228          0
   230          2
   231          0
   273         10
   274          1
   289          0
   303          0