##TITLE=Library Entry 79328
##JCAMP-DX=Revision 4.10 
##DATA TYPE=MASS SPECTRUM
##SAMPLE DESCRIPTION=Exported from NIST MS Search
##NAMES=HP
##CAS NAME=Benzamide, N-butyl-
##MOLFORM=C11H15NO
##CAS REGISTRY NO=2782-40-3
##MP= -300
##BP= -300
##MW= 177
##$RETENTION INDEX=1642
##$CONDENSED SPECTRUM=NO
##NPOINTS= 22
##XYDATA=(XY..XY) 1 
    50         30
    51         90
    52         14
    74         12
    75         18
    76         22
    77        323
    78         32
    79         12
   103         12
   104         12
   105        999
   106         80
   107         14
   134        113
   135        153
   136         26
   148         34
   162         18
   176         22
   177        131
   178         24