##TITLE=Library Entry 41157
##JCAMP-DX=Revision 4.10 
##DATA TYPE=MASS SPECTRUM
##SAMPLE DESCRIPTION=Japan AIST/NIMC Database- Spectrum MS-NW-2265
##NAMES=HP
##CAS NAME=D-Galactonic acid, .gamma.-lactone
##MOLFORM=C6H10O6
##CAS REGISTRY NO=2782-07-2
##MP= -300
##BP= -300
##MW= 178
##$RETENTION INDEX=0
##$CONDENSED SPECTRUM=NO
##NPOINTS= 109
##XYDATA=(XY..XY) 1 
    12          4
    13          4
    14         26
    15        191
    16          5
    17         33
    18        138
    19          7
    25          5
    26         39
    27        134
    28        103
    29        329
    30        108
    31        372
    32         21
    33          2
    36          1
    37          8
    38         14
    39         71
    40         16
    41         64
    42        166
    43        511
    44        389
    45        165
    46          6
    47         22
    49          2
    50          6
    51          6
    52          5
    53         11
    54         28
    55        127
    56         57
    57        164
    58        113
    59         27
    60        379
    61        899
    62         32
    63          5
    65          1
    66          1
    67          3
    68         14
    69         65
    70         38
    71        223
    72        108
    73        999
    74         63
    75         11
    76         68
    77          2
    78          1
    79          4
    80          3
    81          6
    82          4
    83         37
    84         41
    85        200
    86         46
    87         23
    88          7
    89         63
    90         18
    91         54
    92          2
    95          7
    96          9
    97         12
    98         12
    99          8
   100        113
   101         31
   102          9
   103         70
   104          5
   105          1
   106          3
   107          3
   112         27
   113          4
   114         24
   115          3
   116          1
   117          2
   118         79
   119         77
   120          5
   121          3
   124          1
   126          1
   129          1
   130          3
   131          1
   132          8
   133          3
   142         16
   143          1
   147         51
   148          3
   149          3
   160         27
   161          2