##TITLE=Library Entry 36713
##JCAMP-DX=Revision 4.10 
##DATA TYPE=MASS SPECTRUM
##SAMPLE DESCRIPTION=Exported from NIST MS Search
##NAMES=HP
##CAS NAME=.beta.-L-Arabinopyranose, 1,2:3,4-bis-O-(1-methylethylidene)-
##MOLFORM=C11H18O5
##CAS REGISTRY NO=27820-98-0
##MP= -300
##BP= -300
##MW= 230
##$RETENTION INDEX=0
##$CONDENSED SPECTRUM=NO
##NPOINTS= 51
##XYDATA=(XY..XY) 1 
    60        105
    61         94
    67         11
    68        205
    69        999
    70         47
    71        176
    72         29
    73        105
    74         17
    77         11
    78          5
    81         35
    83         52
    84         94
    85        623
    86         70
    87         29
    89          5
    95         17
    96          5
    97        488
    98        494
    99         35
   100         41
   101        282
   102        147
   103         11
   109         11
   111         17
   113        129
   114        105
   115        117
   116         11
   117         11
   126         23
   127         35
   129          5
   131         11
   132          5
   143         11
   155         29
   157        217
   158         11
   159         29
   171          5
   173         11
   175         23
   215        658
   216         82
   217         11