##TITLE=Library Entry 58002
##JCAMP-DX=Revision 4.10 
##DATA TYPE=MASS SPECTRUM
##SAMPLE DESCRIPTION=Exported from NIST MS Search
##NAMES=HP
##CAS NAME=13-Tetradecenoic acid, 2,4,6,8-tetramethyl-, methyl ester, (all-R
)-(-)-
##MOLFORM=C19H36O2
##CAS REGISTRY NO=27829-59-0
##MP= -300
##BP= -300
##MW= 296
##$RETENTION INDEX=0
##$CONDENSED SPECTRUM=NO
##NPOINTS= 83
##XYDATA=(XY..XY) 1 
    15         24
    18          7
    27         21
    29         84
    39         56
    40          2
    41        376
    42         77
    43        214
    44          7
    45         24
    53         27
    54         29
    55        490
    56         87
    57        193
    58          7
    59        149
    67         62
    68         46
    69        659
    70         79
    71        101
    72          7
    73         75
    74          9
    79          9
    81         53
    82         41
    83        391
    84         72
    85         48
    87         33
    88        999
    89         50
    95         36
    96         19
    97        227
    98         24
    99         21
   101        724
   102         43
   109         48
   110         33
   111        282
   112         43
   113         19
   115         12
   121          9
   123         43
   124         12
   125         58
   126         15
   127          9
   129        101
   135          9
   137         16
   138         41
   139         82
   140         21
   142         41
   143         72
   147         27
   151          7
   152         24
   153        186
   154         33
   169         67
   170         58
   171         27
   179         43
   180          4
   181         21
   184         16
   185         41
   195         12
   196         16
   209         16
   211         84
   212          7
   265         60
   281         12
   296         27