##TITLE=Library Entry 79732
##JCAMP-DX=Revision 4.10 
##DATA TYPE=MASS SPECTRUM
##SAMPLE DESCRIPTION=Japan AIST/NIMC Database- Spectrum MS-IW-7909
##NAMES=HP
##CAS NAME=N-(2-Oxobicyclo(3.2.0)hepta-3,6-dien-1-yl)benzamide
##MOLFORM=C14H11NO2
##CAS REGISTRY NO=27835-18-3
##MP= -300
##BP= -300
##MW= 225
##$RETENTION INDEX=0
##$CONDENSED SPECTRUM=NO
##NPOINTS= 58
##XYDATA=(XY..XY) 1 
    27          2
    28          1
    38          3
    39         19
    40          2
    41          1
    50         11
    51         44
    52          6
    53          1
    62          1
    63          5
    64          4
    65         32
    66          7
    74          3
    75          4
    76         12
    77        324
    78         26
    79          1
    91          4
    92         49
    93          5
    94          5
   102          1
   103         19
   104          5
   105        999
   106         89
   107          6
   115          1
   119          2
   120          9
   121          3
   122         12
   123          1
   139          1
   148          2
   149          1
   167          1
   168          1
   169          1
   180          7
   181          1
   182          1
   195          3
   196         42
   197         20
   198          3
   207          1
   208          9
   209          8
   210          1
   224          8
   225        100
   226         16
   227          1