##TITLE=Library Entry 1034
##JCAMP-DX=Revision 4.10 
##DATA TYPE=MASS SPECTRUM
##SAMPLE DESCRIPTION=Japan AIST/NIMC Database- Spectrum MS-NW-4275
##NAMES=HP
##CAS NAME=1,12-Dodecanediamine
##MOLFORM=C12H28N2
##CAS REGISTRY NO=2783-17-7
##MP= -300
##BP= -300
##MW= 200
##$RETENTION INDEX=0
##$CONDENSED SPECTRUM=NO
##NPOINTS= 94
##XYDATA=(XY..XY) 1 
    15          2
    26          1
    27         15
    28          5
    29         21
    30        999
    31         20
    32          1
    39         12
    40          2
    41         59
    42         15
    43         35
    44        177
    45         71
    46          2
    47          2
    51          1
    53          5
    54          7
    55         68
    56         72
    57         19
    58         10
    59         34
    60          1
    65          1
    67         10
    68          9
    69         45
    70         29
    71          7
    72         42
    73         20
    74          1
    77          1
    79          2
    80          1
    81          8
    82         12
    83         26
    84         20
    85          3
    86         58
    87         21
    88          1
    91          1
    93          1
    95          5
    96         11
    97         15
    98         12
    99          2
   100         42
   101          8
   109          2
   110          6
   111          6
   112          8
   113          1
   114         28
   115          8
   124          4
   125          3
   126          6
   128         44
   129          8
   138          2
   140          4
   142         41
   143          8
   146          1
   152          1
   153          1
   154          5
   155          1
   156         52
   157          9
   158          1
   166          4
   167          1
   170         18
   171         76
   172          9
   173          1
   180          1
   181          1
   182          4
   183          3
   184         53
   185          8
   199          7
   200          8
   201          2