##TITLE=Library Entry 13379
##JCAMP-DX=Revision 4.10 
##DATA TYPE=MASS SPECTRUM
##SAMPLE DESCRIPTION=Japan AIST/NIMC Database- Spectrum MS-IW-1929
##NAMES=HP
##CAS NAME=3Beta,21alpha-diacetoxy-18,22,22-trimethyl-17,27,29,30-tetranor-c
-homoolean-14-ene
##MOLFORM=C34H54O4
##CAS REGISTRY NO=27832-84-4
##MP= -300
##BP= -300
##MW= 526
##$RETENTION INDEX=0
##$CONDENSED SPECTRUM=NO
##NPOINTS= 409
##XYDATA=(XY..XY) 1 
    12          1
    13          3
    14          9
    15         41
    16          3
    17          2
    18          7
    25          1
    26          3
    27         23
    28         12
    29         66
    30          2
    31          7
    38          2
    39         33
    40          8
    41        300
    42         33
    43        999
    44         29
    45         91
    46          1
    50          2
    51          8
    52          4
    53         72
    54         10
    55        313
    56         21
    57         75
    58          4
    59         12
    60         55
    61          6
    62          1
    63          3
    64          1
    65         30
    66         11
    67        208
    68         52
    69        370
    70         25
    71         69
    72         12
    73          3
    74          1
    75          1
    76          1
    77        101
    78         24
    79        221
    80         51
    81        356
    82         64
    83        117
    84         12
    85         36
    86          6
    87          1
    89          3
    91        254
    92         56
    93        352
    94        102
    95        380
    96         84
    97         71
    98          9
    99          9
   100          3
   101          2
   102          3
   103         19
   104         18
   105        315
   106         96
   107        466
   108        153
   109        282
   110         34
   111         46
   112          5
   113          6
   114          1
   115         29
   116         16
   117         75
   118         36
   119        372
   120        173
   121        368
   122        263
   123        236
   124         28
   125         22
   126          4
   127         17
   128         27
   129         44
   130         22
   131        139
   132         81
   133        281
   134        219
   135        385
   136        133
   137         88
   138         14
   139         35
   140          8
   141         20
   142         19
   143         56
   144         30
   145        165
   146         86
   147        271
   148        149
   149        131
   150         43
   151         26
   152         17
   153         23
   154          9
   155         17
   156         12
   157         56
   158         25
   159        191
   160         92
   161        237
   162        101
   163        112
   164         20
   165         13
   166          4
   167          8
   168          5
   169         18
   170         10
   171         54
   172         21
   173        140
   174         54
   175        136
   176         47
   177        136
   178         23
   179         14
   180          6
   181          9
   182          6
   183         16
   184         10
   185         55
   186         40
   187        341
   188        152
   189        769
   190        345
   191        156
   192         22
   193          8
   194          4
   195         11
   196          8
   197         13
   198          7
   199         48
   200         23
   201        134
   202        338
   203        382
   204        232
   205         66
   206          9
   207         13
   208          6
   209          6
   210          2
   211         17
   212          8
   213         43
   214         20
   215         60
   216        114
   217        148
   218         34
   219         19
   220         18
   221         33
   222          7
   223          5
   224          1
   225         15
   226          8
   227         84
   228         28
   229         91
   230         28
   231         12
   232          4
   233          9
   234          4
   235          8
   236          4
   237         12
   238          4
   239         11
   240          6
   241         37
   242         13
   243         35
   244         15
   245         15
   246          5
   247         16
   248         33
   249        206
   250         41
   251          8
   252          3
   253         16
   254         10
   255         57
   256         23
   257         19
   258          6
   259          6
   261          9
   262        403
   263        116
   264         73
   265         13
   266          4
   267         13
   268         21
   269         69
   270         37
   271         31
   272         12
   273          9
   274          6
   275          5
   276        107
   277         24
   278          4
   279          3
   280          2
   281          9
   282         18
   283         14
   284         94
   285         44
   286         10
   287          8
   288          6
   289          7
   290          3
   291          1
   293          2
   294          2
   295         25
   296          8
   297          9
   298          3
   299          4
   300          3
   301          5
   302          5
   303          5
   304          2
   305          1
   307          3
   308          1
   309          6
   310          4
   311          5
   312          2
   313         13
   314          6
   315          9
   316          9
   317          3
   318          1
   320          1
   321          8
   322          8
   323         15
   324         71
   325         19
   326          3
   327          3
   328         23
   329         18
   330         14
   331          6
   332          4
   333          1
   335          3
   336          3
   337         17
   338          7
   339          4
   340          1
   341          8
   342         18
   343          6
   344         48
   345         14
   346          3
   347          3
   348          1
   349          3
   350          3
   351          3
   352          1
   353          1
   354          2
   355         35
   356         10
   357          3
   358          1
   359          1
   360          1
   361          3
   362          2
   363         70
   364         22
   365          6
   366          1
   367          2
   368          1
   369          1
   370          1
   371          1
   372          1
   373          2
   374          1
   375          1
   376          1
   377          2
   378          2
   379          2
   380          1
   381          6
   382          3
   383          5
   384         26
   385          8
   386          3
   387          1
   388          3
   389          4
   390          4
   391        113
   392         36
   393          8
   394          1
   395          2
   396          2
   397          3
   398          6
   402          3
   403          1
   404         12
   405          8
   406        171
   407         63
   408         14
   409          9
   410          5
   411          1
   413          1
   420          1
   421          1
   422          3
   423         42
   424         17
   425          6
   426          2
   427          1
   439          1
   449          2
   451        109
   452         38
   453          8
   454          1
   462          1
   464          5
   466        253
   467         93
   468         20
   469          4
   470          1
   482          2
   483          2
   484          3
   485          1
   496          2
   511         59
   512         22
   513          2
   526        496
   527        185
   528         37
   529          6