##TITLE=Library Entry 85869
##JCAMP-DX=Revision 4.10 
##DATA TYPE=MASS SPECTRUM
##SAMPLE DESCRIPTION=NIST Mass Spectrometry Data Center
##NAMES=HP
##CAS NAME=3-p-Menthen-7-al
##MOLFORM=C10H16O
##CAS REGISTRY NO=27841-22-1
##MP= -300
##BP= -300
##MW= 152
##$RETENTION INDEX=1169
##$CONDENSED SPECTRUM=NO
##NPOINTS= 55
##XYDATA=(XY..XY) 1 
    27         87
    29        135
    39        214
    40         53
    41        352
    42         33
    43        206
    44         12
    50         29
    51        159
    52         85
    53        241
    54         74
    55        275
    56         24
    57         72
    62         26
    63         47
    65        209
    66         87
    67        826
    68        100
    69        174
    70         40
    74         14
    77        452
    78        117
    79        899
    80         95
    81        923
    82        206
    83         75
    91        491
    92        131
    93        155
    94         55
    95        130
    96         61
   103         35
   105         89
   107        215
   108         46
   109        999
   110        109
   115         21
   117         48
   119        162
   120         16
   121        309
   122         52
   123         38
   124         43
   137         67
   152        419
   153         38