##TITLE=Library Entry 96465
##JCAMP-DX=Revision 4.10 
##DATA TYPE=MASS SPECTRUM
##SAMPLE DESCRIPTION=O A MAMER, MCGILL UNIVERSITY, MONTRE
##NAMES=HP
##CAS NAME=L-Alanine, 2TMS derivative
##MOLFORM=C9H23NO2Si2
##CAS REGISTRY NO=27844-07-1
##MP= -300
##BP= -300
##MW= 233
##$RETENTION INDEX=1095
##$CONDENSED SPECTRUM=NO
##NPOINTS= 62
##XYDATA=(XY..XY) 1 
    27          0
    29          9
    31          8
    42          8
    43         34
    44         22
    45         97
    46          7
    47         12
    52          2
    55          4
    56          3
    57          7
    58         13
    59         53
    60          7
    61          9
    66         15
    67          2
    70          4
    71          3
    72         15
    73        536
    74         49
    75         50
    76          3
    77          3
    79          1
    84          2
    86         11
    87         14
    88          6
    94         12
    95          2
   100         32
   101          6
   102         14
   103         29
   104          2
   105          2
   114          6
   115          5
   116        999
   117        115
   118         39
   119          5
   128          7
   130          2
   131          8
   132          3
   133         12
   144          1
   146          2
   147        141
   148         23
   149         11
   174          2
   190         39
   191          8
   192          4
   218         22
   219          4