##TITLE=Library Entry 8449
##JCAMP-DX=Revision 4.10 
##DATA TYPE=MASS SPECTRUM
##SAMPLE DESCRIPTION=Japan AIST/NIMC Database- Spectrum MS-NW-3404
##NAMES=HP
##CAS NAME=Ethyl 3-acetoxybutyrate
##MOLFORM=C8H14O4
##CAS REGISTRY NO=27846-49-7
##MP= -300
##BP= -300
##MW= 174
##$RETENTION INDEX=1109
##$CONDENSED SPECTRUM=NO
##NPOINTS= 76
##XYDATA=(XY..XY) 1 
    13          1
    14          9
    15         55
    16          1
    18          4
    19          2
    26         12
    27         77
    28          9
    29        171
    30          4
    31         18
    32          1
    37          2
    38          5
    39         48
    40         12
    41         86
    42         80
    43        999
    44         27
    45         72
    46          2
    47          2
    51          1
    53          1
    55         11
    56          1
    57          3
    58         17
    59          7
    60         39
    61         74
    62          2
    68         17
    69        488
    70         36
    71         34
    72          7
    73         33
    74          2
    75          5
    77          1
    84          1
    85         92
    86         49
    87         69
    88         73
    89         23
    90          1
    91          1
    96          2
    99         43
   100         14
   101          4
   102          8
   103         21
   104          1
   105          2
   107          6
   113          1
   114        111
   115         27
   116          2
   117         51
   118          2
   119          1
   128          1
   129         69
   130         15
   131        143
   132         11
   133          2
   136          1
   147          3
   159          2