##TITLE=Library Entry 99052
##JCAMP-DX=Revision 4.10 
##DATA TYPE=MASS SPECTRUM
##SAMPLE DESCRIPTION=Exported from NIST MS Search
##NAMES=HP
##CAS NAME=Tridecane, 2-methyl-2-phenyl-
##MOLFORM=C20H34
##CAS REGISTRY NO=27854-41-7
##MP= -300
##BP= -300
##MW= 274
##$RETENTION INDEX=0
##$CONDENSED SPECTRUM=NO
##NPOINTS= 130
##XYDATA=(XY..XY) 1 
    12          1
    13          1
    14          2
    15          4
    16          2
    20          1
    22          1
    25          1
    26          2
    27         42
    28         27
    29         77
    30          2
    37          1
    38          1
    39         28
    40          5
    41        162
    42         20
    43         85
    44         19
    45          1
    49          1
    50          2
    51          9
    52          3
    53          9
    54          4
    55         39
    56         12
    57         27
    58          2
    62          1
    63          2
    64          1
    65          7
    66          1
    67          4
    68          2
    69         13
    70          6
    71         10
    72          1
    74          1
    75          1
    76          2
    77         21
    78         14
    79         31
    80          2
    81          2
    82          1
    83          3
    84          1
    85          5
    86          1
    89          2
    90          3
    91        183
    92         16
    93          1
    94          1
    95          1
    96          1
    97          1
    98          1
    99          1
   101          1
   102          3
   103         20
   104          7
   105         69
   106          7
   107          1
   109          1
   111          1
   112          1
   113          1
   114          1
   115         11
   116          6
   117         18
   118         40
   119        999
   120        101
   121          5
   125          1
   126          1
   127          1
   128          3
   129          3
   130          1
   131          9
   132          2
   133          3
   134          1
   139          1
   141          1
   142          1
   143          1
   144          1
   145          5
   146          2
   147          1
   148          1
   152          1
   153          1
   154          1
   155          1
   157          1
   159          1
   160          1
   161          1
   175          1
   181          1
   182          1
   183          1
   189          1
   203          1
   217          1
   231          1
   257          1
   259          2
   260          1
   266          1
   272          1
   273          1
   274         17
   275          4
   276          1