##TITLE=Library Entry 66605
##JCAMP-DX=Revision 4.10 
##DATA TYPE=MASS SPECTRUM
##SAMPLE DESCRIPTION=Japan AIST/NIMC Database- Spectrum MS-IW-7172
##NAMES=HP
##CAS NAME=trans-Thujan-3-one 2,4-dinitrophenylhydrazone
##MOLFORM=C16H20N4O4
##CAS REGISTRY NO=27853-77-6
##MP= -300
##BP= -300
##MW= 332
##$RETENTION INDEX=0
##$CONDENSED SPECTRUM=NO
##NPOINTS= 282
##XYDATA=(XY..XY) 1 
    14          1
    15          2
    16          1
    26          7
    27         84
    28         99
    29         65
    30        148
    37          3
    38         14
    39         94
    40         18
    41        292
    42         32
    43        425
    44         21
    45          1
    46          1
    49          1
    50         14
    51         54
    52         37
    53        101
    54         37
    55        260
    56         29
    57         25
    58          5
    59          3
    61          3
    62         20
    63         53
    64         35
    65         69
    66         37
    67        139
    68         46
    69        160
    70         18
    71         12
    72          1
    73          1
    74          7
    75         54
    76         33
    77        220
    78         82
    79        244
    80         88
    81        295
    82         54
    83         20
    84          4
    85          5
    87          1
    88          6
    89         19
    90         26
    91        226
    92        138
    93        999
    94        175
    95        125
    96         31
    97         23
    98          5
    99          3
   100          1
   101          3
   102          9
   103         24
   104         24
   105         78
   106        221
   107        311
   108        100
   109         56
   110         23
   111          9
   112          2
   113          2
   114          2
   115         20
   116         12
   117         31
   118         27
   119        151
   120         60
   121         66
   122         91
   123         41
   124          8
   125          5
   126          3
   127          8
   128         10
   129         10
   130         18
   131         16
   132         26
   133         65
   134        307
   135        730
   136        122
   137        164
   138         23
   139          5
   140          5
   141          8
   142          8
   143         10
   144         10
   145          9
   146         11
   147         10
   148         42
   149         47
   150         40
   151         27
   152         46
   153         43
   154         11
   155          9
   156         11
   157          9
   158          6
   159          5
   160          3
   161          3
   162          3
   163          6
   164         17
   165         18
   166         14
   167         33
   168        105
   169         24
   170         23
   171         10
   172          6
   173          4
   174          2
   175          4
   176          7
   177         10
   178         15
   179         15
   180         53
   181         69
   182         32
   183         69
   184         29
   185          8
   186          5
   187          2
   188          5
   189          8
   190          9
   191          9
   192         11
   193         15
   194         15
   195         27
   196         70
   197         22
   198         87
   199         16
   200          5
   201          5
   202          8
   203         12
   204         10
   205          9
   206          9
   207         18
   208         28
   209         45
   210         23
   211          9
   212          6
   213          4
   214          8
   215         13
   216         21
   217         12
   218          6
   219          8
   220          7
   221          9
   222          8
   223         13
   224         17
   225         26
   226         11
   227         12
   228         24
   229         43
   230         15
   231          9
   232          4
   233          5
   234          6
   235         16
   236         10
   237          8
   238         13
   239         38
   240         23
   241         18
   242         25
   243         22
   244         10
   245         52
   246          9
   247          5
   248          3
   249         12
   250          7
   251         28
   252          9
   253         13
   254         37
   255        134
   256         31
   257         12
   258          6
   259          8
   260          2
   261         22
   262         36
   263          8
   264          3
   265          2
   266         13
   267         10
   268         17
   269         16
   270         55
   271         49
   272         14
   273         10
   274          3
   275         12
   276          4
   277          4
   279          1
   280          3
   281         29
   282         12
   283         20
   284          9
   285         10
   286         11
   287          8
   288          3
   289        120
   290         18
   291          3
   294          3
   295          4
   296         20
   297         59
   298         28
   299         15
   300          5
   301          3
   302         17
   303          5
   304          1
   310          1
   311          2
   313          1
   314          5
   315         36
   316         14
   317         34
   318          6
   330          2
   332        501
   333        106
   334         14
   335          1