##TITLE=Library Entry 99050
##JCAMP-DX=Revision 4.10 
##DATA TYPE=MASS SPECTRUM
##SAMPLE DESCRIPTION=Exported from NIST MS Search
##NAMES=HP
##CAS NAME=Benzene, (1,1-dimethyldecyl)-
##MOLFORM=C18H30
##CAS REGISTRY NO=27854-40-6
##MP= -300
##BP= -300
##MW= 246
##$RETENTION INDEX=0
##$CONDENSED SPECTRUM=NO
##NPOINTS= 110
##XYDATA=(XY..XY) 1 
    12          1
    13          1
    14          2
    15          5
    16          2
    26          3
    27         54
    28         24
    29         82
    30          2
    32          1
    37          1
    38          1
    39         36
    40          6
    41        169
    42         19
    43         66
    44         19
    45          1
    49          1
    50          3
    51         12
    52          4
    53         10
    54          3
    55         33
    56          9
    57         18
    58          1
    62          1
    63          3
    64          1
    65          9
    66          1
    67          3
    68          1
    69         10
    70          6
    71          7
    72          1
    74          1
    75          1
    76          2
    77         26
    78         17
    79         35
    80          3
    81          1
    82          1
    83          2
    84          1
    85          3
    86          1
    89          3
    90          3
    91        197
    92         17
    93          1
    95          1
    96          1
    97          1
    98          1
    99          1
   101          1
   102          4
   103         23
   104          7
   105         69
   106          6
   107          1
   111          1
   112          1
   113          1
   114          1
   115         13
   116          6
   117         19
   118         38
   119        999
   120        100
   121          5
   126          1
   127          1
   128          3
   129          3
   130          1
   131          7
   132          2
   133          2
   134          1
   139          1
   141          1
   143          1
   145          1
   146          1
   147          1
   153          1
   154          1
   155          1
   159          1
   161          1
   175          1
   189          1
   207          1
   231          3
   232          1
   246         23
   247          4
   248          1