##TITLE=Library Entry 49182
##JCAMP-DX=Revision 4.10 
##DATA TYPE=MASS SPECTRUM
##SAMPLE DESCRIPTION=A.A.Kutin, Moscow, Russia
##NAMES=HP
##CAS NAME=1-Acetyl-1,5,6,7-tetrahydro-indol-4-one
##MOLFORM=C10H11NO2
##CAS REGISTRY NO=27866-55-3
##MP= -300
##BP= -300
##MW= 177
##$RETENTION INDEX=0
##$CONDENSED SPECTRUM=NO
##NPOINTS= 83
##XYDATA=(XY..XY) 1 
    33          2
    34          7
    37         55
    38        127
    39        237
    40        134
    41        117
    42         57
    43        283
    44         48
    45         12
    46          1
    48          5
    49         15
    50        138
    51        301
    52        382
    53        113
    54         40
    55         44
    56         13
    57         34
    58          1
    60          8
    61         11
    62         25
    63         53
    64         31
    65         49
    66         27
    67         31
    68          9
    69         23
    70         13
    71         13
    73          8
    74         20
    75         18
    76         27
    77        101
    78        122
    79        999
    80         78
    81         13
    82          9
    83          8
    84          4
    85          3
    87          1
    89          3
    90          1
    91         14
    92         20
    93         18
    94          9
    95          3
    97          2
    98          1
   102          1
   104         42
   105         30
   106         95
   107        795
   108         56
   109          3
   112          1
   117          5
   118         11
   119          4
   120         24
   121          3
   128          1
   129          3
   132          0
   133          9
   134         42
   135        442
   136         33
   137          1
   149         17
   150          0
   177         81
   178          6