##TITLE=Library Entry 16867
##JCAMP-DX=Revision 4.10 
##DATA TYPE=MASS SPECTRUM
##SAMPLE DESCRIPTION=ORMSBG,9(7)672(1974); TAMAS
##NAMES=HP
##CAS NAME=Propanoic acid, 2-(aminooxy)-
##MOLFORM=C3H7NO3
##CAS REGISTRY NO=2786-22-3
##MP= -300
##BP= -300
##MW= 105
##$RETENTION INDEX=0
##$CONDENSED SPECTRUM=NO
##NPOINTS= 10
##XYDATA=(XY..XY) 1 
    33         90
    42        400
    43        810
    44        560
    45        999
    55        550
    60        710
    73        330
    87        150
   105         46