##TITLE=Library Entry 9547
##JCAMP-DX=Revision 4.10 
##DATA TYPE=MASS SPECTRUM
##SAMPLE DESCRIPTION=Chemical Concepts
##NAMES=HP
##CAS NAME=4-Hexenoic acid, 6-(acetyloxy)-4-methyl-
##MOLFORM=C9H14O4
##CAS REGISTRY NO=27872-60-2
##MP= -300
##BP= -300
##MW= 186
##$RETENTION INDEX=0
##$CONDENSED SPECTRUM=NO
##NPOINTS= 115
##XYDATA=(XY..XY) 1 
    25          3
    26         14
    27        117
    29         69
    30          3
    31         16
    33          1
    34          5
    35          2
    36          1
    37          3
    38          9
    39        119
    40         65
    41        236
    42         49
    43        999
    44         41
    45         88
    46          3
    47          3
    48          2
    49         14
    50         29
    51         20
    52        113
    53         29
    54        138
    55         72
    56         29
    57         31
    58          6
    59          7
    60         69
    61         25
    62          3
    63          6
    64          2
    65         37
    66         23
    67        165
    68         30
    69        111
    70         25
    71        188
    72         15
    73         33
    74          6
    75          3
    76          1
    77         22
    78          5
    79        110
    80         62
    81        406
    82         64
    83        138
    84        401
    85        131
    86         10
    87          4
    91          4
    92          1
    93          6
    94          3
    95         14
    96         23
    97         95
    98        159
    99         51
   100          6
   101          4
   102          2
   103          2
   104          1
   105          3
   106          1
   107          5
   108         12
   109         43
   110         11
   111        146
   112         18
   113         12
   114          3
   115          4
   117         16
   119         16
   121          5
   122          2
   123          3
   124          5
   125         73
   126        403
   127         97
   128         12
   129          4
   130          1
   131          2
   133          1
   134          1
   135          3
   136          1
   137          2
   138          2
   139          2
   140          3
   141          2
   142          1
   143         22
   144         16
   145          2
   147          1
   168          2
   169          2