##TITLE=Library Entry 32886
##JCAMP-DX=Revision 4.10 
##DATA TYPE=MASS SPECTRUM
##SAMPLE DESCRIPTION=NIST Mass Spectrometry Data Center, 1990.
##NAMES=HP
##CAS NAME=1,3-Pentadiene, 3-methyl-, (Z)-
##MOLFORM=C6H10
##CAS REGISTRY NO=2787-45-3
##MP= -300
##BP= -300
##MW= 82
##$RETENTION INDEX=640
##$CONDENSED SPECTRUM=NO
##NPOINTS= 36
##XYDATA=(XY..XY) 1 
    15         27
    26         44
    27        225
    28         19
    29         42
    37         17
    38         41
    39        351
    40         79
    41        349
    42         65
    43         16
    49         15
    50         98
    51        123
    52         50
    53        165
    54        120
    55         53
    56         10
    61         12
    62         18
    63         30
    64         10
    65        189
    66         10
    67        999
    68         53
    74          9
    77         41
    78         10
    79        115
    80         20
    81        109
    82        372
    83         25