##TITLE=Library Entry 25452
##JCAMP-DX=Revision 4.10 
##DATA TYPE=MASS SPECTRUM
##SAMPLE DESCRIPTION=Japan AIST/NIMC Database- Spectrum MS-NW-5293
##NAMES=HP
##CAS NAME=2-Butenedioic acid (Z)-, dinonyl ester
##MOLFORM=C22H40O4
##CAS REGISTRY NO=2787-64-6
##MP= -300
##BP= -300
##MW= 368
##$RETENTION INDEX=0
##$CONDENSED SPECTRUM=NO
##NPOINTS= 145
##XYDATA=(XY..XY) 1 
    15          1
    26          5
    27         22
    28          8
    29         75
    30          2
    31          1
    39         19
    40          5
    41        178
    42         51
    43        128
    44          3
    45          1
    53          9
    54         19
    55        182
    56         72
    57        999
    58         44
    59          1
    65          1
    67         13
    68         15
    69        265
    70        295
    71        410
    72         21
    73          1
    77          2
    79          3
    80          9
    81         12
    82         32
    83        106
    84         33
    85         20
    86          1
    87          6
    93          1
    94          2
    95         24
    96          6
    97         18
    98         44
    99         63
   100         52
   101          5
   102          3
   103          1
   107          1
   108          6
   109          7
   110         10
   111        273
   112         33
   113          8
   114          2
   115          4
   117        131
   118         12
   119          4
   122          3
   123          9
   124          6
   125          9
   126         97
   127         94
   128          9
   129          5
   131          4
   138          4
   139          3
   140         26
   141         19
   142         11
   143          9
   144          5
   145          2
   149          2
   150          9
   151          4
   152          1
   153          4
   154          7
   155          6
   156          3
   157          2
   158          2
   159          1
   167          9
   168        243
   169         96
   170         10
   171          8
   172          4
   173          5
   183          1
   185         18
   186         59
   187        115
   188         11
   189          2
   197          2
   211          1
   212          1
   213          2
   214          1
   224          2
   225         27
   226         57
   227         10
   228          3
   229          2
   241          1
   242          1
   243        109
   244         22
   245          5
   255          1
   256          1
   257          2
   266          3
   267          3
   268          2
   269          5
   270          2
   282          4
   283          2
   284          1
   294          3
   295          1
   297         11
   298          5
   299          2
   311         12
   312         75
   313         28
   314          6
   315          1
   353         24
   354          7
   355          1
   368          1
   369          2