##TITLE=Library Entry 90315
##JCAMP-DX=Revision 4.10 
##DATA TYPE=MASS SPECTRUM
##SAMPLE DESCRIPTION=Japan AIST/NIMC Database- Spectrum MS-IW-5214
##NAMES=HP
##CAS NAME=2,4-Imidazolidinedione, 5-methyl-5-(2-methylpropyl)-
##MOLFORM=C8H14N2O2
##CAS REGISTRY NO=27886-67-5
##MP= -300
##BP= -300
##MW= 170
##$RETENTION INDEX=0
##$CONDENSED SPECTRUM=NO
##NPOINTS= 59
##XYDATA=(XY..XY) 1 
    15          6
    26          1
    27         19
    28         13
    29         28
    30          2
    38          1
    39         24
    40          7
    41         82
    42        215
    43         53
    44          7
    51          1
    52          1
    53          4
    54          3
    55          9
    56          9
    57        105
    58          9
    59          1
    61          1
    65          1
    66          1
    67          4
    68          5
    69          8
    70         12
    71         13
    72          1
    81          1
    82          4
    83          3
    84         31
    85          6
    86          2
    87          1
    94          1
    95          2
    96          9
    97          2
    98          5
    99          5
   100         23
   101          1
   110          4
   111          2
   112         45
   113        999
   114        656
   115         39
   116          3
   127         18
   128          2
   155         19
   156          1
   170          6
   171          5