##TITLE=Library Entry 109267
##JCAMP-DX=Revision 4.10 
##DATA TYPE=MASS SPECTRUM
##SAMPLE DESCRIPTION=Japan AIST/NIMC Database- Spectrum MS-IW-2802
##NAMES=HP
##CAS NAME=Benzene, 1-chloro-4-(epoxyethyl)-
##MOLFORM=C8H7ClO
##CAS REGISTRY NO=2788-86-5
##MP= -300
##BP= -300
##MW= 154
##$RETENTION INDEX=1770
##$CONDENSED SPECTRUM=NO
##NPOINTS= 95
##XYDATA=(XY..XY) 1 
    14          1
    15          1
    26          3
    27          6
    28          3
    29         14
    30          2
    31          1
    35          1
    36          6
    37         11
    38         21
    39         65
    40          4
    41          4
    42          1
    43         13
    44          9
    45          4
    47          2
    48          1
    49         11
    50         56
    51         49
    52          5
    53          2
    55          1
    59         21
    60          4
    61         22
    62         62
    63        159
    64         19
    65         35
    66          2
    69          1
    72          5
    73         47
    74         31
    75         61
    76         10
    77         23
    78          2
    84          5
    85         15
    86         18
    87         20
    88         10
    89        821
    90        109
    91        308
    92         23
    93          1
    96          1
    97          9
    98          3
    99         60
   100          4
   101         22
   102          7
   103         12
   104          2
   105          4
   110          1
   111         26
   112          6
   113         10
   114          2
   115          1
   117          1
   118          6
   119        649
   120         56
   121          4
   123         20
   124        315
   125        999
   126        191
   127        322
   128         29
   129          1
   134          1
   136          1
   137          2
   138         10
   139         28
   140          7
   141          9
   142          1
   152          4
   153        176
   154        393
   155         91
   156        128
   157         10