##TITLE=Library Entry 31009
##JCAMP-DX=Revision 4.10 
##DATA TYPE=MASS SPECTRUM
##SAMPLE DESCRIPTION=Japan AIST/NIMC Database- Spectrum MS-NW-3020
##NAMES=HP
##CAS NAME=L-Serine, methyl ester
##MOLFORM=C4H9NO3
##CAS REGISTRY NO=2788-84-3
##MP= -300
##BP= -300
##MW= 119
##$RETENTION INDEX=0
##$CONDENSED SPECTRUM=NO
##NPOINTS= 49
##XYDATA=(XY..XY) 1 
    13          1
    14          7
    15        129
    16          2
    17          3
    18          9
    26          2
    27          9
    28        214
    29         71
    30        102
    31         63
    32          5
    33        236
    34          2
    35         41
    36        392
    37         13
    38        126
    39          1
    40          6
    41         21
    42        286
    43         39
    44          5
    45          5
    46          8
    54          1
    55          2
    56          6
    57         46
    58         20
    59         25
    60        999
    61         27
    62          2
    69          3
    70          2
    71          7
    72          1
    74         57
    75          2
    88        447
    89         94
    90          5
   101          5
   118          1
   119          1
   120          1