##TITLE=Library Entry 55264
##JCAMP-DX=Revision 4.10 
##DATA TYPE=MASS SPECTRUM
##SAMPLE DESCRIPTION=Exported from NIST MS Search
##NAMES=HP
##CAS NAME=6-Thiabicyclo[3.2.1]octane
##MOLFORM=C7H12S
##CAS REGISTRY NO=279-91-4
##MP= -300
##BP= -300
##MW= 128
##$RETENTION INDEX=0
##$CONDENSED SPECTRUM=NO
##NPOINTS= 78
##XYDATA=(XY..XY) 1 
    36          1
    37          6
    38         21
    39        268
    40         32
    41        243
    42         16
    43          9
    44          4
    45        220
    46         37
    47         62
    48          4
    49          6
    50         19
    51         41
    52         18
    53        108
    54         76
    55         49
    56          4
    57          7
    58         41
    59         50
    60         29
    61         16
    62         10
    63         11
    64          2
    65         43
    66         44
    67        142
    68         25
    69         13
    70          2
    71         25
    72         17
    73         30
    74         20
    75          3
    76          5
    77        168
    78         14
    79        307
    80         57
    81        300
    82         29
    83          5
    84         55
    85        999
    86        106
    87         73
    88          6
    89          2
    91         18
    92          2
    93         35
    94        319
    95         56
    96          3
    97          9
    98          2
    99         40
   100         28
   101          4
   102          1
   109          1
   110          1
   111          2
   112          1
   113         13
   114          1
   115          1
   127          6
   128        261
   129         27
   130         12
   131          1