##TITLE=Library Entry 5534
##JCAMP-DX=Revision 4.10 
##DATA TYPE=MASS SPECTRUM
##SAMPLE DESCRIPTION=ASES Database, Dalian Institute, P.R. China
##NAMES=HP
##CAS NAME=2,3-Dioxabicyclo[2.2.1]heptane
##MOLFORM=C5H8O2
##CAS REGISTRY NO=279-35-6
##MP= -300
##BP= -300
##MW= 100
##$RETENTION INDEX=0
##$CONDENSED SPECTRUM=NO
##NPOINTS= 18
##XYDATA=(XY..XY) 1 
    27        252
    28        852
    29        442
    37        111
    41        148
    42        111
    43        999
    44        442
    54         80
    55        319
    56        402
    57        300
    58        110
    67         50
    71         20
    72         19
    82         10
   100        501