##TITLE=Library Entry 32683
##JCAMP-DX=Revision 4.10 
##DATA TYPE=MASS SPECTRUM
##SAMPLE DESCRIPTION=Japan AIST/NIMC Database- Spectrum MS-NW-9198
##NAMES=HP
##CAS NAME=Norbornane
##MOLFORM=C7H12
##CAS REGISTRY NO=279-23-2
##MP= -300
##BP= -300
##MW= 96
##$RETENTION INDEX=753
##$CONDENSED SPECTRUM=NO
##NPOINTS= 50
##XYDATA=(XY..XY) 1 
    15          4
    26          8
    27         94
    28         15
    29         85
    30          1
    37          4
    38         13
    39        211
    40         47
    41        176
    42         26
    43          4
    44          1
    45          5
    46          2
    49          1
    50         12
    51         27
    52         12
    53        118
    54        453
    55        276
    56         15
    57          1
    61          2
    62          4
    63          9
    64          2
    65         39
    66        107
    67        999
    68        745
    69         41
    70          1
    74          1
    77         24
    78          5
    79         31
    80          7
    81        726
    82         48
    83          1
    91          8
    92          1
    93          3
    94          2
    95         45
    96        149
    97         10