##TITLE=Library Entry 55231
##JCAMP-DX=Revision 4.10 
##DATA TYPE=MASS SPECTRUM
##SAMPLE DESCRIPTION=Exported from NIST MS Search
##NAMES=HP
##CAS NAME=7-Thiabicyclo[2.2.1]heptane
##MOLFORM=C6H10S
##CAS REGISTRY NO=279-59-4
##MP= -300
##BP= -300
##MW= 114
##$RETENTION INDEX=0
##$CONDENSED SPECTRUM=NO
##NPOINTS= 84
##XYDATA=(XY..XY) 1 
    24          1
    25          5
    26         80
    27        428
    28         79
    29        102
    30          2
    31          1
    32         21
    33         17
    34         10
    35          4
    36          2
    37         21
    38         52
    39        456
    40         49
    41        283
    42         17
    43          2
    44          7
    45        413
    46         29
    47         76
    48          4
    49         10
    50         59
    51         95
    52         42
    53        156
    54        167
    55         95
    56          7
    57         21
    58        136
    59        113
    60        343
    61         20
    62         20
    63         12
    64          2
    65         48
    66         22
    67         99
    68         17
    69         17
    70          4
    71         85
    72         32
    73        162
    74         15
    75         10
    76          3
    77         72
    78         21
    79        228
    80        563
    81        323
    82         23
    83          3
    84         77
    85        999
    86        609
    87         75
    88         27
    89          2
    90          1
    91          1
    92          1
    93          1
    94          1
    95          1
    96          1
    97         12
    98          2
    99         52
   100          4
   101          3
   112          1
   113          9
   114        571
   115         45
   116         27
   117          2