##TITLE=Library Entry 48645
##JCAMP-DX=Revision 4.10 
##DATA TYPE=MASS SPECTRUM
##SAMPLE DESCRIPTION=Chemical Concepts
##NAMES=HP
##CAS NAME=Tricyclo[2.2.1.0(2,6)]heptane
##MOLFORM=C7H10
##CAS REGISTRY NO=279-19-6
##MP= -300
##BP= -300
##MW= 94
##$RETENTION INDEX=857
##$CONDENSED SPECTRUM=NO
##NPOINTS= 56
##XYDATA=(XY..XY) 1 
    25          0
    26         13
    27         84
    28          0
    29          6
    31          0
    33          0
    36          0
    37          8
    38         27
    39        201
    40         42
    41         88
    42          7
    43          1
    44          0
    45         11
    46          2
    49          2
    50         27
    51         55
    52         27
    53         60
    54         21
    55          7
    56          0
    60          0
    61          4
    62         12
    63         28
    64          6
    65         96
    66        651
    67         79
    68          4
    73          0
    74          2
    75          1
    76          1
    77        309
    78         61
    79        999
    80         68
    81          1
    84          0
    85          0
    86          1
    87          0
    89          3
    90          0
    91        137
    92         14
    93        142
    94        343
    95         27
    96          0