##TITLE=Library Entry 45241
##JCAMP-DX=Revision 4.10 
##DATA TYPE=MASS SPECTRUM
##SAMPLE DESCRIPTION=William W. Christie, Mylnefield Lipid Analysis, Invergo
wrie, Dundee, Scotland, UK
##NAMES=HP
##CAS NAME=Hexadecane, 1,1-dimethoxy-
##MOLFORM=C18H38O2
##CAS REGISTRY NO=2791-29-9
##MP= -300
##BP= -300
##MW= 286
##$RETENTION INDEX=0
##$CONDENSED SPECTRUM=NO
##NPOINTS= 30
##XYDATA=(XY..XY) 1 
    53         10
    54         10
    55         60
    56         20
    57         40
    58         30
    59         10
    67         20
    68         10
    69         40
    70         10
    71         90
    72         10
    75        999
    76         40
    77         10
    81         20
    82         20
    83         30
    85         10
    87         10
    95         20
    96         10
    97         30
   109         10
   111         20
   125         10
   191         20
   255         40
   256         10