##TITLE=Library Entry 1844
##JCAMP-DX=Revision 4.10 
##DATA TYPE=MASS SPECTRUM
##SAMPLE DESCRIPTION=H. Luftmann, Org. Chem. Inst., Westfalisch-Wilhelms Uni
v., Munster, Germany
##NAMES=HP
##CAS NAME=5-Hexenoic acid, 5-bromo-, methyl ester
##MOLFORM=C7H11BrO2
##CAS REGISTRY NO=279214-92-5
##MP= -300
##BP= -300
##MW= 206
##$RETENTION INDEX=0
##$CONDENSED SPECTRUM=NO
##NPOINTS= 67
##XYDATA=(XY..XY) 1 
    37         60
    38        124
    39        999
    40        182
    41        441
    42        126
    43        415
    44         32
    45         51
    48         10
    49         12
    50         51
    51         75
    52         30
    53        173
    54         32
    55        472
    56         26
    57         14
    59        191
    60         10
    61         15
    62         18
    63         29
    65        176
    66         51
    67        657
    68         61
    69         18
    71         17
    73         10
    74        129
    79         26
    80         12
    81         23
    82         12
    83         17
    84         23
    85        918
    86         56
    87         12
    91         10
    93         32
    94         14
    95        132
    96         11
   105         16
   107         22
   119         34
   120         10
   121         28
   125         10
   126         15
   127        705
   128         64
   132         11
   134         11
   147         11
   148          8
   149         10
   163          5
   165          5
   175         52
   176         12
   177         42
   207         10
   209         10