##TITLE=Library Entry 58456
##JCAMP-DX=Revision 4.10 
##DATA TYPE=MASS SPECTRUM
##SAMPLE DESCRIPTION=Exported from NIST MS Search
##NAMES=HP
##CAS NAME=Methyl o-coumarate, TMS derivative
##MOLFORM=C13H18O3Si
##CAS REGISTRY NO=27927-16-8
##MP= -300
##BP= -300
##MW= 250
##$RETENTION INDEX=0
##$CONDENSED SPECTRUM=NO
##NPOINTS= 51
##XYDATA=(XY..XY) 1 
    45        220
    59        430
    60         50
    61         20
    73        780
    74        120
    75        170
    76         20
    81         20
    89        999
    90        230
    91        160
   101         20
   102         40
   103         20
   105         20
   115         80
   118        240
   119         50
   131         10
   133         10
   135        130
   136         20
   137         20
   145         50
   146        200
   147         80
   148         50
   149         20
   151         20
   161        230
   162         50
   175         50
   177         30
   179         10
   189         10
   190         10
   191         10
   192         10
   193         10
   219        320
   220        100
   221         20
   235        460
   236        140
   237         40
   238          5
   250        750
   251        170
   252         50
   253         10