##TITLE=Library Entry 34450
##JCAMP-DX=Revision 4.10 
##DATA TYPE=MASS SPECTRUM
##SAMPLE DESCRIPTION=Chemical Concepts
##NAMES=HP
##CAS NAME=2,6-Octadiene, 2,6-dimethyl-
##MOLFORM=C10H18
##CAS REGISTRY NO=2792-39-4
##MP= -300
##BP= -300
##MW= 138
##$RETENTION INDEX=978
##$CONDENSED SPECTRUM=NO
##NPOINTS= 70
##XYDATA=(XY..XY) 1 
    24          7
    25          0
    26          5
    27        123
    28         16
    29         64
    30          1
    32          0
    37          2
    38          6
    39        152
    40         29
    41        714
    42         40
    43         28
    44          0
    49          0
    50          9
    51         25
    52         11
    53         93
    54         20
    55         60
    56          4
    57          2
    61          0
    62          2
    63          6
    64          1
    65         18
    66         10
    67         82
    68         54
    69        999
    70        119
    71          4
    74          0
    75          1
    76          0
    77         17
    78          4
    79         16
    80          3
    81         24
    82         15
    83          2
    89          0
    90          0
    91         13
    92          1
    93          7
    94         17
    95        154
    96         15
    97          0
   103          1
   105          3
   106          0
   107          4
   108          0
   109          5
   110          0
   115          0
   119          0
   121          2
   122          0
   123         43
   124          4
   138         21
   139          2