##TITLE=Library Entry 107691
##JCAMP-DX=Revision 4.10 
##DATA TYPE=MASS SPECTRUM
##SAMPLE DESCRIPTION=Japan AIST/NIMC Database- Spectrum MS-NW-2785
##NAMES=HP
##CAS NAME=Bicyclo[2.2.1]heptan-2-one, 1,7,7-trimethyl-, oxime, (1R)-
##MOLFORM=C10H17NO
##CAS REGISTRY NO=2792-42-9
##MP= -300
##BP= -300
##MW= 167
##$RETENTION INDEX=0
##$CONDENSED SPECTRUM=NO
##NPOINTS= 128
##XYDATA=(XY..XY) 1 
    14          3
    15         28
    16          2
    17          2
    18          7
    26         20
    27        303
    28         41
    29        218
    30         32
    31         17
    37          7
    38         24
    39        435
    40         83
    41        997
    42        196
    43        273
    44         29
    45         17
    46          9
    49          2
    50         32
    51        107
    52         64
    53        322
    54        134
    55        519
    56         94
    57        102
    58         68
    59         59
    60          6
    61          4
    62          9
    63         30
    64         16
    65        142
    66        112
    67        599
    68        296
    69        630
    70        118
    71         85
    72         16
    73         32
    74          6
    75          6
    76          6
    77        272
    78         69
    79        546
    80        238
    81        406
    82        370
    83        235
    84         95
    85         41
    86         10
    87          8
    88          1
    89          8
    90          6
    91        250
    92        145
    93        976
    94        594
    95        412
    96        181
    97         84
    98        102
    99         60
   100          7
   101          1
   102          3
   103         11
   104         17
   105         79
   106        221
   107        361
   108        591
   109        463
   110        564
   111        363
   112        154
   113         12
   114          2
   115          7
   116          7
   117         27
   118         18
   119         39
   120         73
   121         67
   122        136
   123         80
   124        999
   125        246
   126         46
   127          7
   128          1
   130          4
   131          5
   132         18
   133         47
   134        946
   135        178
   136         58
   137         12
   138        192
   139        110
   140         11
   141          1
   146          2
   147          1
   148         66
   149        140
   150        383
   151         77
   152        368
   153         35
   154          2
   164          1
   165          2
   166         68
   167        797
   168         94
   169          6