##TITLE=Library Entry 11836
##JCAMP-DX=Revision 4.10 
##DATA TYPE=MASS SPECTRUM
##SAMPLE DESCRIPTION=B.JASTORFF MAX-PLANK INSTITUT, GOTTINGEN, F.R.G.
##NAMES=HP
##CAS NAME=Thymidine, 5'-amino-5'-deoxy-, 3'-acetate
##MOLFORM=C12H17N3O5
##CAS REGISTRY NO=27930-49-0
##MP= -300
##BP= -300
##MW= 283
##$RETENTION INDEX=0
##$CONDENSED SPECTRUM=NO
##NPOINTS= 78
##XYDATA=(XY..XY) 1 
    41        200
    42        160
    43        999
    44        120
    45         40
    52         40
    53         70
    54        180
    55        230
    56        120
    57         30
    58        100
    60         30
    66         20
    67         60
    68        230
    69        160
    70        270
    71         40
    72         90
    73         10
    80        110
    81        150
    82         90
    83         60
    84         30
    86         30
    90        120
    93         20
    94         40
    95         10
    96         40
    97         40
    98        320
    99         30
   108         20
   109         30
   110        150
   111         20
   114         40
   116         20
   122        110
   123         20
   126        760
   127        290
   128         20
   138         30
   139         50
   140         30
   150        190
   151         30
   152         20
   153        200
   154         30
   157         30
   158        420
   159         40
   181         20
   193         60
   194        200
   195         40
   222          4
   223         30
   224         10
   225          2
   236          3
   237          1
   240          3
   250          1
   251          1
   252          1
   253          6
   254          7
   255          1
   265          9
   266          3
   283         10
   284          4