##TITLE=Library Entry 8091
##JCAMP-DX=Revision 4.10 
##DATA TYPE=MASS SPECTRUM
##SAMPLE DESCRIPTION=Exported from NIST MS Search
##NAMES=HP
##CAS NAME=Pentanal, 2,4-dimethyl-
##MOLFORM=C7H14O
##CAS REGISTRY NO=27944-79-2
##MP= -300
##BP= -300
##MW= 114
##$RETENTION INDEX=0
##$CONDENSED SPECTRUM=NO
##NPOINTS= 42
##XYDATA=(XY..XY) 1 
    18         10
    26         11
    27        159
    28         65
    29        157
    30         15
    31          9
    32          8
    37          4
    38         10
    39        132
    40         23
    41        304
    42         55
    43        999
    44         37
    45         11
    54          8
    55         67
    56         46
    57        458
    58        758
    59         29
    60          2
    65          2
    67          6
    69         24
    70          9
    71         50
    72         20
    73          7
    74         10
    79          4
    81         12
    83          6
    85         54
    86          4
    87          5
    95          3
    99          2
   113          1
   114          1