##TITLE=Library Entry 2482
##JCAMP-DX=Revision 4.10 
##DATA TYPE=MASS SPECTRUM
##SAMPLE DESCRIPTION=Chemical Concepts
##NAMES=HP
##CAS NAME=2,7-Octadiene, 1-butoxy-
##MOLFORM=C12H22O
##CAS REGISTRY NO=27951-29-7
##MP= -300
##BP= -300
##MW= 182
##$RETENTION INDEX=0
##$CONDENSED SPECTRUM=NO
##NPOINTS= 98
##XYDATA=(XY..XY) 1 
    25          0
    26         19
    27        291
    29        555
    30         16
    31        114
    33          5
    37          4
    38         16
    39        372
    40         54
    41        999
    42         95
    43        941
    44         26
    45        126
    46          4
    49          0
    50         14
    51         45
    52         28
    53        151
    54         62
    55        548
    56        180
    57        455
    58         83
    59        105
    60          4
    61          0
    62          3
    63         10
    64          3
    65         81
    66         67
    67        786
    68        300
    69         88
    70         21
    71        562
    72         35
    73          7
    74          1
    75          0
    76          0
    77        144
    78         39
    79        212
    80         47
    81        138
    82         39
    83         98
    84         98
    85        213
    86         11
    87          2
    91        103
    92         12
    93        317
    94         24
    95         24
    96          4
    97         37
    98         13
    99         92
   100          7
   101         29
   102          2
   103          2
   104          0
   105          6
   106          0
   107         19
   108         99
   109        201
   110         20
   111        339
   112         28
   113          4
   114         10
   115          6
   121          0
   124          0
   125         14
   126        197
   127        133
   128         11
   137          0
   139          6
   140         13
   141         28
   142          3
   153          2
   154          2
   167        123
   168         18
   169          1
   182          6