##TITLE=Library Entry 64201
##JCAMP-DX=Revision 4.10 
##DATA TYPE=MASS SPECTRUM
##SAMPLE DESCRIPTION=A.A.Kutin, Moscow, Russia
##NAMES=HP
##CAS NAME=Propenone, 1-(2-benzyloxy-4-chlorophenyl)-3-phenyl-
##MOLFORM=C22H17ClO2
##CAS REGISTRY NO=279691-94-0
##MP= -300
##BP= -300
##MW= 348
##$RETENTION INDEX=0
##$CONDENSED SPECTRUM=NO
##NPOINTS= 233
##XYDATA=(XY..XY) 1 
    33          0
    34          0
    35          1
    36          3
    37          1
    38          5
    39         30
    40          7
    41         10
    42          1
    43          3
    44          6
    45          3
    46          1
    47          0
    48          0
    49          1
    50         11
    51         35
    52          7
    53          4
    54          0
    55          1
    56          0
    57          1
    59          0
    60          1
    61          1
    62          6
    63         31
    64         10
    65         99
    66          5
    67          0
    68          0
    69          1
    70          0
    71          0
    72          1
    73          5
    74          5
    75         11
    76         14
    77         77
    78          6
    79          1
    80          0
    81          0
    82          1
    83          2
    84          1
    85          2
    86          1
    87          3
    89         29
    91        999
    92         83
    93          3
    94          0
    95          0
    97          2
    98          4
    99          9
   100          2
   101          8
   102         36
   103         45
   104          6
   105          4
   106          1
   107          0
   108          0
   110          4
   111          2
   112          1
   113          1
   114          1
   115         11
   116          6
   117          2
   118          2
   119          1
   120          0
   121          0
   122          0
   123          0
   124          0
   125          2
   126         11
   127          5
   128          4
   129          2
   131         13
   132          1
   133          0
   135          0
   136          0
   137          0
   138          2
   139          4
   140          1
   141          1
   143          0
   147          0
   149          1
   150          1
   151          2
   152          6
   153          2
   154          4
   155         49
   156          5
   157         17
   158          1
   159          0
   161          0
   162          1
   163          4
   164          6
   165         36
   166         18
   167          4
   168          2
   169          0
   170          0
   173          0
   174          0
   176          5
   177          2
   178          8
   179         11
   180        108
   181         35
   182          4
   183          2
   184          0
   185          0
   186          0
   187          0
   188          0
   189          1
   190          0
   191          2
   192          7
   193         30
   194         38
   195          5
   196          0
   199          1
   201         13
   202          2
   203          4
   204          0
   205          0
   207          6
   208          1
   209          0
   212          0
   213          0
   214          0
   215          3
   216          0
   217          3
   218          0
   219          1
   220          0
   221          1
   222          1
   223          0
   224          0
   225          0
   226          0
   227          1
   228          4
   229         50
   230         13
   231         16
   232          3
   233          0
   235          0
   236          0
   239          1
   240          0
   241          4
   242          3
   243          2
   244          5
   245          1
   246          1
   247          0
   252          0
   253          1
   254          1
   255          5
   257        212
   258         39
   259         65
   260         10
   261          1
   265          0
   267          0
   269          1
   270          3
   271         11
   272          3
   273          4
   274          0
   281          0
   283          0
   294          0
   295          1
   296          0
   297          0
   313          7
   314          1
   315          0
   317          0
   319          0
   320          0
   328          0
   329          2
   330          5
   331          3
   332          2
   333          1
   334          0
   345          0
   347          8
   348         50
   349         16
   350         18
   351          4
   352          0