##TITLE=Library Entry 4964
##JCAMP-DX=Revision 4.10 
##DATA TYPE=MASS SPECTRUM
##SAMPLE DESCRIPTION=P. Vainiotalo, Dep. Chem., Joensuu Univ., Joensuu, Finl
and
##NAMES=HP
##CAS NAME=Oxazolidine, 3-methyl-
##MOLFORM=C4H9NO
##CAS REGISTRY NO=27970-32-7
##MP= -300
##BP= -300
##MW= 87
##$RETENTION INDEX=0
##$CONDENSED SPECTRUM=NO
##NPOINTS= 27
##XYDATA=(XY..XY) 1 
    14         24
    15        226
    26         46
    27        120
    29        160
    30        305
    31         19
    36         54
    38         23
    40         43
    41         95
    42        999
    43        123
    44         89
    45         15
    47         13
    54         26
    55         24
    56        189
    57        621
    58        418
    59         20
    84         63
    85         15
    86        822
    87        462
    88         21