##TITLE=Library Entry 9014
##JCAMP-DX=Revision 4.10 
##DATA TYPE=MASS SPECTRUM
##SAMPLE DESCRIPTION=NIST Mass Spectrometry Data Center
##NAMES=HP
##CAS NAME=3-Acetyl-2-octanone
##MOLFORM=C10H18O2
##CAS REGISTRY NO=27970-50-9
##MP= -300
##BP= -300
##MW= 170
##$RETENTION INDEX=0
##$CONDENSED SPECTRUM=NO
##NPOINTS= 80
##XYDATA=(XY..XY) 1 
    15         27
    17          1
    18          6
    26          5
    27         74
    29         60
    30          1
    31          4
    38          3
    39         61
    40          7
    41        106
    42         29
    43        999
    44         24
    45         10
    50          3
    51          7
    52          3
    53         26
    54          6
    55         75
    56         12
    57         12
    58        160
    59         48
    60          2
    61          1
    63          1
    65          4
    66          2
    67         15
    68         71
    69         29
    70         17
    71        843
    72         74
    73          4
    77          5
    78          1
    79          5
    80          1
    81         18
    82          4
    83          6
    84         22
    85        250
    86         47
    87          3
    91          1
    93          1
    94          1
    95         22
    96          2
    97          6
    98          1
    99         37
   100        272
   101         79
   102          5
   107          1
   109         11
   110         16
   111          5
   112          2
   113        194
   114         13
   115          1
   123          3
   124          2
   125          1
   127          5
   128        113
   129          9
   137          4
   152          9
   153          1
   155          9
   170          9
   171          1