##TITLE=Library Entry 60462
##JCAMP-DX=Revision 4.10 
##DATA TYPE=MASS SPECTRUM
##SAMPLE DESCRIPTION=Div. of Experiment Therapeutics WRAIR, WRAMC, Washingto
n DC 20307
##NAMES=HP
##CAS NAME=Benzene, (6-bromohexyl)-
##MOLFORM=C12H17Br
##CAS REGISTRY NO=27976-27-8
##MP= -300
##BP= -300
##MW= 240
##$RETENTION INDEX=0
##$CONDENSED SPECTRUM=NO
##NPOINTS= 88
##XYDATA=(XY..XY) 1 
    41        158
    42         10
    43         32
    44          0
    47          4
    48          0
    49         21
    50         13
    51         56
    52         14
    53         21
    55         60
    56          3
    57          5
    62          4
    63         26
    65        125
    66          4
    67         11
    69         97
    70          6
    71          1
    74          2
    75          3
    77         52
    78         47
    79         31
    81          7
    82          2
    83         17
    84          5
    86          5
    87          1
    88          0
    89         23
    91        999
    92        445
    93         31
    95          6
    97          1
   102          5
   103         23
   104         43
   105         95
   106         10
   107          6
   109          6
   111          0
   115         17
   116          1
   117         26
   119         28
   120          2
   121          1
   123          1
   127          1
   128          2
   129          2
   130          0
   131          4
   133         20
   134          3
   135          1
   137          1
   139          0
   141          0
   143          0
   144          1
   145          0
   147          1
   149         13
   151         14
   152          0
   157          0
   159          0
   160          5
   161         14
   162          1
   163          0
   165          0
   167          0
   169          1
   171          1
   197          0
   238          7
   240         83
   242         85
   243          3