##TITLE=Library Entry 11420
##JCAMP-DX=Revision 4.10 
##DATA TYPE=MASS SPECTRUM
##SAMPLE DESCRIPTION=Japan AIST/NIMC Database- Spectrum MS-IW-7938
##NAMES=HP
##CAS NAME=Bis(3-acetoxy-2,4-pentanedionato)copper(ii)
##MOLFORM=C14H18CuO8
##CAS REGISTRY NO=27970-17-8
##MP= -300
##BP= -300
##MW= 377
##$RETENTION INDEX=0
##$CONDENSED SPECTRUM=NO
##NPOINTS= 200
##XYDATA=(XY..XY) 1 
    12          1
    13          3
    14         34
    15         51
    16          1
    17         24
    18          9
    25          2
    26         14
    27         20
    28         95
    29         13
    31          3
    32          2
    37          3
    38          3
    39         13
    40         11
    41         35
    42        166
    43        999
    44         39
    45         48
    46          1
    47          1
    49          2
    50          6
    51          8
    52          9
    53          7
    54         11
    55         56
    56         34
    57          6
    58          3
    59          5
    60         10
    62          1
    63         18
    64          2
    65          8
    67          9
    68          5
    69          9
    70         14
    71          4
    72          5
    73         28
    74        521
    75         17
    76          3
    78          1
    79          1
    80         22
    81          4
    82          7
    83          6
    84          3
    85          4
    86         13
    87          6
    88          2
    89          1
    91         13
    93          7
    94          1
    95          2
    96          5
    97          4
    98         39
    99          5
   100          3
   101         79
   102          4
   103          1
   105         11
   106          3
   107         51
   108          3
   109         21
   111          1
   113         11
   114          5
   115          6
   116        556
   117         34
   118          5
   119         28
   120          1
   121         12
   122          1
   123          4
   125          2
   133         11
   134          3
   135         21
   136          3
   137          9
   139          1
   140          5
   141         14
   142          1
   145          8
   147          5
   148          1
   149         36
   150          3
   151         20
   152          1
   153          4
   155          1
   157          1
   158         50
   159          7
   160          4
   161          8
   162          9
   163         15
   164          5
   165          7
   169          1
   170          1
   171          6
   172          7
   173          1
   175          2
   177        117
   178        226
   179        186
   180        107
   181         60
   182          4
   185          1
   186          1
   187          1
   188          1
   189          1
   191          2
   193         14
   194          1
   195          7
   201          3
   203         80
   204          7
   205         44
   206         26
   207          4
   208          9
   209          1
   212          2
   213          3
   214         21
   215          7
   216          2
   217          2
   218          1
   219          7
   220         23
   221        444
   222         43
   223        201
   224         15
   225          3
   228          1
   235          1
   243          6
   244          4
   248          2
   250          1
   256          1
   257          3
   258          2
   263        458
   264         46
   265        210
   266         21
   267          3
   284          1
   285          3
   286         20
   287          3
   291          7
   292         17
   293          7
   294          8
   295          1
   298          2
   299          4
   327          3
   328         10
   329          2
   334          9
   335         46
   336         10
   337         19
   338          3
   377         27
   378          6
   379         14
   380          3