##TITLE=Library Entry 911
##JCAMP-DX=Revision 4.10 
##DATA TYPE=MASS SPECTRUM
##SAMPLE DESCRIPTION=Chuck Anderson, Aldrich Chemical Co.
##NAMES=HP
##CAS NAME=2-Propanol, 1-amino-, (R)-
##MOLFORM=C3H9NO
##CAS REGISTRY NO=2799-16-8
##MP= -300
##BP= -300
##MW= 75
##$RETENTION INDEX=0
##$CONDENSED SPECTRUM=NO
##NPOINTS= 29
##XYDATA=(XY..XY) 1 
    14          1
    15         16
    18         15
    19         11
    26         10
    27         46
    28        112
    29         53
    30        999
    31        139
    32         50
    38          2
    39          9
    40          2
    41         27
    42         54
    43         39
    44          8
    45         91
    46          1
    52          1
    54          2
    56         17
    57          4
    58          4
    59          2
    60         33
    74          3
    75          9