##TITLE=Library Entry 2215
##JCAMP-DX=Revision 4.10 
##DATA TYPE=MASS SPECTRUM
##SAMPLE DESCRIPTION=J.VOTH UNIV. OF CALIFORNIA, DAVIS, CALIFORNIA, 95616, U
SA
##NAMES=HP
##CAS NAME=1-Pentene, 5-chloro-4-(chloromethyl)-
##MOLFORM=C6H10Cl2
##CAS REGISTRY NO=27990-74-5
##MP= -300
##BP= -300
##MW= 152
##$RETENTION INDEX=0
##$CONDENSED SPECTRUM=NO
##NPOINTS= 108
##XYDATA=(XY..XY) 1 
     2          4
    12          3
    13          7
    14         23
    15         77
    16          1
    17          0
    18          2
    19          0
    24          0
    25          4
    26         54
    27        285
    28         13
    29         40
    30          1
    31         18
    32          0
    35          7
    36         12
    37         36
    38         83
    39        631
    40        101
    41        999
    42        356
    43        103
    44          3
    45          2
    47          7
    48          7
    49        116
    50         81
    51        238
    52         47
    53        227
    54        105
    55         83
    56         12
    57          7
    58          1
    59         17
    60          7
    61         35
    62         46
    63         68
    64         14
    65        118
    66         32
    67        607
    68         48
    69         12
    70          0
    71          0
    72          3
    73         34
    74         10
    75        569
    76        164
    77        245
    78         61
    79         99
    80         56
    81        628
    82         49
    83         14
    84          0
    85         14
    86          2
    87         10
    88         53
    89         44
    90         61
    91         15
    92         13
    93          1
    97          1
    99          2
   100          0
   101         17
   102          4
   103        493
   104         28
   105        153
   106          8
   109          2
   110        176
   111         24
   112        114
   113         14
   114         18
   115          4
   116        118
   117         43
   118         40
   119         14
   120          3
   123          2
   124          9
   125          2
   126          5
   127          1
   128          0
   152         13
   153          0
   154          8
   155          0
   156          1