##TITLE=Library Entry 50237
##JCAMP-DX=Revision 4.10 
##DATA TYPE=MASS SPECTRUM
##SAMPLE DESCRIPTION=A.A.Kutin, Moscow, Russia
##NAMES=HP
##CAS NAME=1H-Benzimidazol-1-ol, 2,4,5,6,7,7a-hexahydro-2,2-dimethyl-, 3-oxi
de
##MOLFORM=C9H16N2O2
##CAS REGISTRY NO=27992-37-6
##MP= -300
##BP= -300
##MW= 184
##$RETENTION INDEX=0
##$CONDENSED SPECTRUM=NO
##NPOINTS= 130
##XYDATA=(XY..XY) 1 
    33          7
    34          5
    36          1
    37          7
    39        274
    40         90
    41        424
    42        226
    43        124
    44         58
    46         11
    48          2
    49          0
    50         16
    51         43
    52         42
    53        206
    54         88
    55        134
    56        200
    58        123
    59        121
    62          5
    63          7
    64          7
    65         51
    66         54
    67        112
    68         62
    69         38
    70         25
    71          9
    72          6
    74        472
    76          8
    77         59
    79        398
    80         63
    81        999
    82        115
    83         26
    84         38
    85          6
    86          2
    87          1
    89          0
    90          0
    91          6
    92         11
    93         15
    94         58
    95         23
    96         25
    97          9
    98          6
    99          2
   100          1
   102          0
   103          1
   104          1
   105          2
   106          4
   107          8
   108         23
   109         37
   110         20
   111        190
   112         41
   113          7
   115          0
   116          0
   117          1
   118          3
   119          2
   120          3
   121          4
   122         34
   123          8
   124          4
   125          3
   126         20
   127          3
   128          2
   129          0
   130          0
   131          1
   132          1
   133          2
   134          6
   135          6
   136         12
   137         33
   138          9
   139          1
   140          0
   141          0
   142          0
   143          1
   144          0
   145          0
   146          0
   147          1
   148          2
   149          7
   150          5
   151         27
   152          5
   153          2
   154          3
   155          0
   159          0
   160          0
   162          0
   163          0
   164          0
   165          0
   166         11
   167          9
   168          9
   169          1
   170          0
   171          1
   173          0
   182          3
   183          1
   184         75
   185          9
   186          1
   187          0
   188          0