##TITLE=Library Entry 4401
##JCAMP-DX=Revision 4.10 
##DATA TYPE=MASS SPECTRUM
##SAMPLE DESCRIPTION=Exported from NIST MS Search
##NAMES=HP
##CAS NAME=Hydrouracil, 5,5-dibromo-6-hydroxy-1,3-dimethyl-
##MOLFORM=C6H8Br2N2O3
##CAS REGISTRY NO=27994-76-9
##MP= -300
##BP= -300
##MW= 314
##$RETENTION INDEX=0
##$CONDENSED SPECTRUM=NO
##NPOINTS= 93
##XYDATA=(XY..XY) 1 
    26         30
    27        120
    28        430
    29         70
    30        150
    31         30
    38         10
    39         20
    40         30
    41         70
    42        999
    44         70
    45         50
    51         20
    52         60
    53         80
    54         30
    55         20
    56        130
    57        100
    58        230
    59         50
    60         20
    69         30
    70         30
    71         60
    79         80
    80        180
    81        130
    82        250
    83         20
    91         20
    92         20
    93         30
    94         20
    95         10
    99         30
   104         10
   105         20
   106         20
   107         10
   108         10
   109         10
   117         20
   118         20
   120        180
   121         30
   122        180
   123         30
   132         20
   133        120
   134         20
   135        100
   140         20
   142         20
   149         30
   150         30
   151         30
   152         20
   155        100
   160         10
   161        180
   162         30
   163        170
   164         10
   178         20
   180         20
   198        180
   199         10
   200        420
   201         20
   202        230
   203         10
   204         40
   211          5
   213         20
   215         10
   218        340
   219         20
   220        330
   221         20
   229         20
   231         30
   233         20
   257        180
   258         20
   259        350
   260         20
   261        180
   262         20
   314         30
   316         50
   318         20