##TITLE=Library Entry 3557
##JCAMP-DX=Revision 4.10 
##DATA TYPE=MASS SPECTRUM
##SAMPLE DESCRIPTION=NIST Mass Spectrometry Data Center, 1994
##NAMES=HP
##CAS NAME=3-Bromopropyl isothiocyanate
##MOLFORM=C4H6BrNS
##CAS REGISTRY NO=2799-73-7
##MP= -300
##BP= -300
##MW= 179
##$RETENTION INDEX=0
##$CONDENSED SPECTRUM=NO
##NPOINTS= 83
##XYDATA=(XY..XY) 1 
     4          3
    12          4
    13          3
    14         14
    15         31
    25         10
    26         85
    27        242
    28        118
    29          8
    30          2
    31          2
    32         61
    33          7
    34          5
    36          4
    37         38
    38         78
    39        415
    40         97
    41        999
    42         62
    43          2
    44         77
    45        160
    46         21
    47          9
    49          6
    50          9
    51         10
    52         12
    54         10
    56          5
    57         10
    58         52
    59         53
    60         29
    61          3
    63          3
    64          6
    66          4
    67         28
    68        121
    69         10
    70         49
    71         93
    72        843
    73         50
    74         38
    79         23
    80         14
    81         26
    82         12
    83          3
    84          6
    85         12
    86         15
    91          3
    93         42
    95         31
    98         21
    99         40
   100        278
   101         17
   102         11
   105          4
   106          3
   107         18
   108          2
   109         11
   119          4
   120         14
   121         32
   122         13
   123         27
   151          4
   153          3
   178        133
   179        243
   180        141
   181        249
   182         21
   183         11