##TITLE=Library Entry 3561
##JCAMP-DX=Revision 4.10 
##DATA TYPE=MASS SPECTRUM
##SAMPLE DESCRIPTION=NIST Mass Spectrometry Data Center, 1994
##NAMES=HP
##CAS NAME=3-Chloropropyl isothiocyanate
##MOLFORM=C4H6ClNS
##CAS REGISTRY NO=2799-72-6
##MP= -300
##BP= -300
##MW= 135
##$RETENTION INDEX=0
##$CONDENSED SPECTRUM=NO
##NPOINTS= 81
##XYDATA=(XY..XY) 1 
    12          3
    13          5
    14         10
    15         33
    25          9
    26        106
    27        291
    28        136
    29          8
    30          5
    31          5
    32         71
    33          6
    34          7
    35         15
    36         16
    37         48
    38         88
    39        405
    40        107
    41        999
    42         51
    43          5
    44         86
    45        181
    46         27
    47         19
    48         17
    49        180
    50         14
    51         67
    52         16
    53          2
    54         10
    56          4
    57         14
    58         69
    59        125
    60         91
    61         28
    62         14
    63         26
    64          7
    65          5
    66          1
    67          9
    68         12
    69          8
    70         63
    71          1
    72        908
    73         96
    74         45
    75         33
    76        271
    77         98
    78         86
    79         33
    82          2
    83          3
    84         11
    85         14
    86         91
    87          4
    88          6
    98         20
    99         20
   100        143
   101          9
   102         10
   106         10
   107         20
   108          7
   109          8
   110          2
   135        532
   136         30
   137        197
   138         10
   139          8
   140          0