##TITLE=Library Entry 10038
##JCAMP-DX=Revision 4.10 
##DATA TYPE=MASS SPECTRUM
##SAMPLE DESCRIPTION=Japan AIST/NIMC Database- Spectrum MS-IW-4172
##NAMES=HP
##CAS NAME=(R)-3-Pyrrolidinol
##MOLFORM=C4H9NO
##CAS REGISTRY NO=2799-21-5
##MP= -300
##BP= -300
##MW= 87
##$RETENTION INDEX=0
##$CONDENSED SPECTRUM=NO
##NPOINTS= 49
##XYDATA=(XY..XY) 1 
    14          5
    15         38
    16          1
    17          2
    18          4
    25          1
    26         11
    27         55
    28        269
    29         93
    30        496
    31         56
    32          9
    33          4
    34          3
    39         49
    40         25
    41        151
    42        293
    43        999
    44        151
    45          9
    46          1
    50          1
    51          1
    52          3
    53          3
    54          6
    55          9
    56         32
    57         90
    58         28
    59        115
    60          7
    66          2
    67         11
    68         59
    69         16
    70         26
    71          2
    72         18
    73          1
    83          1
    84          6
    85          3
    86         35
    87        656
    88         59
    89          3