##TITLE=Library Entry 4713
##JCAMP-DX=Revision 4.10 
##DATA TYPE=MASS SPECTRUM
##SAMPLE DESCRIPTION=Japan AIST/NIMC Database- Spectrum MS-NW-1392
##NAMES=HP
##CAS NAME=Triethylenediamine
##MOLFORM=C6H12N2
##CAS REGISTRY NO=280-57-9
##MP= -300
##BP= -300
##MW= 112
##$RETENTION INDEX=1023
##$CONDENSED SPECTRUM=NO
##NPOINTS= 47
##XYDATA=(XY..XY) 1 
    14          8
    15        132
    16          1
    25          1
    26         30
    27        113
    28        233
    29        182
    30        106
    31          3
    32          1
    38          2
    39         15
    40         17
    41        120
    42        999
    43         41
    44         81
    45          3
    51          3
    52          9
    53          4
    54         76
    55        827
    56        377
    57        541
    58        288
    59         11
    67          6
    68         26
    69         76
    70        165
    71         10
    72          3
    80          1
    81          8
    82         50
    83         73
    84        121
    85         25
    86          1
    97         30
    98          2
   111         25
   112        667
   113         53
   114          1