##TITLE=Library Entry 50171
##JCAMP-DX=Revision 4.10 
##DATA TYPE=MASS SPECTRUM
##SAMPLE DESCRIPTION=Chemical Concepts
##NAMES=HP
##CAS NAME=Bicyclo[3.3.1]nonane
##MOLFORM=C9H16
##CAS REGISTRY NO=280-65-9
##MP= -300
##BP= -300
##MW= 124
##$RETENTION INDEX=0
##$CONDENSED SPECTRUM=NO
##NPOINTS= 79
##XYDATA=(XY..XY) 1 
    26         31
    27        270
    28         55
    29        185
    30          3
    36          1
    37          4
    38         13
    39        335
    40         56
    41        548
    42         69
    43         34
    44          0
    45          2
    46          2
    47          1
    48          0
    49          1
    50         16
    51         45
    52         26
    53        159
    54        511
    55        478
    56         55
    57         16
    58          3
    59          1
    61          0
    62          4
    63         11
    64          3
    65         47
    66         80
    67        798
    68        362
    69         87
    70         29
    71          3
    72          0
    73          1
    74          2
    75          3
    76          1
    77         56
    78         14
    79         99
    80         58
    81        999
    82        619
    83        131
    84         11
    85          1
    89          1
    91         19
    92          2
    93         16
    94         17
    95        293
    96        597
    97         56
    98          7
    99          0
   103          0
   105          2
   106          0
   107          3
   108          2
   109         44
   110         14
   111          5
   120          0
   121          2
   122          3
   123         14
   124        732
   125         75
   126          6