##TITLE=Library Entry 414
##JCAMP-DX=Revision 4.10 
##DATA TYPE=MASS SPECTRUM
##SAMPLE DESCRIPTION=Institute of Organic Chemistry, USSR, 1990
##NAMES=HP
##CAS NAME=2,3-Dioxabicyclo[2.2.2]octane
##MOLFORM=C6H10O2
##CAS REGISTRY NO=280-53-5
##MP= -300
##BP= -300
##MW= 114
##$RETENTION INDEX=0
##$CONDENSED SPECTRUM=NO
##NPOINTS= 34
##XYDATA=(XY..XY) 1 
    26        160
    27        480
    28        570
    29        999
    30        120
    31         60
    38         10
    39        160
    40         40
    41        210
    42        130
    43        330
    44        280
    45         10
    51         20
    53         40
    54        120
    55         90
    56         20
    57        420
    58        260
    59         20
    60         20
    67        120
    68         20
    69         30
    70         20
    71         10
    79         60
    80         60
    81        470
    82         20
   114        380
   115         20