##TITLE=Library Entry 22318
##JCAMP-DX=Revision 4.10 
##DATA TYPE=MASS SPECTRUM
##SAMPLE DESCRIPTION=R.F.EVANS UNIV. QUEENSLAND, ST. LUCIA, QUEENSLAND, AUST
RALIA
##NAMES=HP
##CAS NAME=4,5-Thiepanedione, 3,3,6,6-tetramethyl-
##MOLFORM=C10H16O2S
##CAS REGISTRY NO=2800-87-5
##MP= -300
##BP= -300
##MW= 200
##$RETENTION INDEX=0
##$CONDENSED SPECTRUM=NO
##NPOINTS= 28
##XYDATA=(XY..XY) 1 
    39        100
    40         20
    41        210
    42         40
    43         60
    44        100
    45         50
    47         20
    53         20
    54         70
    55        230
    56        999
    57         90
    59         30
    60         40
    61         30
    69         20
    70         30
    73         30
    88         90
    89         40
    97         40
    99         30
   117        180
   119          8
   144         40
   172        110
   200         80