##TITLE=Library Entry 25005
##JCAMP-DX=Revision 4.10 
##DATA TYPE=MASS SPECTRUM
##SAMPLE DESCRIPTION=Japan AIST/NIMC Database- Spectrum MS-NW-7524
##NAMES=HP
##CAS NAME=di-tert-Butyl 1,3-acetonedicarboxylate
##MOLFORM=C13H22O5
##CAS REGISTRY NO=28009-80-5
##MP= -300
##BP= -300
##MW= 258
##$RETENTION INDEX=0
##$CONDENSED SPECTRUM=NO
##NPOINTS= 67
##XYDATA=(XY..XY) 1 
    14          3
    15         16
    16          1
    26          5
    27         34
    28         19
    29        113
    30          2
    31         48
    32          1
    37          2
    38          4
    39         44
    40          9
    41        203
    42         43
    43        105
    44         44
    45          2
    50          3
    51          3
    53          5
    54          2
    55         21
    56         73
    57        999
    58         46
    59        280
    60         10
    61          3
    69         25
    70          3
    71          1
    72          1
    73          2
    83          2
    84         15
    85         16
    86          1
    87         14
    98          2
   100          2
   101          2
   102         81
   103         14
   104          1
   105          1
   111         27
   112          2
   115         16
   116          2
   128         14
   129         78
   130          5
   143          3
   146         18
   147        121
   148          7
   149          2
   156          1
   158          1
   167          1
   185          2
   187          9
   188          1
   202          5
   203          3