##TITLE=Library Entry 16281
##JCAMP-DX=Revision 4.10 
##DATA TYPE=MASS SPECTRUM
##SAMPLE DESCRIPTION=Drug Lab
##NAMES=HP
##CAS NAME=Benzeneethanamine, 2,5-dimethoxy-.alpha.-methyl-
##MOLFORM=C11H17NO2
##CAS REGISTRY NO=2801-68-5
##MP= -300
##BP= -300
##MW= 195
##$RETENTION INDEX=0
##$CONDENSED SPECTRUM=NO
##NPOINTS= 87
##XYDATA=(XY..XY) 1 
    40          3
    41          7
    42         22
    44        999
    45         27
    50          6
    51         22
    52         10
    53         13
    54          6
    55         16
    56          2
    57          2
    58          1
    62          3
    63         11
    64          6
    65         49
    66         11
    67          8
    68          1
    69          1
    74          2
    75          2
    76          4
    77         52
    78         41
    79         22
    80          5
    81          3
    83         10
    89          9
    90          9
    91         54
    92         10
    93         12
    94         10
    95          4
   102          1
   103          5
   104          6
   105         12
   106         10
   107          9
   108         23
   109         13
   110          1
   115          2
   116          1
   117          4
   118          5
   119          4
   120          4
   121         64
   122         16
   123         14
   124          2
   130          1
   131          3
   132          4
   133          6
   134          4
   135          4
   136         12
   137        138
   138         16
   139          1
   146          3
   147          5
   148          9
   149          6
   150          6
   151         29
   152        506
   153         49
   154          4
   161          1
   162          7
   163          4
   164          7
   165          3
   178          1
   179          2
   180          6
   194          2
   195         16
   196          2