##TITLE=Library Entry 70032
##JCAMP-DX=Revision 4.10 
##DATA TYPE=MASS SPECTRUM
##SAMPLE DESCRIPTION=J.A. ENZELL, RES. DEP., SWED. TOB. CO., STOCKHOLM, SWED
EN
##NAMES=HP
##CAS NAME=4-Ethyl-2-hydroxycyclopent-2-en-1-one
##MOLFORM=C7H10O2
##CAS REGISTRY NO=28017-62-1
##MP= -300
##BP= -300
##MW= 126
##$RETENTION INDEX=1629
##$CONDENSED SPECTRUM=NO
##NPOINTS= 10
##XYDATA=(XY..XY) 1 
    41        420
    42        170
    43        190
    55        290
    69        640
    70         80
    83         90
    97        999
    98        130
   126        300