##TITLE=Library Entry 52949
##JCAMP-DX=Revision 4.10 
##DATA TYPE=MASS SPECTRUM
##SAMPLE DESCRIPTION=ATLAS OF MASS SPECTRA OF ORGANIC COMPOUNDS, V. A. KOPTY
UG, ED.
##NAMES=HP
##CAS NAME=1H-Pyrazole, 4,5-dihydro-4,5-dimethyl-
##MOLFORM=C5H10N2
##CAS REGISTRY NO=28019-94-5
##MP= -300
##BP= -300
##MW= 98
##$RETENTION INDEX=0
##$CONDENSED SPECTRUM=NO
##NPOINTS= 32
##XYDATA=(XY..XY) 1 
    26         32
    27        121
    28        441
    29         78
    30         35
    38         12
    39         88
    40         15
    41        144
    42        441
    43         88
    44        115
    51         12
    52         12
    53         24
    54         50
    55         26
    56        260
    57         17
    66          6
    67          7
    68         14
    69         41
    70         22
    81         17
    82          9
    83        999
    84         52
    95          4
    97         56
    98        471
    99         29