##TITLE=Library Entry 38445
##JCAMP-DX=Revision 4.10 
##DATA TYPE=MASS SPECTRUM
##SAMPLE DESCRIPTION=R.T.HOLMAN,UNIVERSITY OF MINNESOTA
##NAMES=HP
##CAS NAME=Pentadecane, 4-methyl-
##MOLFORM=C16H34
##CAS REGISTRY NO=2801-87-8
##MP= -300
##BP= -300
##MW= 226
##$RETENTION INDEX=1556
##$CONDENSED SPECTRUM=NO
##NPOINTS= 94
##XYDATA=(XY..XY) 1 
    26          6
    27         56
    28        101
    29        166
    30          4
    32         19
    39         36
    40         10
    41        297
    42        105
    43        913
    44         32
    51          2
    52          2
    53         16
    54         18
    55        246
    56        126
    57        876
    58         40
    59          2
    60          1
    65          2
    66          2
    67         18
    68         15
    69         93
    70        514
    71        999
    72         52
    73          2
    74          2
    77          2
    78          1
    79          3
    80          1
    81          7
    82         17
    83         55
    84         50
    85        442
    86         26
    87          2
    91          2
    93          1
    95          4
    96         11
    97         52
    98         29
    99         14
   100         11
   109          2
   110          7
   111         30
   112         21
   113        112
   114         11
   115          2
   123          1
   124          4
   125         18
   126         17
   127         85
   128          7
   129          1
   138          2
   139          7
   140         10
   141         39
   142          5
   152          2
   153          5
   154         53
   155         38
   156          5
   168          5
   169          6
   170          2
   182        195
   183        260
   184         33
   185          3
   196         13
   197         18
   198          2
   199          1
   210          6
   211         26
   212          5
   213          1
   224          1
   225          2
   226         18
   227          3