##TITLE=Library Entry 7870
##JCAMP-DX=Revision 4.10 
##DATA TYPE=MASS SPECTRUM
##SAMPLE DESCRIPTION=D.HENNEBERG, MAX-PLANCK INSTITUTE, MULHEIM, WEST GERMAN
Y
##NAMES=HP
##CAS NAME=Decane, 2,4-dimethyl-
##MOLFORM=C12H26
##CAS REGISTRY NO=2801-84-5
##MP= -300
##BP= -300
##MW= 170
##$RETENTION INDEX=1106
##$CONDENSED SPECTRUM=NO
##NPOINTS= 39
##XYDATA=(XY..XY) 1 
    25          0
    26          6
    27         89
    28         14
    29        141
    30          3
    39         46
    40          8
    41        226
    42         59
    43        999
    44         26
    53          9
    54          3
    55         69
    56        134
    57        692
    58         28
    65          0
    67          3
    68          2
    69         54
    70         32
    71        384
    72         18
    82          5
    83         23
    84         87
    85        301
    86         19
    97          3
    98          2
    99          7
   111          1
   112         38
   113         21
   126          7
   127         13
   155          1