##TITLE=Library Entry 45660
##JCAMP-DX=Revision 4.10 
##DATA TYPE=MASS SPECTRUM
##SAMPLE DESCRIPTION=Japan AIST/NIMC Database- Spectrum MS-IW-4763
##NAMES=HP
##CAS NAME=3-Propylnorleucine
##MOLFORM=C9H19NO2
##CAS REGISTRY NO=2801-58-3
##MP= -300
##BP= -300
##MW= 173
##$RETENTION INDEX=0
##$CONDENSED SPECTRUM=NO
##NPOINTS= 114
##XYDATA=(XY..XY) 1 
    15          3
    17          9
    18          1
    26          2
    27         58
    28         82
    29        101
    30        251
    31          5
    32          1
    38          2
    39         39
    40          6
    41        185
    42         34
    43        179
    44         26
    45          9
    46         13
    50          2
    51          4
    52          3
    53         14
    54         45
    55        124
    56        136
    57        442
    58         38
    59          6
    60          3
    63          1
    65          5
    66          3
    67         21
    68         11
    69        153
    70         27
    71         10
    72         55
    73         15
    74        134
    75        999
    76        121
    77         12
    78          2
    79          6
    80          4
    81         11
    82         12
    83         23
    84         27
    85         16
    86         40
    87          9
    88         28
    89          3
    91          4
    92          1
    93          3
    94          4
    95          9
    96         12
    97          7
    98         23
    99          9
   100          5
   101          3
   102         65
   103         11
   104          1
   105          5
   106          2
   107          2
   108          3
   109          4
   110          3
   111          9
   112          9
   113          8
   114          9
   115          5
   116          2
   117          1
   118          1
   120          2
   121          1
   122          5
   123          2
   124          2
   125          1
   126         43
   127         11
   128        938
   129         96
   130         17
   131          5
   135          2
   136          1
   137          2
   138          3
   139          1
   140          4
   141          1
   142          2
   144          3
   149          1
   154          2
   155          2
   156         45
   157          5
   172          1
   173         28
   174          9
   175          1