##TITLE=Library Entry 24146
##JCAMP-DX=Revision 4.10 
##DATA TYPE=MASS SPECTRUM
##SAMPLE DESCRIPTION=H.ROPER HAMBURG UNIVERSITY, HAMBURG, GERMANY, F.R.G.
##NAMES=HP
##CAS NAME=Pentylamine, N-sec-butyl-N-nitroso-
##MOLFORM=C9H20N2O
##CAS REGISTRY NO=28023-79-2
##MP= -300
##BP= -300
##MW= 172
##$RETENTION INDEX=0
##$CONDENSED SPECTRUM=NO
##NPOINTS= 50
##XYDATA=(XY..XY) 1 
    27         64
    28         43
    29        209
    30         85
    39         34
    41        221
    42        149
    43        682
    47         30
    53         19
    54         18
    55        192
    56        553
    57        999
    58        100
    59         22
    60        118
    68         18
    69         81
    70        349
    71        230
    72        188
    73         20
    74         20
    84        214
    85         92
    86         83
    87         10
    98         83
    99        166
   100         11
   102         12
   103         18
   112        180
   113         24
   114         35
   115        252
   116        268
   117        224
   118         15
   126         30
   127         17
   140         12
   142         15
   143        194
   144         18
   155        326
   156         15
   172        488
   173         52