##TITLE=Library Entry 8708
##JCAMP-DX=Revision 4.10 
##DATA TYPE=MASS SPECTRUM
##SAMPLE DESCRIPTION=H.ROPER HAMBURG UNIVERSITY, HAMBURG, GERMANY, F.R.G.
##NAMES=HP
##CAS NAME=1-Pentanamine, N-nitroso-n-propyl-
##MOLFORM=C8H18N2O
##CAS REGISTRY NO=28023-78-1
##MP= -300
##BP= -300
##MW= 158
##$RETENTION INDEX=0
##$CONDENSED SPECTRUM=NO
##NPOINTS= 59
##XYDATA=(XY..XY) 1 
    26         15
    27        139
    28        108
    29        153
    30        174
    39         79
    41        282
    42        265
    43        999
    44        192
    45         20
    46         17
    53         27
    54         53
    55        160
    56        363
    57        134
    58        111
    59         86
    60         21
    67         19
    68         30
    69        118
    70        842
    71        290
    72        290
    73         37
    74         34
    82         18
    83         53
    84        195
    85        161
    86         45
    87         26
    88         10
    89         48
    96         24
    97         11
    98        695
    99         80
   100         38
   101        169
   102        174
   103         15
   111         15
   112         43
   113         43
   114         13
   115         30
   125         13
   126         48
   127         20
   128         34
   129        108
   130         12
   141        337
   142         42
   158        148
   159         19