##TITLE=Library Entry 22626
##JCAMP-DX=Revision 4.10 
##DATA TYPE=MASS SPECTRUM
##SAMPLE DESCRIPTION=H.ROPER HAMBURG UNIVERSITY, HAMBURG, GERMANY, F.R.G.
##NAMES=HP
##CAS NAME=1-Propanamine, N-(1-methylethyl)-2-nitroso-
##MOLFORM=C6H14N2O
##CAS REGISTRY NO=28023-82-7
##MP= -300
##BP= -300
##MW= 130
##$RETENTION INDEX=0
##$CONDENSED SPECTRUM=NO
##NPOINTS= 36
##XYDATA=(XY..XY) 1 
    26         19
    27        138
    28         80
    29         57
    30        100
    38         11
    39         69
    41        210
    42        106
    43        591
    44         46
    45         14
    47         26
    54         41
    55         24
    56        999
    57        105
    58        391
    59         58
    60         12
    70        540
    71        274
    72         45
    73        115
    84        999
    85         49
    86         32
    88         40
    89         12
    98         11
   101         64
   102         13
   113         53
   115         17
   130        626
   131         55