##TITLE=Library Entry 96413
##JCAMP-DX=Revision 4.10 
##DATA TYPE=MASS SPECTRUM
##SAMPLE DESCRIPTION=ASES Database, Dalian Institute, P.R. China
##NAMES=HP
##CAS NAME=Pyrimidine,2,4-difluoro-
##MOLFORM=C4H2F2N2
##CAS REGISTRY NO=2802-61-1
##MP= -300
##BP= -300
##MW= 116
##$RETENTION INDEX=0
##$CONDENSED SPECTRUM=NO
##NPOINTS= 20
##XYDATA=(XY..XY) 1 
    31        138
    40         98
    44        240
    45         10
    46         20
    51         80
    52         89
    69         39
    70        121
    71        337
    73          9
    74          9
    75         79
    76         49
    77         80
    78         90
    89        131
    97         70
   116        999
   117         49