##TITLE=Library Entry 60963
##JCAMP-DX=Revision 4.10 
##DATA TYPE=MASS SPECTRUM
##SAMPLE DESCRIPTION=LAC, NIDDK, NIH, Bethesda, MD 20892
##NAMES=HP
##CAS NAME=Benzenepropanoic acid, 3-phenyl-2-propenyl ester
##MOLFORM=C18H18O2
##CAS REGISTRY NO=28048-98-8
##MP= -300
##BP= -300
##MW= 266
##$RETENTION INDEX=2250
##$CONDENSED SPECTRUM=NO
##NPOINTS= 140
##XYDATA=(XY..XY) 1 
    41         37
    42         14
    43         33
    44          6
    45         15
    49          2
    50         67
    51        210
    52         67
    53        107
    54         17
    55         43
    56          4
    58          7
    60          1
    61          3
    62         15
    63         66
    64         15
    65        167
    66         15
    67          5
    68          1
    69          8
    70          1
    71          2
    73          3
    74         15
    75         17
    76         26
    77        318
    78        157
    79        219
    80         13
    81          1
    82          1
    83          2
    85          1
    86          2
    87          4
    88          1
    89         45
    91        999
    92        117
    93          7
    94          1
    95          1
    97          1
    98          3
    99          0
   101          4
   102         33
   103        152
   104        596
   105        717
   106         68
   107        303
   108         23
   109          1
   110          0
   111          1
   113          2
   115        302
   116         90
   117        669
   118         86
   119          7
   120          4
   121          2
   122          1
   127          4
   128         18
   129         28
   130         10
   131         28
   133        244
   134         43
   135          4
   139          1
   141         12
   142         48
   143         21
   144          5
   145          3
   146          2
   147          3
   149        100
   150         61
   151          6
   152          1
   153          0
   154          1
   155          4
   156          3
   157          4
   158          1
   159          3
   160          3
   161          0
   162          2
   163          2
   165          3
   166          0
   167          2
   174          2
   175         14
   176          2
   177          0
   178          3
   179          2
   180          1
   182          2
   189          1
   190          1
   191          3
   192          1
   193          4
   194          0
   202          8
   203         11
   204          5
   205          4
   206          2
   207          4
   215          0
   217          2
   218          1
   219         10
   220          5
   221          1
   222          2
   224          1
   237          1
   239          1
   248          0
   249          1
   250          1
   265          0
   266         28
   267          5