##TITLE=Library Entry 63145
##JCAMP-DX=Revision 4.10 
##DATA TYPE=MASS SPECTRUM
##SAMPLE DESCRIPTION=LAC, NIDDK, NIH, Bethesda, MD 20892
##NAMES=HP
##CAS NAME=2-Phenoxyethyl-.beta.-phenylpropionate
##MOLFORM=C17H18O3
##CAS REGISTRY NO=28049-09-4
##MP= -300
##BP= -300
##MW= 270
##$RETENTION INDEX=0
##$CONDENSED SPECTRUM=NO
##NPOINTS= 130
##XYDATA=(XY..XY) 1 
    41         53
    42         63
    43         62
    44         15
    45         54
    46          0
    47          5
    48          2
    49         21
    50         57
    51        219
    52         37
    53         24
    54          3
    55         40
    56          5
    57         16
    58          1
    59          8
    60          0
    61          3
    62         13
    63         54
    64         22
    65        267
    66         43
    67          5
    68          1
    69          4
    70          1
    71          4
    72         12
    73          9
    74         11
    75         12
    76         27
    77        468
    78        121
    79        141
    80          8
    81          2
    82          1
    83          2
    84         10
    85          2
    86         40
    87          4
    88          4
    89         24
    90          8
    91        999
    92        110
    93         31
    94         84
    95         14
    96          1
    97          1
    98          1
    99         26
   100          2
   101          2
   102         14
   103        107
   104        343
   105        428
   106         37
   107         71
   108          7
   109          1
   111          0
   114          4
   115          4
   116          0
   117          4
   118          1
   119         16
   120         67
   121         19
   122          2
   123          0
   127          0
   128          0
   129          1
   130          1
   131         17
   132          8
   133         55
   134          6
   135          3
   136          0
   137          0
   138         12
   139          1
   141          1
   145          0
   146          0
   147          2
   148          0
   149         31
   150         39
   151          5
   152          2
   153          1
   154          1
   155          2
   162          2
   163          0
   164          1
   165          2
   166          0
   167          1
   172          0
   175          7
   176         19
   177        790
   178        120
   179         11
   180          0
   183          2
   190          0
   191          0
   203          0
   206         10
   207          1
   209          0
   222          5
   223          0
   238          0
   270         16
   271          3