##TITLE=Library Entry 41024
##JCAMP-DX=Revision 4.10 
##DATA TYPE=MASS SPECTRUM
##SAMPLE DESCRIPTION=Exported from NIST MS Search
##NAMES=HP
##CAS NAME=Cyclohexane, 1,4-dimethoxy-, cis-
##MOLFORM=C8H16O2
##CAS REGISTRY NO=28046-68-6
##MP= -300
##BP= -300
##MW= 144
##$RETENTION INDEX=0
##$CONDENSED SPECTRUM=NO
##NPOINTS= 63
##XYDATA=(XY..XY) 1 
    39         60
    41        260
    42         40
    43         90
    45        210
    46         10
    47         10
    50         10
    51         10
    52         10
    53         40
    54         30
    55         60
    56         10
    57         30
    58        360
    59         30
    63         10
    65         10
    66         10
    67         30
    68         10
    69         50
    70         10
    71        230
    72         80
    73        999
    74         50
    75         50
    76         10
    77         30
    78         10
    79         40
    80         40
    81        140
    82         50
    83         10
    84         70
    85         10
    86         10
    87         10
    88         10
    89         10
    94         10
    95         10
    96         10
    97         70
    98         10
    99         10
   100         10
   101         10
   102         10
   103         10
   110         10
   111         70
   112        250
   113         20
   114        300
   115         40
   116         10
   143         10
   144         20
   145         10