##TITLE=Library Entry 39159
##JCAMP-DX=Revision 4.10 
##DATA TYPE=MASS SPECTRUM
##SAMPLE DESCRIPTION=V.Zaikin,Topchiev Inst.Petrochem.Synth.,Moscow
##NAMES=HP
##CAS NAME=Neopentyl-.beta.-phenylpropionate
##MOLFORM=C14H20O2
##CAS REGISTRY NO=28048-96-6
##MP= -300
##BP= -300
##MW= 220
##$RETENTION INDEX=0
##$CONDENSED SPECTRUM=NO
##NPOINTS= 124
##XYDATA=(XY..XY) 1 
    25          2
    26         12
    27         42
    28         12
    29         66
    30          4
    31          2
    36          6
    37          2
    38          6
    39         60
    40         10
    41        131
    42         21
    43        638
    44         17
    45          2
    49          2
    50         22
    51         64
    52         19
    53         19
    54          4
    55        104
    56         29
    57        252
    58         10
    59          1
    61          1
    62          5
    63         20
    64          6
    65         71
    66          6
    67          5
    68          2
    69         14
    70        323
    71        999
    72         56
    73          5
    74          8
    75          8
    76         12
    77        154
    78        104
    79         90
    80          6
    81          2
    83          2
    85          2
    86          2
    87          2
    89         21
    90         13
    91        937
    92         99
    93          7
    94          1
    95          3
    97          3
    99          1
   101          2
   102         19
   103        121
   104        774
   105        882
   106         66
   107         60
   108          5
   109          1
   110          1
   111          2
   115          4
   116          3
   117          5
   118         10
   119          3
   120          2
   121          2
   125          3
   128          1
   129          2
   130          2
   131         28
   132         25
   133        583
   134         56
   135         20
   136          3
   137          1
   141          2
   143          2
   145         13
   146          8
   147          5
   148          5
   149          7
   150        606
   151         56
   152          5
   155         17
   156          3
   157          2
   159         10
   160          1
   161          1
   163          6
   164         12
   165          3
   167          1
   168          3
   169          3
   185          1
   187          3
   191          1
   193          2
   203          3
   205         23
   206          3
   218          1
   220        115
   221         16
   222          2