##TITLE=Library Entry 77295
##JCAMP-DX=Revision 4.10 
##DATA TYPE=MASS SPECTRUM
##SAMPLE DESCRIPTION=V.Zaikin,Topchiev Inst.Petrochem.Synth.,Moscow
##NAMES=HP
##CAS NAME=2-Phenethyl-.beta.-phenylpropionate
##MOLFORM=C17H18O2
##CAS REGISTRY NO=28049-10-7
##MP= -300
##BP= -300
##MW= 254
##$RETENTION INDEX=2049
##$CONDENSED SPECTRUM=NO
##NPOINTS= 87
##XYDATA=(XY..XY) 1 
    25          1
    26          7
    27         17
    28          3
    29          5
    30          2
    36          4
    37          1
    38          3
    39         26
    40          4
    41          8
    42          5
    43          4
    49          2
    50         17
    51         54
    52         16
    53          8
    55          5
    57          1
    61          1
    62          5
    63         21
    64          6
    65         76
    66          6
    67          1
    69          2
    73          2
    74          7
    75          7
    76         11
    77        174
    78         96
    79        114
    80          7
    83          1
    87          1
    89         21
    90         12
    91        725
    92         70
    93          4
    96          1
    97          1
   101          2
   102         21
   103        168
   104        999
   105        869
   106        113
   107         46
   108          4
   115          3
   116          1
   117          6
   118          2
   120          3
   121          4
   122          2
   128          1
   131         14
   132         12
   133         66
   134          8
   135          2
   147          2
   148          1
   149          4
   150         24
   151          3
   152          2
   162          2
   163         18
   164          2
   165          6
   166          3
   167          4
   178          8
   179          4
   180          2
   191          2
   192          1
   193          6
   194          4
   195          1