##TITLE=Library Entry 28266
##JCAMP-DX=Revision 4.10 
##DATA TYPE=MASS SPECTRUM
##SAMPLE DESCRIPTION=CARL DJERASSI DEPT OF CHEM STANFORD UNIV STANFORD CALIF
 94305
##NAMES=HP
##CAS NAME=1-Hexanamine, 2-ethyl-N,N-dimethyl-
##MOLFORM=C10H23N
##CAS REGISTRY NO=28056-87-3
##MP= -300
##BP= -300
##MW= 157
##$RETENTION INDEX=0
##$CONDENSED SPECTRUM=NO
##NPOINTS= 39
##XYDATA=(XY..XY) 1 
    15         10
    18         10
    27         10
    28         10
    29         10
    30         10
    31         10
    41         20
    42         30
    43         10
    44         20
    45         10
    46         10
    55         10
    56         10
    57         20
    58        999
    59         40
    60         40
    69         10
    70         10
    71         10
    72         10
    73         10
    83         10
    84         20
    85         10
    86         10
    87         10
    98         10
    99         10
   100         10
   112         10
   128         10
   129         10
   142         10
   154         10
   156         10
   157         30