##TITLE=Library Entry 22065
##JCAMP-DX=Revision 4.10 
##DATA TYPE=MASS SPECTRUM
##SAMPLE DESCRIPTION=NIST Mass Spectrometry Data Center, 1990.
##NAMES=HP
##CAS NAME=Cyclopentanone, 2,2,4-trimethyl-
##MOLFORM=C8H14O
##CAS REGISTRY NO=28056-54-4
##MP= -300
##BP= -300
##MW= 126
##$RETENTION INDEX=0
##$CONDENSED SPECTRUM=NO
##NPOINTS= 35
##XYDATA=(XY..XY) 1 
    14         13
    15         38
    26         15
    27        146
    28        110
    29         82
    32         12
    39        341
    40         83
    41        549
    42        181
    43         70
    50         15
    51         24
    52         11
    53         52
    55        218
    56        999
    57         87
    65         16
    67         56
    69        351
    70         65
    71         37
    79         12
    82        110
    83        169
    84         68
    93         88
    97         18
   108         27
   111        286
   112         28
   126        262
   127         23