##TITLE=Library Entry 48837
##JCAMP-DX=Revision 4.10 
##DATA TYPE=MASS SPECTRUM
##SAMPLE DESCRIPTION=A.G. HARRISON, UNIV. OF TORONTO, TORONTO 5, ONTARIO, CA
NADA
##NAMES=HP
##CAS NAME=3-Hexen-1-yne
##MOLFORM=C6H8
##CAS REGISTRY NO=2806-56-6
##MP= -300
##BP= -300
##MW= 80
##$RETENTION INDEX=0
##$CONDENSED SPECTRUM=NO
##NPOINTS= 12
##XYDATA=(XY..XY) 1 
    39        559
    50        179
    51        247
    52        295
    53        126
    54         49
    63         98
    65        303
    77        380
    78         84
    79        999
    80        722