##TITLE=Library Entry 70031
##JCAMP-DX=Revision 4.10 
##DATA TYPE=MASS SPECTRUM
##SAMPLE DESCRIPTION=Japan AIST/NIMC Database- Spectrum MS-NW-7301
##NAMES=HP
##CAS NAME=2-Butyn-1-al diethyl acetal
##MOLFORM=C8H14O2
##CAS REGISTRY NO=2806-97-5
##MP= -300
##BP= -300
##MW= 142
##$RETENTION INDEX=0
##$CONDENSED SPECTRUM=NO
##NPOINTS= 75
##XYDATA=(XY..XY) 1 
    14          1
    15          9
    19          1
    26          9
    27         60
    28         12
    29         93
    30          5
    31         31
    32          2
    37          5
    38         13
    39        100
    40         16
    41        131
    42          9
    43         52
    44          5
    45         34
    46          4
    47         13
    49          1
    50         12
    51         21
    52         34
    53          9
    54          5
    55          6
    56          2
    57          5
    58          1
    59          7
    60          2
    61          1
    63          2
    65          1
    66          5
    67         51
    68         25
    69        825
    70         42
    71          6
    72          1
    73          3
    74          2
    75          5
    76          1
    81          7
    82          1
    83          9
    84          3
    85         53
    86          4
    87          2
    88          2
    89          1
    91          3
    95          6
    96          9
    97        999
    98         71
    99          9
   100          1
   101          1
   102          1
   103          5
   104          1
   111          1
   113         16
   114          3
   115          1
   127          2
   141         20
   142          3
   143          1