##TITLE=Library Entry 16704
##JCAMP-DX=Revision 4.10 
##DATA TYPE=MASS SPECTRUM
##SAMPLE DESCRIPTION=Chemical Concepts
##NAMES=HP
##CAS NAME=Propanal, 3-methoxy-
##MOLFORM=C4H8O2
##CAS REGISTRY NO=2806-84-0
##MP= -300
##BP= -300
##MW= 88
##$RETENTION INDEX=0
##$CONDENSED SPECTRUM=NO
##NPOINTS= 40
##XYDATA=(XY..XY) 1 
    26        111
    27        342
    28        440
    29        648
    30         20
    31        504
    32         10
    33        305
    34          2
    36          1
    37          5
    38          7
    39         15
    40          3
    41         17
    42         37
    43         86
    44         11
    45        999
    46         14
    47          1
    52          0
    53          4
    54          1
    55         37
    56         79
    57        122
    58         97
    59         43
    60        541
    61         22
    62          0
    69          1
    70          7
    71          8
    73          6
    85          1
    87         25
    88          9
    89          3