##TITLE=Library Entry 75719
##JCAMP-DX=Revision 4.10 
##DATA TYPE=MASS SPECTRUM
##SAMPLE DESCRIPTION=Institute of Organic Chemistry, Novosibirsk, USSR 1988
##NAMES=HP
##CAS NAME=Methyl 2,4-di-O-acetyl-3-acetamido-3,6-dideoxy-.alpha.-D-allopyra
noside
##MOLFORM=C13H21NO7
##CAS REGISTRY NO=28079-83-6
##MP= -300
##BP= -300
##MW= 303
##$RETENTION INDEX=0
##$CONDENSED SPECTRUM=NO
##NPOINTS= 81
##XYDATA=(XY..XY) 1 
    54         29
    55         33
    56         46
    57         50
    58        139
    59        179
    60        459
    69         34
    70         23
    71        229
    72         59
    73        109
    74         39
    75        219
    81         32
    83        129
    84        229
    85         69
    86        309
    87        349
    88         59
    89         45
    96         27
    98        309
    99        289
   100        209
   101        999
   102        469
   103         56
   110         90
   111         83
   112        119
   113         33
   114         74
   115         46
   116         65
   117        129
   118        129
   123        379
   124        179
   125         62
   126         79
   127         33
   128        249
   129         89
   130         59
   139         22
   140        309
   141        139
   142        179
   143        229
   144        189
   145        139
   151         23
   152         99
   153         69
   158         39
   168         69
   170         69
   183        219
   184        119
   186         23
   200        489
   201         61
   202         13
   211          4
   212         38
   213          4
   215         15
   228          8
   229          5
   230         10
   242          3
   243         33
   244         19
   245          3
   256          3
   260          3
   272         73
   273         10
   304         19