##TITLE=Library Entry 8376
##JCAMP-DX=Revision 4.10 
##DATA TYPE=MASS SPECTRUM
##SAMPLE DESCRIPTION=NIST Mass Spectrometry Data Center, 1998.
##NAMES=HP
##CAS NAME=8-Dodecen-1-ol, acetate, (Z)-
##MOLFORM=C14H26O2
##CAS REGISTRY NO=28079-04-1
##MP= -300
##BP= -300
##MW= 226
##$RETENTION INDEX=1605
##$CONDENSED SPECTRUM=NO
##NPOINTS= 98
##XYDATA=(XY..XY) 1 
    14          1
    15         13
    26          4
    27         68
    28         17
    29        111
    30          4
    31          8
    37          1
    38          3
    39        147
    40         28
    41        632
    42        134
    43        999
    44         31
    45          8
    50          4
    51         14
    52         11
    53        116
    54        469
    55        982
    56        141
    57         57
    58          7
    59          3
    60          2
    61        101
    62          3
    63          3
    64          1
    65         38
    66         75
    67        997
    68        505
    69        301
    70         47
    71         22
    72          4
    73         30
    74          1
    77         31
    78          8
    79         95
    80         46
    81        885
    82        976
    83        191
    84         25
    85          9
    86          4
    87          3
    91         14
    92          2
    93         27
    94         20
    95        517
    96        575
    97         98
    98         14
    99          4
   100          5
   101          3
   105          2
   107          8
   108          9
   109        258
   110        241
   111         33
   112          4
   113          2
   114          5
   115          1
   121          4
   122          6
   123        113
   124         80
   125         10
   126          1
   127          1
   128          1
   135          2
   136          3
   137         56
   138         50
   139          6
   140          1
   141          1
   142          1
   151          4
   152          1
   153          1
   164          1
   166        187
   167         24
   168          1
   183          1