##TITLE=Library Entry 11258
##JCAMP-DX=Revision 4.10 
##DATA TYPE=MASS SPECTRUM
##SAMPLE DESCRIPTION=Japan AIST/NIMC Database- Spectrum MS-IW-5206
##NAMES=HP
##CAS NAME=Bis(ethyl 4-acetyl-5-oxohexanoato)copper(ii)
##MOLFORM=C20H30CuO8
##CAS REGISTRY NO=28076-95-1
##MP= -300
##BP= -300
##MW= 461
##$RETENTION INDEX=0
##$CONDENSED SPECTRUM=NO
##NPOINTS= 185
##XYDATA=(XY..XY) 1 
    12          2
    13          3
    14         27
    15         40
    16          2
    24          2
    25          8
    26         44
    27        108
    28        122
    29         67
    30          8
    31        152
    32          2
    37          5
    38         12
    39         58
    40         25
    41         59
    42        159
    43        999
    44         64
    45        118
    46         43
    47          3
    49          5
    50         17
    51         20
    52         16
    53         27
    54          9
    55        222
    56         15
    57          9
    58         12
    59          1
    60         45
    61         33
    62          8
    63         10
    64          7
    65         22
    66         35
    67         28
    68          9
    69        102
    70        130
    71        119
    72          7
    73         20
    74          4
    75          1
    76          3
    77          7
    78          9
    79         13
    80          9
    81          9
    82         16
    83         70
    84        174
    85         37
    86          3
    87         20
    88         49
    89          9
    90          6
    91         10
    92          6
    93         13
    94         44
    95         35
    96          8
    97        119
    98          9
    99          4
   100         13
   101         24
   102          5
   103          1
   104          1
   105          2
   106          1
   107          8
   108         19
   109         13
   110          8
   111        274
   112        371
   113        496
   114         37
   115         22
   116          4
   117          2
   118          9
   119          2
   120          2
   121          6
   122          1
   123          2
   124          9
   125         25
   126        160
   127         15
   128          3
   129         14
   130          1
   131          1
   133          7
   134          3
   135          6
   136         29
   137          8
   138          2
   139         64
   140          6
   141          3
   143          7
   144          1
   146          1
   147          3
   149          3
   151          1
   152          9
   153         13
   154        109
   155         61
   156          8
   157         76
   158        262
   159         24
   160          2
   161          1
   162          1
   165          1
   169          2
   171          4
   173          3
   174          1
   175         87
   176         18
   177         42
   178          9
   179          1
   181          2
   182          6
   185          2
   187          3
   189          7
   190          2
   191          4
   193          1
   197          1
   198          3
   199         14
   200         43
   201          6
   202          1
   203          9
   204          1
   205         10
   206          1
   207          3
   213          1
   215          2
   217          1
   219          8
   220          8
   221          5
   222          3
   233          5
   234         10
   235          2
   236          5
   247          2
   257          2
   261         10
   262         33
   263         59
   264         20
   265         23
   266          2
   374          5
   375          1
   376          2