##TITLE=Library Entry 48838
##JCAMP-DX=Revision 4.10 
##DATA TYPE=MASS SPECTRUM
##SAMPLE DESCRIPTION=D.HENNEBERG, MAX-PLANCK INSTITUTE, MULHEIM, WEST GERMAN
Y
##NAMES=HP
##CAS NAME=3-Hexen-1-yne, (E)-
##MOLFORM=C6H8
##CAS REGISTRY NO=2807-09-2
##MP= -300
##BP= -300
##MW= 80
##$RETENTION INDEX=0
##$CONDENSED SPECTRUM=NO
##NPOINTS= 38
##XYDATA=(XY..XY) 1 
    27        147
    28         45
    29         19
    32          7
    37         14
    38         74
    39        442
    40         46
    41         92
    42          5
    43          2
    44         11
    48          1
    49          7
    50        140
    51        196
    52        353
    53         92
    54         41
    55          4
    58          2
    61         11
    62         38
    63        104
    64         25
    65        370
    66         38
    67          2
    73          1
    74         11
    75         22
    76         11
    77        323
    78         67
    79        999
    80        661
    81         46
    82          1