##TITLE=Library Entry 89857
##JCAMP-DX=Revision 4.10 
##DATA TYPE=MASS SPECTRUM
##SAMPLE DESCRIPTION=B.ZEEH TUBINGEN UNIVERSITY, TUBINGEN F.R.G.
##NAMES=HP
##CAS NAME=1H-Azepin-1-amine, hexahydro-N-(1-methyl-2-propenyl)-
##MOLFORM=C10H20N2
##CAS REGISTRY NO=28075-23-2
##MP= -300
##BP= -300
##MW= 168
##$RETENTION INDEX=0
##$CONDENSED SPECTRUM=NO
##NPOINTS= 21
##XYDATA=(XY..XY) 1 
    41        390
    42        290
    43        100
    44         90
    45        190
    55        210
    56         80
    59        350
    68         50
    69        190
    70         60
    71         20
    81         20
    82         20
    83         30
    84         30
   113        999
   114        100
   166         20
   168         50
   169         10