##TITLE=Library Entry 49981
##JCAMP-DX=Revision 4.10 
##DATA TYPE=MASS SPECTRUM
##SAMPLE DESCRIPTION=CARL DJERASSI DEPT OF CHEM STANFORD UNIV STANFORD CALIF
 94305
##NAMES=HP
##CAS NAME=2-Hexyne, 6-chloro-
##MOLFORM=C6H9Cl
##CAS REGISTRY NO=28077-73-8
##MP= -300
##BP= -300
##MW= 116
##$RETENTION INDEX=0
##$CONDENSED SPECTRUM=NO
##NPOINTS= 36
##XYDATA=(XY..XY) 1 
    39        300
    40         50
    41        430
    42         10
    50        110
    51        180
    52        150
    53        770
    54        780
    55         70
    61         10
    62         20
    63         50
    64         10
    65        170
    66         50
    67        150
    68         10
    75         40
    76         20
    77        150
    78         40
    79        370
    80        100
    81        999
    82         70
    88         30
    90         10
    92         10
   101        120
   102         10
   103         40
   116        480
   117         40
   118        160
   119         10