##TITLE=Library Entry 47924
##JCAMP-DX=Revision 4.10 
##DATA TYPE=MASS SPECTRUM
##SAMPLE DESCRIPTION=Div. of Experiment Therapeutics WRAIR, WRAMC, Washingto
n DC 20307
##NAMES=HP
##CAS NAME=S-p-Acetamidophenyl-S-[5-acetamido-2-pyridyl]-N-phenylsulfonylsul
fenamide
##MOLFORM=C21H20N4O4S2
##CAS REGISTRY NO=28075-43-6
##MP= -300
##BP= -300
##MW= 456
##$RETENTION INDEX=0
##$CONDENSED SPECTRUM=NO
##NPOINTS= 22
##XYDATA=(XY..XY) 1 
    43        476
    50        172
    51        408
    64        142
    77        999
    78         74
    80        163
    93        375
    94        226
   107        138
   124        177
   125         73
   141        301
   157        371
   216        175
   217         33
   226         34
   258        403
   259        152
   300        425
   301        512
   302        122