##TITLE=Library Entry 50990
##JCAMP-DX=Revision 4.10 
##DATA TYPE=MASS SPECTRUM
##SAMPLE DESCRIPTION=A.A.Kutin, Moscow, Russia
##NAMES=HP
##CAS NAME=2-[(4-Chlorophenyl)imino]-3-(2-furylmethyl)-1,3-thiazolan-4-one
##MOLFORM=C14H11ClN2O2S
##CAS REGISTRY NO=280754-41-8
##MP= -300
##BP= -300
##MW= 306
##$RETENTION INDEX=0
##$CONDENSED SPECTRUM=NO
##NPOINTS= 242
##XYDATA=(XY..XY) 1 
    33          8
    34          2
    35          1
    36          8
    37          4
    38         15
    39         35
    40         28
    41          9
    42         18
    43          7
    44         16
    45         27
    46         34
    47          5
    48          3
    49          3
    50         24
    51         40
    52         36
    53        276
    54         16
    55          6
    56          2
    57          2
    58          2
    59          2
    60          3
    61          3
    62          6
    63         15
    64          8
    65          4
    66          6
    67          5
    68          6
    69          5
    70          2
    71          3
    72          7
    73         10
    74         13
    75         51
    76         12
    77          6
    78         13
    79          9
    81        999
    82         54
    83          9
    84          4
    85          7
    86          2
    87          3
    88          3
    89          4
    90         12
    91          3
    92          2
    93          3
    94         14
    95         14
    96          5
    97          7
    98          5
    99         21
   100          5
   101          9
   102          9
   103          1
   104          1
   105          2
   106          7
   107          5
   108          9
   109         13
   111         59
   112         17
   113         23
   114          8
   115          4
   116          3
   117          6
   118          3
   119          3
   120          5
   121         16
   122         10
   123          3
   124          5
   125         32
   126         11
   127         15
   128          4
   129          2
   130         16
   131          8
   132          1
   133          1
   134          2
   135         13
   136          6
   137         17
   138         86
   139         16
   140         12
   141          4
   142          2
   143          3
   144          3
   145          1
   146          1
   147          1
   148          1
   149          2
   150          2
   151         20
   152         28
   153         21
   154         11
   155          8
   156          2
   157          1
   158          0
   159          0
   160          0
   161          2
   162          8
   163          2
   164          4
   165          5
   167         38
   168          7
   169         34
   170          9
   171         12
   172          2
   173          2
   174          0
   175          0
   176          2
   177          4
   178          3
   179         12
   180          2
   181          4
   182          3
   183          1
   184          2
   185          1
   186          1
   187          1
   188          1
   190         15
   191          7
   192          6
   193          3
   194          4
   195          3
   196          3
   197         32
   198          4
   199          1
   200          4
   201          9
   202          3
   203         12
   204          8
   205         37
   206         60
   207         17
   208         19
   209          4
   210          5
   211          1
   212          2
   213          2
   214          0
   215          1
   216          0
   217          2
   218          2
   219          3
   220          2
   221          1
   222          1
   223          0
   224          1
   225          1
   226          2
   227          8
   228          2
   229          5
   231         15
   232         22
   233          7
   234         10
   235         27
   236         20
   237         11
   238          7
   239          2
   240          1
   242          1
   243          1
   244          1
   245          3
   246          2
   247          7
   249         11
   250          3
   251          3
   252          1
   256          0
   259          1
   260         12
   261          4
   262          5
   263          7
   264         45
   265          9
   266         16
   267          2
   268          0
   271          1
   272          0
   273          0
   275          1
   277         40
   278         13
   279         14
   280          4
   281          0
   289          0
   302          2
   304          3
   306        305
   307         55
   308        102
   309         16
   310          5
   311          0