##TITLE=Library Entry 50988
##JCAMP-DX=Revision 4.10 
##DATA TYPE=MASS SPECTRUM
##SAMPLE DESCRIPTION=A.A.Kutin, Moscow, Russia
##NAMES=HP
##CAS NAME=3-(2-Furylmethyl)-2-[(2-methoxyphenyl)imino]-1,3-thiazolan-4-one
##MOLFORM=C15H14N2O3S
##CAS REGISTRY NO=280754-43-0
##MP= -300
##BP= -300
##MW= 302
##$RETENTION INDEX=0
##$CONDENSED SPECTRUM=NO
##NPOINTS= 231
##XYDATA=(XY..XY) 1 
    33         11
    34          3
    36          2
    37          4
    38         15
    39         48
    40         44
    41         20
    42         25
    43         10
    44         22
    45         27
    46         27
    47          5
    48          3
    50         23
    51         72
    52         60
    53        331
    54         21
    55         11
    56         32
    57          4
    58          3
    59          2
    60          2
    61          2
    62          5
    63         27
    64         32
    65         26
    66          9
    67          8
    68          8
    69          9
    70          4
    71          4
    72         10
    73          2
    74          6
    75          5
    76         12
    77         56
    78         49
    79         24
    81        999
    82         58
    83         10
    84          4
    85          4
    86          3
    87          1
    88          1
    89          4
    90         30
    91         25
    92         49
    93         20
    94         23
    95         20
    96         22
    97          8
    98          3
    99          3
   100          3
   101          2
   102          5
   103         14
   104         20
   105         34
   106         19
   107         22
   108         25
   109         18
   110          3
   111          3
   112          7
   113         10
   114          6
   115          8
   116          6
   117          9
   118         12
   119         26
   120         44
   121        127
   122         45
   123         10
   124          5
   125          4
   126          5
   127          4
   128          8
   129          9
   130          8
   131         11
   132         26
   133         31
   134         74
   135         27
   136         12
   137         19
   138         77
   139         10
   140         12
   141          3
   142          3
   143          4
   144          4
   145          7
   146          5
   147         20
   148         37
   149         12
   150         10
   151         10
   152          5
   153          9
   154          4
   155          5
   156          7
   157         37
   158         17
   159          7
   160         14
   161         12
   162          5
   163          4
   164          7
   165         25
   166         12
   167         36
   168          9
   169         13
   170          8
   171          9
   172          8
   173          7
   174          5
   175         17
   176          3
   177          2
   178          5
   179          2
   180          1
   181          2
   182          4
   183         12
   184         16
   185         25
   186         22
   187         11
   188          4
   189          2
   190          4
   191          8
   192          3
   193          6
   194          2
   195          4
   196          2
   197         24
   198          7
   199         17
   200         13
   201         43
   202         47
   203         11
   204          3
   205          2
   206          6
   207          1
   208          1
   209          3
   210          1
   211          3
   212          5
   213         23
   214         10
   215          6
   216          3
   217          5
   218          2
   219          1
   220          1
   221          2
   223         21
   224          3
   225          2
   227         57
   228         37
   229         52
   230         12
   231         49
   232         21
   233          5
   234          1
   239          0
   240          1
   241          7
   242          4
   243         38
   244          8
   245         22
   246          4
   247          1
   255          2
   256          9
   257          3
   258          4
   259         12
   260         38
   261          6
   262          2
   268          2
   271        219
   272         37
   273         90
   274         18
   275          5
   276          0
   285          0
   286          0
   287          3
   297          0
   298          2
   302        581
   303         93
   304         34
   305          4
   306          1