##TITLE=Library Entry 48532
##JCAMP-DX=Revision 4.10 
##DATA TYPE=MASS SPECTRUM
##SAMPLE DESCRIPTION=D.HENNEBERG, MAX-PLANCK INSTITUTE, MULHEIM, WEST GERMAN
Y
##NAMES=HP
##CAS NAME=3-Decen-1-yne, (E)-
##MOLFORM=C10H16
##CAS REGISTRY NO=2807-10-5
##MP= -300
##BP= -300
##MW= 136
##$RETENTION INDEX=0
##$CONDENSED SPECTRUM=NO
##NPOINTS= 84
##XYDATA=(XY..XY) 1 
    27        492
    28         88
    29        500
    30         11
    31          1
    32          2
    36          1
    37         12
    38         48
    39        653
    40         99
    41        683
    42        298
    43        931
    44         32
    45          2
    48          1
    49          9
    50         80
    51        136
    52        160
    53        130
    54         74
    55        494
    56        362
    57         35
    58          2
    59          1
    61          5
    62         26
    63         76
    64         17
    65        337
    66        202
    67        224
    68         89
    69        168
    70         23
    71         32
    72          2
    73          1
    74          7
    75          6
    76         10
    77        295
    78        122
    79        999
    80        308
    81        165
    82         61
    83         14
    84         30
    85          2
    86          1
    87          1
    89          6
    90          2
    91        209
    92         38
    93        437
    94        161
    95        107
    96         14
    97          3
   102          1
   103          4
   104          1
   105         31
   106          7
   107        303
   108         62
   109          3
   110          2
   115          3
   117          1
   119          1
   121        114
   122          9
   128          1
   134          0
   135          6
   136        149
   137         16
   138          0