##TITLE=Library Entry 49955
##JCAMP-DX=Revision 4.10 
##DATA TYPE=MASS SPECTRUM
##SAMPLE DESCRIPTION=CARL DJERASSI DEPT OF CHEM STANFORD UNIV STANFORD CALIF
 94305
##NAMES=HP
##CAS NAME=2-Hexyne, 6-iodo-
##MOLFORM=C6H9I
##CAS REGISTRY NO=28077-74-9
##MP= -300
##BP= -300
##MW= 208
##$RETENTION INDEX=0
##$CONDENSED SPECTRUM=NO
##NPOINTS= 30
##XYDATA=(XY..XY) 1 
    39        180
    40         20
    41        300
    42         10
    50         80
    51        130
    52         90
    53        660
    54         70
    55         50
    63         10
    65         40
    66         20
    67         10
    77         90
    78         10
    79        250
    80         30
    81        999
    82         70
   127         70
   128         30
   155        100
   169         20
   179          4
   180          4
   181          3
   193          1
   208        570
   209         50