##TITLE=Library Entry 6876
##JCAMP-DX=Revision 4.10 
##DATA TYPE=MASS SPECTRUM
##SAMPLE DESCRIPTION=Japan AIST/NIMC Database- Spectrum MS-IW-8022
##NAMES=HP
##CAS NAME=Ethanol, 2-propoxy-
##MOLFORM=C5H12O2
##CAS REGISTRY NO=2807-30-9
##MP= -300
##BP= -300
##MW= 104
##$RETENTION INDEX=816
##$CONDENSED SPECTRUM=NO
##NPOINTS= 49
##XYDATA=(XY..XY) 1 
    14          2
    15         15
    16          1
    17          9
    18         37
    19          5
    26          8
    27        141
    28         31
    29         49
    30          4
    31        149
    32          6
    33         11
    37          2
    38          4
    39         44
    40         11
    41        286
    42         81
    43        999
    44         69
    45        545
    46         14
    47          2
    48          1
    55         68
    56         16
    57         78
    58         61
    59         45
    60          5
    61         18
    63         32
    71          3
    72          1
    73        420
    74         20
    75        101
    76          5
    77          1
    85          1
    86        175
    87         21
    88          1
    89         11
   103          2
   104          6
   105         15