##TITLE=Library Entry 77291
##JCAMP-DX=Revision 4.10 
##DATA TYPE=MASS SPECTRUM
##SAMPLE DESCRIPTION=A.A.Kutin, Moscow, Russia
##NAMES=HP
##CAS NAME=2-[(2,6-Dichlorophenyl)imino]-3-phenethyl-1,3-thiazolan-4-one
##MOLFORM=C17H14Cl2N2OS
##CAS REGISTRY NO=280754-21-4
##MP= -300
##BP= -300
##MW= 364
##$RETENTION INDEX=0
##$CONDENSED SPECTRUM=NO
##NPOINTS= 235
##XYDATA=(XY..XY) 1 
    33          2
    34          0
    35          1
    36          6
    37          1
    38          5
    39         19
    40         11
    41          7
    42         20
    43          5
    44          6
    45         15
    46         19
    47          4
    48          1
    49          2
    50          7
    51         21
    52          5
    53          3
    54          1
    55          1
    56          2
    57          1
    58          1
    59          2
    60          1
    61          2
    62          4
    63         11
    64          4
    65         31
    66          2
    67          0
    69          5
    70          4
    71          2
    72          5
    73          6
    74         26
    75         11
    76          8
    77         59
    78         46
    79         35
    80          2
    81          1
    82          0
    83          1
    84          2
    85          2
    86          1
    87          2
    88          3
    89          7
    91         68
    92          5
    93          0
    94          0
    95          1
    97          2
    98          1
    99          2
   100          4
   101          3
   102         17
   104        999
   105        107
   106          6
   107          2
   108          1
   109         15
   110          4
   111          6
   112          1
   113          0
   114          1
   115          2
   116          2
   117          3
   118          3
   119          1
   120          1
   121          1
   122          1
   124         10
   125          2
   126          3
   127          1
   128          4
   129          1
   130          3
   131          1
   132          2
   133          8
   134          3
   135          4
   136         12
   137          3
   138          4
   139          1
   140          0
   141          0
   142          1
   143          1
   145         16
   146          2
   147          9
   148          1
   149          2
   150          2
   151          2
   152          1
   153          1
   154          0
   155          1
   156          1
   157          0
   159         13
   160          4
   161          8
   162          2
   163          2
   164          1
   165          2
   166          1
   167          1
   168          2
   169          6
   170          2
   171          6
   172         11
   173          5
   174          8
   175          1
   176          1
   177          0
   178          1
   179          0
   180          0
   182          9
   183          3
   184          4
   185          6
   186         23
   187         14
   188         14
   189          8
   190          5
   191          3
   192          5
   193          1
   194          1
   195          1
   196          3
   197          8
   199         30
   200          3
   201         14
   202          2
   203          8
   204          1
   205          4
   206          1
   207          1
   209          1
   210          1
   211          1
   213         14
   214          2
   215          7
   216          1
   217          1
   218          1
   219          1
   220          0
   221          0
   222          0
   223          1
   225         46
   226          6
   227         16
   228          2
   229          0
   230          0
   237          0
   238          2
   239          0
   240          1
   241          0
   244          0
   245          1
   246          1
   248         30
   249          5
   250         17
   251          2
   252          3
   253          1
   254          0
   255          0
   256          0
   257          0
   258          0
   259          0
   260          5
   261         12
   262          5
   263          8
   264          1
   265          1
   266          0
   285          0
   287          1
   288          0
   289          1
   290          0
   291          0
   292          0
   326          0
   329         39
   330          7
   331         13
   332          2
   333          0
   334          0
   361          0
   364         45
   365          9
   366         29
   367          5
   368          5
   369          1
   370          0