##TITLE=Library Entry 50089
##JCAMP-DX=Revision 4.10 
##DATA TYPE=MASS SPECTRUM
##SAMPLE DESCRIPTION=S.A. Rang et al., IR & MS of Unsatd. Hydrocarbons, 1977
##NAMES=HP
##CAS NAME=Cyclohexene, 3-ethyl-
##MOLFORM=C8H14
##CAS REGISTRY NO=2808-71-1
##MP= -300
##BP= -300
##MW= 110
##$RETENTION INDEX=849
##$CONDENSED SPECTRUM=NO
##NPOINTS= 68
##XYDATA=(XY..XY) 1 
    25          0
    26         10
    27        149
    28         26
    29         64
    30          2
    31          5
    37          1
    38          6
    39        170
    40         25
    41        272
    42         21
    43         17
    44         10
    45          3
    46          0
    49          0
    50         10
    51         38
    52         21
    53        128
    54         80
    55         74
    56         12
    57         40
    58          3
    59          0
    62          1
    63          7
    64          2
    65         40
    66         30
    67        288
    68         85
    69         55
    70          7
    71          4
    72          2
    73          0
    74          1
    75          2
    76          1
    77         74
    78         18
    79        181
    80         58
    81        999
    82        181
    83         12
    84          1
    85          1
    87          0
    91         20
    92          2
    93          8
    94          2
    95         85
    96         15
    97         12
   105          1
   106          2
   107          1
   108          3
   109         14
   110        165
   111         12
   112          1