##TITLE=Library Entry 2718
##JCAMP-DX=Revision 4.10 
##DATA TYPE=MASS SPECTRUM
##SAMPLE DESCRIPTION=Exported from NIST MS Search
##NAMES=HP
##CAS NAME=10-Undecenoic acid, octyl ester
##MOLFORM=C19H36O2
##CAS REGISTRY NO=28080-85-5
##MP= -300
##BP= -300
##MW= 296
##$RETENTION INDEX=0
##$CONDENSED SPECTRUM=NO
##NPOINTS= 140
##XYDATA=(XY..XY) 1 
    13          2
    14          7
    15         30
    16          3
    17          3
    18         10
    25          2
    26         19
    27        313
    28        110
    29        517
    30         14
    31         26
    36          2
    37          5
    38          9
    39        225
    40         51
    41        999
    42        335
    43        843
    44         54
    45         27
    50          4
    51         11
    52          8
    53         72
    54        127
    55        903
    56        341
    57        664
    58         39
    59         16
    60         66
    61        114
    62          6
    63          5
    65         11
    66         14
    67        151
    68        148
    69        423
    70        279
    71        414
    72         27
    73         97
    74         12
    75          3
    77          9
    78          5
    79         25
    80         21
    81        121
    82        163
    83        356
    84        325
    85         67
    86          9
    87         35
    88          6
    91         17
    92          4
    93         15
    94         13
    95         42
    96         87
    97        103
    98         79
    99         19
   100         28
   101         40
   102          8
   103          2
   105          5
   106          3
   107         12
   108          6
   109         19
   110         40
   111         40
   112        148
   113         28
   114         39
   115         19
   116         11
   117          2
   119          5
   120          3
   121          8
   122         39
   123         46
   124        102
   125         49
   126          8
   127         15
   128          7
   129         10
   130          2
   131          2
   133          6
   135          4
   136          3
   137         19
   138         18
   139          7
   140          5
   141         11
   142          6
   143         10
   144          2
   147         11
   148         23
   149         54
   150          9
   151          6
   152          4
   153          3
   154          2
   155          5
   156          2
   157          7
   164          3
   165         18
   166         77
   167         66
   168          9
   169          4
   172          2
   173          2
   182          4
   183          7
   184          8
   185         24
   186          3
   187          4
   211          2
   225          2
   240          2
   278          1
   296          2