##TITLE=Library Entry 33045
##JCAMP-DX=Revision 4.10 
##DATA TYPE=MASS SPECTRUM
##SAMPLE DESCRIPTION=NIST Mass Spectrometry Data Center, 1990.
##NAMES=HP
##CAS NAME=1-Methyl-2-methylenecyclohexane
##MOLFORM=C8H14
##CAS REGISTRY NO=2808-75-5
##MP= -300
##BP= -300
##MW= 110
##$RETENTION INDEX=0
##$CONDENSED SPECTRUM=NO
##NPOINTS= 43
##XYDATA=(XY..XY) 1 
    15         22
    26         24
    27        151
    28         61
    29         57
    37          8
    38         40
    39        394
    40         97
    41        379
    42         50
    43         18
    50         52
    51        107
    52         55
    53        220
    54        159
    55        199
    56         56
    62         14
    63         36
    65        106
    66        101
    67        999
    68        430
    69        182
    70          9
    77        115
    78         31
    79        183
    80         78
    81        651
    82        289
    83         17
    91         85
    92         10
    93         63
    94         10
    95        730
    96         58
   106         10
   110        330
   111         28