##TITLE=Library Entry 69687
##JCAMP-DX=Revision 4.10 
##DATA TYPE=MASS SPECTRUM
##SAMPLE DESCRIPTION=Chemical Concepts
##NAMES=HP
##CAS NAME=Cyclohexaneacetic acid, 3-oxo-, methyl ester
##MOLFORM=C9H14O3
##CAS REGISTRY NO=2808-12-0
##MP= -300
##BP= -300
##MW= 170
##$RETENTION INDEX=0
##$CONDENSED SPECTRUM=NO
##NPOINTS= 113
##XYDATA=(XY..XY) 1 
    26          9
    27         99
    28         29
    29         74
    30          3
    31         15
    33          2
    37          4
    38         12
    39        205
    40         47
    41        401
    42        156
    43        135
    44          9
    45         19
    50          8
    51         20
    52         12
    53         62
    54         57
    55        356
    56         29
    57         13
    58         17
    59        180
    60          9
    61          5
    62          3
    63          6
    64          3
    65         18
    66         12
    67        109
    68        126
    69        168
    70         23
    71         54
    72         18
    73         10
    74        215
    75         29
    76          3
    77         15
    78          5
    79         39
    80          6
    81         71
    82        192
    83         67
    84         16
    85         52
    86         15
    87         26
    88          9
    89          2
    90          3
    91         10
    92         20
    93         22
    94         13
    95        261
    96        261
    97        999
    98         77
    99        328
   100         47
   101         33
   102          4
   103          2
   105          3
   106          3
   107          5
   108          3
   109         26
   110        217
   111         38
   112          7
   113         39
   114         33
   115          5
   120          4
   121          6
   123          6
   124          4
   125          7
   126          4
   127        177
   128         18
   129         17
   137          9
   138         36
   139        214
   140         21
   141          9
   142         20
   143          4
   149          6
   150          4
   151          4
   152         16
   153          3
   155         14
   156          3
   157          3
   165          2
   166          3
   167          4
   168          3
   169          4
   170        335
   171         33
   172          5