##TITLE=Library Entry 68035
##JCAMP-DX=Revision 4.10 
##DATA TYPE=MASS SPECTRUM
##SAMPLE DESCRIPTION=Chemical Concepts
##NAMES=HP
##CAS NAME=1,3-Dimethyl-1-cyclohexene
##MOLFORM=C8H14
##CAS REGISTRY NO=2808-76-6
##MP= -300
##BP= -300
##MW= 110
##$RETENTION INDEX=825
##$CONDENSED SPECTRUM=NO
##NPOINTS= 68
##XYDATA=(XY..XY) 1 
    26          6
    27        107
    28         13
    29         57
    30          1
    32          0
    36          0
    37          2
    38          9
    39        155
    40         26
    41        167
    42         15
    43         14
    44          0
    45          2
    46          2
    47          1
    48          0
    49          0
    50         13
    51         36
    52         17
    53         78
    54         32
    55        185
    56         17
    57          1
    61          1
    62          4
    63         11
    64          2
    65         38
    66         15
    67        409
    68         95
    69         28
    70          1
    74          1
    75          1
    76          1
    77         58
    78         12
    79         53
    80         19
    81        113
    82        177
    83         10
    84          0
    86          0
    87          0
    89          1
    90          0
    91         35
    92          4
    93         41
    94          8
    95        999
    96         75
    97          2
   103          1
   105          1
   107          2
   108          0
   109         18
   110        236
   111         19
   112          3