##TITLE=Library Entry 47221
##JCAMP-DX=Revision 4.10 
##DATA TYPE=MASS SPECTRUM
##SAMPLE DESCRIPTION=DD1-85-5
##NAMES=HP
##CAS NAME=Phenylmercuric salicylate
##MOLFORM=C13H10HgO3
##CAS REGISTRY NO=28086-13-7
##MP= -300
##BP= -300
##MW= 416
##$RETENTION INDEX=0
##$CONDENSED SPECTRUM=NO
##NPOINTS= 42
##XYDATA=(XY..XY) 1 
    37         13
    38         15
    39         47
    73         15
    74         31
    75         26
    76         34
    77        999
    78        131
    92        184
    93         26
    94        100
   120        473
   121         52
   138        289
   139         26
   196         26
   197         31
   198         47
   199         26
   200         57
   202         26
   275         39
   276         76
   277        105
   278         65
   279        126
   281         31
   352         73
   353        136
   354        205
   355        121
   356        244
   357         26
   358         47
   412         15
   413         26
   414         34
   415         21
   416         42
   417          2
   418          5