##TITLE=Library Entry 33469
##JCAMP-DX=Revision 4.10 
##DATA TYPE=MASS SPECTRUM
##SAMPLE DESCRIPTION=NIST Mass Spectrometry Data Center, 1990.
##NAMES=HP
##CAS NAME=Cyclohexene, 1,4-dimethyl-
##MOLFORM=C8H14
##CAS REGISTRY NO=2808-79-9
##MP= -300
##BP= -300
##MW= 110
##$RETENTION INDEX=826
##$CONDENSED SPECTRUM=NO
##NPOINTS= 40
##XYDATA=(XY..XY) 1 
    15         22
    26         15
    27        123
    28         58
    29         52
    38         27
    39        290
    40         76
    41        221
    42         40
    43         14
    50         50
    51        109
    52         53
    53        241
    54         46
    55        250
    56         28
    62         14
    63         36
    64          9
    65         96
    66          9
    67        962
    68        999
    69         81
    77        146
    78         41
    79        155
    80         41
    81        264
    82         76
    91        108
    92         15
    93         58
    94         15
    95        894
    96         67
   110        370
   111         34