##TITLE=Library Entry 34870
##JCAMP-DX=Revision 4.10 
##DATA TYPE=MASS SPECTRUM
##SAMPLE DESCRIPTION=CARL DJERASSI DEPT OF CHEM STANFORD UNIV STANFORD CALIF
 94305
##NAMES=HP
##CAS NAME=1,4-Naphthalenedione, 5,8-dihydroxy-2,7-dimethoxy-
##MOLFORM=C12H10O6
##CAS REGISTRY NO=2808-46-0
##MP= -300
##BP= -300
##MW= 250
##$RETENTION INDEX=0
##$CONDENSED SPECTRUM=NO
##NPOINTS= 125
##XYDATA=(XY..XY) 1 
    25         10
    26         40
    27        150
    28         40
    29        210
    30         20
    31         70
    37         70
    38        210
    39        370
    40         20
    41        110
    42        100
    43         70
    45         20
    49         50
    50        200
    51        300
    52        130
    53        770
    54         70
    55        100
    56         10
    57         40
    59        180
    61         70
    62        140
    63        220
    64        120
    65        100
    66        300
    67        230
    68         20
    69        999
    70         50
    71         10
    73         10
    74        100
    75        100
    76         40
    77        250
    78         90
    79        190
    80         70
    81         40
    82         30
    83         10
    85         20
    86         10
    87         10
    89         10
    90         40
    91         60
    92        110
    93         90
    94         70
    95        270
    96         20
   101         10
   103         30
   104         10
   105         20
   106         20
   107         50
   108        150
   109         60
   110         10
   118         30
   119         90
   120         60
   121         60
   122         80
   123         50
   124         10
   131         10
   132         10
   133         20
   134         20
   135         50
   136         90
   137        110
   138         80
   146         40
   147         30
   148         30
   149         80
   150         50
   151        290
   152         20
   161         40
   162         20
   163         30
   164         30
   165         30
   166         10
   174         30
   175         30
   176         40
   177         60
   178         10
   179        220
   180         20
   186         20
   189         70
   190         30
   191         20
   192         40
   193         70
   202         40
   203         30
   204         30
   205         60
   206         10
   207        200
   208         20
   217         10
   218         10
   219         30
   220         90
   221         40
   222         10
   232         40
   235         60
   250        380
   251         40