##TITLE=Library Entry 50433
##JCAMP-DX=Revision 4.10 
##DATA TYPE=MASS SPECTRUM
##SAMPLE DESCRIPTION=Japan AIST/NIMC Database- Spectrum MS-NW-3315
##NAMES=HP
##CAS NAME=2-Octyne
##MOLFORM=C8H14
##CAS REGISTRY NO=2809-67-8
##MP= -300
##BP= -300
##MW= 110
##$RETENTION INDEX=842
##$CONDENSED SPECTRUM=NO
##NPOINTS= 68
##XYDATA=(XY..XY) 1 
    14          1
    15         10
    26         23
    27        313
    28         31
    29        415
    30          9
    36          1
    37          8
    38         22
    39        347
    40         72
    41        693
    42        119
    43         55
    44          2
    45          1
    49          5
    50         48
    51         97
    52         67
    53        412
    54        578
    55        457
    56        112
    57        102
    58          5
    60          1
    61          4
    62          9
    63         22
    64          5
    65         78
    66         55
    67        489
    68        491
    69        134
    70         25
    71          5
    73          1
    74          5
    75          3
    76          1
    77         51
    78         10
    79        128
    80         48
    81        999
    82        167
    83         11
    84          1
    85          1
    86          1
    87          1
    89          1
    91         15
    92          3
    93         27
    94          7
    95        739
    96         57
    97          3
   105          1
   107          2
   108          1
   109         25
   110         36
   111          4