##TITLE=Library Entry 49320
##JCAMP-DX=Revision 4.10 
##DATA TYPE=MASS SPECTRUM
##SAMPLE DESCRIPTION=Exported from NIST MS Search
##NAMES=HP
##CAS NAME=2-Thiatricyclo[3.3.1.1(3,7)]decane
##MOLFORM=C9H14S
##CAS REGISTRY NO=281-25-4
##MP= -300
##BP= -300
##MW= 154
##$RETENTION INDEX=1439
##$CONDENSED SPECTRUM=NO
##NPOINTS= 103
##XYDATA=(XY..XY) 1 
    25          4
    26         27
    27        296
    28         31
    29         90
    30          5
    31          3
    35          5
    37          5
    38         28
    39        416
    40         52
    41        465
    42         64
    43         88
    44         12
    45        216
    46         11
    47         46
    48         15
    49          4
    50         35
    51         98
    52         45
    53        137
    54         32
    55         83
    56         33
    57         81
    58         25
    59         61
    60         15
    61         15
    62         13
    63         31
    64          5
    65        159
    66         68
    67        135
    68         14
    69         14
    70         19
    71         44
    72          4
    73         25
    74          7
    75         13
    76         14
    77        205
    78        369
    79        999
    80        147
    81         43
    82          3
    83          6
    84         17
    85         57
    86         33
    87         15
    89          4
    90          2
    91         61
    92         93
    93        144
    94         66
    95         17
    96          1
    97        157
    98         99
    99        137
   100         38
   101          5
   102          1
   103          2
   104         24
   105        115
   106         21
   107         41
   108          6
   109          1
   110          1
   111         79
   112         30
   113         21
   115         12
   116          2
   117         13
   118          7
   119         26
   120         33
   121         34
   122          2
   125         16
   126         46
   127          4
   128          2
   139         15
   140          4
   153         15
   154        780
   155         86
   156         39
   157          4