##TITLE=Library Entry 98708
##JCAMP-DX=Revision 4.10 
##DATA TYPE=MASS SPECTRUM
##SAMPLE DESCRIPTION=NIST Mass Spectrometry Data Center, 1998.
##NAMES=HP
##CAS NAME=Phosphoric acid, (1-methylethyl)phenyl diphenyl ester
##MOLFORM=C21H21O4P
##CAS REGISTRY NO=28108-99-8
##MP= -300
##BP= -300
##MW= 368
##$RETENTION INDEX=2495
##$CONDENSED SPECTRUM=NO
##NPOINTS= 194
##XYDATA=(XY..XY) 1 
    26          1
    27          6
    29          2
    37          1
    38          5
    39         55
    40          5
    41         30
    42          2
    43          6
    47         11
    49          1
    50         18
    51         90
    52         10
    53         11
    54          1
    55          7
    57          1
    61          1
    62          4
    63         23
    64         10
    65        105
    66         19
    67          3
    68          1
    69          1
    74          5
    75         11
    76         15
    77        382
    78        107
    79         19
    80          2
    81          3
    83          1
    84          1
    87          1
    88          1
    89         14
    90          8
    91        180
    92         26
    93         14
    94         82
    95         26
    96          2
    99          2
   100          3
   101          7
   102         34
   103        193
   104         25
   105         14
   106          2
   107         34
   108          3
   109          6
   110          1
   112          1
   113          1
   114          2
   115        112
   116         27
   117        374
   118        999
   119        121
   120         22
   121         10
   122          1
   123          1
   124          1
   126          1
   127          3
   128          5
   129          2
   131          5
   132          2
   133          4
   134          3
   135          9
   136          3
   137         13
   138          1
   139         17
   140         16
   141         17
   142          5
   143          1
   149         18
   150          3
   151         11
   152         50
   153         29
   154          5
   155          2
   156          4
   157          5
   158          1
   163          8
   164          3
   165         63
   166          9
   167         10
   168         16
   169         18
   170         29
   171          4
   172          1
   173          1
   174          1
   175         14
   176          8
   177         10
   178         75
   179         29
   180          4
   181         12
   182          5
   183         31
   184          5
   185          5
   186          1
   187          2
   189          2
   190          1
   191          3
   192          2
   193          1
   194          4
   195          6
   196          2
   197          4
   198          2
   199          3
   200          1
   202          1
   215         16
   216          3
   217          2
   223          1
   226          1
   227          1
   228          2
   229          1
   231          1
   232          5
   233          6
   234          1
   239          6
   240          3
   241          4
   242          1
   245          1
   246          1
   248          1
   249         28
   250         41
   251        451
   252         63
   253          9
   254          2
   255          1
   257          1
   258          1
   259          5
   260          1
   261          4
   262          1
   263          2
   264          1
   273          1
   275          6
   276          8
   277          9
   278          1
   291          8
   292          1
   299          1
   325          3
   326          1
   327          2
   339          2
   340          1
   351          1
   353         53
   354         12
   355          1
   367          7
   368        253
   369         58
   370          8
   371          1