##TITLE=Library Entry 31812
##JCAMP-DX=Revision 4.10 
##DATA TYPE=MASS SPECTRUM
##SAMPLE DESCRIPTION=A.A.Kutin, Moscow, Russia
##NAMES=HP
##CAS NAME=Benzenesulfonamide, 4-[N2-(nitro)methylidene)hydrazino]-
##MOLFORM=C7H8N4O4S
##CAS REGISTRY NO=28100-98-3
##MP= -300
##BP= -300
##MW= 244
##$RETENTION INDEX=0
##$CONDENSED SPECTRUM=NO
##NPOINTS= 186
##XYDATA=(XY..XY) 1 
    33          5
    34          8
    35          3
    36         30
    37         44
    38        145
    39        254
    40        166
    41         59
    42         22
    43         53
    44        150
    45         52
    46         59
    47         29
    48         48
    50        136
    51        100
    52        177
    53        117
    54         25
    55         26
    56          9
    57         24
    58          9
    59         16
    60         12
    61         34
    62        155
    63        623
    64        999
    65        147
    66         53
    67         20
    68         10
    69         33
    70         18
    71         14
    72          3
    73         12
    74         36
    75         76
    76         60
    77         65
    78         50
    79        170
    80        219
    81        102
    82         26
    83         15
    84         11
    85          6
    86          4
    87          9
    88         28
    89        105
    90        315
    91        223
    92         44
    93         17
    94          9
    95          9
    96         24
    97          9
    98          7
    99          6
   100          1
   101          2
   102          2
   103          3
   104          8
   105        102
   106        369
   107        569
   108        191
   109         18
   110          6
   111          7
   112          7
   113          3
   114          5
   115          6
   116         19
   117         52
   118         39
   119         12
   120         11
   121          9
   122         17
   123          6
   124          2
   125          6
   126          3
   127          7
   128          5
   129          4
   130          2
   131          1
   132         13
   133         20
   134          6
   135          3
   136          2
   137         11
   138          9
   139         19
   140          4
   141          8
   142          2
   143          4
   144          2
   145          1
   146          0
   147          1
   148          2
   149         13
   150          3
   151          1
   152          3
   153          2
   154          2
   155          2
   156         56
   157         17
   158          4
   159          2
   160          1
   162          1
   163          1
   164          2
   165          7
   166          2
   167          2
   168          2
   170        420
   171        165
   172         58
   173         13
   174          2
   175          0
   176          1
   177          0
   178          0
   179          1
   181         20
   182          2
   183          2
   184         13
   185          7
   186          6
   187          1
   189         16
   190          1
   191          2
   195          2
   197        717
   198         74
   199         43
   200          4
   201          0
   202          0
   204          1
   205          6
   206          4
   207          1
   208          1
   209          0
   210          0
   211          0
   212          1
   213          0
   215          1
   224          0
   226          0
   228          6
   229          0
   231          0
   233          0
   235          0
   240          0
   241          0
   242          1
   244        392
   245         37
   246         21
   247          2