##TITLE=Library Entry 87803
##JCAMP-DX=Revision 4.10 
##DATA TYPE=MASS SPECTRUM
##SAMPLE DESCRIPTION=NIST Mass Spectrometry Data Center
##NAMES=HP
##CAS NAME=Thiophene-2-carboxylic acid ethyl ester
##MOLFORM=C7H8O2S
##CAS REGISTRY NO=2810-04-0
##MP= -300
##BP= -300
##MW= 156
##$RETENTION INDEX=0
##$CONDENSED SPECTRUM=NO
##NPOINTS= 57
##XYDATA=(XY..XY) 1 
    12          1
    14          2
    15          1
    25          3
    26         10
    27         26
    28          2
    30          6
    34          1
    36          1
    37         16
    38         36
    39        277
    40         11
    44          2
    45         17
    46          1
    47          2
    48          1
    49          6
    50         12
    51          4
    53         17
    54          1
    55          3
    57         73
    58         19
    65          1
    66          1
    67          1
    68          1
    69          9
    70          1
    71          3
    72          2
    77          4
    81         23
    82         30
    83         84
    84         37
    85          7
    86          2
    97          2
   100          3
   111        999
   112        109
   113         50
   114          5
   128        250
   129         16
   130         11
   141         30
   142          2
   143          2
   156        186
   157         15
   158          9