##TITLE=Library Entry 23649
##JCAMP-DX=Revision 4.10 
##DATA TYPE=MASS SPECTRUM
##SAMPLE DESCRIPTION=Chemical Concepts
##NAMES=HP
##CAS NAME=1,3-Cyclohexanediol, 5-(1,1-dimethylethyl)-, (1.alpha.,3.beta.,5.
alpha.)-
##MOLFORM=C10H20O2
##CAS REGISTRY NO=28115-52-8
##MP= -300
##BP= -300
##MW= 172
##$RETENTION INDEX=0
##$CONDENSED SPECTRUM=NO
##NPOINTS= 115
##XYDATA=(XY..XY) 1 
    26         10
    27        212
    28         46
    29        251
    30          6
    31         54
    37          3
    38         10
    39        263
    40         43
    41        855
    42         90
    43        334
    44         80
    45        112
    46          2
    47         11
    49          1
    50         11
    51         36
    52         15
    53        115
    54         86
    55        261
    56        184
    57        999
    58         48
    59         19
    60          2
    61          1
    62          3
    63          8
    64          2
    65         29
    66         18
    67        198
    68         43
    69        417
    70        111
    71        118
    72          7
    73        164
    74         10
    75          5
    76          3
    77         59
    78         42
    79        208
    80        576
    81        255
    82         25
    83         70
    84        116
    85         67
    86          4
    87          2
    88          6
    89          2
    91         28
    92          5
    93        101
    94         15
    95        235
    96         77
    97        269
    98        345
    99         59
   100          5
   101          1
   102          1
   103          3
   104          1
   105         27
   106          6
   107          8
   108          2
   109         12
   110        254
   111         35
   112          5
   113         13
   114          4
   115         98
   116         44
   117         23
   118          1
   119          6
   120          1
   121        342
   122         34
   123          4
   124          0
   125          1
   126          2
   127          7
   128          1
   129          2
   134          0
   135          2
   136         51
   137         12
   138          2
   139         37
   140          3
   141          4
   142          1
   151          2
   152          8
   153          7
   154         45
   155          6
   156          0
   157          2
   172         11
   173          1