##TITLE=Library Entry 22035
##JCAMP-DX=Revision 4.10 
##DATA TYPE=MASS SPECTRUM
##SAMPLE DESCRIPTION=Exported from NIST MS Search
##NAMES=HP
##CAS NAME=Cyclobutanone, 2,3-dimethyl-, cis-
##MOLFORM=C6H10O
##CAS REGISTRY NO=28113-36-2
##MP= -300
##BP= -300
##MW= 98
##$RETENTION INDEX=0
##$CONDENSED SPECTRUM=NO
##NPOINTS= 9
##XYDATA=(XY..XY) 1 
    41        440
    42        110
    44        130
    55        220
    56        999
    57         50
    70         60
    98        220
    99         10