##TITLE=Library Entry 99247
##JCAMP-DX=Revision 4.10 
##DATA TYPE=MASS SPECTRUM
##SAMPLE DESCRIPTION=NIST Mass Spectrometry Data Center, 1994
##NAMES=HP
##CAS NAME=3-Methylbenzoyl isothiocyanate
##MOLFORM=C9H7NOS
##CAS REGISTRY NO=28115-86-8
##MP= -300
##BP= -300
##MW= 177
##$RETENTION INDEX=0
##$CONDENSED SPECTRUM=NO
##NPOINTS= 58
##XYDATA=(XY..XY) 1 
     4          4
    14          2
    15          4
    25          1
    26          9
    27         23
    28         12
    32         28
    37         16
    38         43
    39        207
    40         17
    41         42
    42          2
    43          8
    44         12
    45         13
    49         10
    50         79
    51         81
    52         20
    53         12
    54          2
    58         74
    59         23
    60          7
    61         22
    62         65
    63        158
    64         50
    65        374
    66         20
    69          1
    70          3
    72          1
    73          6
    74         23
    75         18
    76         12
    77          7
    78          1
    84          2
    85          7
    86         22
    87         10
    88          1
    89        102
    90          1
    91        807
    92         64
    93          2
   116          3
   117          5
   119        999
   120         90
   121          7
   145          1
   177          5