##TITLE=Library Entry 50993
##JCAMP-DX=Revision 4.10 
##DATA TYPE=MASS SPECTRUM
##SAMPLE DESCRIPTION=A.A.Kutin, Moscow, Russia
##NAMES=HP
##CAS NAME=3-(2-Furylmethyl)-2-(mesitylimino)-1,3-thiazolan-4-one
##MOLFORM=C17H18N2O2S
##CAS REGISTRY NO=281212-58-6
##MP= -300
##BP= -300
##MW= 314
##$RETENTION INDEX=0
##$CONDENSED SPECTRUM=NO
##NPOINTS= 245
##XYDATA=(XY..XY) 1 
    33          7
    34          2
    36          1
    37          2
    38          8
    39         53
    40         29
    41         39
    42         17
    43          9
    44         19
    45         20
    46         20
    47          5
    48          2
    50         12
    51         40
    52         37
    53        297
    54         19
    55         16
    56          2
    57          2
    58          2
    59          3
    60          2
    61          0
    63         14
    64          8
    65         29
    66         10
    67          8
    68          8
    69          6
    70          2
    71          3
    72          4
    73          1
    74          5
    75          4
    76          7
    77         54
    78         25
    79         27
    81        999
    82         56
    83          8
    84          3
    85          4
    86          1
    87          1
    88          2
    89         12
    91         91
    92         11
    93          9
    94         14
    95         10
    96         13
    97          6
    98          3
    99          2
   100          2
   101          4
   102         11
   103         29
   104         21
   105         21
   106          8
   107          7
   108          7
   109         16
   110          3
   111          2
   112          7
   113         11
   114          7
   115         35
   116         24
   117         52
   118         18
   119         36
   120         19
   121         27
   122         13
   123          2
   124          2
   125          3
   126          5
   127          7
   128         14
   129          9
   130         38
   131         28
   132         51
   133        133
   134         38
   135         13
   136          8
   137         13
   138         54
   139          6
   140          8
   141          4
   142         11
   143         38
   144         68
   145         59
   146         78
   147         14
   148          3
   149          4
   150          1
   151          2
   152          8
   153         10
   154          8
   155         11
   156          7
   157         14
   158         19
   159         74
   160        144
   161         33
   162         12
   163          3
   164          4
   165         11
   166          9
   167         28
   168          7
   169         26
   170         22
   171          8
   172          9
   173          5
   174          3
   175          3
   176         15
   177         27
   178          7
   179          3
   180          3
   181          4
   182          4
   183         29
   184         13
   185          6
   186          3
   187         14
   188          3
   189          4
   190          8
   191         10
   192         19
   193          4
   194          4
   195          6
   196         15
   197         18
   198         53
   199         10
   200          2
   201          2
   202          3
   203          4
   204          1
   205          6
   206          1
   207          1
   208          1
   209          3
   210          5
   211         22
   212         17
   213          8
   214         15
   215          5
   216          2
   217          2
   218          4
   219          4
   220          1
   221          1
   222          1
   223          2
   224          2
   225         10
   226          4
   227          5
   228          5
   229         21
   230          4
   231          3
   232          3
   233         12
   234          8
   235         47
   236          8
   237          4
   239         99
   240         46
   241          9
   243         25
   244          6
   245          2
   246          0
   251          0
   253         11
   254          7
   255         11
   257         48
   258          8
   259          3
   260          0
   267          2
   268          2
   269          1
   271         54
   272         26
   273          6
   274          2
   281          2
   282          0
   283          1
   285         38
   286          9
   287          3
   288          0
   295          2
   296          4
   297          4
   299        173
   300         31
   301         10
   302          4
   303          0
   306          0
   310          1
   311          5
   314        615
   315        112
   316         37
   317          6
   318          0