##TITLE=Library Entry 78694
##JCAMP-DX=Revision 4.10 
##DATA TYPE=MASS SPECTRUM
##SAMPLE DESCRIPTION=A.A.Kutin, Moscow, Russia
##NAMES=HP
##CAS NAME=Benzoic acid, (4-nitrophenyl)-methylenehydrozide
##MOLFORM=C14H11N3O3
##CAS REGISTRY NO=28123-77-5
##MP= -300
##BP= -300
##MW= 269
##$RETENTION INDEX=0
##$CONDENSED SPECTRUM=NO
##NPOINTS= 93
##XYDATA=(XY..XY) 1 
    34          3
    35          0
    36          3
    37         11
    39        121
    40         51
    41         16
    42          7
    44         61
    45          4
    46          3
    50        142
    51        238
    52         32
    53          6
    55         11
    57         10
    58          0
    60          3
    62         34
    63         94
    64         28
    65         15
    66          4
    67          0
    76         28
    77        639
    78         36
    79          7
    80          5
    81          0
    89         41
    90         16
    91         22
    92          6
    93          0
    98          1
    99          0
   104         22
   105        999
   106         67
   107          4
   108          0
   117          2
   118         34
   119          6
   121        201
   122         17
   123          1
   124          0
   125          0
   126          0
   127          1
   128          2
   129          0
   131          0
   132          1
   133          1
   134          1
   135          2
   136          2
   137          0
   139          0
   140          0
   143          0
   146          0
   147          5
   148          1
   149          1
   150          2
   151          1
   152          0
   155          0
   157          0
   162          0
   163          0
   164          0
   165          1
   166          0
   167          0
   170          0
   171          1
   181          0
   183          0
   184          0
   196          0
   197          0
   198          0
   211          0
   239          0
   252          0
   269          8
   270          1