##TITLE=Library Entry 5490
##JCAMP-DX=Revision 4.10 
##DATA TYPE=MASS SPECTRUM
##SAMPLE DESCRIPTION=NIST Mass Spectrometry Data Center, 1995
##NAMES=HP
##CAS NAME=Dinoseb acetate
##MOLFORM=C12H14N2O6
##CAS REGISTRY NO=2813-95-8
##MP= -300
##BP= -300
##MW= 282
##$RETENTION INDEX=1905
##$CONDENSED SPECTRUM=NO
##NPOINTS= 152
##XYDATA=(XY..XY) 1 
    12          0
    13          0
    14          4
    15         48
    16          0
    17          0
    18          1
    25          0
    26          2
    27         30
    28          7
    29         31
    30         17
    37          0
    38          3
    39         29
    40          6
    41         21
    42          0
    43        999
    44         27
    45          3
    46          0
    50         10
    51         22
    52          9
    53         23
    54          1
    55         10
    56          1
    57          1
    60          0
    61          1
    62          8
    63         27
    64         11
    65         17
    66          4
    67          3
    68          2
    69          2
    70          0
    74          3
    75          9
    76          8
    77         28
    78         10
    79          7
    80          3
    81          1
    82          0
    83          1
    85          0
    86          1
    87          3
    89         26
    90          9
    91         16
    92          3
    93          1
    94          0
    95          0
    96          0
    98          0
    99          0
   101          6
   102          5
   103         10
   104          4
   105          5
   106          1
   107          0
   108          0
   109          0
   113          0
   115          7
   116          4
   117         14
   118          7
   119          6
   120          2
   121          0
   122          0
   123          0
   126          0
   127          0
   128          1
   129          0
   130          3
   131          4
   132          1
   133          3
   134          0
   135          1
   136          0
   143          0
   144          1
   145          2
   146          3
   147         13
   148          3
   149          1
   150          0
   151          0
   152          0
   157          0
   158          1
   159          1
   160          2
   161          2
   163         16
   164          2
   165          1
   166          0
   167          0
   168          0
   174          0
   175          3
   176          3
   177          4
   178          0
   179          0
   180          0
   181          1
   190          1
   191          1
   192          0
   193          2
   194          1
   195          2
   196          0
   197          1
   205          7
   206          1
   207          1
   208          0
   210          2
   211         25
   212          2
   213          0
   221          0
   222          2
   223          2
   224          4
   225          2
   226          0
   238          0
   240         41
   241          4
   242          0
   282          6
   283          0