##TITLE=Library Entry 28247
##JCAMP-DX=Revision 4.10 
##DATA TYPE=MASS SPECTRUM
##SAMPLE DESCRIPTION=D.HENNEBERG, MAX-PLANCK INSTITUTE, MULHEIM, WEST GERMAN
Y
##NAMES=HP
##CAS NAME=Silane, ethyl-
##MOLFORM=C2H8Si
##CAS REGISTRY NO=2814-79-1
##MP= -300
##BP= -300
##MW= 60
##$RETENTION INDEX=0
##$CONDENSED SPECTRUM=NO
##NPOINTS= 20
##XYDATA=(XY..XY) 1 
    26         13
    27         69
    28        194
    29        176
    30        137
    31        346
    32         43
    42         19
    43        423
    44         31
    45         18
    53         74
    54         12
    55         71
    56         82
    57         82
    58        999
    59        554
    60        193
    61         14