##TITLE=Library Entry 21684
##JCAMP-DX=Revision 4.10 
##DATA TYPE=MASS SPECTRUM
##SAMPLE DESCRIPTION=H.Maurer,J.Chromatogr.,530,307(1990)
##NAMES=HP
##CAS NAME=Barbituric acid, 5-ethyl-5-(1-methylallyl)-
##MOLFORM=C10H14N2O3
##CAS REGISTRY NO=28150-83-6
##MP= -300
##BP= -300
##MW= 210
##$RETENTION INDEX=0
##$CONDENSED SPECTRUM=NO
##NPOINTS= 70
##XYDATA=(XY..XY) 1 
    52         11
    53         85
    54         59
    55        999
    56        195
    57         18
    58          7
    59          4
    61        210
    62          4
    65          7
    66          7
    67         88
    68         37
    69        107
    70         55
    71         37
    72         11
    73         37
    77          4
    79         26
    80         18
    81         40
    82         18
    83         37
    84          7
    87         11
    93          4
    94         22
    95         22
    96         22
    97         44
    98         74
    99          7
   108          4
   109          7
   110         22
   111         11
   112         29
   113          7
   114         11
   115        364
   116         15
   121         11
   122          7
   124         18
   125          4
   126         11
   127         22
   137          7
   138        114
   139         15
   141        482
   142         22
   153         11
   154          4
   155        140
   156        397
   157        103
   158          4
   166          4
   167         62
   168          4
   181        515
   182        103
   183          7
   195         51
   196          4
   210         51
   211          4