##TITLE=Library Entry 37395
##JCAMP-DX=Revision 4.10 
##DATA TYPE=MASS SPECTRUM
##SAMPLE DESCRIPTION=N.W. Davies, Centr. Sci. Lab., Univ. Tasmania, Hobart,
 Australia
##NAMES=HP
##CAS NAME=Cyclopentane, 1,2,3-trimethyl-
##MOLFORM=C8H16
##CAS REGISTRY NO=2815-57-8
##MP= -300
##BP= -300
##MW= 112
##$RETENTION INDEX=752
##$CONDENSED SPECTRUM=NO
##NPOINTS= 25
##XYDATA=(XY..XY) 1 
    27         91
    29         24
    32         17
    38         12
    39         96
    41        302
    42        178
    43         50
    53         39
    54         22
    55        782
    56        883
    57        269
    65         15
    67         28
    68         19
    69        316
    70        999
    71         84
    77         17
    78         17
    83         92
    84        222
    97         59
   112        170