##TITLE=Library Entry 84748
##JCAMP-DX=Revision 4.10 
##DATA TYPE=MASS SPECTRUM
##SAMPLE DESCRIPTION=Chemical Concepts
##NAMES=HP
##CAS NAME=4-Fluoro-3-nitrophenyl azide
##MOLFORM=C6H3FN4O2
##CAS REGISTRY NO=28166-06-5
##MP= -300
##BP= -300
##MW= 182
##$RETENTION INDEX=0
##$CONDENSED SPECTRUM=NO
##NPOINTS= 101
##XYDATA=(XY..XY) 1 
    25          0
    26          3
    27          4
    28         17
    29          5
    30         23
    31         34
    33         18
    34          0
    35          0
    36          1
    37         10
    38          8
    39          8
    40          2
    41          6
    42          2
    43          5
    44          4
    45          4
    46          7
    47          0
    48          0
    49          3
    50         19
    51          8
    52          9
    53          2
    54          0
    55          7
    56         24
    57        234
    58         18
    59          1
    60          3
    61         16
    62         12
    63         11
    64         18
    65          3
    66          1
    67          2
    68         13
    69          8
    70          3
    71          2
    72          1
    73          3
    74          8
    75          8
    76         11
    77          3
    78          1
    79          2
    80          6
    81        129
    82         98
    83          9
    84          2
    85          1
    86          1
    87          5
    88          9
    89          2
    90          1
    91          1
    92          2
    93          4
    94          9
    95          3
    96          2
    97          2
    98          1
    99          1
   100          0
   101          0
   102          0
   103          0
   104          1
   105          1
   106          7
   107          4
   108        999
   109         70
   110          5
   111          1
   151          0
   152          0
   153          0
   154         73
   155          5
   156          5
   157          0
   165          0
   166          1
   167          0
   180          0
   181          0
   182         60
   183          5
   184          0