##TITLE=Library Entry 54488
##JCAMP-DX=Revision 4.10 
##DATA TYPE=MASS SPECTRUM
##SAMPLE DESCRIPTION=A.A.Kutin, Moscow, Russia
##NAMES=HP
##CAS NAME=4-Thiazolidinone, 2-[(3,4-dichlorophenyl)imino]-3-[(tetrahydro-2-
furanyl)methyl]-
##MOLFORM=C14H14Cl2N2O2S
##CAS REGISTRY NO=281679-36-5
##MP= -300
##BP= -300
##MW= 344
##$RETENTION INDEX=0
##$CONDENSED SPECTRUM=NO
##NPOINTS= 234
##XYDATA=(XY..XY) 1 
    35          2
    36          1
    37          3
    38          7
    39         70
    41        227
    42        174
    43        413
    44         17
    45         48
    46         63
    47         17
    48          3
    49          4
    50         11
    51          7
    52          4
    53         19
    54         12
    55         43
    56        156
    57         11
    58          7
    59          5
    60          5
    61         18
    62         10
    63         12
    64          5
    65          2
    66          2
    67          4
    68          4
    69         13
    71        232
    72         37
    73         17
    74         77
    75         40
    76          8
    77          1
    78          2
    79          2
    80          2
    81          3
    84        999
    85         76
    86          9
    87          6
    88          8
    89          2
    90          2
    91          0
    92          0
    93          1
    94          1
    95          1
    96          1
    97          8
    98          7
    99          7
   100         13
   101          2
   102          9
   103          1
   104          1
   105          1
   106          1
   107          3
   109         54
   110         18
   111         22
   112          7
   113          2
   114          3
   115          2
   116          2
   117          2
   118          1
   119          1
   120          1
   121          1
   122          1
   124         20
   125          3
   126          8
   127          1
   128          1
   129          1
   130          0
   131          1
   133         15
   134          2
   135          8
   136         10
   137          4
   138          4
   139          1
   140          1
   141          2
   142          6
   143          1
   145         71
   146          9
   147         46
   148          5
   149          8
   150          2
   151          5
   152          5
   153          2
   154          3
   155          2
   156          4
   157          1
   158          2
   159         12
   160          5
   161          9
   162          3
   163          3
   164          3
   165          3
   166          2
   167          3
   168          5
   169          9
   170          4
   171         16
   172         23
   173         11
   174         16
   175          4
   176          5
   177          2
   178          2
   179          1
   180          1
   181          0
   182          1
   183          2
   184          4
   185         10
   186         38
   187         30
   188         26
   189         18
   190          9
   191          7
   192          5
   193          3
   194          2
   195          2
   196          5
   197          5
   199         32
   200         10
   201         21
   203         28
   204          7
   205         17
   206          4
   207          3
   208          1
   209          2
   210          1
   211          2
   213         16
   214          2
   215         10
   216          3
   217          3
   218          3
   219          1
   220          1
   221          0
   222          0
   224          0
   225          2
   226          9
   227          7
   228          4
   229          4
   230          1
   231          2
   232          4
   233          1
   234          3
   235          0
   236          1
   238         17
   239          5
   240          7
   241          2
   242          1
   243          1
   244          2
   245          3
   246          2
   247          1
   248          0
   257          1
   261        532
   262         92
   263        362
   264         46
   265         71
   266          8
   267          3
   271          0
   273          7
   274          2
   275          5
   276          1
   277          1
   285          4
   286          1
   287          3
   288          0
   289          1
   299          1
   301          6
   302          1
   303          4
   304          0
   305          0
   313          0
   315          1
   316          0
   343          0
   344          1
   345          1
   346          1
   347          0