##TITLE=Library Entry 86866
##JCAMP-DX=Revision 4.10 
##DATA TYPE=MASS SPECTRUM
##SAMPLE DESCRIPTION=CARL DJERASSI DEPT OF CHEM STANFORD UNIV STANFORD CALIF
 94305
##NAMES=HP
##CAS NAME=Aspidofractinine-3-carboxylic acid, methyl ester, (2.alpha.,3.alp
ha.,5.alpha.)-
##MOLFORM=C21H26N2O2
##CAS REGISTRY NO=28161-78-6
##MP= -300
##BP= -300
##MW= 338
##$RETENTION INDEX=0
##$CONDENSED SPECTRUM=NO
##NPOINTS= 158
##XYDATA=(XY..XY) 1 
    40         29
    41         99
    42         49
    43         19
    44         19
    45          9
    51         19
    52          9
    53         19
    54         19
    55         29
    56         29
    57         19
    58          9
    59         19
    63          9
    65          9
    66          9
    67         19
    68          9
    69          9
    70          9
    75          9
    76          9
    77         49
    78          9
    79         19
    80         29
    81         49
    82          9
    83          9
    84          9
    89          9
    90          9
    91         19
    92          9
    93         19
    94          9
    95         29
    96          9
    97          9
    98          9
   101          9
   102          9
   103          9
   104          9
   105          9
   106          9
   107         19
   108         59
   109        999
   110         99
   111         19
   112          9
   114          9
   115         39
   116          9
   117         19
   118          9
   119          9
   122         29
   123         19
   124        227
   125         49
   126          9
   127         19
   128         29
   129         19
   130         39
   131         19
   132          9
   136         89
   137         19
   138          9
   139         99
   140         19
   141          9
   142          9
   143         29
   144         29
   145          9
   152          9
   153          9
   154         49
   155         29
   156         59
   157         19
   158          9
   165          9
   166         19
   167         59
   168         49
   169         59
   170         29
   171          9
   178          9
   179          9
   180         49
   181         19
   182         29
   183         19
   184          9
   191          9
   192         19
   193         19
   194         39
   195         29
   196         19
   197          9
   201          9
   202          9
   204          9
   205          9
   206          9
   207          9
   208          9
   209         19
   210          9
   214          9
   215         19
   216         19
   217          9
   218          9
   219          9
   220          9
   221          9
   222          9
   223          9
   224         19
   235          9
   237          9
   244         19
   245          9
   251         19
   252         29
   253          9
   265          9
   277          9
   278          9
   279         39
   280         29
   281          9
   282          9
   305          9
   306          9
   307         29
   309         19
   310        287
   311         19
   312          9
   321          9
   323          9
   335          9
   336         29
   337         59
   338        346
   339         19
   340          9