##TITLE=Library Entry 49491
##JCAMP-DX=Revision 4.10 
##DATA TYPE=MASS SPECTRUM
##SAMPLE DESCRIPTION=F. TURECEK,HEYROVSKY INST PHYS CHEM & ELECTROCHEM,PRAGU
E,CZECH
##NAMES=HP
##CAS NAME=endo-(2s,7R)-Tricyclo[6.2.2.0(2,7)]-4,9-dodecadiene-3,6-dione
##MOLFORM=C12H12O2
##CAS REGISTRY NO=2816-25-3
##MP= -300
##BP= -300
##MW= 188
##$RETENTION INDEX=0
##$CONDENSED SPECTRUM=NO
##NPOINTS= 81
##XYDATA=(XY..XY) 1 
    26         40
    27        110
    29         20
    39        150
    40         20
    41         90
    43         26
    50         30
    51         35
    52         80
    53         60
    54         60
    55         50
    57         20
    63         30
    64         10
    65         70
    66         30
    67         30
    68         10
    69         20
    71         20
    76         20
    77        270
    78        390
    79        460
    80        999
    81        120
    82         70
    83         10
    89         10
    91        180
    92        130
    93         30
    94         12
    95         20
    97         70
    98         10
   104         40
   105         40
   106         90
   107         50
   108         30
   109         20
   110        120
   111         20
   115         34
   116         20
   117         34
   118         20
   119         20
   120         12
   121         10
   122          8
   123         14
   128         22
   129         26
   130         10
   131         40
   132         26
   133         40
   134         30
   135         10
   141         20
   142         16
   143         20
   144         30
   145         30
   146         20
   147         20
   148         20
   159         30
   160        200
   161         40
   162         10
   170         40
   186         20
   187         20
   188        125
   189         40
   190         12