##TITLE=Library Entry 38374
##JCAMP-DX=Revision 4.10 
##DATA TYPE=MASS SPECTRUM
##SAMPLE DESCRIPTION=A.A.Kutin, Moscow, Russia
##NAMES=HP
##CAS NAME=Heptan-2-ol, 5-(2-tetrahydrofurfuryl)-
##MOLFORM=C12H24O2
##CAS REGISTRY NO=281676-71-9
##MP= -300
##BP= -300
##MW= 200
##$RETENTION INDEX=0
##$CONDENSED SPECTRUM=NO
##NPOINTS= 111
##XYDATA=(XY..XY) 1 
    33          0
    34          2
    38          0
    39         29
    40         36
    41        120
    43        281
    45        130
    46          1
    51          1
    53         12
    55        142
    56         33
    57         51
    58         38
    59         14
    60          3
    61          1
    66          2
    67         48
    68         17
    69         83
    71        999
    72         49
    73         11
    74          0
    75          1
    77          3
    79         11
    81         75
    82         30
    83         43
    84         44
    85         46
    86          7
    87         65
    88          2
    89          1
    91          5
    93         13
    94          5
    95         52
    96         89
    97         66
    98         15
    99         11
   100          4
   101          5
   102         16
   103         11
   106          0
   107         11
   108          9
   109         34
   110         19
   111         40
   112         19
   113         13
   114          6
   115          4
   119          0
   121          5
   122          1
   123         14
   124         10
   125         95
   126         12
   127         16
   128          2
   129          6
   131          2
   133          0
   135          9
   136          2
   137          5
   138         12
   139         15
   140          5
   141          6
   142          6
   143          8
   147          0
   149          6
   150          0
   151          3
   153         57
   154         14
   155          8
   156          7
   157          4
   159          1
   163          6
   164          1
   165          1
   166          1
   167          5
   168          3
   169          5
   170          1
   171          7
   172          3
   181          5
   182          3
   183          7
   185          5
   189          0
   195          1
   197          1
   199         13
   200          1
   213          0