##TITLE=Library Entry 25320
##JCAMP-DX=Revision 4.10 
##DATA TYPE=MASS SPECTRUM
##SAMPLE DESCRIPTION=J. Klune, Insect Chem. Ecol. Lab., USDA, Beltsville, MD
 20705
##NAMES=HP
##CAS NAME=4,8,12-Trimethyldotriacontane
##MOLFORM=C35H72
##CAS REGISTRY NO=28171-02-0
##MP= -300
##BP= -300
##MW= 492
##$RETENTION INDEX=3320
##$CONDENSED SPECTRUM=NO
##NPOINTS= 135
##XYDATA=(XY..XY) 1 
    41        305
    42        112
    43        810
    44         26
    53         17
    54         24
    55        322
    56        207
    57        999
    58         40
    67         48
    68         41
    69        326
    70        245
    71        878
    72         45
    79          7
    81         33
    82         46
    83        211
    84        131
    85        601
    86         37
    95         23
    96         66
    97        242
    98         68
    99        166
   100         15
   105        195
   107         72
   109         15
   110         18
   111         97
   112         73
   113        112
   114          9
   118         30
   119         23
   120          5
   121          3
   124         14
   125         53
   126        230
   127        116
   128          3
   131         10
   133         17
   135          7
   137          3
   138         17
   139         31
   140        223
   141        262
   142         27
   152          8
   153         17
   154         41
   155         70
   156          7
   167          8
   168         40
   169         49
   174         60
   175         92
   176         29
   177         28
   182         39
   183         38
   196        111
   197        161
   198         22
   210        100
   211        121
   212         18
   219         16
   224         12
   225         19
   239         10
   253         10
   264          7
   267          9
   280         59
   281         32
   282          3
   295          7
   306          8
   307          9
   308        314
   309        294
   310         60
   311          3
   322         18
   323         15
   336          9
   337         10
   350         64
   351         90
   352         24
   364          3
   365         13
   375          3
   378        161
   379        486
   380        139
   381         17
   392         14
   393         28
   394          8
   406         12
   407         42
   408         14
   420         33
   421         64
   422         28
   423          4
   427          7
   434          9
   435         23
   436         11
   441         10
   448         24
   449        115
   450         39
   462         11
   463         66
   464         21
   476         10
   477         48
   478         35
   479          9
   490          3
   491         10
   492         22
   493          9