##TITLE=Library Entry 50402
##JCAMP-DX=Revision 4.10 
##DATA TYPE=MASS SPECTRUM
##SAMPLE DESCRIPTION=Exported from NIST MS Search
##NAMES=HP
##CAS NAME=3-Buten-2-one, 4-(3-cyclohexen-1-yl)-
##MOLFORM=C10H14O
##CAS REGISTRY NO=2817-96-1
##MP= -300
##BP= -300
##MW= 150
##$RETENTION INDEX=0
##$CONDENSED SPECTRUM=NO
##NPOINTS= 111
##XYDATA=(XY..XY) 1 
    14          4
    15         42
    17          3
    18         14
    26         11
    27        152
    28         72
    29         61
    31          2
    32         12
    36          4
    37          4
    38         10
    39        215
    40         29
    41        165
    42         16
    43        720
    44         14
    45         15
    46          5
    50         35
    51         98
    52         51
    53        235
    54        414
    55        337
    56         18
    57         29
    58         10
    59         27
    60         13
    61          3
    62          9
    63         26
    64          6
    65         80
    66         41
    67        111
    68         20
    69         21
    70          6
    71        102
    72         68
    73          7
    74          9
    75          7
    76          5
    77        190
    78         80
    79        702
    80        339
    81        999
    82         84
    83         12
    84         31
    85          9
    86          3
    87          3
    89          6
    90          3
    91        399
    92        750
    93        113
    94         19
    95        236
    96        159
    97         36
    98          6
    99          2
   101          5
   102          5
   103         26
   104         10
   105         92
   106         73
   107        528
   108        152
   109         39
   110          5
   111          2
   114          6
   115         19
   116          6
   117        202
   118         23
   119          5
   120          2
   121         90
   122         79
   123         11
   124          2
   126          5
   127          3
   128          4
   129          8
   130          3
   131         23
   132        135
   133         25
   134          4
   135         85
   136         10
   145          3
   146          4
   147          6
   148         11
   149         23
   150        252
   151         31
   152          3