##TITLE=Library Entry 114772
##JCAMP-DX=Revision 4.10 
##DATA TYPE=MASS SPECTRUM
##SAMPLE DESCRIPTION=Japan AIST/NIMC Database- Spectrum MS-IW-1278
##NAMES=HP
##CAS NAME=2,6-Difluorophenol
##MOLFORM=C6H4F2O
##CAS REGISTRY NO=28177-48-2
##MP= -300
##BP= -300
##MW= 130
##$RETENTION INDEX=0
##$CONDENSED SPECTRUM=NO
##NPOINTS= 68
##XYDATA=(XY..XY) 1 
    25          1
    26          2
    27          1
    28          1
    29          4
    31         36
    32          1
    36          2
    37         11
    38         10
    39          8
    41         15
    44          4
    45          7
    48          1
    49          6
    50         19
    51         38
    52          5
    53         14
    54          1
    55         26
    56         34
    57         49
    58          2
    60          3
    61         16
    62         15
    63        133
    64          9
    65         40
    66          1
    68          9
    69          8
    70          5
    71          4
    73          8
    74          6
    75         43
    76          6
    77          2
    79          5
    80         10
    81        157
    82        616
    83         43
    84          4
    86          1
    87          2
    91          2
    92          3
    93          3
    94          1
    98          1
    99         11
   100          6
   101         80
   102          6
   104          1
   110        294
   111         19
   112          3
   113          2
   128          4
   129         25
   130        999
   131         65
   132          3