##TITLE=Library Entry 43264
##JCAMP-DX=Revision 4.10 
##DATA TYPE=MASS SPECTRUM
##SAMPLE DESCRIPTION=BAY 0339
##NAMES=HP
##CAS NAME=Glucopyranose, 1,2,3,4-tetrakis-O-(trimethylsilyl)-, bis(trimethy
lsilyl) phosphate, D-
##MOLFORM=C24H61O9PSi6
##CAS REGISTRY NO=28176-73-0
##MP= -300
##BP= -300
##MW= 692
##$RETENTION INDEX=0
##$CONDENSED SPECTRUM=NO
##NPOINTS= 221
##XYDATA=(XY..XY) 1 
    39          6
    41          3
    43         15
    44          5
    45         46
    46          2
    47          7
    50          3
    51          3
    52          6
    53          7
    55          2
    57          2
    59         25
    60          2
    61          2
    63          2
    65          2
    66          5
    67          2
    72         17
    73        999
    74         87
    75         80
    76          5
    78          2
    81         15
    85          3
    86          2
    87          3
    88          2
    93          2
    94          2
    95          2
    99          5
   100          2
   101         17
   102          5
   103         36
   104          5
   108          2
   109          5
   110          2
   111          2
   112          2
   113         21
   114          5
   115          9
   116         18
   117         16
   118          5
   119          5
   122          2
   127          7
   128          3
   129        160
   130         28
   131         28
   133         46
   134          9
   135          7
   141          2
   142         11
   143         25
   145         11
   146          2
   147        201
   148         36
   149         23
   150          5
   151          7
   152          2
   153          3
   154          3
   155          9
   156          5
   157         15
   158          5
   159          7
   160          2
   161          5
   163          3
   167          2
   169         10
   170          9
   171          9
   173          5
   175          5
   177          5
   178          2
   179          3
   180          3
   181          5
   183          7
   185          2
   187          2
   189         16
   190          6
   191         64
   192         14
   193          6
   194          3
   195          9
   196          3
   199          2
   203          7
   204        383
   205         87
   206         34
   207         15
   208          5
   209          2
   211         40
   212          9
   213          7
   215          5
   216          5
   217         62
   218         16
   219          7
   220          5
   221          7
   222          5
   223          5
   225         11
   226          5
   227         30
   228          7
   229          7
   230          9
   231         15
   232          5
   233          5
   241          5
   242         16
   243         28
   244         11
   245         11
   246          5
   247         18
   248          7
   249          2
   253          9
   255          5
   256          2
   257          2
   258          2
   259          5
   260          2
   269         11
   270         21
   271         46
   272         18
   273         11
   274          2
   283          7
   284          5
   285         11
   286          5
   287          5
   291          7
   292          2
   299        178
   300         43
   301         25
   302          7
   305         23
   306         11
   307          5
   313          9
   314         14
   315        119
   316         36
   317         34
   318          9
   319          7
   320          5
   328          5
   331          7
   332          5
   333         11
   334          5
   335          5
   341          5
   342          5
   343          7
   344          2
   345         23
   346          9
   347          5
   348          2
   357         96
   358         41
   359         21
   360          9
   361          9
   362          2
   369          9
   370         57
   371         18
   372         14
   373         11
   374          5
   375          5
   385          5
   386         14
   387        290
   388        100
   389         77
   390         21
   391          9
   471          5
   472          2
   473          5
   587          5
   588          2
   589          2
   677          9
   678          7
   679          5
   680          2