##TITLE=Library Entry 43856
##JCAMP-DX=Revision 4.10 
##DATA TYPE=MASS SPECTRUM
##SAMPLE DESCRIPTION=BAY 0350
##NAMES=HP
##CAS NAME=Gluconic acid, 2,3,4,5-tetrakis-O-(trimethylsilyl)-, trimethylsil
yl ester, bis(trimethylsilyl) phosphate, D-
##MOLFORM=C27H69O10PSi7
##CAS REGISTRY NO=28176-77-4
##MP= -300
##BP= -300
##MW= 780
##$RETENTION INDEX=0
##$CONDENSED SPECTRUM=NO
##NPOINTS= 289
##XYDATA=(XY..XY) 1 
    28          3
    31          3
    39          1
    41          3
    43          9
    44         11
    45         55
    46          3
    47          6
    53          3
    54          2
    55          9
    57          1
    58          3
    59         25
    60          3
    61          7
    66          3
    68          2
    69          2
    72         17
    73        999
    74         87
    75         75
    76          4
    77          5
    79          2
    81          3
    83          2
    85          3
    87          3
    89          3
    97          3
    99          4
   101         43
   102         13
   103         25
   104          3
   105          2
   111          2
   113          9
   114          2
   115          6
   116         51
   117         18
   118          3
   119          4
   121          2
   125          2
   127          5
   128          2
   129         62
   130         11
   131         28
   132          5
   133         51
   134          6
   135          9
   137          3
   141          2
   142          4
   143         26
   144          3
   145         24
   146          3
   147        256
   148         40
   149         30
   150          3
   151          3
   153          4
   155          3
   156          2
   157         34
   158          5
   159          4
   161          3
   163          3
   169         11
   170          4
   171          4
   173          3
   175          4
   177          3
   179          2
   181          3
   187          2
   189         22
   190          5
   191         21
   192          5
   193          8
   194          2
   195          6
   196          2
   197          5
   201          2
   203          9
   204         38
   205         17
   206          3
   207         18
   208          3
   209          3
   210          2
   211         27
   212          5
   213          3
   215          5
   216          1
   217         97
   218         27
   219         22
   220         21
   221         22
   222          4
   223          3
   225         12
   226          3
   227         12
   228          4
   229          7
   230         16
   231         11
   232          4
   233          3
   234          2
   241          3
   242          1
   243         14
   244          3
   245         11
   246          3
   247         28
   248          6
   249          3
   253          3
   257          2
   258          2
   259         13
   260          3
   261          3
   262          3
   265          1
   269          7
   270          3
   271          9
   273          2
   277          9
   278          3
   279          3
   281          2
   283          9
   284          4
   285         11
   286          3
   287          3
   291          9
   292         18
   293          7
   294          3
   298          7
   299        279
   300         69
   301         42
   302          9
   303          3
   305         22
   306          7
   307          4
   313          7
   314         28
   315        135
   316         38
   317         23
   318          8
   319          9
   320          4
   321          3
   327          2
   328          9
   329          3
   330          2
   331          8
   332          5
   333         70
   334         21
   335         12
   336          3
   340          7
   341          3
   342          3
   343          2
   344          3
   345          2
   349          4
   350          1
   355          1
   356          3
   357        113
   358         32
   359         27
   360          7
   361          8
   362          3
   363          2
   369          7
   370         19
   371          8
   372          4
   373          9
   374          3
   375          3
   376          3
   377          2
   379          2
   384          2
   385          4
   386         11
   387        218
   388         75
   389         51
   390         12
   391          6
   392          2
   393          3
   394          2
   395          1
   405          2
   406          2
   407          2
   408          1
   415          2
   416          1
   417          1
   423          4
   424          3
   425          2
   429          2
   431          2
   432          2
   433          5
   434          3
   435          3
   436          1
   442          1
   443          1
   447          1
   448          1
   449          2
   450          2
   451          6
   452          3
   453          2
   459         14
   460          5
   461         11
   462          3
   463          2
   471         35
   472         13
   473          8
   474          3
   475          1
   484          2
   485          1
   486          1
   511          2
   512          1
   513          1
   541          2
   542          1
   561          4
   562          3
   563          2
   564          1
   573          2
   575          1
   585          2
   587          1
   601          1
   675          1
   676          1
   677          1
   765         12
   766          8
   767          6
   768          3
   769          2