##TITLE=Library Entry 40382
##JCAMP-DX=Revision 4.10 
##DATA TYPE=MASS SPECTRUM
##SAMPLE DESCRIPTION=M.A.BALDWIN UNIVERSITY COLLEGE, LONDON, UK
##NAMES=HP
##CAS NAME=Urea, N'-(4-chloro-3-methylphenyl)-N,N-dimethyl-
##MOLFORM=C10H13ClN2O
##CAS REGISTRY NO=28170-64-1
##MP= -300
##BP= -300
##MW= 212
##$RETENTION INDEX=0
##$CONDENSED SPECTRUM=NO
##NPOINTS= 25
##XYDATA=(XY..XY) 1 
    28         44
    39         10
    42         26
    43         15
    44         98
    45         64
    50         10
    51         22
    52         10
    56         12
    63         10
    72        999
    73         44
    77         34
    78         11
   104         11
   132         50
   140         11
   166         15
   167         56
   168         14
   169         19
   212        216
   213         28
   214         73