##TITLE=Library Entry 96541
##JCAMP-DX=Revision 4.10 
##DATA TYPE=MASS SPECTRUM
##SAMPLE DESCRIPTION=Japan AIST/NIMC Database- Spectrum MS-NW-6823
##NAMES=HP
##CAS NAME=Benzonitrile, 3-(bromomethyl)-
##MOLFORM=C8H6BrN
##CAS REGISTRY NO=28188-41-2
##MP= -300
##BP= -300
##MW= 195
##$RETENTION INDEX=0
##$CONDENSED SPECTRUM=NO
##NPOINTS= 57
##XYDATA=(XY..XY) 1 
    26          4
    27          5
    28          2
    36          1
    37         10
    38         18
    39         45
    40          3
    41          2
    43          2
    44          2
    49          4
    50         22
    51         19
    52          8
    53          1
    56          1
    57         13
    58         11
    60          1
    61         11
    62         27
    63         54
    64         20
    65         10
    66          2
    73          1
    74          4
    75          9
    76          9
    77          3
    78          1
    79          5
    80          4
    81          5
    82          4
    84          1
    85          3
    86          4
    87          9
    88         21
    89        146
    90         35
    91          2
    97          4
    98          5
    99          1
   114         12
   115         17
   116        999
   117         97
   118          4
   194          9
   195         36
   196         12
   197         35
   198          3