##TITLE=Library Entry 21681
##JCAMP-DX=Revision 4.10 
##DATA TYPE=MASS SPECTRUM
##SAMPLE DESCRIPTION=Japan AIST/NIMC Database- Spectrum MS-IW-5520
##NAMES=HP
##CAS NAME=2-Oxo-1-oxaspiro(4.5)decane-4-carboxylic acid
##MOLFORM=C10H14O4
##CAS REGISTRY NO=2819-56-9
##MP= -300
##BP= -300
##MW= 198
##$RETENTION INDEX=0
##$CONDENSED SPECTRUM=NO
##NPOINTS= 154
##XYDATA=(XY..XY) 1 
    14          3
    15          5
    16          5
    17          2
    18          5
    26         16
    27        131
    28        114
    29         59
    30          1
    31          5
    37          3
    38         10
    39        144
    40         35
    41        244
    42        107
    43        108
    44        215
    45         29
    46          4
    47          1
    48          2
    49          2
    50         25
    51         65
    52         38
    53         72
    54        115
    55        999
    56         69
    57         45
    58         18
    59          2
    60          8
    61          5
    62          9
    63         29
    64          7
    65         54
    66         34
    67        157
    68         31
    69        124
    70         83
    71         44
    72         75
    73         62
    74         20
    75          8
    76          9
    77        112
    78         80
    79        311
    80        128
    81        323
    82         89
    83        144
    84         19
    85          6
    86          9
    87          9
    88          4
    89         18
    90          6
    91        161
    92         85
    93        154
    94        221
    95         71
    96         47
    97         69
    98        349
    99        591
   100        299
   101         31
   102         18
   103         38
   104         41
   105         46
   106         28
   107         80
   108        125
   109         92
   110         35
   111         40
   112          6
   113         38
   114         55
   115        156
   116        138
   117        136
   118         91
   119         17
   120         12
   121         26
   122          6
   123         11
   124         80
   125         48
   126         23
   127        243
   128         29
   129         10
   130          8
   131         21
   132         58
   133         30
   134        123
   135         58
   136        263
   137         52
   138         89
   139         30
   140          3
   141          9
   142        370
   143         87
   144         25
   145          4
   146          3
   147          1
   148          1
   149          2
   150          4
   151          9
   152        283
   153         47
   154         66
   155        688
   156        305
   157         30
   158          3
   160          1
   161          1
   162         27
   163          4
   164          1
   165          5
   166          1
   168          1
   169         45
   170        129
   171         13
   172          2
   178          1
   179          5
   180        750
   181         97
   182         10
   183          2
   198         97
   199         25
   200          3