##TITLE=Library Entry 66117
##JCAMP-DX=Revision 4.10 
##DATA TYPE=MASS SPECTRUM
##SAMPLE DESCRIPTION=Chemical Concepts
##NAMES=HP
##CAS NAME=Cyclohexane, 1,2-bis(methylene)-
##MOLFORM=C8H12
##CAS REGISTRY NO=2819-48-9
##MP= -300
##BP= -300
##MW= 108
##$RETENTION INDEX=0
##$CONDENSED SPECTRUM=NO
##NPOINTS= 81
##XYDATA=(XY..XY) 1 
    25          0
    26         27
    27        272
    28          3
    29         69
    30          1
    33          0
    34          0
    35          0
    36          0
    37         14
    38         43
    39        538
    40        123
    41        338
    42         19
    43          5
    44          0
    45         11
    46          3
    47          0
    48          0
    49          6
    50         75
    51        177
    52        152
    53        169
    54         88
    55         47
    56          6
    57          0
    58          1
    59          0
    60          1
    61          7
    62         17
    63         49
    64         13
    65        158
    66         95
    67        205
    68         44
    69          9
    70          0
    71          0
    72          0
    73          2
    74         10
    75         10
    77        522
    78        104
    79        774
    80        235
    81         52
    82          9
    83          0
    84          0
    85          0
    86          1
    87          1
    88          0
    89          9
    90          5
    91        426
    92         44
    93        999
    94         65
    95         24
    96          1
    98          0
   101          0
   102          2
   103          9
   104          3
   105         33
   106         19
   107         72
   108        715
   109         53
   110         12
   111          0