##TITLE=Library Entry 68335
##JCAMP-DX=Revision 4.10 
##DATA TYPE=MASS SPECTRUM
##SAMPLE DESCRIPTION=L.E. Slivon, Battelle Columbus Laboratories, Columbus,
 Ohio 43201
##NAMES=HP
##CAS NAME=1H-Pyrazole, 3,4-dimethyl-
##MOLFORM=C5H8N2
##CAS REGISTRY NO=2820-37-3
##MP= -300
##BP= -300
##MW= 96
##$RETENTION INDEX=0
##$CONDENSED SPECTRUM=NO
##NPOINTS= 31
##XYDATA=(XY..XY) 1 
    40        204
    41        278
    42        432
    43         40
    45          7
    47         19
    49         33
    50        137
    51        156
    52        312
    53         91
    54        475
    55         98
    56         43
    57          2
    61         40
    62         55
    63         76
    64         31
    65         40
    66         76
    67         28
    68        228
    69         40
    81        338
    82         28
    93          2
    94         40
    95        999
    96        804
    97         62