##TITLE=Library Entry 53640
##JCAMP-DX=Revision 4.10 
##DATA TYPE=MASS SPECTRUM
##SAMPLE DESCRIPTION=Philip Morris R&D
##NAMES=HP
##CAS NAME=Pyridine, 3-(1-methyl-2-pyrrolidinyl)-, 1-oxide, (S)-
##MOLFORM=C10H14N2O
##CAS REGISTRY NO=2820-55-5
##MP= -300
##BP= -300
##MW= 178
##$RETENTION INDEX=1478
##$CONDENSED SPECTRUM=NO
##NPOINTS= 83
##XYDATA=(XY..XY) 1 
    37          1
    38         13
    39         73
    40         13
    41         41
    42        210
    43         16
    44         27
    50         17
    51         52
    52         21
    53         18
    54         12
    55         37
    56         10
    57         10
    58          0
    60          1
    61          0
    62          3
    63         25
    64         15
    65         43
    66         12
    67         12
    68          9
    69          4
    70          2
    74          1
    75          3
    76          5
    77         25
    78         34
    79         19
    80         16
    81         20
    82         38
    83          7
    84        999
    85         57
    89          7
    90          7
    91         20
    92         39
    93         11
    94          8
    95          2
   102          2
   103          4
   104         13
   105         19
   106         17
   107         10
   108          7
   109          6
   117         29
   118         51
   119         53
   120         17
   121          4
   122         13
   123          0
   128          0
   130         38
   131         12
   132         31
   133        201
   134         26
   135          9
   136          2
   144          3
   145          5
   147          2
   149          9
   150          1
   158          3
   159         34
   161        148
   163        116
   164         14
   177         18
   178        105
   179         10