##TITLE=Library Entry 11489
##JCAMP-DX=Revision 4.10 
##DATA TYPE=MASS SPECTRUM
##SAMPLE DESCRIPTION=Chemical Concepts
##NAMES=HP
##CAS NAME=4'-Acetamidoacetophenone 2,4-dinitrophenylhydrazone
##MOLFORM=C16H15N5O5
##CAS REGISTRY NO=282091-56-9
##MP= -300
##BP= -300
##MW= 357
##$RETENTION INDEX=0
##$CONDENSED SPECTRUM=NO
##NPOINTS= 48
##XYDATA=(XY..XY) 1 
    39        133
    40         40
    43        999
    50         34
    51         52
    52         36
    53         10
    63        145
    64         73
    65        137
    66         18
    74         24
    75         41
    76         28
    77         42
    78         31
    79         23
    89         37
    91        182
    92         66
    93         41
   102          9
   103          8
   104         13
   105         10
   106         17
   116         20
   118        236
   119         57
   120         28
   132          9
   133         31
   134         20
   135         24
   152          9
   160         27
   165         12
   175         25
   176          9
   177          9
   178         13
   179         16
   180          8
   181         15
   193         13
   280         16
   310          9
   357         37