##TITLE=Library Entry 74234
##JCAMP-DX=Revision 4.10 
##DATA TYPE=MASS SPECTRUM
##SAMPLE DESCRIPTION=T.-C. Huang ET AL.J.Agr.Food Chem.,46,224(1998)
##NAMES=HP
##CAS NAME=2-Butylthiazoline
##MOLFORM=C7H13NS
##CAS REGISTRY NO=28221-34-3
##MP= -300
##BP= -300
##MW= 143
##$RETENTION INDEX=1123
##$CONDENSED SPECTRUM=NO
##NPOINTS= 26
##XYDATA=(XY..XY) 1 
    40        119
    41        238
    42         32
    43        119
    44         66
    45        226
    51         22
    54        100
    55         90
    56         49
    57         29
    58        112
    59        350
    60        620
    61        197
    62         34
    67         49
    69         78
    70         44
    71         32
    80         34
    88        112
   101        999
   114        107
   115         36
   143         34