##TITLE=Library Entry 61461
##JCAMP-DX=Revision 4.10 
##DATA TYPE=MASS SPECTRUM
##SAMPLE DESCRIPTION=J.VOTH UNIV. OF CALIF, DAVIS, CALIFORNIA, 95616, USA
##NAMES=HP
##CAS NAME=Biphenylene, 1,2,3,6,7,8,8a,8b-octahydro-, trans-
##MOLFORM=C12H16
##CAS REGISTRY NO=28229-15-4
##MP= -300
##BP= -300
##MW= 160
##$RETENTION INDEX=0
##$CONDENSED SPECTRUM=NO
##NPOINTS= 113
##XYDATA=(XY..XY) 1 
    14          5
    15         83
    16          6
    17         22
    18         74
    26         46
    27        431
    28         92
    29         99
    32          5
    37         11
    38         46
    39        521
    40         60
    41        423
    42         20
    43          9
    49          4
    50        201
    51        443
    52        203
    53        274
    54         63
    55         64
    56          5
    57          7
    58         14
    61         22
    62         76
    63        237
    64         91
    65        307
    66         91
    67        226
    68         20
    69         17
    70         10
    71         19
    72         10
    73          9
    74         58
    75         62
    76         48
    77        443
    78        254
    79        441
    80        171
    81        166
    82         22
    83          3
    85          5
    86         13
    87         20
    88          6
    89         60
    90         27
    91        999
    92        179
    93         89
    94         46
    95         26
    96          3
    98          8
    99          4
   101         12
   102         52
   103        158
   104        326
   105        276
   106         98
   107         16
   108          6
   109          4
   110          4
   111          3
   113         11
   114         15
   115        267
   116        141
   117        834
   118        231
   119        279
   120         31
   121          3
   125          3
   126          7
   127         44
   128        114
   129        115
   130         97
   131        466
   132        310
   133         49
   134          6
   139          5
   140          3
   141         20
   142         12
   143         26
   144         19
   145        509
   146         62
   147          5
   152          5
   153          4
   154          4
   155          3
   157          5
   158         10
   159        107
   160        808
   161        107
   162          9