##TITLE=Library Entry 48945
##JCAMP-DX=Revision 4.10 
##DATA TYPE=MASS SPECTRUM
##SAMPLE DESCRIPTION=Japan AIST/NIMC Database- Spectrum MS-IW-1772
##NAMES=HP
##CAS NAME=3,4-Dihydro-3-hydroxy-4-oxo-1,2,3-benzotriazine
##MOLFORM=C7H5N3O2
##CAS REGISTRY NO=28230-32-2
##MP= -300
##BP= -300
##MW= 163
##$RETENTION INDEX=0
##$CONDENSED SPECTRUM=NO
##NPOINTS= 98
##XYDATA=(XY..XY) 1 
    14          1
    17          2
    18          1
    25          3
    26         10
    27         15
    28         40
    29          6
    30         22
    31          7
    34          1
    36          7
    37         80
    38        117
    39        200
    40         22
    41         26
    42          3
    43          4
    44         17
    45         29
    46          1
    48          4
    49         32
    50        324
    51        207
    52        598
    53         94
    54          9
    55         11
    56          2
    57          1
    59          4
    60          7
    61         35
    62         78
    63        408
    64        429
    65         91
    66         41
    67          7
    68          7
    69          4
    71          1
    72          2
    73         24
    74        105
    75         90
    76        357
    77        241
    78        120
    79        999
    80         76
    81          6
    82          1
    83          1
    84          1
    85          2
    86          5
    87          8
    88         15
    89         60
    90        601
    91        123
    92         59
    93         12
    94          4
    95          3
    97          1
    99          2
   102          2
   103          6
   104         80
   105         95
   106         43
   107          8
   108          9
   109          2
   117         13
   118         68
   119         47
   120         10
   121          7
   122          2
   133         39
   134         10
   135        120
   136          9
   137         27
   138          2
   146          3
   147         34
   148          3
   149          1
   151          1
   163        513
   164         47
   165          4