##TITLE=Library Entry 5198
##JCAMP-DX=Revision 4.10 
##DATA TYPE=MASS SPECTRUM
##SAMPLE DESCRIPTION=ATLAS OF MASS SPECTRA OF ORGANIC COMPOUNDS, V. A. KOPTY
UG, ED.
##NAMES=HP
##CAS NAME=2-Butanone, diethylhydrazone
##MOLFORM=C8H18N2
##CAS REGISTRY NO=28236-94-4
##MP= -300
##BP= -300
##MW= 142
##$RETENTION INDEX=0
##$CONDENSED SPECTRUM=NO
##NPOINTS= 28
##XYDATA=(XY..XY) 1 
    29        257
    30         50
    39         36
    40         11
    41        110
    42        999
    43         43
    44        160
    53         11
    54         32
    55         71
    56         48
    57        189
    58         11
    68         12
    70        139
    71         14
    72         82
    73         29
    85          7
    86         10
    99         15
   113         36
   127        538
   128         43
   141         12
   142        200
   143         19