##TITLE=Library Entry 67708
##JCAMP-DX=Revision 4.10 
##DATA TYPE=MASS SPECTRUM
##SAMPLE DESCRIPTION=Exported from NIST MS Search
##NAMES=HP
##CAS NAME=1H-3a,7-Methanoazulen-5-ol, octahydro-3,8,8-trimethyl-6-methylene
-
##MOLFORM=C15H24O
##CAS REGISTRY NO=28231-03-0
##MP= -300
##BP= -300
##MW= 220
##$RETENTION INDEX=1610
##$CONDENSED SPECTRUM=NO
##NPOINTS= 140
##XYDATA=(XY..XY) 1 
    14          6
    15         24
    17         19
    18        106
    26         17
    27        184
    29        240
    30          7
    31         39
    32          8
    37          5
    38          5
    39        207
    40         46
    41        921
    42         62
    43        823
    44         27
    45         59
    50         11
    51         43
    52         26
    53        242
    54         38
    55        507
    56         91
    57        170
    58         53
    59         91
    60         11
    63         16
    64          7
    65        108
    66         43
    67        313
    68         71
    69        514
    70         78
    71        255
    72        128
    73         19
    74          8
    75         14
    76         14
    77        286
    78         65
    79        339
    80         81
    81        470
    82        242
    83        133
    84         43
    85         23
    89         11
    90          7
    91        347
    92        194
    93        508
    94        161
    95        999
    96        154
    97         55
    98         14
    99         85
   103         23
   104         14
   105        316
   106         93
   107        385
   108        272
   109        377
   110         50
   111         50
   112         25
   113         26
   114          5
   115         25
   116         12
   117         38
   118         14
   119        306
   120        186
   121        352
   122        196
   123        176
   124         21
   125         14
   127          5
   128         12
   129          7
   130          7
   131         23
   132          8
   133        189
   134         86
   135        317
   136         93
   137        103
   138         28
   139         10
   140          6
   141          6
   142          5
   145         16
   146         12
   147        151
   148         88
   149        232
   150        680
   151        642
   152        112
   153         15
   159          8
   160         11
   161        321
   162         88
   163         53
   164         86
   165        121
   166         66
   167         20
   173          5
   175         24
   176         10
   177         71
   178         23
   179         32
   180          9
   187         83
   188         11
   189         30
   190          6
   191         18
   202        214
   203         32
   204         10
   205        166
   206         24
   220         73
   221         10