##TITLE=Library Entry 15470
##JCAMP-DX=Revision 4.10 
##DATA TYPE=MASS SPECTRUM
##SAMPLE DESCRIPTION=ATLAS OF MASS SPECTRA OF ORGANIC COMPOUNDS, V. A. KOPTY
UG, ED.
##NAMES=HP
##CAS NAME=2-Pentanone, 4-methyl-, dimethylhydrazone
##MOLFORM=C8H18N2
##CAS REGISTRY NO=28236-88-6
##MP= -300
##BP= -300
##MW= 142
##$RETENTION INDEX=0
##$CONDENSED SPECTRUM=NO
##NPOINTS= 38
##XYDATA=(XY..XY) 1 
    28        141
    29        156
    30         69
    39        141
    40         34
    41        297
    42        562
    43        313
    44        999
    45        781
    46         94
    53         22
    54         20
    55         53
    56        595
    57        150
    58        469
    59         94
    69         18
    70         31
    71         59
    81         13
    82         59
    83         22
    84        125
    85        250
    86        225
    87         14
    96         28
    97         20
    98         63
    99        266
   100        297
   101         22
   127         94
   141         12
   142        500
   143         69