##TITLE=Library Entry 17261
##JCAMP-DX=Revision 4.10 
##DATA TYPE=MASS SPECTRUM
##SAMPLE DESCRIPTION=NIST Mass Spectrometry Data Center
##NAMES=HP
##CAS NAME=2,4-Dichlorophenoxyacetic acid hydrazide
##MOLFORM=C8H8Cl2N2O2
##CAS REGISTRY NO=28236-62-6
##MP= -300
##BP= -300
##MW= 234
##$RETENTION INDEX=0
##$CONDENSED SPECTRUM=NO
##NPOINTS= 106
##XYDATA=(XY..XY) 1 
    14          2
    18         11
    29         36
    30         42
    31        175
    32         68
    36          7
    37         20
    38         21
    39         15
    40          2
    41         12
    42         89
    43        156
    44         92
    45        999
    46         21
    47          8
    49         29
    50         70
    51         40
    53         25
    55         30
    56         10
    57          7
    58         83
    59         14
    60         16
    61         59
    62        106
    63        327
    64         24
    65         10
    71          8
    72         63
    73        980
    74        190
    75        235
    76         24
    77         38
    83         26
    84         38
    85         48
    86         16
    87         16
    91         13
    96         10
    97         51
    98        113
    99         77
   100         42
   101         17
   106          6
   107         30
   108         13
   109        315
   110         92
   111        388
   112         96
   113        103
   114         26
   119          8
   126         45
   127         17
   128         38
   130          8
   133        145
   134         13
   135         93
   136          8
   137         15
   139         24
   140         10
   141         14
   144         42
   145        381
   146         45
   147        307
   148         26
   149         82
   150          6
   151          7
   161         55
   162        951
   163        112
   164        605
   165         52
   166        100
   167         11
   173         16
   175        205
   176         24
   177        132
   178         13
   179         20
   184         63
   185          6
   186         22
   199        168
   200         16
   201         57
   219          7
   234         97
   235         10
   236         65
   238         11