##TITLE=Library Entry 13011
##JCAMP-DX=Revision 4.10 
##DATA TYPE=MASS SPECTRUM
##SAMPLE DESCRIPTION=A. Brossi, LC, NIDDK, NIH, Bethesda, MD 20892
##NAMES=HP
##CAS NAME=4'-Methylphenyl-1-thio-.beta.-d-galactoside, tetraacetate(ester)
##MOLFORM=C21H26O9S
##CAS REGISTRY NO=28244-99-7
##MP= -300
##BP= -300
##MW= 454
##$RETENTION INDEX=0
##$CONDENSED SPECTRUM=NO
##NPOINTS= 210
##XYDATA=(XY..XY) 1 
    43        999
    44          5
    45         34
    47          3
    49          1
    50          1
    51          5
    52          2
    53          8
    54          2
    55         15
    56          3
    57         10
    58          2
    59          2
    60          6
    61         12
    62          0
    63          6
    64          1
    65         14
    66          0
    67          2
    68          3
    69         26
    70          5
    71         15
    72          0
    73         19
    74          1
    75          1
    77         24
    78          7
    79         26
    80          0
    81         86
    82          8
    83          8
    84          1
    85         44
    86          6
    87          8
    89          9
    90          1
    91         79
    92         15
    93          5
    94          0
    95          2
    96          0
    97         64
    98          8
    99         30
   100          2
   101          6
   102          1
   103         51
   104          3
   105          7
   106          1
   107          1
   108          6
   109        367
   110         35
   111          8
   112          1
   113          5
   114          1
   115         46
   116          6
   117          2
   118          0
   119          2
   121         12
   122          5
   123        115
   124         92
   125         29
   126         12
   127        276
   128         18
   129          6
   130          1
   131          2
   132          1
   133          2
   134          2
   135          6
   136          1
   137         36
   138          1
   139         72
   140          1
   141         20
   142          1
   143          6
   144          3
   145         44
   146          3
   147          2
   148          1
   149          9
   150          3
   151          9
   152          2
   153          7
   154          1
   155          1
   157          6
   158          1
   159          1
   161          8
   162          1
   163          2
   164          0
   165         11
   166          8
   167         10
   168          1
   169        667
   170         19
   171         11
   172          1
   173          1
   174          0
   175          1
   177          2
   178          1
   179          8
   180          1
   181          1
   182          0
   183          0
   184          0
   185          2
   186          1
   187         21
   188          0
   189          3
   191          4
   192          1
   193          0
   195          2
   197          0
   199          0
   200          0
   201          1
   202          0
   203          2
   204          1
   205          2
   207          5
   208          1
   209          1
   211         21
   212          2
   213          0
   214          0
   215          1
   216          0
   217          0
   219          2
   220          0
   221          1
   222          0
   223          0
   227          0
   229         31
   230          3
   231          1
   232          0
   233          4
   234          0
   235          0
   237          0
   243          0
   245          0
   246          1
   247          1
   248          0
   249          1
   250          0
   251          0
   256          0
   259          0
   261          0
   262          0
   271          5
   272          0
   273          0
   275          1
   276          0
   286          0
   287          0
   288          0
   289          5
   290          0
   291          0
   293          0
   309          0
   328          0
   330          0
   331        487
   332         88
   333         17
   334          1
   335          0
   351          0
   353          0
   454          0