##TITLE=Library Entry 73215
##JCAMP-DX=Revision 4.10 
##DATA TYPE=MASS SPECTRUM
##SAMPLE DESCRIPTION=ACCUSTANDARD Chemicals / NIST MS Data Center.
##NAMES=HP
##CAS NAME=Benthiocarb
##MOLFORM=C12H16ClNOS
##CAS REGISTRY NO=28249-77-6
##MP= -300
##BP= -300
##MW= 257
##$RETENTION INDEX=1974
##$CONDENSED SPECTRUM=NO
##NPOINTS= 123
##XYDATA=(XY..XY) 1 
    12          0
    13          0
    15         22
    18          0
    26         10
    27         85
    28         30
    29        254
    30         14
    33          0
    35          2
    36          1
    37          1
    38          7
    39         33
    40          4
    41         15
    42         94
    43          0
    44        223
    45        133
    46          5
    47          7
    48          1
    49          2
    50         13
    51         22
    52          3
    53          1
    54          3
    56         43
    57         14
    58         16
    59          3
    60          9
    61         12
    62         16
    63         56
    64         11
    65          8
    66          0
    67          0
    69          6
    70         13
    72        594
    73         42
    74          7
    75         24
    76         13
    77         21
    78          5
    79          1
    81          0
    82          1
    83          0
    84          3
    85          3
    86          6
    87          4
    88          0
    89        113
    90         33
    91          4
    92          0
    93          1
    94          1
    95          1
    96          1
    97          3
   100        999
   101         66
   102          5
   104          9
   105          1
   106          0
   111          8
   112          4
   113          4
   114          1
   115          0
   116          1
   117          0
   118          3
   119          2
   120          4
   121         16
   122          7
   123          3
   124          0
   125        255
   126         22
   127         78
   128          5
   129          0
   130          0
   132         21
   133          1
   134          1
   139          1
   140          1
   141          0
   142          0
   144          0
   149          0
   153          0
   155         12
   156          3
   157         14
   158          2
   159          4
   160          0
   182          0
   184          0
   223          0
   224          3
   225          0
   226          0
   257        159
   258         25
   259         60
   260          8
   261          3
   262          0