##TITLE=Library Entry 98563
##JCAMP-DX=Revision 4.10 
##DATA TYPE=MASS SPECTRUM
##SAMPLE DESCRIPTION=A.A.Kutin, Moscow, Russia
##NAMES=HP
##CAS NAME=1-(2,6-Dimethylphenyl)-5-(methylthio)-1H-1,2,3,4-tetrazole
##MOLFORM=C10H12N4S
##CAS REGISTRY NO=282541-91-7
##MP= -300
##BP= -300
##MW= 220
##$RETENTION INDEX=0
##$CONDENSED SPECTRUM=NO
##NPOINTS= 99
##XYDATA=(XY..XY) 1 
    33         56
    34         14
    37         11
    38         42
    39        285
    40        225
    41         80
    42         35
    43         23
    44        120
    45        120
    46         71
    47        101
    48         21
    50         79
    51        192
    52         99
    53         96
    54         16
    55         17
    57         15
    58         37
    59         19
    60         10
    61         16
    62         36
    63        116
    64         69
    65        215
    66         39
    67         26
    68          3
    69          6
    72         12
    73         15
    74         25
    75         37
    76         66
    77        451
    78        156
    79        174
    80         18
    81          3
    87          5
    89        118
    90        120
    91        480
    92         85
    93         59
   101         27
   102         64
   103        180
   104        114
   105        197
   106         31
   107          4
   114          2
   115         21
   116        156
   117        265
   118        999
   119        120
   120         10
   127          2
   128        148
   129         36
   130        152
   131        251
   132         40
   133         30
   134         16
   135          3
   136          4
   137          2
   143        136
   144        298
   145        913
   146        163
   147         27
   148         13
   149         11
   150         31
   152          2
   159          8
   160          3
   162         10
   163          8
   164          8
   175          2
   176         22
   177         79
   178         13
   189          9
   191        560
   192        521
   193         83
   194         26
   220         94
   221         13