##TITLE=Library Entry 96511
##JCAMP-DX=Revision 4.10 
##DATA TYPE=MASS SPECTRUM
##SAMPLE DESCRIPTION=A.A.Kutin, Moscow, Russia
##NAMES=HP
##CAS NAME=Thiocarbamic acid, N,N-diethyl-, (2,3-dihydro-3-butyl-6-methyl-2-
thioxo-4-pyrimidyl) ester
##MOLFORM=C14H23N3OS2
##CAS REGISTRY NO=282542-13-6
##MP= -300
##BP= -300
##MW= 313
##$RETENTION INDEX=0
##$CONDENSED SPECTRUM=NO
##NPOINTS= 157
##XYDATA=(XY..XY) 1 
    34          1
    35          2
    36          0
    37          2
    39        119
    40         46
    41        111
    42         56
    43         17
    44         58
    45         30
    46          4
    47          4
    48          0
    50          1
    51          2
    52          5
    53         14
    54         47
    55         56
    56         45
    57         24
    58         10
    59         43
    60        386
    61         17
    62         17
    63          1
    64          3
    65          2
    66          8
    67         52
    68         58
    69         69
    70         13
    71         17
    72         75
    73         11
    74          6
    75          1
    76          3
    77          8
    78          2
    79          2
    80          3
    81          4
    82          9
    83         11
    84         33
    86        164
    88        615
    89         31
    90         27
    91          3
    92          2
    93          6
    94          9
    95          6
    96          6
    97          6
    98          5
    99         11
   100          9
   101          3
   102          6
   103          1
   104          1
   105          0
   106          0
   109        113
   110         19
   111          8
   112          3
   114        110
   116        999
   117         72
   118         49
   119          4
   120          1
   121          1
   122          2
   124         24
   126         74
   127         28
   128          6
   129          2
   130          0
   131          0
   133          1
   135          6
   137         13
   138          5
   139          4
   141         15
   142          7
   143         30
   144          2
   145          2
   146          1
   147          1
   148          7
   149          2
   150          1
   151          1
   152          0
   153          1
   155         12
   156          1
   157          1
   158          1
   163          1
   165         21
   166          5
   167          8
   168          2
   169          5
   170          3
   171          3
   172          1
   173          2
   174          0
   175          2
   181          0
   183          2
   193          1
   194          0
   197         76
   198         18
   199          7
   200          1
   208          0
   214          0
   216          1
   224          0
   225          1
   226          1
   229          8
   230          0
   231          1
   242          6
   243          1
   244          0
   246          0
   252          1
   256         16
   257          2
   258          1
   280          7
   281          1
   282          0
   284          1
   298          1
   313        248
   314         44
   315         27
   316          3
   317          1