##TITLE=Library Entry 16512
##JCAMP-DX=Revision 4.10 
##DATA TYPE=MASS SPECTRUM
##SAMPLE DESCRIPTION=CARL DJERASSI DEPT OF CHEM STANFORD UNIV STANFORD CALIF
 94305
##NAMES=HP
##CAS NAME=Dasycarpidan-1-one
##MOLFORM=C17H20N2O
##CAS REGISTRY NO=2825-08-3
##MP= -300
##BP= -300
##MW= 268
##$RETENTION INDEX=0
##$CONDENSED SPECTRUM=NO
##NPOINTS= 183
##XYDATA=(XY..XY) 1 
    41        387
    42        612
    43        189
    44        999
    45         27
    50         36
    51         99
    52         45
    53         81
    54         27
    55        171
    56         27
    57        108
    58         72
    59          9
    62         18
    63         72
    64         27
    65         45
    66         18
    67         54
    68         45
    69         45
    70         81
    71         36
    72         18
    74         18
    75         63
    76         54
    77        153
    78         45
    79         18
    80         18
    81         36
    82         63
    83         27
    84         81
    85         63
    86          9
    87          9
    88         36
    89         81
    90         45
    91         45
    92         27
    93         18
    94         36
    95         18
    96         45
    97         27
    98         45
    99         54
   100         18
   101         72
   102         90
   103         63
   104         27
   105         36
   106         18
   107          9
   108         27
   109          9
   110         36
   111         27
   112         18
   113         36
   114         45
   115        108
   116         54
   117         81
   118         36
   119         18
   122          9
   124         81
   125         27
   126         27
   127         90
   128        135
   129        126
   130        252
   131         45
   134         36
   138         18
   139         54
   140         63
   141         54
   142         63
   143         81
   144         90
   145         18
   149         36
   150          9
   151         18
   152         36
   153         36
   154        162
   155         99
   156         99
   157        153
   158        126
   159         18
   163          9
   164         18
   165         27
   166         81
   167        315
   168        342
   169        135
   170        153
   171        117
   172         72
   173          9
   176          9
   177         18
   178         27
   179         27
   180        135
   181         90
   182        189
   183        486
   184        180
   185        225
   186         45
   187          9
   190         18
   191         36
   192         36
   193         36
   194         54
   195         63
   196        495
   197        198
   198        531
   199        117
   200         18
   203          9
   204         27
   205         36
   206         36
   207         45
   208         81
   209         90
   210        180
   211        909
   212        252
   213         45
   217          9
   218         27
   219         45
   220         54
   221         36
   222         54
   223         45
   224         81
   225        378
   226         72
   227         18
   231          9
   232          9
   233         63
   234         27
   235         45
   236         36
   237         63
   238         54
   239        333
   240        135
   241         36
   247         18
   248         54
   249         54
   250         90
   251         36
   252         18
   253         45
   254         18
   264         27
   265         18
   266         36
   267        126
   268        666
   269        135
   270         27