##TITLE=Library Entry 64856
##JCAMP-DX=Revision 4.10 
##DATA TYPE=MASS SPECTRUM
##SAMPLE DESCRIPTION=A.Mazepa, Phys.-Chem.Institute, Odessa, Ukraine
##NAMES=HP
##CAS NAME=16-(4-Nitro-benzyl)-1,4,10,13-tetraoxa-7,16-diaza-cyclooctadecane
-7-carboxylic acid benzyl ester
##MOLFORM=C27H37N3O8
##CAS REGISTRY NO=282522-52-5
##MP= -300
##BP= -300
##MW= 531
##$RETENTION INDEX=0
##$CONDENSED SPECTRUM=NO
##NPOINTS= 133
##XYDATA=(XY..XY) 1 
    53          2
    54          7
    55         74
    56         16
    57         11
    58          4
    64         31
    65          5
    68          6
    69         25
    70         13
    71          7
    72          9
    73          4
    74          3
    84          3
    85          2
    86         15
    87         11
    88         14
    89          9
    90          5
    91        999
    92         84
    93          2
    98          8
    99          2
   100         43
   101          4
   102          5
   105          7
   106          8
   107          3
   108          2
   112         12
   113          3
   114         83
   115          7
   116          5
   117          4
   118          6
   119          2
   128          3
   129          2
   130         27
   131          4
   132         11
   133          4
   134         11
   135          1
   142          1
   144          6
   146         16
   147          3
   148          5
   156         20
   157          2
   158         18
   159          2
   160          6
   162          3
   172          2
   174         32
   175          5
   176         14
   177          2
   178         16
   179          2
   180          2
   181          6
   190          6
   191          1
   192          2
   200         12
   201          6
   202          2
   203          3
   204          4
   205          3
   206         13
   207          1
   208         20
   209          2
   219          4
   220          7
   221          3
   222         17
   223          2
   234         11
   235          6
   236          1
   243          1
   245          5
   247          2
   248          2
   263          6
   264          4
   265          7
   266         17
   267          2
   277          1
   278          4
   289         23
   290          3
   291          2
   292          1
   307          7
   309          2
   321         20
   322          3
   323          1
   333          7
   335          2
   351          6
   377          5
   384          2
   385         20
   386          5
   395        112
   396         25
   397          4
   399          1
   411         28
   412          7
   438          1
   439         25
   440          6
   441          2
   442          1
   443          3
   455          3
   531         22
   532          7