##TITLE=Library Entry 10813
##JCAMP-DX=Revision 4.10 
##DATA TYPE=MASS SPECTRUM
##SAMPLE DESCRIPTION=Insect Chem. Ecol. Lab., USDA, Beltsville, MD 20705
##NAMES=HP
##CAS NAME=Nonanoic acid, 1-methylethyl ester
##MOLFORM=C12H24O2
##CAS REGISTRY NO=28267-32-5
##MP= -300
##BP= -300
##MW= 200
##$RETENTION INDEX=1318
##$CONDENSED SPECTRUM=NO
##NPOINTS= 118
##XYDATA=(XY..XY) 1 
    41        544
    42        245
    43        999
    45         84
    47          3
    48          0
    49          5
    50          0
    51          4
    53         29
    54         31
    55        365
    56        124
    57        610
    58          1
    59        440
    60        840
    61        266
    62          8
    63          1
    65          4
    67         51
    68         41
    69        180
    70         92
    71        256
    73        395
    74         50
    75          7
    76          0
    77          2
    78          2
    79         10
    80          5
    81         68
    82         15
    83         95
    84         86
    85         51
    86          1
    87        158
    88          0
    89         45
    91          3
    93         10
    94         10
    95         28
    96         49
    97         95
    98        212
    99         49
   101         91
   102        843
   103         96
   104          7
   105          1
   107          4
   109         11
   110          6
   111         25
   112         30
   113         12
   114         24
   115        259
   116         19
   117          7
   118          1
   119          1
   121         14
   122          8
   123         17
   125         14
   126          4
   127         13
   129        175
   130         15
   131          3
   132          2
   133          3
   135          2
   136          1
   137          3
   138         11
   139         45
   141        518
   142         46
   143         12
   144          4
   145          6
   149          3
   150          0
   151          1
   152          1
   153          4
   154          2
   155         31
   156          7
   157         38
   158        225
   159        382
   160         26
   161          2
   167          1
   169          4
   171          5
   172          9
   173         11
   174          1
   175          1
   177          1
   183          1
   185          9
   186          2
   187          2
   198          1
   199          7
   200         28
   201          3