##TITLE=Library Entry 57612
##JCAMP-DX=Revision 4.10 
##DATA TYPE=MASS SPECTRUM
##SAMPLE DESCRIPTION=Chuck Anderson, Aldrich Chemical Co.
##NAMES=HP
##CAS NAME=Ethyl tridecanoate
##MOLFORM=C15H30O2
##CAS REGISTRY NO=28267-29-0
##MP= -300
##BP= -300
##MW= 242
##$RETENTION INDEX=1687
##$CONDENSED SPECTRUM=NO
##NPOINTS= 152
##XYDATA=(XY..XY) 1 
    14          0
    15          1
    16          0
    19          0
    26          3
    27         64
    28         26
    29        243
    31          6
    36          0
    37          0
    38          1
    39         73
    40         18
    41        540
    42        149
    43        618
    44         27
    45        138
    46          3
    47          3
    48          0
    49          0
    50          0
    51          2
    52          2
    53         30
    54         35
    55        393
    56         89
    57        243
    58         15
    59         16
    60        166
    61        177
    62          4
    63          1
    65          3
    66          2
    67         38
    68         20
    69        157
    70        231
    71         93
    72          5
    73        249
    74         29
    75          7
    76          0
    77          2
    78          0
    79         10
    80          3
    81         28
    82         10
    83         83
    84         42
    85         33
    86          3
    87         27
    88        999
    89        120
    90          8
    91          1
    92          0
    93          5
    94          1
    95         22
    96          6
    97         57
    98         32
    99          7
   101        531
   102         42
   103          4
   104          0
   105          0
   107          4
   108          0
   109         16
   110          4
   111         28
   112         10
   113          3
   114          1
   115         88
   116          8
   117          1
   119          0
   121          5
   122          0
   123          9
   124          3
   125         12
   126          2
   127          1
   128          0
   129         42
   130         16
   131          1
   133          0
   135          4
   136          0
   137          2
   138          0
   139          5
   140          1
   141          0
   142          0
   143        108
   144         17
   145          1
   149          2
   150          0
   151          0
   152          3
   153          3
   154          2
   155          0
   157        178
   158         18
   159          1
   163          0
   167          1
   168          0
   171         29
   172          3
   173          0
   177          2
   178          1
   179          0
   181          0
   185         24
   186          4
   187          0
   194          0
   195          2
   196          1
   197        135
   198         17
   199        116
   200         16
   201          1
   213         42
   214          6
   215          3
   216          0
   227          0
   241          0
   242         62
   243         14
   244          1