##TITLE=Library Entry 41410
##JCAMP-DX=Revision 4.10 
##DATA TYPE=MASS SPECTRUM
##SAMPLE DESCRIPTION=T.ISHIDA HIROSHIMA INST. OF TECHNOLOGY, HIROSHIMA, JAPA
N
##NAMES=HP
##CAS NAME=4.beta.H,5.alpha.-Eremophil-1(10)-ene, 11-(trimethylsiloxy)-
##MOLFORM=C18H34OSi
##CAS REGISTRY NO=28272-09-5
##MP= -300
##BP= -300
##MW= 294
##$RETENTION INDEX=0
##$CONDENSED SPECTRUM=NO
##NPOINTS= 138
##XYDATA=(XY..XY) 1 
    27          8
    28        119
    29         28
    30        128
    31          3
    32         18
    38          3
    39        140
    40         25
    41        365
    42         37
    43        330
    44         50
    45        270
    46         15
    47        128
    49          3
    50          6
    51         32
    52         16
    53        109
    54         12
    55        191
    56         19
    57         35
    58         38
    59         78
    60         18
    61         83
    62          5
    63         16
    64          5
    65         64
    66         19
    67        118
    68         19
    69        128
    70         12
    71         19
    72         28
    73        999
    74        104
    75        676
    76         50
    77        186
    78         39
    79        221
    80         32
    81        132
    82         12
    83         16
    85          6
    89         12
    91        256
    92         50
    93        190
    94         44
    95        101
    96          7
    97          6
    99          6
   101         12
   102          3
   103         32
   104         12
   105        211
   106         44
   107        140
   108         38
   109         41
   110          3
   111          3
   113          3
   115         93
   116         25
   117         91
   118         19
   119        157
   120         44
   121        131
   122         38
   123         19
   127         19
   128         19
   129         32
   130         44
   131        414
   132        215
   133        148
   134         44
   135        102
   136         19
   137          3
   141          6
   142          5
   143        250
   144         44
   145         51
   146         12
   147         71
   148         30
   149         32
   150         18
   151          6
   155          4
   157          6
   159         37
   160         19
   161        353
   162         73
   163         12
   164         12
   173          3
   175         19
   176         12
   177          5
   183          5
   187         11
   189        122
   190         17
   191          3
   193          3
   195          6
   197          3
   199         19
   200          3
   202         19
   203         38
   204        364
   205         58
   206          3
   209        114
   210         12
   211          5
   279         53
   280          9
   294         44
   295         12