##TITLE=Library Entry 22989
##JCAMP-DX=Revision 4.10 
##DATA TYPE=MASS SPECTRUM
##SAMPLE DESCRIPTION=A.A.Kutin, Moscow, Russia
##NAMES=HP
##CAS NAME=N2-(3,4-Dichlorophenyl)-5-methyl-1,3,4-thiadiazol-2-amine
##MOLFORM=C9H7Cl2N3S
##CAS REGISTRY NO=282729-99-1
##MP= -300
##BP= -300
##MW= 259
##$RETENTION INDEX=0
##$CONDENSED SPECTRUM=NO
##NPOINTS= 190
##XYDATA=(XY..XY) 1 
    33          8
    34          6
    35          8
    36         28
    37         21
    38         36
    39         31
    40         91
    41        101
    42         55
    43         42
    44         57
    45         44
    46         36
    47         19
    48          4
    49         20
    50         49
    51         21
    52         16
    53         10
    54          7
    56        999
    57         61
    58        106
    59        304
    60         43
    61         41
    62         51
    63         60
    64         18
    65          6
    66          5
    67          8
    68          5
    69         24
    70         15
    71         22
    72         58
    73        108
    74        123
    75         99
    76         25
    77          8
    78          4
    79         12
    80          6
    81         12
    82         12
    83         21
    84         35
    85         39
    86         18
    87         17
    88         24
    89         13
    90         15
    91         12
    92          3
    93          5
    94          5
    95         11
    96         10
    97         34
    98         21
    99         87
   100         31
   101         10
   102          5
   103          5
   104          7
   105          4
   106          4
   107         14
   108         11
   109        116
   110         32
   111         56
   112         52
   113         15
   114          4
   115          6
   116          3
   117          2
   118          0
   119          5
   120          8
   121          7
   122          5
   123          6
   124         64
   125         35
   126         24
   127         12
   128          2
   129         10
   130          7
   131          7
   133         61
   134         10
   135         36
   136         15
   137         11
   138          6
   139          9
   140          1
   141          5
   142         12
   143          2
   144          8
   145         55
   146         14
   147         42
   148         21
   149         15
   150          6
   151         10
   152          3
   153          4
   154          3
   155          7
   156         56
   157          8
   158         23
   159         33
   160         32
   161         24
   162         21
   163          8
   164         18
   165          6
   166         11
   167          3
   168          5
   169          9
   170          3
   171         14
   172         12
   173         10
   174          7
   175          3
   176          3
   177          8
   178          3
   179          6
   180          0
   181          5
   182         11
   183        142
   184         21
   185         70
   186         63
   187         18
   188         36
   189          8
   190          9
   191         36
   192          5
   193         23
   194          3
   195          5
   200          2
   203         32
   204         13
   205         18
   206          7
   207          5
   208          1
   209          1
   210          0
   217         28
   218        241
   219         35
   220        163
   221         18
   222         31
   223          5
   224          5
   225          1
   226          1
   252          2
   256          2
   258        102
   259        362
   260        104
   261        246
   262         36
   263         48
   264          5
   265          3