##TITLE=Library Entry 50604
##JCAMP-DX=Revision 4.10 
##DATA TYPE=MASS SPECTRUM
##SAMPLE DESCRIPTION=A.A.Kutin, Moscow, Russia
##NAMES=HP
##CAS NAME=3-(2-Furylmethyl)-2-[(2-oxo-2-phenylethyl)thio]-3,4-dihydroquinaz
olin-4-one
##MOLFORM=C21H16N2O3S
##CAS REGISTRY NO=282729-74-2
##MP= -300
##BP= -300
##MW= 376
##$RETENTION INDEX=0
##$CONDENSED SPECTRUM=NO
##NPOINTS= 218
##XYDATA=(XY..XY) 1 
    33          3
    34          3
    36          0
    37          3
    38         10
    39         58
    40         45
    41         18
    42          6
    43         10
    44         33
    45         23
    46          5
    47          1
    48          1
    50         42
    51        118
    52         45
    53        280
    54         13
    55         19
    56          1
    57          2
    58          2
    59          3
    60          1
    61          0
    62          8
    63         28
    64         19
    65         40
    66          8
    67          3
    68          3
    69         11
    70          2
    71          5
    72          2
    73          2
    74          7
    75         18
    76         48
    77        315
    78         34
    79         10
    81        999
    82         55
    83          8
    84          4
    85          9
    86          2
    87          1
    88          2
    89         17
    90         69
    91         57
    92         12
    93          8
    94         13
    95          3
    96          3
    97         14
    98          2
    99          2
   100          0
   101          3
   102         35
   103         12
   105        544
   106         42
   107          8
   108          4
   109          2
   110          1
   111          5
   112          5
   113          5
   114          3
   115          9
   116         13
   117         13
   118          5
   119         10
   120         22
   121         11
   122          4
   123          0
   125          0
   126          1
   127          4
   128          3
   129         17
   130         18
   131          3
   132          8
   133          5
   134         85
   135         13
   136          5
   137          1
   138          4
   139          1
   140          5
   141          5
   142          4
   143          3
   144         18
   145         34
   146         10
   147          2
   148          1
   149          1
   150          2
   151          1
   152          1
   153          1
   154          1
   155          1
   156          1
   157          3
   158          0
   160          4
   162        253
   163         25
   164         13
   165          1
   167          1
   168          3
   169          7
   170         24
   171          6
   172          1
   173          1
   174          2
   175          6
   176          1
   178         36
   179         25
   180          4
   181          2
   182          0
   183          1
   184          2
   185          2
   186          6
   187          1
   188          1
   191          5
   192          1
   195          2
   196          3
   197         16
   198        155
   199         53
   200          8
   201          2
   202          2
   203          5
   204          9
   205          1
   207          0
   208          5
   209          1
   210          1
   211          1
   212          2
   213          2
   215         24
   216          3
   217          1
   223          0
   225          8
   226          3
   227          5
   228          9
   229          9
   230          1
   236          0
   237          1
   239         18
   240          3
   241          1
   242          1
   243          6
   244          1
   252          0
   253          3
   254          1
   257        213
   258         37
   259         11
   260          1
   263         18
   264          4
   265          0
   269          4
   271        165
   272         26
   273          9
   274          1
   279          5
   280          1
   281          1
   283          0
   295          2
   297          1
   315          1
   333          3
   343          3
   344          2
   347         13
   348          5
   349          1
   358          0
   376        135
   377         30
   378         10
   379          1