##TITLE=Library Entry 50919
##JCAMP-DX=Revision 4.10 
##DATA TYPE=MASS SPECTRUM
##SAMPLE DESCRIPTION=A.A.Kutin, Moscow, Russia
##NAMES=HP
##CAS NAME=2-(4-Chlorophenyl)-2-oxoethyl 2-[(2-furylmethyl)amino]benzoate
##MOLFORM=C20H16ClNO4
##CAS REGISTRY NO=282719-56-6
##MP= -300
##BP= -300
##MW= 369
##$RETENTION INDEX=0
##$CONDENSED SPECTRUM=NO
##NPOINTS= 162
##XYDATA=(XY..XY) 1 
    33          1
    34          0
    35          1
    36          7
    37          4
    38         13
    39         46
    40         17
    41         12
    42          5
    43          7
    44         13
    45          1
    49          2
    50         39
    51         50
    52         34
    53        272
    54         13
    55         11
    56          0
    57          1
    58          3
    59          0
    60          1
    61          3
    62          6
    63         29
    64         24
    65         32
    66          5
    67          2
    68          6
    69          3
    70          1
    71          1
    72          1
    73          5
    74         13
    75         57
    76         28
    77         62
    78         15
    79          6
    81        999
    82         54
    83          4
    84          1
    85          6
    86          2
    87          3
    88          3
    89         30
    90         22
    91         18
    92         37
    93          6
    94          7
    95         15
    96         25
    97          2
    99          9
   100          7
   101          4
   102          6
   103          5
   104         21
   105         13
   106          1
   107          0
   108          1
   109          1
   111         77
   112          8
   113         24
   114          7
   115         42
   116         15
   117         25
   118          6
   119         21
   120         20
   121          6
   122          1
   123          0
   125         24
   126          3
   127         12
   128          6
   129          3
   130         19
   132        111
   133          9
   134          1
   135          0
   136          0
   137          1
   139         81
   140         11
   141         29
   142         18
   143         85
   144         16
   145          4
   146          4
   147          0
   148          1
   149          0
   152          1
   153          2
   154         14
   155          3
   156          5
   157          1
   158          1
   159          0
   161          0
   167          0
   168          1
   169          7
   170         69
   171         27
   172         16
   173          2
   174          0
   182          2
   183          0
   185          3
   186          3
   187          0
   188          1
   189          0
   190          0
   191          0
   196          4
   198        481
   199         65
   200         28
   201          3
   202          0
   212          1
   213          1
   214          8
   216        435
   217         59
   218          6
   219          0
   230          2
   231          0
   258          1
   260          0
   289          1
   291          0
   302          0
   304          0
   352          0
   367          0
   369         32
   370          7
   371         10
   372          2
   373          0