##TITLE=Library Entry 49965
##JCAMP-DX=Revision 4.10 
##DATA TYPE=MASS SPECTRUM
##SAMPLE DESCRIPTION=A.A.Kutin, Moscow, Russia
##NAMES=HP
##CAS NAME=3-(2-Furylmethyl)-2-(methylthio)-3,4-dihydroquinazolin-4-one
##MOLFORM=C14H12N2O2S
##CAS REGISTRY NO=282729-69-5
##MP= -300
##BP= -300
##MW= 272
##$RETENTION INDEX=0
##$CONDENSED SPECTRUM=NO
##NPOINTS= 193
##XYDATA=(XY..XY) 1 
    33          1
    34          1
    35          1
    37          8
    38         19
    39         63
    40         19
    41         17
    42          5
    43          6
    44         16
    45         27
    46         12
    47         13
    48          2
    50         49
    51         58
    52         44
    53        280
    54         14
    55          9
    56          2
    57          2
    58          3
    59          3
    60          2
    61         24
    62         15
    63         42
    64         28
    65         15
    66          8
    67          3
    68          4
    69         10
    70          3
    71          4
    72          4
    73          3
    74         13
    75         26
    76         38
    77         26
    78         11
    79          8
    81        999
    82         55
    83          7
    84          3
    85          4
    86          3
    87          2
    88         24
    90         89
    91         10
    92          9
    94        135
    95         27
    96          4
    97         28
    98          3
    99          2
   100          1
   102         44
   103          9
   104          7
   105          3
   106          3
   107          5
   108          3
   109          1
   110          0
   111          2
   112          7
   113          4
   114          3
   115          7
   116         14
   117         11
   118          6
   119         18
   120         11
   121          2
   122          2
   123          0
   125          0
   126          1
   127          7
   128          3
   129         32
   130         29
   131          4
   132         13
   133          5
   134         37
   135          5
   136         32
   138          1
   140          4
   141          3
   142          2
   143          2
   144         12
   145         20
   146          7
   147          4
   148          3
   149          1
   150          1
   151          0
   152          0
   153          0
   154          0
   155          0
   156          0
   157          0
   158          0
   160         39
   161         13
   162        130
   163         14
   164          6
   165          0
   166          0
   167          1
   168          3
   169          4
   170          3
   171          0
   172          0
   173          1
   174          2
   175         13
   176         12
   177          3
   178         21
   179         23
   180          3
   181          1
   182          0
   183          0
   184          0
   185          1
   186          0
   189          0
   191         12
   192         16
   193         10
   194          2
   195          3
   196          2
   197         12
   198         22
   199          3
   200          1
   201          1
   202          1
   203          7
   204          3
   205          1
   211         21
   212          3
   213          0
   215         10
   216          2
   217          2
   218          0
   223          1
   225         30
   226          5
   227          2
   228          1
   229          8
   230          1
   231          0
   239          7
   240          1
   241          1
   243         24
   244          6
   245          1
   246          0
   253          1
   254          0
   255          1
   257         27
   258          4
   259          1
   269          0
   272        258
   273         41
   274         15
   275          2