##TITLE=Library Entry 64509
##JCAMP-DX=Revision 4.10 
##DATA TYPE=MASS SPECTRUM
##SAMPLE DESCRIPTION=A.A.Kutin, Moscow, Russia
##NAMES=HP
##CAS NAME=Imidazole, 2-benzylthio-1-(2,6-dichlorophenyl)-
##MOLFORM=C16H12Cl2N2S
##CAS REGISTRY NO=282729-90-2
##MP= -300
##BP= -300
##MW= 334
##$RETENTION INDEX=0
##$CONDENSED SPECTRUM=NO
##NPOINTS= 219
##XYDATA=(XY..XY) 1 
    34          0
    35          1
    36          3
    37          7
    38         17
    39         88
    40         16
    41         21
    42          1
    44          6
    45         58
    46          3
    47          4
    48          0
    49          5
    50         20
    51         41
    52         16
    53          2
    57         17
    58          5
    59          2
    60          1
    61          9
    62         21
    63         57
    65        191
    66         10
    67          0
    69          8
    70         10
    71         28
    72        233
    73         23
    74         38
    75         30
    76          7
    77         15
    78          5
    79          3
    80          0
    81          1
    82          1
    83          4
    84         15
    85          7
    86          6
    87          7
    88          7
    89         35
    91        999
    92         78
    93          5
    94          1
    95          4
    96          2
    97          9
    98          4
    99          4
   100          7
   101          2
   102          3
   103          2
   104          1
   105          1
   106          1
   107          2
   109         41
   110         11
   111         16
   112          4
   113          1
   114          7
   115          3
   116          2
   117          1
   118          1
   119          5
   121         17
   122          3
   123          8
   124          5
   125          3
   126          2
   127          1
   128          3
   129          2
   130          4
   131          1
   133          9
   134          3
   135          4
   136         17
   137          5
   138          6
   139          2
   140          1
   141          1
   142          3
   143          0
   145         30
   146          6
   147         20
   148          3
   149          5
   150          6
   151          3
   152          2
   153          1
   154          4
   155          3
   156         10
   157         29
   158          5
   159          2
   160          2
   161          1
   162          1
   163          0
   164          1
   165          3
   166          1
   167          0
   168          1
   169          1
   170          1
   172         27
   173         11
   174         19
   175          4
   176          5
   177          3
   178          1
   179          1
   180          3
   181          0
   182          3
   183          1
   184          5
   185          8
   186          4
   187          8
   188          3
   189          3
   190          7
   191          1
   192          2
   193          0
   194          0
   196          0
   197          0
   199          4
   200          2
   201          1
   202          1
   203          1
   204          1
   205          1
   208         95
   209         17
   210         35
   211          5
   212          2
   213          1
   214          0
   215          0
   216          0
   218          0
   221         14
   222          3
   223          5
   224          1
   225          3
   227          5
   228          1
   229          2
   230          1
   231          1
   232          0
   233          0
   235          7
   237          4
   238          1
   239          0
   240          2
   241          0
   243          8
   245          5
   246          1
   247          1
   248          0
   255          0
   257          1
   258          0
   259          0
   261          0
   262          0
   263          2
   264          1
   266         10
   267          2
   268          3
   269          0
   270          2
   271          0
   272          1
   274          0
   299        538
   300        118
   301        214
   302         40
   303         15
   304          2
   305          1
   334         29
   336         20
   337          4
   338          4
   339          0