##TITLE=Library Entry 78016
##JCAMP-DX=Revision 4.10 
##DATA TYPE=MASS SPECTRUM
##SAMPLE DESCRIPTION=A.A.Kutin, Moscow, Russia
##NAMES=HP
##CAS NAME=2-Oxo-2-phenylethyl 5-methyl-3-phenylisoxazole-4-carboxylate
##MOLFORM=C19H15NO4
##CAS REGISTRY NO=282730-82-9
##MP= -300
##BP= -300
##MW= 321
##$RETENTION INDEX=0
##$CONDENSED SPECTRUM=NO
##NPOINTS= 180
##XYDATA=(XY..XY) 1 
    33          0
    34          0
    35          0
    36          1
    37          2
    38          5
    39         24
    40          9
    41          6
    43        330
    44         19
    45          2
    46          0
    50         35
    51        112
    52          9
    53          2
    54          0
    55          2
    56          0
    57          1
    58          0
    59          0
    60          0
    61          1
    62          6
    63         16
    64          5
    65         31
    66          2
    67          1
    68          1
    69          2
    70          0
    71          1
    73          2
    74          9
    75         13
    76         34
    77        288
    78         24
    79          1
    80          0
    81          0
    82          0
    83          1
    84          1
    85          1
    86          1
    87          2
    88          5
    89         22
    90          6
    91         49
    92          4
    93          1
    94          1
    95          2
    96          0
    97          0
    98          1
    99          3
   100          1
   101          2
   102          6
   103         19
   105        999
   106         81
   107          5
   108          0
   109          0
   110          0
   111          0
   112          0
   113          1
   114          3
   115          5
   116         22
   117          3
   118         11
   119         10
   120          2
   121          0
   122          0
   123          0
   125          0
   126          2
   127          4
   128          7
   129          2
   130          1
   131          0
   132          0
   133          0
   134          0
   135          2
   136          1
   137          1
   138          0
   139          0
   140          0
   141          0
   143         19
   144        161
   145         16
   146          1
   147          0
   149          0
   150          0
   151          0
   152          0
   153          0
   157          0
   158          0
   159          0
   160          0
   161          0
   163          0
   164          0
   165          0
   170          0
   171          1
   172          0
   173          0
   175          0
   176          0
   177          0
   178          0
   185          8
   186         26
   187          3
   188          1
   189          0
   190          0
   191          0
   192          2
   193          0
   199          1
   200          0
   201          0
   202          0
   203          0
   204          0
   205          0
   206          0
   212          0
   215          0
   216          0
   217          0
   219          0
   220          1
   221          0
   227          0
   229          0
   235          0
   253          0
   255         13
   256          2
   257          4
   258          0
   262          0
   263          0
   275          1
   276          0
   277          1
   278          0
   279          0
   283          0
   289          0
   290          6
   291          1
   292          3
   293          0
   294          0
   308          0
   319          0
   321        117
   322         24
   323          3
   324          0