##TITLE=Library Entry 51787
##JCAMP-DX=Revision 4.10 
##DATA TYPE=MASS SPECTRUM
##SAMPLE DESCRIPTION=Chemical Concepts
##NAMES=HP
##CAS NAME=Cyclobuta[1,2:3,4]dicyclopentene-1,6-dione, octahydro-
##MOLFORM=C10H12O2
##CAS REGISTRY NO=28289-71-6
##MP= -300
##BP= -300
##MW= 164
##$RETENTION INDEX=0
##$CONDENSED SPECTRUM=NO
##NPOINTS= 59
##XYDATA=(XY..XY) 1 
    26         33
    27        185
    28         79
    29         23
    31         10
    38         17
    39        276
    40         44
    41         73
    42         16
    43         20
    44         12
    47          9
    50         36
    51         88
    52         61
    53        159
    54        249
    55        145
    56         19
    63         17
    65         57
    66         91
    67         67
    68         42
    77        111
    78         38
    79        339
    80        374
    81        183
    82        999
    83        276
    84         22
    91         76
    92         37
    93         77
    94         69
    95         53
    96         53
    97          9
   103          8
   104         11
   105         22
   107         66
   108         82
   109         87
   110         14
   117          8
   118          9
   119         22
   120         36
   121         44
   122         75
   123         21
   135         30
   136         70
   137          7
   164        585
   165         63