##TITLE=Library Entry 15191
##JCAMP-DX=Revision 4.10 
##DATA TYPE=MASS SPECTRUM
##SAMPLE DESCRIPTION=RADIAN CORP
##NAMES=HP
##CAS NAME=2-Hexanamine, 5-methyl-
##MOLFORM=C7H17N
##CAS REGISTRY NO=28292-43-5
##MP= -300
##BP= -300
##MW= 115
##$RETENTION INDEX=0
##$CONDENSED SPECTRUM=NO
##NPOINTS= 25
##XYDATA=(XY..XY) 1 
    15          5
    18         27
    27         39
    28         23
    29         28
    30         37
    39         45
    40          7
    41         95
    42         67
    43         52
    44        999
    45         27
    51          3
    53          8
    54          6
    55         75
    56         40
    57         20
    58         10
    69          3
    70          8
    83         38
   100         15
   114          2