##TITLE=Library Entry 49905
##JCAMP-DX=Revision 4.10 
##DATA TYPE=MASS SPECTRUM
##SAMPLE DESCRIPTION=Exported from NIST MS Search
##NAMES=HP
##CAS NAME=2(3H)-Benzofuranone, 6-ethenylhexahydro-6-methyl-3-methylene-7-(1
-methylethenyl)-, [3aS-(3a.alpha.,6.alpha.,7.beta.,7a.beta.)]-
##MOLFORM=C15H20O2
##CAS REGISTRY NO=28290-35-9
##MP= -300
##BP= -300
##MW= 232
##$RETENTION INDEX=1838
##$CONDENSED SPECTRUM=NO
##NPOINTS= 84
##XYDATA=(XY..XY) 1 
    29        250
    30         50
    31        175
    39        338
    40         88
    41        538
    42         38
    51         75
    52         38
    53        625
    54         63
    55        425
    65        150
    66         63
    67        250
    68        100
    69         63
    77        288
    78         63
    79        413
    80        225
    81        999
    82        175
    83        200
    91        338
    92         88
    93        350
    94        100
    95        163
    96         50
    97         38
   103         38
   105        275
   106         63
   107        250
   108        100
   109        475
   110        113
   115         38
   117         50
   118         38
   119        163
   120         75
   121        363
   122        163
   123        375
   124         50
   129         25
   131        100
   132         25
   133         88
   134         88
   135        113
   136         75
   137         63
   143         25
   145         75
   146         38
   147        100
   148         38
   149        250
   150        188
   151        100
   152         50
   159         63
   160         25
   161         88
   162         63
   163        113
   164         63
   171         38
   173         50
   175         88
   176         88
   177         75
   187         38
   189         75
   190         63
   203         38
   204         63
   217        175
   218         25
   232        150
   233         25