##TITLE=Library Entry 65041
##JCAMP-DX=Revision 4.10 
##DATA TYPE=MASS SPECTRUM
##SAMPLE DESCRIPTION=Humboldt-Universitat zu Berlin, Department of Chemistry
, Analytical Group
##NAMES=HP
##CAS NAME=4-Chlorbenzaldehyde, phenylhydrazone
##MOLFORM=C13H11ClN2
##CAS REGISTRY NO=2829-26-7
##MP= -300
##BP= -300
##MW= 230
##$RETENTION INDEX=0
##$CONDENSED SPECTRUM=NO
##NPOINTS= 146
##XYDATA=(XY..XY) 1 
    12          0
    14          1
    15          3
    16          3
    17         26
    18         96
    26         10
    27         36
    28         43
    29          4
    30          1
    32          1
    35          2
    36          4
    37         18
    38         58
    39        291
    40         35
    41         26
    42          5
    43          6
    44          3
    45          1
    47          1
    49          7
    50        122
    51        172
    52         42
    53          7
    54         10
    55          2
    56          0
    57          2
    60          2
    61         14
    62         37
    63        122
    64         71
    65        597
    66        269
    67         23
    68          1
    69          2
    70          2
    71          2
    72          2
    73         19
    74         43
    75        197
    76         54
    77        106
    78         15
    79          1
    80          3
    81          1
    84         16
    85         20
    86          9
    87         15
    88          6
    89        134
    90         31
    91        163
    92        999
    93        420
    94         26
    95          1
    97          7
    99         13
   100          5
   101          7
   102         36
   103          6
   104          5
   105          2
   109          1
   110          5
   111        146
   112         14
   113         50
   114          7
   115         39
   116         14
   117          7
   118         48
   119         48
   120          4
   123          6
   124         12
   125         15
   126         10
   127          8
   128          4
   129          2
   137         29
   138         41
   139         26
   140         20
   141          7
   142          1
   143          1
   149          1
   150          1
   151          3
   152          4
   153          3
   154          2
   155          2
   162          1
   163          3
   164          5
   165         14
   166         18
   167         38
   168         17
   169          3
   171          1
   176          0
   177          2
   178          2
   179          1
   190          1
   192          4
   193         10
   194         24
   195         22
   196          3
   199          1
   201          4
   202          5
   203          6
   204          2
   205          1
   212          1
   213          0
   214          3
   215          1
   216          1
   217          0
   227          0
   229         96
   230        384
   231         85
   232        128
   233         18
   234          1