##TITLE=Library Entry 13444
##JCAMP-DX=Revision 4.10 
##DATA TYPE=MASS SPECTRUM
##SAMPLE DESCRIPTION=Div. of Experiment Therapeutics WRAIR, WRAMC, Washingto
n DC 20307
##NAMES=HP
##CAS NAME=5-Acetyl-10-azido-10,11-dihydro dibenz[b,f]azepine
##MOLFORM=C16H14N4O
##CAS REGISTRY NO=28291-56-7
##MP= -300
##BP= -300
##MW= 278
##$RETENTION INDEX=0
##$CONDENSED SPECTRUM=NO
##NPOINTS= 82
##XYDATA=(XY..XY) 1 
    41          3
    43        999
    44         18
    49         18
    50         62
    51        123
    52         42
    53         16
    62         19
    63        101
    64         34
    65         28
    74         17
    75         31
    76         45
    77         93
    78         34
    79         11
    82          2
    84          8
    86          8
    87          9
    89         90
    90         16
    91         38
    96          1
   101         12
   102         27
   103         11
   104          9
   106         11
   113         10
   114          7
   115         15
   116         10
   117          9
   125          4
   126         12
   127         16
   128         14
   129         12
   130          5
   131         10
   139         17
   140         16
   142          2
   150          4
   151         37
   152         55
   153         18
   154          8
   163         12
   164         14
   165         31
   166         13
   167         27
   168          8
   176          2
   177         20
   178         44
   179         58
   180        168
   181         27
   182          4
   190         29
   191         40
   192         68
   193        297
   194        488
   195         79
   196          6
   205         74
   206         63
   207        151
   208         44
   209          3
   235          4
   236        138
   237         25
   250          8
   278        128
   279         25