##TITLE=Library Entry 499
##JCAMP-DX=Revision 4.10 
##DATA TYPE=MASS SPECTRUM
##SAMPLE DESCRIPTION=ASES Database, Dalian Institute, P.R. China
##NAMES=HP
##CAS NAME=6,7-Dioxabicyclo[3.2.2]nonane
##MOLFORM=C7H12O2
##CAS REGISTRY NO=283-35-2
##MP= -300
##BP= -300
##MW= 128
##$RETENTION INDEX=0
##$CONDENSED SPECTRUM=NO
##NPOINTS= 35
##XYDATA=(XY..XY) 1 
    26         40
    27        797
    28        417
    29        999
    30         10
    31         59
    39        330
    40         30
    41        837
    42        496
    43        864
    44        584
    45         20
    53         30
    54         80
    55        198
    56         50
    57        296
    58         29
    67        289
    68         49
    69         49
    70         10
    71        119
    72         19
    79          9
    81         39
    82         19
    83         20
    84         39
    85         30
    93         30
    95        199
   128        279
   129          9