##TITLE=Library Entry 36239
##JCAMP-DX=Revision 4.10 
##DATA TYPE=MASS SPECTRUM
##SAMPLE DESCRIPTION=Exported from NIST MS Search
##NAMES=HP
##CAS NAME=Phosphorocyanidothioic difluoride
##MOLFORM=CF2NPS
##CAS REGISTRY NO=28314-61-6
##MP= -300
##BP= -300
##MW= 127
##$RETENTION INDEX=0
##$CONDENSED SPECTRUM=NO
##NPOINTS= 14
##XYDATA=(XY..XY) 1 
    12         20
    14         12
    26        110
    31         66
    32        136
    33         10
    43          8
    50        108
    63         33
    69        999
    82         17
   101        187
   127        601
   129         30