##TITLE=Library Entry 48401
##JCAMP-DX=Revision 4.10 
##DATA TYPE=MASS SPECTRUM
##SAMPLE DESCRIPTION=Y.HATTORI,ENVIRON. POLLUT. CONTROL CENT.,NAKAMICHI,OSAK
A,JAPAN
##NAMES=HP
##CAS NAME=2-(Pentafluoropropanamido)pyridine
##MOLFORM=C8H5F5N2O
##CAS REGISTRY NO=283172-18-9
##MP= -300
##BP= -300
##MW= 240
##$RETENTION INDEX=0
##$CONDENSED SPECTRUM=NO
##NPOINTS= 14
##XYDATA=(XY..XY) 1 
    39         71
    50         48
    51        107
    52         48
    64         48
    65         60
    69        101
    78        999
    79         71
   119        119
   121        655
   122         60
   240        762
   241        118