##TITLE=Library Entry 39974
##JCAMP-DX=Revision 4.10 
##DATA TYPE=MASS SPECTRUM
##SAMPLE DESCRIPTION=A.A.Kutin, Moscow, Russia
##NAMES=HP
##CAS NAME=6-Chloro-4-methyl-2-oxo-2H-chromen-7-yl N,N-dimethylcarbamate
##MOLFORM=C13H12ClNO4
##CAS REGISTRY NO=283170-70-7
##MP= -300
##BP= -300
##MW= 281
##$RETENTION INDEX=0
##$CONDENSED SPECTRUM=NO
##NPOINTS= 137
##XYDATA=(XY..XY) 1 
    33          0
    34          0
    35          0
    36          4
    37          1
    38          3
    39         11
    40          8
    41          4
    42         28
    43         10
    44         16
    45          1
    49          0
    50          7
    51         12
    52          2
    53          2
    54          0
    55          1
    56         17
    57          1
    58          0
    59          0
    60          0
    61          2
    62          5
    63         12
    64          3
    65          3
    66          0
    67          0
    68          1
    69          8
    72        999
    73         40
    74          6
    75          8
    76          2
    77          5
    78          0
    79          0
    81          0
    82          0
    83          0
    84          0
    85          2
    86          1
    87          3
    88          1
    89         17
    90          6
    91          1
    92          0
    93          0
    94          0
    95          0
    96          0
    97          2
    98          1
    99          4
   100          0
   101          3
   102          2
   103          0
   104          0
   105          0
   109          1
   110          0
   111          0
   112          0
   113          1
   114          0
   115          0
   117          1
   118          1
   119          0
   123          0
   125         10
   126          1
   127          3
   128          0
   129          0
   131          0
   133          0
   137          5
   138          0
   139          1
   140          0
   141          0
   145          0
   146          0
   147          0
   148          0
   149          0
   151          0
   152          0
   153          4
   154          0
   155          1
   156          0
   165          0
   166          0
   167          0
   176          0
   181          6
   182          3
   183          2
   184          1
   189          0
   191          0
   193          2
   194          0
   195          0
   196          0
   197          0
   198          0
   207          0
   208          0
   209          1
   210          2
   211          0
   212          0
   218          0
   223          1
   224          0
   225          0
   234          0
   244          0
   246         30
   247          4
   248          0
   281         31
   282          5
   283         10
   284          1
   285          0