##TITLE=Library Entry 94498
##JCAMP-DX=Revision 4.10 
##DATA TYPE=MASS SPECTRUM
##SAMPLE DESCRIPTION=A.A.Kutin, Moscow, Russia
##NAMES=HP
##CAS NAME=4-Amino-1-butyl-6-hydroxy-1,2-dihydropyrimidine-2-thione
##MOLFORM=C8H13N3OS
##CAS REGISTRY NO=283170-63-8
##MP= -300
##BP= -300
##MW= 199
##$RETENTION INDEX=0
##$CONDENSED SPECTRUM=NO
##NPOINTS= 96
##XYDATA=(XY..XY) 1 
    33         13
    34         21
    36          5
    38         13
    39        167
    40        320
    41        481
    42        229
    43        418
    44        395
    45         75
    46         18
    47         14
    48         11
    50          7
    51         19
    52         17
    53         61
    54         71
    55        348
    56        133
    57        157
    58         32
    59         63
    60        179
    61         24
    62          7
    64         13
    66         23
    67         82
    68        610
    69        137
    70        126
    71         48
    72        144
    73        136
    74         26
    75         15
    76         17
    77         54
    79         14
    80          6
    81         34
    82         44
    83         82
    84        162
    85        126
    86         81
    87         21
    89          6
    93          6
    94         25
    95         19
    96         22
    97        123
    98         61
    99         80
   100         13
   101         31
   102         30
   103         22
   105         13
   107          5
   109         20
   110        191
   111         66
   112         28
   113          9
   115        999
   116         75
   117         49
   122         12
   125          9
   127         25
   128         11
   129         82
   131         19
   133          6
   138         18
   139         22
   143        999
   144         90
   145         90
   147          9
   149         25
   151          7
   166        488
   167         73
   168         10
   170         22
   171         14
   183         15
   198         71
   199        847
   200        119
   201         45