##TITLE=Library Entry 73308
##JCAMP-DX=Revision 4.10 
##DATA TYPE=MASS SPECTRUM
##SAMPLE DESCRIPTION=A.A.Kutin, Moscow, Russia
##NAMES=HP
##CAS NAME=4-Chloro-2-[(3-fluoroanilino)carbonyl]phenyl (diethylamino)methan
ethioate
##MOLFORM=C18H18ClFN2O2S
##CAS REGISTRY NO=283155-55-5
##MP= -300
##BP= -300
##MW= 380
##$RETENTION INDEX=0
##$CONDENSED SPECTRUM=NO
##NPOINTS= 249
##XYDATA=(XY..XY) 1 
    33          3
    34          0
    35          1
    36          4
    37          1
    38          4
    39          7
    40          9
    41          4
    42         12
    44         65
    45          4
    46          1
    47          0
    48          0
    49          1
    50          3
    51          4
    52          2
    53          4
    54          3
    55          3
    56         20
    57         12
    58          6
    60        199
    61         10
    62         17
    63         36
    64          6
    65          2
    66          0
    67          0
    68          1
    69          3
    70          6
    72        230
    73         18
    74          6
    75         22
    76          3
    77          1
    78          1
    79          1
    80          0
    81          3
    82          7
    83         26
    84          8
    86         53
    88        235
    89         11
    90         12
    91          4
    92          3
    93          2
    95         21
    96          3
    97          4
    98         19
   100        999
   101         62
   102          4
   103          1
   104          0
   105          0
   106          1
   107          2
   108          4
   109          7
   110         20
   111         79
   112          9
   113          3
   114         16
   116        195
   117         13
   118          8
   119          1
   120          1
   121          1
   122          1
   123          1
   124          3
   126         31
   127         15
   128          9
   129          4
   130          2
   131          1
   132          1
   133          1
   134          0
   135          0
   136          1
   137          4
   138          4
   139          6
   140          1
   141          2
   142          3
   143          2
   144          2
   145          2
   146          1
   147          0
   148          0
   149          0
   150          0
   151          0
   152          1
   154         22
   155         39
   156          9
   157         15
   158          3
   159          1
   160          0
   161          0
   162          0
   163          0
   164          2
   165          3
   166          1
   167          2
   168          4
   169          1
   170          5
   171          2
   172          5
   173          2
   174          0
   175          0
   179          0
   180          3
   181          1
   182          2
   183          1
   184          6
   185          7
   186          7
   187          1
   188          1
   189          0
   190          2
   191          1
   192          0
   193          1
   194          1
   195          1
   196          0
   197          0
   198          1
   199          0
   200          3
   201          2
   202          0
   203          0
   204          0
   205          0
   206          0
   207          1
   208          8
   209          2
   210          4
   211          1
   212          2
   213          4
   214          3
   215          0
   216          1
   217          0
   218          1
   219          2
   220          0
   221          2
   222          0
   223          0
   224          0
   225          0
   226          0
   227          0
   228          0
   229          5
   230          1
   231          0
   232          0
   233          0
   234          0
   235          0
   236          0
   237          0
   238          0
   239          0
   240          1
   242         34
   243          5
   244         12
   245          2
   246          2
   247          5
   248          4
   249          2
   250          1
   251          0
   252          0
   254          4
   256          1
   257          0
   260          1
   263         45
   264          9
   265         24
   266          4
   267          4
   268          0
   270         14
   271          2
   272          5
   273          0
   274          0
   275          0
   276          1
   277          0
   279         10
   280         30
   281          8
   282         11
   283          1
   284          0
   291          0
   306          0
   308          0
   319          0
   321          0
   345          0
   352          4
   354          2
   355          0
   363          0
   364          1
   365          0
   366          0
   379          1
   380         12
   381          3
   382          4
   383          1
   384          0