##TITLE=Library Entry 73336
##JCAMP-DX=Revision 4.10 
##DATA TYPE=MASS SPECTRUM
##SAMPLE DESCRIPTION=A.A.Kutin, Moscow, Russia
##NAMES=HP
##CAS NAME=N1-(3-Morpholinopropyl)-2,6-dimethylpiperidine-1-carbothioamide
##MOLFORM=C15H29N3OS
##CAS REGISTRY NO=283170-98-9
##MP= -300
##BP= -300
##MW= 299
##$RETENTION INDEX=0
##$CONDENSED SPECTRUM=NO
##NPOINTS= 190
##XYDATA=(XY..XY) 1 
    33          3
    34          3
    35          0
    36          0
    37          2
    38          8
    39        101
    40         53
    41        327
    42        450
    43        480
    44        281
    45         39
    46          4
    47          4
    48          3
    49          0
    50          2
    51          6
    52          8
    53         25
    54         62
    55        268
    56        316
    57         82
    58         74
    59         21
    60         25
    61          4
    62          2
    63          1
    64          7
    65          6
    66          5
    67         24
    68         59
    69         77
    70        287
    71         97
    72        131
    73         15
    74         11
    75          8
    76          4
    77          5
    78         11
    79          6
    80         10
    81         32
    82         35
    83         35
    84         84
    85         47
    86        146
    87         16
    88         17
    89          3
    90          3
    91          5
    92          1
    93          4
    94          8
    95         14
    96         39
    97        104
    98        595
    99         94
   100        999
   101        175
   102         24
   103         13
   104          1
   105          1
   106          0
   107          1
   108          2
   109          6
   110         11
   111         45
   112        513
   113         96
   114         72
   115         12
   116          5
   117         25
   118          2
   119          2
   120          1
   121          1
   122          1
   123          5
   124          6
   125          9
   126         60
   127         36
   128         42
   129         22
   130          9
   131          6
   132          1
   133          0
   134          0
   135          0
   136          0
   137          3
   138          2
   139          3
   140          2
   141         19
   142          9
   143         27
   144          6
   145          4
   146          1
   147          0
   149          0
   150          0
   151          1
   152          2
   153         25
   154         14
   155        253
   156         77
   157         21
   158          6
   159          2
   160          4
   161          0
   163          0
   165          3
   166          0
   167          2
   168          1
   169          5
   170          7
   171         17
   172          4
   173          8
   174          1
   175          0
   179          6
   180          1
   181          3
   183         20
   184          6
   185         14
   186         66
   187         72
   188         24
   189          5
   190          1
   191          0
   194          0
   195          0
   197         18
   198          3
   199         24
   200          3
   201          1
   202          0
   203          0
   204          2
   205          0
   207          0
   208          0
   209          0
   211          5
   212         11
   213         14
   214          2
   215          1
   222          0
   223          0
   224          0
   225          0
   236          0
   237          0
   238          0
   242          3
   243          0
   256          5
   257          0
   266          2
   267          0
   268          0
   269          0
   299         99
   300         17
   301          5
   302          0