##TITLE=Library Entry 16595
##JCAMP-DX=Revision 4.10 
##DATA TYPE=MASS SPECTRUM
##SAMPLE DESCRIPTION=A.A.Kutin, Moscow, Russia
##NAMES=HP
##CAS NAME=N1-Ethyl-2-(3,5-dichloro-2-hydroxybenzylidene)hydrazine-1-carboth
ioamide
##MOLFORM=C10H11Cl2N3OS
##CAS REGISTRY NO=283155-54-4
##MP= -300
##BP= -300
##MW= 291
##$RETENTION INDEX=0
##$CONDENSED SPECTRUM=NO
##NPOINTS= 224
##XYDATA=(XY..XY) 1 
    33         13
    34          5
    35         10
    36         26
    37         10
    38         18
    39         14
    40         33
    41         25
    42         87
    43        330
    44        999
    45         51
    46         22
    47         13
    48         20
    49          8
    50         25
    51         24
    52         12
    53         32
    54          9
    55         24
    56         13
    57         10
    59         87
    60        524
    61         89
    62         67
    63         54
    64          9
    65          5
    66          4
    67          6
    69         79
    71        295
    72         34
    73         45
    74         57
    75        107
    76         64
    77         20
    78         11
    79          4
    80          2
    81          3
    82          3
    83         13
    84         24
    85         32
    86         22
    87         35
    88        201
    89         21
    90         20
    91          9
    92          2
    93          2
    94          2
    95          5
    97        103
    98         22
    99         51
   100         13
   101         22
   102         62
   103        316
   104         61
   105         36
   106          7
   107         11
   108          5
   109         23
   110         19
   111         53
   112         20
   113         18
   114          9
   115          3
   116          4
   117          2
   118          2
   119          2
   120          4
   121          4
   122          5
   123         13
   124         34
   125         20
   126         20
   127         16
   128         11
   129         12
   130         90
   131         10
   132         20
   133         58
   134         28
   135         37
   136         12
   137          9
   138          7
   139         23
   140          8
   141         12
   142          5
   143          3
   144          4
   145         10
   146         12
   147         10
   148          9
   149          6
   150          4
   151          6
   152         31
   153         12
   154         16
   155         15
   156          5
   157          5
   158          7
   159         39
   160         13
   161         37
   162         16
   163         24
   164          8
   165          8
   166          3
   167          6
   168         21
   169         15
   170         10
   171          9
   172          3
   173         11
   175        108
   176         20
   177         57
   178          8
   179         10
   180          2
   182          0
   183          1
   184          1
   185          4
   187        102
   188         95
   189        286
   190        380
   191        180
   192        212
   193         39
   194         34
   195          3
   196          0
   198          0
   199          1
   200          2
   201          2
   203         54
   204         26
   205         36
   206         18
   207          9
   208          4
   209          1
   210          1
   211          5
   212          1
   213          3
   214          1
   215          2
   216          2
   217          2
   218          4
   219          1
   220          3
   221          0
   222          1
   223          0
   224          0
   227          1
   228          0
   229          1
   230          1
   231          1
   232          0
   236          0
   245          0
   246          6
   247          6
   248          5
   249          4
   250          2
   251          1
   252          0
   256          0
   257          2
   258          3
   259          1
   260          2
   261          3
   262          4
   263          3
   264          6
   266          4
   268          0
   270          1
   272          1
   274          1
   276          2
   277          0
   278          1
   287          2
   289         16
   291        532
   292         87
   293        331
   294         48
   295         63
   296          7
   297          2