##TITLE=Library Entry 15495
##JCAMP-DX=Revision 4.10 
##DATA TYPE=MASS SPECTRUM
##SAMPLE DESCRIPTION=LAC, NIDDK, NIH, Bethesda, MD 20892
##NAMES=HP
##CAS NAME=2-Chloro-N-(hydroxymethyl)acetamide
##MOLFORM=C3H6ClNO2
##CAS REGISTRY NO=2832-19-1
##MP= -300
##BP= -300
##MW= 123
##$RETENTION INDEX=0
##$CONDENSED SPECTRUM=NO
##NPOINTS= 58
##XYDATA=(XY..XY) 1 
    41         26
    42        168
    43        103
    44        999
    45         79
    46        464
    47         15
    48         27
    49        210
    50         31
    51         73
    52          8
    53          1
    54          1
    55          1
    56          4
    57          4
    58         32
    59        231
    60          9
    61          3
    62          1
    63          0
    64          3
    65          1
    70          5
    71         16
    72          6
    74        361
    75          8
    76         30
    77         80
    78         14
    79         27
    80          3
    82          1
    84          1
    86          1
    87         61
    88        162
    89          5
    90          0
    93          4
    94         16
    95          2
    96          5
   102          5
   105          2
   106        171
   107         10
   108         57
   109          2
   121          0
   122          3
   123         17
   124          4
   125          5
   126          1