##TITLE=Library Entry 8570
##JCAMP-DX=Revision 4.10 
##DATA TYPE=MASS SPECTRUM
##SAMPLE DESCRIPTION=CARL DJERASSI DEPT OF CHEM STANFORD UNIV STANFORD CALIF
 94305
##NAMES=HP
##CAS NAME=Lanostan-3.beta.-ol, 11.beta.,18-epoxy-19-iodo-, acetate
##MOLFORM=C32H53IO3
##CAS REGISTRY NO=28328-13-4
##MP= -300
##BP= -300
##MW= 612
##$RETENTION INDEX=0
##$CONDENSED SPECTRUM=NO
##NPOINTS= 205
##XYDATA=(XY..XY) 1 
    41        430
    42         40
    43        999
    44         30
    45         10
    53         40
    54         10
    55        490
    56         40
    57        440
    58         20
    65         20
    67        270
    68         30
    69        550
    70         40
    71        210
    72         10
    77         60
    78         10
    79        220
    80         40
    81        400
    82         60
    83        180
    84         10
    85         30
    91        200
    92         40
    93        330
    94         60
    95        520
    96         50
    97        100
   105        240
   106         40
   107        290
   108         60
   109        320
   110         30
   111         60
   113         10
   115         10
   116         10
   117         70
   118         20
   119        230
   120         50
   121        220
   122         40
   123        120
   124         10
   125         20
   127         20
   128         50
   129         40
   130         10
   131        130
   132         30
   133        170
   134         50
   135        170
   136         30
   137         70
   138         10
   139         10
   141         10
   142         10
   143         60
   144         20
   145        140
   146         40
   147        130
   148         30
   149         90
   150         10
   151         20
   155         20
   157         60
   158         20
   159        120
   160         20
   161        110
   162         20
   163         60
   165         10
   169         20
   170         10
   171         60
   172         10
   173        100
   174         30
   175        150
   176         20
   177         60
   179         30
   183         20
   184         10
   185         60
   186         20
   187         80
   188         20
   189         70
   190         10
   191         50
   193         80
   194         30
   197         20
   199         50
   200         10
   201         90
   202         20
   203         60
   204         10
   205         30
   207         20
   211         20
   213         70
   214         20
   215         70
   216         20
   217         40
   219         30
   223         10
   225         20
   227         40
   228         10
   229         30
   231         40
   233         30
   235        100
   236         10
   239         20
   241         20
   243         10
   245         30
   247         30
   249         20
   253         20
   255         10
   257         10
   259         10
   269         10
   271         20
   281         20
   283         10
   285         10
   295         10
   297         20
   299         30
   311         20
   313         20
   395        200
   396         60
   397         50
   398         10
   407        290
   408        110
   409         20
   423         20
   424         80
   425        430
   426        140
   427         20
   443        100
   444         30
   455         10
   467         10
   485        180
   486         70
   487         10
   497          1
   499          3
   500          3
   501          1
   507          1
   509          1
   511          1
   513          0
   520          0
   521          0
   522          0
   527          3
   533          1
   535          3
   536          1
   537          1
   538          1
   539          1
   552          3
   553          1
   555          2
   567          7
   568          2
   569          2
   579          2
   580          1
   581          2
   582          1
   597          3
   598          1
   611          1
   612          6
   613          3
   614          1