##TITLE=Library Entry 54100
##JCAMP-DX=Revision 4.10 
##DATA TYPE=MASS SPECTRUM
##SAMPLE DESCRIPTION=CARL DJERASSI DEPT OF CHEM STANFORD UNIV STANFORD CALIF
 94305
##NAMES=HP
##CAS NAME=Lanostane-3.beta.,11.beta.-diol, 3-acetate
##MOLFORM=C32H56O3
##CAS REGISTRY NO=28328-14-5
##MP= -300
##BP= -300
##MW= 488
##$RETENTION INDEX=0
##$CONDENSED SPECTRUM=NO
##NPOINTS= 182
##XYDATA=(XY..XY) 1 
    41        190
    42         20
    43        290
    44         10
    45         40
    53         20
    54         10
    55        250
    56         40
    57        200
    58         10
    59         10
    60         30
    67        100
    68         30
    69        290
    70         40
    71         90
    77         30
    78         10
    79         70
    80         20
    81        180
    82         70
    83        140
    84        999
    85         90
    91         60
    92         20
    93        140
    94        150
    95        330
    96         30
    97         60
    98         10
    99         10
   103         10
   105         90
   106         30
   107        160
   108         80
   109        180
   110         10
   111         40
   112         20
   113         10
   117         20
   118         10
   119        110
   120         60
   121        160
   122         60
   123        130
   124         30
   125         20
   129         10
   131         30
   132         50
   133        100
   134        110
   135        220
   136        120
   137        110
   138         20
   139         30
   143         10
   145         40
   146         30
   147         90
   148         40
   149         70
   150         20
   151         20
   152         10
   157         10
   159         50
   160         20
   161         90
   162         30
   163         60
   164         10
   165         30
   166         10
   171         20
   172         10
   173         40
   174         20
   175         90
   176         40
   177         50
   178         10
   179         10
   185         10
   186         10
   187         60
   188         30
   189         30
   190         10
   191         20
   193         20
   199         10
   201         20
   202         10
   203         30
   204         10
   205         60
   206         40
   207         20
   214         10
   215         20
   217         10
   219         10
   220         10
   221         10
   224        140
   225         20
   227         30
   228         10
   229         20
   231         10
   232         20
   233         10
   241         10
   245         10
   255         70
   256         20
   257         20
   258         10
   259         10
   263         20
   264        120
   265         80
   266         20
   270         60
   271         20
   273         30
   274         20
   275         20
   287         10
   288         20
   289         10
   290         20
   291         10
   297         20
   301         10
   303         40
   304         10
   305         10
   315         10
   316         20
   317         20
   318         20
   327         10
   328         20
   330         60
   331         20
   333         20
   341         20
   342         10
   343         10
   345         10
   348         10
   357         10
   367         30
   368         10
   383         20
   384         10
   385         30
   386         20
   395        120
   396         40
   397         20
   410         40
   411         20
   413         20
   428         40
   429         20
   455         50
   456         20
   470         16
   471          6
   488          4