##TITLE=Library Entry 89927
##JCAMP-DX=Revision 4.10 
##DATA TYPE=MASS SPECTRUM
##SAMPLE DESCRIPTION=JOCEAH, 42(7)1256(1977); R. VERHE ET AL
##NAMES=HP
##CAS NAME=2-Pentenoic acid, 4-oxo-, methyl ester, (E)-
##MOLFORM=C6H8O3
##CAS REGISTRY NO=2833-24-1
##MP= -300
##BP= -300
##MW= 128
##$RETENTION INDEX=0
##$CONDENSED SPECTRUM=NO
##NPOINTS= 12
##XYDATA=(XY..XY) 1 
    43        670
    53         80
    54         50
    55         60
    59        230
    69        130
    85         90
    97        370
    98         40
   113        999
   114         60
   128        220