##TITLE=Library Entry 30967
##JCAMP-DX=Revision 4.10 
##DATA TYPE=MASS SPECTRUM
##SAMPLE DESCRIPTION=Japan AIST/NIMC Database- Spectrum MS-NW-4480
##NAMES=HP
##CAS NAME=11-Bromoundecanoic acid
##MOLFORM=C11H21BrO2
##CAS REGISTRY NO=2834-05-1
##MP= -300
##BP= -300
##MW= 264
##$RETENTION INDEX=0
##$CONDENSED SPECTRUM=NO
##NPOINTS= 185
##XYDATA=(XY..XY) 1 
    14          7
    15          8
    16          1
    17          6
    18         21
    26         10
    27        187
    28          9
    29        205
    30          7
    31         15
    32          6
    37          1
    38          5
    39        142
    40         26
    41        559
    42        101
    43        242
    44          9
    45         65
    46          2
    47          2
    50          4
    51         11
    52          6
    53         50
    54         57
    55        642
    56         86
    57        178
    58         10
    59         43
    60        999
    61        122
    62          8
    63          5
    64          3
    65          9
    66          6
    67         77
    68         75
    69        460
    70         56
    71         74
    72          5
    73        855
    74         66
    75          7
    76          1
    77          9
    78          4
    79         17
    80         10
    81         70
    82         65
    83        274
    84         75
    85         24
    86          6
    87         95
    88          9
    89          3
    90          1
    91         13
    92          6
    93         11
    94          9
    95         45
    96         49
    97         95
    98         53
    99         12
   100         15
   101         54
   102         12
   103          3
   104          1
   105          4
   106          2
   107         18
   108          4
   109         20
   110         15
   111         33
   112          9
   113          7
   114         16
   115         67
   116         11
   117          3
   118          1
   119          4
   120          2
   121          8
   122         15
   123         20
   124         33
   125         63
   126          7
   127          9
   128          5
   129         99
   130          9
   131          2
   133          3
   134          1
   135         33
   136          7
   137         28
   138          9
   139         22
   140          3
   141          7
   142          2
   143          9
   144          3
   147          2
   148         24
   149         31
   150         24
   151         24
   152          2
   153          1
   154          1
   155         10
   156          5
   157          5
   158          2
   160          1
   161          1
   162         13
   163         16
   164         14
   165         16
   166         13
   167         66
   168          9
   169          1
   170          1
   171         23
   172         25
   173          3
   174          1
   175          2
   176          3
   177          2
   178          5
   179          3
   180          1
   181          3
   182          1
   183          1
   184          4
   185        228
   186         28
   187          3
   193          2
   195          2
   202         10
   203          2
   204         29
   205         37
   206         23
   207         38
   208          4
   209          4
   212          4
   221         30
   222          3
   223         30
   224          3
   227          1
   228          2
   230          2
   235          9
   236          2
   237          9
   238          1
   247          3
   249          3
   264         12
   265          2
   266         11
   267          2