##TITLE=Library Entry 55235
##JCAMP-DX=Revision 4.10 
##DATA TYPE=MASS SPECTRUM
##SAMPLE DESCRIPTION=Japan AIST/NIMC Database- Spectrum MS-NW-9891
##NAMES=HP
##CAS NAME=Chlorodifluoroacetic anhydride
##MOLFORM=C4Cl2F4O3
##CAS REGISTRY NO=2834-23-3
##MP= -300
##BP= -300
##MW= 242
##$RETENTION INDEX=679
##$CONDENSED SPECTRUM=NO
##NPOINTS= 39
##XYDATA=(XY..XY) 1 
    12          1
    16          3
    28          4
    31         33
    35          7
    36         16
    37          2
    38          5
    41          1
    43          1
    44         87
    45         48
    47          9
    49          1
    50        107
    51         69
    58          3
    63         14
    65          5
    66         34
    67          8
    68          9
    69         12
    78         23
    83          1
    85        999
    86         40
    87        323
    88         12
    94          1
    95         54
    96          1
    97          6
   101          1
   103          1
   113         39
   115         12
   129          3
   131          1