##TITLE=Library Entry 10322
##JCAMP-DX=Revision 4.10 
##DATA TYPE=MASS SPECTRUM
##SAMPLE DESCRIPTION=J.L.BORGNA ECOLE NAT. SUP., MONTPELLIER, FRANCE
##NAMES=HP
##CAS NAME=Androstan-17-ol, 5,6-epoxy-3-fluoro-, acetate, (3.alpha.,5.alpha.
,6.alpha.,17.beta.)-
##MOLFORM=C21H31FO3
##CAS REGISTRY NO=28344-40-3
##MP= -300
##BP= -300
##MW= 350
##$RETENTION INDEX=0
##$CONDENSED SPECTRUM=NO
##NPOINTS= 55
##XYDATA=(XY..XY) 1 
    41        400
    43        999
    53        200
    55        200
    59        120
    65        150
    67        450
    77        420
    78        300
    79        600
    80        162
    81        438
    83        300
    91        678
    93        840
    94        288
    95        378
   105        588
   106        240
   107        420
   108        198
   109        150
   117        204
   118        228
   119        330
   121        240
   129        165
   130        165
   131        288
   132        180
   133        780
   134        390
   135        390
   140        330
   142        432
   143        432
   145        264
   147        264
   148        840
   149        224
   150        224
   156        252
   161        180
   177        180
   231        288
   246        492
   257        216
   272        228
   275        108
   290        136
   306        282
   330         90
   332        186
   335         90
   350        780