##TITLE=Library Entry 14806
##JCAMP-DX=Revision 4.10 
##DATA TYPE=MASS SPECTRUM
##SAMPLE DESCRIPTION=J.L.BORGNA ECOLE NAT. SUP., MONTPELLIER, FRANCE
##NAMES=HP
##CAS NAME=Androstan-17-ol, 5,6-epoxy-3-fluoro-, acetate, (3.alpha.,5.beta.,
6.beta.,17.beta.)-
##MOLFORM=C21H31FO3
##CAS REGISTRY NO=28344-39-0
##MP= -300
##BP= -300
##MW= 350
##$RETENTION INDEX=0
##$CONDENSED SPECTRUM=NO
##NPOINTS= 74
##XYDATA=(XY..XY) 1 
    41        390
    43        999
    53        167
    55        293
    59         60
    65         80
    67        297
    68         57
    69         80
    73         53
    77        233
    78         57
    79        293
    80         60
    81        280
    83         50
    91        323
    92        113
    93        453
    94        133
    95        200
    97         67
   105        247
   106        100
   107        207
   108         83
   109         63
   113        110
   115         53
   117         86
   118         78
   119        207
   120        130
   121         90
   122         60
   123         53
   129         60
   130        120
   131        140
   132         73
   133        360
   134        293
   135        100
   137         50
   140        113
   141         53
   142         70
   143        233
   145        117
   146         53
   147        113
   148        190
   149         53
   153         67
   154         60
   156        213
   157         67
   159         80
   160         53
   161        143
   162         67
   197         93
   231        100
   246        120
   257         67
   272         80
   275         70
   290        107
   314         60
   330         67
   332         50
   335         87
   350        999
   351        253