##TITLE=Library Entry 30359
##JCAMP-DX=Revision 4.10 
##DATA TYPE=MASS SPECTRUM
##SAMPLE DESCRIPTION=NIST Mass Spectrometry Data Center, 1994
##NAMES=HP
##CAS NAME=Methyl 4-(p-nitrophenoxy)butyrate
##MOLFORM=C11H13NO5
##CAS REGISTRY NO=28341-53-9
##MP= -300
##BP= -300
##MW= 239
##$RETENTION INDEX=0
##$CONDENSED SPECTRUM=NO
##NPOINTS= 107
##XYDATA=(XY..XY) 1 
    12          1
    13          1
    15        193
    16          4
    17          1
    18          3
    26         14
    27         53
    28         31
    29        119
    30        101
    31         22
    32          1
    33          1
    37          5
    38         39
    39        136
    40         25
    41        255
    42        117
    43         43
    44          6
    45         24
    46          8
    50         77
    51         29
    52         17
    53         25
    54          9
    55         21
    56          3
    57          6
    58          3
    59        999
    60         28
    61          8
    62         22
    63         91
    64         63
    65         61
    66         12
    67          6
    68          3
    69        139
    70          8
    71          8
    74         55
    75         48
    76         71
    77         27
    78         17
    79         13
    80         10
    81         21
    82          4
    85          3
    87          1
    89          3
    91         20
    92         34
    93         25
    94          8
    95          6
    96          2
    99          2
   101        699
   102         44
   103          6
   104          2
   105          7
   106         14
   107          4
   108          6
   109         51
   110          5
   115          1
   118          2
   119         15
   120          2
   121          3
   122         21
   123         15
   124          1
   131          8
   132          2
   133          5
   134         10
   135          2
   136          1
   139          7
   140          8
   141          0
   148          1
   149          7
   150          1
   152         24
   153          2
   162          2
   163          2
   164          1
   166         22
   167          2
   192          1
   208         67
   209         10
   210          1
   239          5