##TITLE=Library Entry 27481
##JCAMP-DX=Revision 4.10 
##DATA TYPE=MASS SPECTRUM
##SAMPLE DESCRIPTION=Richard Turcotte. Direction des laboratoires d'expertis
es et d'analyses alimentaires, Quebec, Canada.
##NAMES=HP
##CAS NAME=SPIROMESIFEN
##MOLFORM=C23H30O4
##CAS REGISTRY NO=283594-90-1
##MP= -300
##BP= -300
##MW= 370
##$RETENTION INDEX=0
##$CONDENSED SPECTRUM=NO
##NPOINTS= 166
##XYDATA=(XY..XY) 1 
    41        157
    42         17
    43        113
    44         33
    50         16
    51         23
    52          7
    53         61
    54         10
    55        267
    56         42
    57        999
    58         37
    59          5
    60          2
    63          9
    64          5
    65         23
    66          6
    67         57
    68          7
    69         11
    70          5
    71        190
    72          9
    75          3
    76          4
    77         25
    78         10
    79         15
    81          5
    82          6
    83        322
    84         20
    85         12
    89         11
    90          4
    91        105
    92         12
    93          5
    94          2
    95         97
    96          3
    98         98
    99        462
   100         28
   101          4
   102          8
   103         18
   104          7
   105         16
   106          2
   107          3
   113          2
   114          3
   115        140
   116        106
   117         32
   118          4
   119         22
   120          5
   121          2
   126          3
   127         26
   128         72
   129         63
   130         30
   131        142
   132         27
   133         12
   135          5
   139          2
   141         26
   142         20
   143         22
   144         10
   145         23
   146          3
   147         13
   152         10
   153         20
   154          5
   155         26
   156         15
   157         25
   158         19
   159         43
   160         40
   161          9
   165         20
   166          6
   167         13
   168          8
   169         29
   170         25
   171         12
   172          3
   173          5
   175          5
   176          4
   177          2
   178          8
   179         14
   180          6
   181          9
   182         14
   183         27
   184          7
   185         30
   186        107
   187         60
   188         24
   189          5
   190          2
   191          2
   192          3
   193         16
   194          9
   195         18
   196          6
   197         30
   198         18
   199         15
   200          3
   201          4
   208         27
   209         49
   210         18
   211         25
   212         30
   213         37
   214          6
   215          5
   221          5
   225         15
   226         76
   227         35
   228          6
   229          3
   231        104
   232         18
   236         13
   237         13
   238          2
   239         20
   240          2
   244          8
   245          3
   253         10
   254        230
   255         55
   256          8
   257         11
   269          3
   270          2
   271         17
   272        924
   273        326
   274         39
   275          5
   281          2
   283          2
   355          2
   370         80
   371         25
   372          3