##TITLE=Library Entry 23690
##JCAMP-DX=Revision 4.10 
##DATA TYPE=MASS SPECTRUM
##SAMPLE DESCRIPTION=NIST Mass Spectrometry Data Center, 1998.
##NAMES=HP
##CAS NAME=Allyl isovalerate
##MOLFORM=C8H14O2
##CAS REGISTRY NO=2835-39-4
##MP= -300
##BP= -300
##MW= 142
##$RETENTION INDEX=915
##$CONDENSED SPECTRUM=NO
##NPOINTS= 61
##XYDATA=(XY..XY) 1 
    14          1
    15          8
    25          1
    26         12
    27         86
    28         13
    29        133
    30          5
    31         10
    37          7
    38         22
    39        291
    40         45
    41        792
    42        112
    43        205
    44         13
    45         15
    50          4
    51          5
    52          2
    53         15
    54         52
    55        146
    56         92
    57        999
    58         92
    59        171
    60         14
    61         10
    65          1
    67         10
    68          3
    69         41
    70          3
    71          8
    72          8
    73          3
    79          2
    81         19
    82         35
    83         14
    84          2
    85        789
    86         45
    87          5
    95          4
    96          1
    97          1
    99         21
   100        109
   101         13
   102          1
   103         12
   104          1
   109          2
   113          1
   114          1
   127          3
   142          2
   143          1