##TITLE=Library Entry 1815
##JCAMP-DX=Revision 4.10 
##DATA TYPE=MASS SPECTRUM
##SAMPLE DESCRIPTION=J.VOTH UNIV. OF CALIFORNIA, DAVIS, CALIFORNIA, 95616, U
SA
##NAMES=HP
##CAS NAME=1,5-Hexadiene, 3-chloro-
##MOLFORM=C6H9Cl
##CAS REGISTRY NO=28374-86-9
##MP= -300
##BP= -300
##MW= 116
##$RETENTION INDEX=0
##$CONDENSED SPECTRUM=NO
##NPOINTS= 78
##XYDATA=(XY..XY) 1 
     2          8
    12          9
    13         15
    14         34
    15         83
    16          1
    17          2
    18          7
    24          1
    25         14
    26        149
    27        632
    28         92
    29         50
    30          1
    31          3
    32          0
    35         12
    36         18
    37         74
    38        137
    39        999
    40         71
    41        748
    42         59
    43          8
    45          0
    47          4
    48          5
    49        105
    50        124
    51        201
    52         92
    53        324
    54        334
    55         74
    56         13
    57          2
    59          0
    60          4
    61         20
    62         24
    63         33
    64          8
    65         79
    66         40
    67        490
    68         27
    69          8
    72          1
    73         17
    74         15
    75        998
    76         56
    77        414
    78         50
    79        210
    80        194
    81        736
    82         66
    83          8
    84          0
    85          0
    86          0
    87          2
    88         49
    89          7
    90         18
    91          2
    92          0
    99          0
   101         11
   102          0
   103          3
   115          0
   116          5
   117          0
   118          2