##TITLE=Library Entry 66
##JCAMP-DX=Revision 4.10 
##DATA TYPE=MASS SPECTRUM
##SAMPLE DESCRIPTION=Chemical Concepts
##NAMES=HP
##CAS NAME=9-Oxabicyclo[6.1.0]nonan-4-one
##MOLFORM=C8H12O2
##CAS REGISTRY NO=28399-88-4
##MP= -300
##BP= -300
##MW= 140
##$RETENTION INDEX=0
##$CONDENSED SPECTRUM=NO
##NPOINTS= 61
##XYDATA=(XY..XY) 1 
    25         11
    26        202
    27        999
    28        383
    29        603
    30         25
    31         66
    37         57
    38        104
    39        868
    40        144
    41        454
    42        413
    43        205
    44        106
    45         15
    49          8
    50         70
    51        105
    52         47
    53        183
    54         74
    55        317
    56        149
    57        132
    58         15
    60          4
    61         14
    62         23
    63          7
    64         22
    66         34
    67        119
    68        167
    69         88
    70         56
    71         61
    72          6
    77         17
    78          9
    79         50
    80         16
    81         29
    82         12
    83        106
    84         97
    85         45
    86          5
    91          7
    92          5
    93         10
    94         41
    95         23
    96         57
    97         51
    98         11
    99          7
   111         18
   112         31
   113          9
   140          9