##TITLE=Library Entry 9160
##JCAMP-DX=Revision 4.10 
##DATA TYPE=MASS SPECTRUM
##SAMPLE DESCRIPTION=Mark Whitten, Florida Museum of Natural History, U. of
 Florida
##NAMES=HP
##CAS NAME=6,8-Dioxabicyclo[3.2.1]octane, 1,5-dimethyl-, (1S)-
##MOLFORM=C8H14O2
##CAS REGISTRY NO=28401-39-0
##MP= -300
##BP= -300
##MW= 142
##$RETENTION INDEX=949
##$CONDENSED SPECTRUM=NO
##NPOINTS= 53
##XYDATA=(XY..XY) 1 
    41        135
    43        999
    44         29
    45          9
    50          5
    51          9
    53         32
    54         53
    55         64
    56          9
    57         53
    58         42
    59          5
    61         11
    62          1
    63          2
    65          6
    67         60
    68         15
    69         50
    71        134
    72        347
    73         18
    74          2
    77          2
    79          8
    80          1
    81         11
    82         29
    83         14
    84         21
    85         30
    86          3
    91          1
    93          2
    94          2
    95          5
    97         23
    99         28
   100        163
   101         12
   108          1
   109          3
   110          0
   111         10
   112         52
   113          4
   114         19
   115          1
   126          0
   127          1
   142         48
   143          5