##TITLE=Library Entry 100265
##JCAMP-DX=Revision 4.10 
##DATA TYPE=MASS SPECTRUM
##SAMPLE DESCRIPTION=NIST Mass Spectrometry Data Center
##NAMES=HP
##CAS NAME=.beta.-Acorenol
##MOLFORM=C15H26O
##CAS REGISTRY NO=28400-11-5
##MP= -300
##BP= -300
##MW= 222
##$RETENTION INDEX=1649
##$CONDENSED SPECTRUM=NO
##NPOINTS= 80
##XYDATA=(XY..XY) 1 
    27         11
    29         17
    31         14
    32         17
    39         39
    40         13
    41        112
    43        109
    45          4
    51          5
    52          5
    53         60
    55        117
    56         43
    57         15
    58         11
    59        373
    65         34
    66         15
    67        100
    68         59
    69         80
    70         26
    71         40
    73          5
    77        114
    78         29
    79        200
    80         36
    81        134
    82         56
    83         24
    84          9
    85         11
    91        138
    92         92
    93        287
    94         87
    95         91
   103         19
   104          8
   105        234
   106         45
   107        183
   108         67
   109         65
   112          4
   113          3
   115         19
   116          5
   117         11
   118         15
   119        999
   120        132
   121        415
   122        103
   123         24
   128          3
   129          9
   132          8
   133         85
   134        123
   135         58
   136         39
   145          9
   147         77
   148         65
   149         59
   160          4
   161        165
   162         35
   163          9
   164         30
   165          6
   166          4
   189         50
   190          5
   204        241
   205         28
   206          3