##TITLE=Library Entry 1519
##JCAMP-DX=Revision 4.10 
##DATA TYPE=MASS SPECTRUM
##SAMPLE DESCRIPTION=Exported from NIST MS Search
##NAMES=HP
##CAS NAME=Pregn-5-ene-3,12,14,17,20-pentol, (3.beta.,12.beta.,14.beta.,17.a
lpha.,20S)-
##MOLFORM=C21H34O5
##CAS REGISTRY NO=28417-32-5
##MP= -300
##BP= -300
##MW= 366
##$RETENTION INDEX=0
##$CONDENSED SPECTRUM=NO
##NPOINTS= 70
##XYDATA=(XY..XY) 1 
    17        176
    18        510
    27        421
    28        334
    29        727
    31        999
    41        429
    43        731
    45        719
    53        117
    55        319
    57        200
    59        931
    67        217
    69        110
    74        574
    77        178
    79        306
    81        434
    85        106
    91        425
    93        248
    95        185
    97        142
   105        419
   106        129
   107        334
   109        153
   113        338
   119        248
   120        208
   121        183
   123        125
   129        121
   131        227
   133        142
   135        121
   141        102
   143        170
   145        434
   147        138
   157        153
   159        187
   161         89
   169        102
   171        100
   209         97
   211         87
   225         68
   234        248
   242        123
   251         83
   260        140
   267        170
   268         89
   269        159
   279         68
   285        325
   286        404
   287        227
   295         83
   303        319
   304        327
   312        319
   320         85
   321        485
   322         89
   330        191
   348         14
   366         10