##TITLE=Library Entry 16486
##JCAMP-DX=Revision 4.10 
##DATA TYPE=MASS SPECTRUM
##SAMPLE DESCRIPTION=Exported from NIST MS Search
##NAMES=HP
##CAS NAME=L-Valine, N-[N-(1-oxodecyl)-L-alanyl]-, methyl ester
##MOLFORM=C19H36N2O4
##CAS REGISTRY NO=28415-50-1
##MP= -300
##BP= -300
##MW= 356
##$RETENTION INDEX=0
##$CONDENSED SPECTRUM=NO
##NPOINTS= 105
##XYDATA=(XY..XY) 1 
    41         18
    42          8
    43        275
    44        999
    45         75
    46         10
    53         15
    54         25
    55        175
    56        160
    57        150
    58         25
    59         50
    60         10
    61         35
    67         30
    68         25
    69         65
    70         60
    71        110
    72        350
    73         50
    74         10
    79          5
    81         25
    82         15
    83         35
    84         30
    85         65
    86         35
    87        225
    88         25
    89          5
    91         10
    95         15
    96          5
    97         15
    98         90
    99         65
   100        165
   101         35
   111          5
   112         15
   113         25
   114         65
   115         15
   116         10
   126         25
   127         20
   128         15
   129         10
   130         65
   131         10
   132        125
   133         10
   140         10
   141         20
   142         25
   143         35
   154         10
   155         60
   156         35
   157          5
   168          5
   169         25
   170         20
   171         10
   172         15
   182          5
   184          5
   187          5
   196          5
   197          5
   198        215
   199        500
   200         75
   201         10
   202          5
   203         10
   210          5
   212         10
   223          5
   224         30
   225         15
   226        110
   227         20
   228          5
   229          5
   243         10
   244         50
   245          5
   281         12
   282          4
   297         15
   298          4
   299          1
   314          3
   315          1
   324          3
   325          7
   326          2
   355          2
   356         24
   357          8
   358          2