##TITLE=Library Entry 44178
##JCAMP-DX=Revision 4.10 
##DATA TYPE=MASS SPECTRUM
##SAMPLE DESCRIPTION=NIST Mass Spectrometry Data Center
##NAMES=HP
##CAS NAME=Mestranol, TMS derivative
##MOLFORM=C24H34O2Si
##CAS REGISTRY NO=28426-34-8
##MP= -300
##BP= -300
##MW= 382
##$RETENTION INDEX=0
##$CONDENSED SPECTRUM=NO
##NPOINTS= 247
##XYDATA=(XY..XY) 1 
    15          8
    39         40
    41        101
    43         48
    44         20
    45        161
    46          9
    47         44
    49          8
    51         19
    53         88
    54         12
    55        100
    57         14
    58         19
    59         37
    60         18
    61         34
    63          6
    64          5
    65         41
    66          7
    67         59
    68         13
    69         52
    70         12
    71         18
    73        999
    74        108
    75        388
    76         25
    77        122
    78         54
    79         84
    80         12
    81         73
    83        301
    84         29
    85         24
    89         17
    90         13
    91        283
    92         25
    93         44
    94          8
    95         35
    97         27
    98         15
    99          9
   101          6
   102         19
   103         82
   104         50
   105         69
   106         19
   107         65
   108         28
   109         21
   110          9
   111         23
   112          4
   113          7
   114         16
   115        264
   116        105
   117        112
   118         24
   119         55
   120          9
   121        144
   122         57
   123         10
   124          6
   125         96
   126         36
   127         89
   128        203
   129        167
   130         44
   131         98
   132         32
   133         38
   134         79
   135         87
   136         14
   137          8
   138          4
   139         44
   140         41
   141        132
   142         52
   143         76
   144        119
   145        167
   146         87
   147        515
   148         82
   149         16
   151         30
   152         41
   153        266
   154        121
   155        163
   156         36
   157         66
   158        229
   159        290
   160        226
   161        198
   162         30
   163         15
   164          7
   165         58
   166         42
   167        198
   168         97
   169        150
   170         54
   171        277
   172        159
   173        473
   174        637
   175         84
   176         20
   178         21
   179         98
   180         46
   181         81
   182         54
   183         38
   184         60
   185        104
   186        198
   187        114
   188         28
   189         20
   191         29
   192         13
   193        154
   194         59
   195         95
   196        470
   197        138
   198         61
   199        107
   200         79
   201         35
   202         18
   203         20
   204          4
   205          9
   206         12
   207         55
   208        145
   209        127
   210         60
   211         82
   212         55
   213         83
   214        114
   215         37
   216          3
   218          4
   219         14
   220          6
   221         36
   222         52
   223         46
   224         26
   225        129
   226         53
   227        578
   228        104
   229         50
   230          3
   231          7
   233          5
   234          3
   235         32
   236         20
   237         24
   238         50
   239         35
   240        107
   241         49
   242        251
   243         64
   244          4
   246          3
   247          6
   248          4
   249         27
   250         24
   251         26
   252         13
   253         18
   254          4
   259          4
   261         20
   262          5
   263         36
   264         35
   265         10
   266          7
   267         39
   268         11
   273          3
   275          6
   277         39
   278         13
   284         17
   285         11
   287          3
   291          7
   292         52
   293         14
   297          4
   298          4
   299         11
   300          3
   311          4
   312          6
   313          6
   323          5
   324          5
   325         16
   326          8
   338          3
   339         30
   340         14
   341          6
   349          7
   352         11
   353         42
   354         32
   356          6
   367        757
   368        200
   369         59
   370          7
   371          3
   372          3
   381          6
   382        167
   383         64
   384          8
   385          3