##TITLE=Library Entry 89202
##JCAMP-DX=Revision 4.10 
##DATA TYPE=MASS SPECTRUM
##SAMPLE DESCRIPTION=Japan AIST/NIMC Database- Spectrum MS-NW-8837
##NAMES=HP
##CAS NAME=Ethanol, 2-(cyclohexylamino)-
##MOLFORM=C8H17NO
##CAS REGISTRY NO=2842-38-8
##MP= -300
##BP= -300
##MW= 143
##$RETENTION INDEX=0
##$CONDENSED SPECTRUM=NO
##NPOINTS= 79
##XYDATA=(XY..XY) 1 
    15          8
    17          1
    18          3
    26          2
    27         44
    28         78
    29         48
    30        930
    31         20
    32          2
    39         45
    40          6
    41        185
    42        107
    43         57
    44        112
    45         36
    46          1
    47          1
    50          1
    51          4
    52          3
    53         29
    54         34
    55        307
    56        264
    57         17
    58          7
    59          2
    60         29
    61          3
    62         11
    65          5
    66          3
    67         29
    68         33
    69         16
    70         58
    71          6
    72         28
    73          1
    74          9
    77          8
    78          2
    79         17
    80         14
    81         30
    82         82
    83        128
    84         15
    85          2
    86          1
    87         18
    88          2
    91          1
    93          1
    94          2
    95          3
    96         14
    97          5
    98         16
    99          2
   100        533
   101         32
   102          2
   108          1
   110          9
   111          1
   112        999
   113         82
   114         14
   115          1
   124          3
   125          6
   126          4
   142         16
   143         47
   144         27
   145          2