##TITLE=Library Entry 44288
##JCAMP-DX=Revision 4.10 
##DATA TYPE=MASS SPECTRUM
##SAMPLE DESCRIPTION=NIST Mass Spectrometry Data Center
##NAMES=HP
##CAS NAME=Ethinyl estradiol, 2TMS derivative
##MOLFORM=C26H40O2Si2
##CAS REGISTRY NO=28426-35-9
##MP= -300
##BP= -300
##MW= 440
##$RETENTION INDEX=2842
##$CONDENSED SPECTRUM=NO
##NPOINTS= 357
##XYDATA=(XY..XY) 1 
    27          2
    28          1
    29          4
    31          1
    39          5
    40          1
    41         19
    42          2
    43         19
    44          9
    45         75
    46          5
    47         13
    48          1
    50          1
    51          3
    52          1
    53         20
    54          2
    55         36
    56          3
    57          5
    58          5
    59         31
    60          4
    61         17
    62          1
    63          3
    64          1
    65         12
    66          3
    67         30
    68          4
    69         18
    70          3
    71          5
    73        999
    74         88
    75        205
    76         14
    77         38
    78          9
    79         41
    80          5
    81         38
    82          6
    83        130
    84         12
    85         15
    86          2
    87          2
    88          1
    89          5
    90          3
    91         74
    92         10
    93         29
    94          7
    95         25
    96          4
    97         12
    98          3
    99          7
   100          2
   101          7
   102          5
   103         21
   104          7
   105         50
   106          7
   107         35
   108         11
   109         23
   110          3
   111         15
   112          2
   113          4
   114          5
   115         90
   116         20
   117         34
   118          9
   119         23
   120          5
   121         21
   122          3
   123          5
   124          2
   125         43
   126         11
   127         29
   128         56
   129         55
   130         11
   131         21
   132          5
   133         20
   134          7
   135         18
   136          3
   137          7
   138          1
   139         26
   140         17
   141         54
   142         17
   143         24
   144          7
   145         23
   146          5
   147         24
   148          6
   149         23
   150          5
   151         21
   152         14
   153        108
   154         54
   155         78
   156         14
   157         21
   158          6
   159         17
   160          4
   161         34
   162          8
   163         65
   164         16
   165         40
   166         14
   167         92
   168         40
   169         84
   170         15
   171         14
   172          3
   173         11
   174          3
   175         16
   176          7
   177         65
   178         20
   179         79
   180         36
   181         41
   182         20
   183         17
   184          5
   185         23
   186          5
   187         22
   188          9
   189         63
   190         19
   191         28
   192         19
   193         97
   194         30
   195         40
   196        251
   197         53
   198         16
   199         19
   200         10
   201         51
   202         17
   203         66
   204         24
   205        197
   206         42
   207         32
   208        106
   209         61
   210         15
   211          8
   213         11
   214          8
   215         44
   216         23
   217         89
   218        100
   219         92
   220         21
   221         15
   222         16
   223          8
   224          2
   225          5
   226          2
   227         10
   228          5
   229         83
   230         47
   231        187
   232        209
   233         50
   234         13
   235         12
   236          3
   237          5
   238          2
   239          7
   240          3
   241          9
   242         19
   243         42
   244         82
   245         65
   246         18
   247          8
   248          2
   249          2
   250          1
   251          5
   252          2
   253         10
   254          6
   255         18
   256         15
   257         48
   258         37
   259         17
   260          6
   261          5
   262          1
   263          1
   264          1
   265          4
   266          3
   267         13
   268         12
   269         24
   270         24
   271         41
   272         69
   273         18
   274          6
   275          2
   276          1
   277          2
   278          1
   279          7
   280         10
   281         20
   282         18
   283         60
   284         37
   285        309
   286         85
   287         42
   288          9
   289          3
   290          1
   291          3
   292          2
   293         11
   294          8
   295         15
   296         27
   297         19
   298         60
   299         30
   300        184
   301         49
   302         11
   303          4
   304          1
   305          3
   306          3
   307         14
   308         14
   309         16
   310          7
   311          9
   312          3
   313          2
   314          1
   315          1
   317          2
   318          1
   319          2
   320          2
   321         20
   322         31
   323         14
   324          6
   325         23
   326          7
   327          4
   328          1
   329          1
   330          1
   331          1
   332          1
   333          2
   334          1
   335         21
   336          7
   337          4
   338          1
   339          1
   340          1
   341          2
   342         10
   343          5
   344          2
   345          1
   346          1
   349          7
   350         35
   351         13
   352          5
   353          2
   354          1
   355          3
   356          3
   357          7
   358          3
   359          1
   367          2
   368          1
   369          3
   370          3
   371          3
   372          1
   381          1
   383          8
   384          4
   385          3
   386          1
   395          1
   396          1
   397         14
   398          7
   399          3
   400          1
   407          3
   408          1
   409          1
   411         21
   412         18
   413          6
   414          3
   415          1
   423          1
   425        428
   426        160
   427         58
   428         14
   429          2
   438          1
   439          2
   440        134
   441         54
   442         19
   443          4
   444          1