##TITLE=Library Entry 107149
##JCAMP-DX=Revision 4.10 
##DATA TYPE=MASS SPECTRUM
##SAMPLE DESCRIPTION=Richard Turcotte. Direction des laboratoires d'expertis
es et d'analyses alimentaires, Quebec, Canada.
##NAMES=HP
##CAS NAME=Bioresmethrin
##MOLFORM=C22H26O3
##CAS REGISTRY NO=28434-01-7
##MP= -300
##BP= -300
##MW= 338
##$RETENTION INDEX=0
##$CONDENSED SPECTRUM=NO
##NPOINTS= 88
##XYDATA=(XY..XY) 1 
    40        304
    41        107
    42         38
    43        134
    44        110
    45         11
    46          6
    50         32
    51         23
    53         47
    55         81
    57         52
    63         20
    65         92
    66         13
    67         92
    68         15
    69         80
    76          6
    77         55
    78         37
    79         86
    81        223
    82         24
    83         66
    91        272
    92         60
    93         67
    94         33
    95         66
    96         26
    98          7
   103         40
   104         27
   105         50
   107         57
   108         18
   109         32
   110         62
   111          6
   115        160
   116         20
   117         59
   121          4
   123        999
   124        110
   126         16
   127         64
   128        511
   129        150
   130          7
   133         19
   139         11
   141        176
   142         32
   143        364
   144         67
   145          4
   151         35
   152          5
   157          5
   166         45
   167         16
   170          6
   171        652
   172        230
   173         31
   177          6
   181          4
   187          4
   191         21
   193         23
   203          6
   207         11
   209         28
   218          6
   223          4
   247          4
   249          7
   267          6
   279          6
   281         29
   282          7
   294          4
   295          5
   323          6
   338         18
   339          4