##TITLE=Library Entry 17947
##JCAMP-DX=Revision 4.10 
##DATA TYPE=MASS SPECTRUM
##SAMPLE DESCRIPTION=EP-1342
##NAMES=HP
##CAS NAME=Urea, N-(4-chlorophenyl)-N'-methoxy-
##MOLFORM=C8H9ClN2O2
##CAS REGISTRY NO=28443-49-4
##MP= -300
##BP= -300
##MW= 200
##$RETENTION INDEX=0
##$CONDENSED SPECTRUM=NO
##NPOINTS= 50
##XYDATA=(XY..XY) 1 
    45          5
    46        999
    47         15
    55         80
    56         20
    57         85
    62         50
    63        140
    64          5
    69         50
    70         20
    71         45
    72         30
    73         80
    74         20
    75         70
    81         30
    82         10
    83         30
    84         15
    85         30
    86          5
    90        120
    91         80
    92         40
    93          4
    99        200
   100         20
   101         70
   102          3
   111        110
   112         10
   113         35
   114          3
   124         10
   125        130
   126        340
   127        270
   128        130
   129         80
   130          5
   152         20
   153        820
   154        135
   155        280
   156         40
   200        330
   201         35
   202        110
   203         10