##TITLE=Library Entry 80852
##JCAMP-DX=Revision 4.10 
##DATA TYPE=MASS SPECTRUM
##SAMPLE DESCRIPTION=Japan AIST/NIMC Database- Spectrum MS-IW-7957
##NAMES=HP
##CAS NAME=4-Benzoyl-2,5-diphenyl-1,3-dioxolane
##MOLFORM=C22H18O3
##CAS REGISTRY NO=28448-73-9
##MP= -300
##BP= -300
##MW= 330
##$RETENTION INDEX=0
##$CONDENSED SPECTRUM=NO
##NPOINTS= 100
##XYDATA=(XY..XY) 1 
    26          1
    27          5
    28          9
    29          2
    37          2
    38          5
    39         17
    40          2
    41          3
    43          1
    49          2
    50         26
    51         80
    52         13
    53          2
    55          1
    57          1
    61          1
    62          4
    63         16
    64          7
    65         25
    66          1
    69          4
    71          1
    73          2
    74          9
    75          7
    76         14
    77        403
    78         37
    79          5
    82          1
    83          1
    86          1
    87          1
    88          2
    89         61
    90         56
    91        213
    92         16
    97          1
    98          1
   102          4
   103          6
   104          3
   105        999
   106        266
   107         29
   108          2
   112          4
   115          1
   118         12
   119        505
   120         45
   121          3
   122          2
   128          1
   130          3
   131          5
   133          1
   139          2
   146          2
   147         12
   148          1
   149          1
   151          3
   152         10
   153          2
   164          1
   165         16
   166          6
   167         29
   168          5
   176          3
   177          7
   178         17
   179         12
   180          6
   181          3
   191          2
   192          3
   193          1
   194          3
   195         21
   196         10
   197          2
   205          3
   206          9
   207         37
   208         72
   209         11
   210          1
   222          1
   223         54
   224        311
   225        340
   226         51
   227          5
   301          1