##TITLE=Library Entry 56716
##JCAMP-DX=Revision 4.10 
##DATA TYPE=MASS SPECTRUM
##SAMPLE DESCRIPTION=A.A.Kutin, Moscow, Russia
##NAMES=HP
##CAS NAME=N4-(4-Bromo-2-methylphenyl)morpholine-4-carbothioamide
##MOLFORM=C12H15BrN2OS
##CAS REGISTRY NO=284488-75-1
##MP= -300
##BP= -300
##MW= 314
##$RETENTION INDEX=0
##$CONDENSED SPECTRUM=NO
##NPOINTS= 207
##XYDATA=(XY..XY) 1 
    33         30
    34          6
    37         22
    38         45
    39        134
    40         84
    41         71
    42        121
    43         78
    44        118
    45        174
    46         13
    47         10
    48          5
    49         13
    50         70
    51        117
    52         39
    53         16
    54         40
    55         56
    56        161
    57        215
    58         97
    59         79
    60        154
    61         42
    62         75
    63        177
    64         52
    65         27
    66          6
    67          5
    68         16
    69         85
    70         40
    71         22
    72         87
    74        110
    75         46
    76         48
    77        107
    78         68
    79         32
    80         17
    81         12
    82         21
    83         15
    84         27
    86        999
    87        147
    88        106
    89        274
    90        202
    91         36
    92          8
    93          6
    94          8
    95         22
    96          9
    97          4
    98          2
    99          5
   100         11
   101         19
   102         49
   103         44
   104        124
   105         41
   106         42
   107         11
   108         54
   110          5
   113        240
   114         42
   115         31
   116         52
   117        142
   118         39
   119         20
   120         26
   121         81
   122         41
   123         51
   124          5
   125          3
   127          3
   130        565
   131        109
   132         34
   133         10
   134          4
   135          7
   136          4
   137          1
   141          1
   143         12
   144          6
   145         13
   146         29
   148        319
   149         75
   150         34
   151          4
   155          4
   156          5
   157          7
   158          6
   159          0
   161          4
   162          7
   163         17
   164          7
   167          2
   169         38
   171         33
   172          3
   173          0
   175         12
   176         20
   177         35
   178          8
   179          2
   182         15
   183         12
   184         42
   185        150
   186         35
   187        134
   188         13
   189         12
   190         12
   191          5
   192          1
   194         30
   195         22
   196         45
   197         23
   198         28
   199         12
   200          8
   202        112
   204        111
   205          8
   206          5
   209          6
   210          8
   211         14
   212         10
   213         11
   214          7
   215          1
   216          3
   217          1
   219          1
   222          1
   223          3
   224          6
   225         11
   227        249
   228         58
   229        217
   230         36
   231         11
   232          2
   233          3
   234          4
   235          2
   236          3
   237          5
   238          1
   239          7
   240          1
   241          4
   242          2
   243          2
   253         14
   255         30
   256          9
   257         15
   258          3
   259          4
   267          1
   269          8
   271         17
   272          2
   273          8
   280          0
   281         34
   282          7
   283         31
   284          6
   285          3
   287          1
   298          5
   299         40
   301         51
   302          4
   303          1
   310          1
   311          3
   312          8
   314        203
   316        219
   317         24
   318          9
   319          0