##TITLE=Library Entry 16541
##JCAMP-DX=Revision 4.10 
##DATA TYPE=MASS SPECTRUM
##SAMPLE DESCRIPTION=A.A.Kutin, Moscow, Russia
##NAMES=HP
##CAS NAME=Benzaldehyde, 3,5-dichloro-2-phenylsulfonyloxy-, (2,2-dimethyl)hy
drazone
##MOLFORM=C15H14Cl2N2O3S
##CAS REGISTRY NO=284489-45-8
##MP= -300
##BP= -300
##MW= 372
##$RETENTION INDEX=0
##$CONDENSED SPECTRUM=NO
##NPOINTS= 123
##XYDATA=(XY..XY) 1 
    39          2
    41          2
    42        340
    43        277
    44        999
    50         19
    51        134
    53          3
    55          6
    62          0
    65          4
    69          3
    70          0
    71          0
    74         14
    75         17
    76          2
    77         40
    81          1
    82          4
    85          5
    86          0
    87          1
    88          7
    89          3
    90          2
    93          0
    95          0
    96          1
    97         50
    98          2
    99         10
   103          0
   106          3
   108          1
   109         63
   110         16
   111         20
   118          4
   119          0
   120          1
   121          1
   122          0
   123          4
   124         34
   126         14
   127          2
   128          2
   129          0
   130          1
   131          1
   132         13
   133         28
   134          5
   135         14
   139          0
   145         36
   146          1
   147         24
   148          0
   149          3
   152         41
   153         13
   154         10
   155          7
   156          0
   157          0
   158          0
   159          9
   160          5
   161         13
   163          5
   165          1
   166          3
   167         11
   168          8
   169          7
   170          2
   175          3
   177          1
   179          0
   180          0
   181          0
   183          1
   186          0
   187         18
   188        129
   190         73
   192          9
   195        106
   196         74
   197         33
   198         19
   200         43
   202         38
   203          5
   204         10
   205          2
   206          3
   217         10
   218          2
   219          3
   220          0
   222          2
   228          1
   229          5
   231        647
   232         25
   233        412
   234         14
   235         63
   236          1
   237          0
   242          1
   249          0
   251          1
   336          2
   372        116
   373         23
   374         85
   375         14
   376         18
   377          2