##TITLE=Library Entry 52211
##JCAMP-DX=Revision 4.10 
##DATA TYPE=MASS SPECTRUM
##SAMPLE DESCRIPTION=Chemical Concepts
##NAMES=HP
##CAS NAME=Cyclohexyldichlorophosphine
##MOLFORM=C6H11Cl2P
##CAS REGISTRY NO=2844-89-5
##MP= -300
##BP= -300
##MW= 184
##$RETENTION INDEX=0
##$CONDENSED SPECTRUM=NO
##NPOINTS= 103
##XYDATA=(XY..XY) 1 
    25          0
    26          9
    27        127
    28         22
    29         85
    30          1
    31          1
    32          1
    33          0
    35          1
    36          7
    37          2
    38          6
    39        131
    40         13
    41        466
    42         20
    43         37
    44          2
    45         12
    46          0
    47          0
    48          0
    49          0
    50          7
    51         17
    52          9
    53         54
    54         31
    55        987
    56         43
    57         22
    58          3
    59          2
    60          0
    61          0
    62          0
    63          2
    64          0
    65          9
    66         11
    67         49
    68          6
    69         10
    70          2
    71         14
    72          1
    73          2
    74          0
    75          0
    76          0
    77         12
    78          3
    79         23
    80          5
    81         46
    82         25
    83        999
    84         65
    85          4
    86          0
    91          1
    92          0
    93          6
    94          0
    95          4
    96          0
    97          1
    99          0
   101         22
   102          0
   103         15
   104          0
   105          2
   106          0
   107          3
   108          0
   109          1
   111          2
   113          5
   115          0
   117          0
   119          0
   121          0
   128          0
   129          0
   130          0
   131          0
   145          0
   147          1
   148          0
   149         10
   150          1
   151          3
   166          3
   167          0
   183          0
   184         68
   185          4
   186         43
   187          3
   188          6
   189          0