##TITLE=Library Entry 40313
##JCAMP-DX=Revision 4.10 
##DATA TYPE=MASS SPECTRUM
##SAMPLE DESCRIPTION=A.A.Kutin, Moscow, Russia
##NAMES=HP
##CAS NAME=Carbamic acid, N,N-dimethyl-, [6-methyl-2-(4-pyridyl)-4-pyrimidyl
] ester
##MOLFORM=C13H14N4O2
##CAS REGISTRY NO=284487-21-4
##MP= -300
##BP= -300
##MW= 258
##$RETENTION INDEX=0
##$CONDENSED SPECTRUM=NO
##NPOINTS= 129
##XYDATA=(XY..XY) 1 
    37          4
    38          9
    39         44
    40         14
    41         30
    42         71
    43         21
    44         14
    45          0
    48          0
    50         24
    51         40
    52         15
    53          9
    54         43
    55          9
    56         35
    57          1
    58          0
    61          0
    62          3
    63         12
    64         13
    65          4
    66         17
    67         10
    68          3
    69          1
    70          4
    72        999
    73         37
    74          3
    75          4
    76         15
    77         25
    78         20
    79          2
    80          0
    82          5
    83          3
    84          1
    85          0
    86          0
    87          0
    88          0
    89          1
    90          3
    91          0
    92          0
    93          1
    94          0
    95          0
    96          0
    99          0
   100          0
   101          0
   102          0
   103          4
   104         14
   105         26
   106          2
   107          0
   109          1
   110          0
   111          0
   114          0
   115          0
   116          1
   117          7
   118          1
   119          2
   120          0
   121          0
   123          0
   129          2
   130          1
   131          4
   132          0
   133          0
   134          0
   137          0
   139          0
   141          0
   142          0
   143          0
   144          0
   145          1
   146          0
   147          0
   148          0
   149          0
   150          0
   156          0
   158          5
   159          3
   160          0
   161          0
   168          0
   170          4
   171          2
   172          1
   173          0
   174          0
   176          0
   180         62
   181          6
   182          0
   185         58
   186          8
   188        118
   189         14
   190          1
   199          2
   200          6
   201          2
   202          0
   211          0
   214          1
   215          2
   216          0
   229          6
   230          5
   231          0
   241          0
   243          0
   258         45
   259         10
   260          1
   261          0