##TITLE=Library Entry 51492
##JCAMP-DX=Revision 4.10 
##DATA TYPE=MASS SPECTRUM
##SAMPLE DESCRIPTION=NIST Mass Spectrometry Data Center
##NAMES=HP
##CAS NAME=(3E,7E)-1,5,5,8-Tetramethylcycloundeca-3,7-dienol
##MOLFORM=C15H26O
##CAS REGISTRY NO=28446-26-6
##MP= -300
##BP= -300
##MW= 222
##$RETENTION INDEX=1614
##$CONDENSED SPECTRUM=NO
##NPOINTS= 76
##XYDATA=(XY..XY) 1 
    27         19
    29         26
    31          6
    39         59
    40         15
    41        170
    42         20
    43        337
    44          8
    45         12
    53         87
    54         24
    55        185
    56         23
    57         31
    58         37
    59         26
    65         36
    66         16
    67        436
    68         55
    69         80
    70        167
    71        307
    72         17
    77         47
    79         85
    80         21
    81        178
    82        999
    83        588
    84         53
    85         64
    91         41
    92         18
    93        104
    94         32
    95         61
    96         27
    97         63
   105         31
   106         15
   107        116
   108         51
   109         57
   111         65
   112         10
   113         34
   119         33
   121        105
   122        160
   123         64
   125        211
   126         34
   127          7
   133         35
   134         15
   135         43
   136         20
   137         16
   139         65
   140         24
   141         19
   147         30
   148         19
   149         44
   161         65
   164         19
   166          5
   175         13
   189         37
   196          5
   204         55
   205         12
   207         11
   222         27