##TITLE=Library Entry 12772
##JCAMP-DX=Revision 4.10 
##DATA TYPE=MASS SPECTRUM
##SAMPLE DESCRIPTION=Organic Synthesis Lab, MSU, Moscow.TRC 559
##NAMES=HP
##CAS NAME=Pregn-5-en-20-one, 21-(acetyloxy)-16,17-epoxy-3-hydroxy-, (3.beta
.,16.alpha.)-
##MOLFORM=C23H32O5
##CAS REGISTRY NO=28444-97-5
##MP= -300
##BP= -300
##MW= 388
##$RETENTION INDEX=0
##$CONDENSED SPECTRUM=NO
##NPOINTS= 307
##XYDATA=(XY..XY) 1 
    27         33
    29         71
    30          3
    31         15
    39         33
    40          9
    41        172
    42         12
    43        999
    44         20
    45          7
    50          1
    51          8
    52          5
    53         64
    54          8
    55        223
    56          6
    57         50
    58          3
    59          2
    60          4
    61          1
    63          2
    64          1
    65         32
    66         13
    67         97
    68          9
    69         27
    70          2
    71          9
    72          1
    73        130
    74          5
    75          1
    76          1
    77         93
    78         24
    79        156
    80         21
    81        129
    82         11
    83         14
    84          3
    85          6
    87          2
    89          2
    90          1
    91        193
    92         38
    93        120
    94         26
    95         56
    96          8
    97         28
    99          2
   100          1
   101        158
   102          8
   103         19
   104         13
   105        180
   106         35
   107        182
   108         26
   109         33
   110          7
   111          9
   112          1
   113          2
   114          1
   115         32
   116         17
   117         65
   118         23
   119        100
   120         64
   121         52
   122         12
   123         21
   124         16
   125         48
   126          4
   127          9
   128         29
   129         50
   130         24
   131         93
   132         23
   133         67
   134         14
   135         19
   136          5
   137         12
   138          6
   139          5
   140          1
   141         27
   142         20
   143         97
   144         30
   145        112
   146         27
   147         41
   148          9
   149         21
   150          7
   151         14
   152          6
   153         10
   154          6
   155         28
   156         15
   157         73
   158         37
   159        312
   160         48
   161         39
   162          9
   163         31
   164          7
   165          9
   166          4
   167         15
   168          7
   169         28
   170         12
   171         47
   172         18
   173         35
   174          9
   175         37
   176         12
   177         16
   178          4
   179          6
   180          5
   181         18
   182          8
   183         29
   184         13
   185         68
   186         17
   187         19
   188          6
   189         18
   190          7
   191         11
   192          2
   193         10
   194          5
   195         26
   196         10
   197         30
   198         11
   199         39
   200         11
   201         19
   202          5
   203         12
   204          6
   205         10
   206          3
   207         12
   208          5
   209         27
   210          9
   211         32
   212         12
   213         62
   214         20
   215         13
   216          5
   217         30
   218          6
   219          6
   220          3
   221          8
   222          4
   223         12
   224          6
   225         21
   226          7
   227         20
   228          7
   229         10
   230          4
   231          6
   232          8
   233          7
   234          4
   235         20
   236         10
   237         69
   238         15
   239         13
   240          5
   241         12
   242          5
   243         12
   244          4
   245          6
   246          5
   247          4
   248          2
   249         12
   250          5
   251         53
   252         17
   253         20
   254         10
   255        133
   256         27
   257         13
   258          4
   259         33
   260         21
   261          8
   262          3
   263          6
   264          5
   265          4
   266          3
   267         12
   268          7
   269        145
   270         34
   271         19
   272          6
   273          4
   274          1
   275          5
   276         57
   277         49
   278          9
   279         11
   280          3
   281          6
   282          5
   283          5
   284          8
   285         28
   286         13
   287        100
   288         21
   289          3
   290          2
   291          1
   292          4
   293          2
   294          1
   295         32
   296          7
   297         25
   298          6
   299         73
   300         19
   301          6
   302          3
   303         54
   304         11
   305          1
   309          2
   310         13
   311          7
   312          2
   313         24
   314          5
   315         73
   316         20
   317          4
   318          1
   327          5
   328         33
   329         14
   330          6
   331          5
   332          1
   333          2
   337         19
   338          4
   339          1
   341          3
   342          4
   343          1
   344          8
   345          4
   346         29
   347          6
   348          1
   352          3
   355         62
   356         14
   357          2
   359          1
   360          1
   369          1
   370        144
   371         37
   372          7
   373         17
   374          4
   384          1
   386          1
   388        312
   389         73