##TITLE=Library Entry 15970
##JCAMP-DX=Revision 4.10 
##DATA TYPE=MASS SPECTRUM
##SAMPLE DESCRIPTION=A.A.Kutin, Moscow, Russia
##NAMES=HP
##CAS NAME=Benzaldehyde, 2,5-dichloro-6-(4-methylsulfonyloxy)-, 2,2-dimethyl
hydrazone
##MOLFORM=C16H16Cl2N2O3S
##CAS REGISTRY NO=284489-46-9
##MP= -300
##BP= -300
##MW= 386
##$RETENTION INDEX=0
##$CONDENSED SPECTRUM=NO
##NPOINTS= 185
##XYDATA=(XY..XY) 1 
    33          9
    34          0
    35          1
    36          6
    39        114
    42        369
    44        999
    47          2
    48          4
    50         31
    51         38
    52         13
    53         11
    54          1
    55          4
    56          1
    57          2
    58          4
    59          4
    62         46
    63         80
    65        270
    67          5
    69          5
    71          6
    73         13
    74         32
    75         33
    77         25
    78          7
    79          4
    80          1
    81          2
    82          5
    83          3
    84          4
    85         10
    86          4
    87          8
    89         87
    91        425
    95          3
    97         73
    99         37
   100          3
   101          3
   103          3
   104          1
   105          3
   106          3
   107          7
   109         60
   110         14
   111         23
   112          6
   113          2
   114          0
   115          1
   117          3
   118          4
   119          3
   120          1
   121          4
   122          2
   124         43
   125         13
   126         19
   127          5
   128          3
   129          1
   132         15
   133         37
   134         10
   135         24
   136          3
   137          4
   138          3
   139         15
   140          3
   141          2
   142          1
   143          0
   145         29
   147         20
   149          3
   150          2
   152         35
   153         14
   154         13
   155         67
   156          6
   157          4
   158          2
   159         12
   160          5
   161         16
   162          4
   163          8
   164          1
   165          3
   166          3
   167          7
   168          3
   169          3
   170          2
   171          0
   172          2
   173          3
   174          1
   175          5
   176          1
   177          2
   178          1
   179          1
   180          1
   181          2
   182          3
   183          1
   184          1
   186          2
   187         14
   188         81
   190         67
   191          6
   192          9
   193          1
   195         46
   196         36
   197         22
   198         12
   200         25
   201          4
   202         16
   203          4
   204          6
   205          1
   206          1
   207          0
   208          0
   209          0
   213          0
   214          4
   215          8
   216          6
   217          6
   218          2
   219          1
   220          0
   221          0
   229          3
   231        379
   232         47
   233        234
   234         25
   235         37
   236          4
   237          0
   242          0
   243          0
   244          1
   245          0
   246          0
   247          0
   249          0
   251          0
   252          0
   263          0
   264          0
   265          0
   278          0
   279          0
   280          0
   281          0
   287          0
   351          0
   352          1
   353          0
   354          0
   386         59
   387         13
   388         39
   389          7
   390          8
   391          1
   392          0