##TITLE=Library Entry 7558
##JCAMP-DX=Revision 4.10 
##DATA TYPE=MASS SPECTRUM
##SAMPLE DESCRIPTION=Zaikin V.G., TIPS RAS, Moscow, Russia
##NAMES=HP
##CAS NAME=2- Bromopropionic acid, hexyl ester
##MOLFORM=C9H17BrO2
##CAS REGISTRY NO=28456-82-8
##MP= -300
##BP= -300
##MW= 236
##$RETENTION INDEX=1328
##$CONDENSED SPECTRUM=NO
##NPOINTS= 57
##XYDATA=(XY..XY) 1 
    26         30
    27        223
    28          2
    29        145
    30          4
    31         13
    35          4
    36         26
    38         12
    39         75
    40         19
    41        296
    42        176
    43        999
    44         45
    45         11
    50          3
    51          6
    52          8
    53         19
    54         22
    55        295
    56        561
    57        183
    58          7
    67         12
    68          4
    69        156
    70         11
    71          7
    73         19
    74         14
    75         10
    79         14
    80          8
    81          4
    82          8
    83         43
    84        501
    85        122
    86          6
    93          3
    99          3
   101          5
   106          3
   107        123
   108          7
   109        119
   110          3
   129         13
   134          3
   135         73
   136          5
   137         70
   153         72
   154          3
   155         70