##TITLE=Library Entry 82589
##JCAMP-DX=Revision 4.10 
##DATA TYPE=MASS SPECTRUM
##SAMPLE DESCRIPTION=Japan AIST/NIMC Database- Spectrum MS-IW-1624
##NAMES=HP
##CAS NAME=1-Isonicotinoylsemicarbazide
##MOLFORM=C7H8N4O2
##CAS REGISTRY NO=2845-81-0
##MP= -300
##BP= -300
##MW= 180
##$RETENTION INDEX=0
##$CONDENSED SPECTRUM=NO
##NPOINTS= 92
##XYDATA=(XY..XY) 1 
    15          2
    16         21
    17         34
    18         35
    25          1
    26         12
    27          8
    28         45
    29         15
    30          3
    31         41
    32          9
    37          9
    38         18
    39         17
    40          4
    41         14
    42         19
    43         91
    44         69
    45          3
    48          1
    49         10
    50        109
    51        408
    52         67
    53         15
    54          3
    55          3
    56          1
    57          4
    59          7
    60          3
    61          4
    62          9
    63         12
    64         13
    65         16
    66          8
    67          7
    68          1
    69          3
    70          1
    71          3
    74          2
    75          9
    76         19
    77         28
    78        981
    79        136
    80          8
    81          9
    82          2
    83          3
    84          1
    85          2
    91          3
    92         26
    93          4
    94          1
    95          2
    96          1
    97          3
    99          1
   103          2
   104         23
   105          4
   106        999
   107        105
   108          7
   109          2
   111          2
   118          1
   119        155
   120         14
   121          1
   122          9
   123          3
   125          1
   135          1
   136          2
   137        901
   138         73
   139          5
   149          3
   162          1
   163        678
   164         64
   165          6
   180         68
   181          9
   182          1