##TITLE=Library Entry 100644
##JCAMP-DX=Revision 4.10 
##DATA TYPE=MASS SPECTRUM
##SAMPLE DESCRIPTION=Chemical Concepts
##NAMES=HP
##CAS NAME=Methanol, bis(o-tolyl)-
##MOLFORM=C15H16O
##CAS REGISTRY NO=2845-91-2
##MP= -300
##BP= -300
##MW= 212
##$RETENTION INDEX=0
##$CONDENSED SPECTRUM=NO
##NPOINTS= 101
##XYDATA=(XY..XY) 1 
    26          6
    27         52
    28         11
    29         15
    38         11
    39        105
    40         11
    41         25
    43          4
    50         21
    51         53
    52         13
    53         11
    55          2
    61          2
    62         16
    63         57
    64         16
    65        156
    66         12
    74          8
    75         13
    76         21
    77        161
    78         34
    79          5
    82          6
    83          3
    86          4
    87          8
    88          6
    89         72
    90         27
    91        461
    92        267
    93        282
    94         24
    95          2
    96         13
    97          8
    98          2
   101          3
   102         12
   103         14
   104         32
   105        240
   106         20
   113          4
   114          3
   115         40
   116          5
   118          4
   119        999
   120        128
   121        328
   122         29
   126          5
   127         13
   128         23
   129          7
   139         22
   140          3
   141         16
   142          5
   150          7
   151         22
   152         74
   153         30
   154          9
   155          7
   163         14
   164         18
   165        166
   166         51
   167         29
   168         15
   169          9
   176         31
   177         31
   178        254
   179        756
   180        183
   181         65
   182         14
   183         11
   189         21
   190          8
   191         21
   192         13
   193         77
   194        277
   195        131
   196         61
   197        429
   198         64
   199          6
   209          4
   211         56
   212        509
   213         85
   214          8