##TITLE=Library Entry 46641
##JCAMP-DX=Revision 4.10 
##DATA TYPE=MASS SPECTRUM
##SAMPLE DESCRIPTION=NIST Mass Spectrometry Data Center, 1994
##NAMES=HP
##CAS NAME=Benzenesulfonyl isocyanate
##MOLFORM=C7H5NO3S
##CAS REGISTRY NO=2845-62-7
##MP= -300
##BP= -300
##MW= 183
##$RETENTION INDEX=0
##$CONDENSED SPECTRUM=NO
##NPOINTS= 66
##XYDATA=(XY..XY) 1 
    12          2
    16          3
    18          0
    25          1
    26          9
    27         35
    30         10
    33          0
    37         19
    38         42
    39         81
    40          3
    41          2
    42         48
    44          7
    46         13
    48         36
    49         19
    50        222
    51        486
    52         27
    53          8
    54          1
    57          5
    58          2
    60          3
    61          6
    62         14
    63         24
    64         47
    65         49
    66          4
    68          1
    69         15
    70          3
    71          2
    73         11
    74         49
    75         35
    76          1
    77        999
    78         63
    79          2
    80          0
    81          5
    82          3
    83          1
    90         11
    91         13
    92          2
    93          7
    94          1
    95          1
    97         10
   106         13
   107          0
   108          2
   109          2
   119          2
   125          4
   141        323
   142         24
   143         15
   183        154
   184         15
   185          8