##TITLE=Library Entry 69746
##JCAMP-DX=Revision 4.10 
##DATA TYPE=MASS SPECTRUM
##SAMPLE DESCRIPTION=Chemical Concepts
##NAMES=HP
##CAS NAME=Ethanone, 1-(3,4-dihydro-6-methyl-2H-pyran-2-yl)-
##MOLFORM=C8H12O2
##CAS REGISTRY NO=28450-02-4
##MP= -300
##BP= -300
##MW= 140
##$RETENTION INDEX=0
##$CONDENSED SPECTRUM=NO
##NPOINTS= 54
##XYDATA=(XY..XY) 1 
    26         11
    27        114
    28         27
    29         31
    31          2
    38          2
    39         88
    40         52
    41        362
    42         20
    43        618
    44         26
    46          4
    50          5
    51         12
    52          9
    53         67
    54         12
    55        138
    56         11
    57          7
    61          1
    63          2
    65          2
    66          2
    67         46
    68         16
    69        100
    70         15
    71         30
    72          6
    77          9
    78          4
    79         71
    80         25
    81          6
    82         25
    83         13
    86          6
    91          2
    93         14
    94          4
    95         23
    96         12
    97        999
    98         77
    99         11
   111         24
   112          0
   125         13
   139          5
   140        357
   141         19
   142          5