##TITLE=Library Entry 109320
##JCAMP-DX=Revision 4.10 
##DATA TYPE=MASS SPECTRUM
##SAMPLE DESCRIPTION=NIST Mass Spectrometry Data Center, 1994
##NAMES=HP
##CAS NAME=Diethyl methylthiomethylphosphonate
##MOLFORM=C6H15O3PS
##CAS REGISTRY NO=28460-01-7
##MP= -300
##BP= -300
##MW= 198
##$RETENTION INDEX=0
##$CONDENSED SPECTRUM=NO
##NPOINTS= 70
##XYDATA=(XY..XY) 1 
    15         42
    26         41
    27        316
    28         85
    29        310
    30         11
    31         52
    32          5
    33          4
    34          4
    35        116
    37          9
    41         12
    42         12
    43         38
    44          4
    45        211
    46        119
    47        127
    48         37
    49         11
    57          5
    58         15
    59         51
    60          5
    61        843
    62         82
    63         56
    64          5
    65        158
    73          4
    75          5
    77         22
    78         80
    79         52
    80        300
    81        224
    82         11
    83         11
    91         51
    93         48
    96        220
    97        879
    98         13
    99          6
   105          4
   106          3
   108        315
   109         64
   110          5
   111         14
   121          3
   123         45
   125        999
   126         41
   127         47
   137          3
   141         37
   142         10
   143          5
   152        660
   153         64
   154          7
   155         16
   169          6
   170          4
   183         10
   198        328
   199         38
   200         21