##TITLE=Library Entry 66800
##JCAMP-DX=Revision 4.10 
##DATA TYPE=MASS SPECTRUM
##SAMPLE DESCRIPTION=Exported from NIST MS Search
##NAMES=HP
##CAS NAME=Pyridinium, 1-[(phenylsulfonyl)amino]-, hydroxide, inner salt
##MOLFORM=C11H10N2O2S
##CAS REGISTRY NO=28460-28-8
##MP= -300
##BP= -300
##MW= 234
##$RETENTION INDEX=0
##$CONDENSED SPECTRUM=NO
##NPOINTS= 62
##XYDATA=(XY..XY) 1 
    41         80
    42         80
    43         30
    44         60
    45         30
    49         30
    50        250
    51        700
    52        480
    53        100
    54         30
    55         40
    61         40
    62         60
    63        170
    64        270
    65        200
    66        640
    67         90
    74         80
    75         60
    76         60
    77        580
    78        200
    79        800
    80        500
    81         70
    84         50
    85         70
    91        520
    92         80
    93        999
    94        130
    95         40
    96         50
   109         50
   110         50
   115        110
   116         50
   124         80
   125         40
   126         40
   127         50
   141        310
   142         80
   143         50
   149         40
   154         50
   155         80
   157        230
   158         60
   159         30
   168         80
   169        380
   170        480
   171        110
   186         30
   218         30
   233        280
   234        999
   235        170
   236         80