##TITLE=Library Entry 47963
##JCAMP-DX=Revision 4.10 
##DATA TYPE=MASS SPECTRUM
##SAMPLE DESCRIPTION=A.A.Kutin, Moscow, Russia
##NAMES=HP
##CAS NAME=Acetamide, 2,2-difluoro-N-(4-fluorophenyl)-2-phenylsulfonyl-
##MOLFORM=C14H10F3NO3S
##CAS REGISTRY NO=284674-45-9
##MP= -300
##BP= -300
##MW= 329
##$RETENTION INDEX=0
##$CONDENSED SPECTRUM=NO
##NPOINTS= 177
##XYDATA=(XY..XY) 1 
    33         10
    34          1
    36          1
    37          5
    38         15
    39         40
    40         18
    41          8
    42          2
    43          6
    44         16
    45         11
    46          4
    48         10
    50         98
    51        289
    52         27
    53         13
    54          4
    55         11
    56         21
    57         76
    58          7
    59          2
    60          1
    61          6
    62         16
    63         34
    64         18
    65         20
    66         13
    67          5
    68          8
    69         21
    70          8
    71          3
    72          1
    73          4
    74         27
    75         98
    77        999
    78        264
    79         17
    81         35
    82         71
    83        247
    84         21
    85          2
    86          0
    87          1
    88          3
    89         16
    90          9
    91          4
    92          3
    93         10
    94         62
    95        184
    96         24
    97         51
    98          6
    99          6
   100          2
   101          1
   102          1
   104          1
   105          6
   106          2
   107          6
   108         39
   109        172
   110        508
   111         41
   112          6
   113          5
   114          6
   115          3
   116          0
   117          0
   118          6
   119          3
   120         12
   121         16
   122         14
   125        691
   126        100
   127         60
   128         49
   129          4
   130          0
   131          1
   132          6
   133          6
   134          2
   137        467
   138        391
   139         37
   141        387
   142        121
   143         32
   144         31
   145         31
   146          5
   147          0
   148          0
   149          1
   150          0
   151          1
   152          1
   153          1
   154          0
   155          0
   156          1
   157          2
   159         50
   160         47
   161          4
   163          0
   164          1
   165          1
   166          1
   168         56
   169          6
   170          4
   171         22
   172          9
   173          0
   174          0
   175          0
   176          4
   177          0
   183          0
   184          2
   185         17
   186         11
   187         24
   188         90
   189          9
   190          1
   192         32
   193          2
   194          2
   195          0
   196          1
   197          1
   198          0
   201          0
   202          0
   213          1
   214          1
   215          1
   216          3
   217         17
   218          3
   219          0
   221          0
   224          2
   225          0
   235          1
   236          8
   237          1
   238          0
   244          1
   264          3
   265          1
   274          0
   279          0
   311          0
   312          0
   324          1
   325          3
   326          7
   329        719
   330        108
   331         41
   332          5
   333          0