##TITLE=Library Entry 21041
##JCAMP-DX=Revision 4.10 
##DATA TYPE=MASS SPECTRUM
##SAMPLE DESCRIPTION=A.A.Kutin, Moscow, Russia
##NAMES=HP
##CAS NAME=1,3,4-Oxadiazole, 2-(2-furyl)-5-(1-pyrrolidyl)-
##MOLFORM=C10H11N3O2
##CAS REGISTRY NO=284674-14-2
##MP= -300
##BP= -300
##MW= 205
##$RETENTION INDEX=0
##$CONDENSED SPECTRUM=NO
##NPOINTS= 92
##XYDATA=(XY..XY) 1 
    34          1
    36          2
    37         60
    38        138
    39        498
    40         86
    41        327
    42        194
    43         37
    44          8
    48          1
    49         20
    50         89
    51         79
    52         81
    53        215
    54         96
    55        999
    56        471
    57         14
    58          1
    59          0
    60          0
    61          0
    62          1
    63          5
    64         41
    65         31
    66         31
    67         65
    68         55
    69         65
    70        178
    71          9
    72          1
    75          0
    76          0
    77         10
    78         12
    79         42
    80        115
    81         42
    82         47
    83         20
    84          3
    85          0
    89          1
    91          5
    93        258
    95        766
    96         54
    98        580
    99         34
   100          2
   103         19
   104          1
   105          2
   106         11
   107         55
   108        237
   109         18
   110          3
   111          0
   117          0
   118          1
   120         62
   121        229
   122         24
   123          4
   124          0
   130          0
   131          0
   132          1
   133          2
   134         11
   135         39
   136          3
   137          0
   138          0
   146          0
   148         42
   149          8
   150          2
   151          0
   160          0
   163          4
   164          0
   176          5
   177          3
   205        681
   206         88
   207          8