##TITLE=Library Entry 40355
##JCAMP-DX=Revision 4.10 
##DATA TYPE=MASS SPECTRUM
##SAMPLE DESCRIPTION=A.A.Kutin, Moscow, Russia
##NAMES=HP
##CAS NAME=Carbamic acid, N,N-dimethyl-, [6-methyl-2-(3-methylphenyl)-4-pyri
midyl] ester
##MOLFORM=C15H17N3O2
##CAS REGISTRY NO=284665-44-7
##MP= -300
##BP= -300
##MW= 271
##$RETENTION INDEX=0
##$CONDENSED SPECTRUM=NO
##NPOINTS= 135
##XYDATA=(XY..XY) 1 
    37          1
    38          5
    39         46
    40         10
    41         21
    42         56
    43         19
    44         11
    46          0
    49          0
    50          5
    51         11
    52         10
    53          4
    54         45
    55          8
    56         31
    57          0
    58          0
    61          0
    62          5
    63         18
    64         10
    65         22
    66         11
    67          9
    68          4
    69          0
    70         10
    72        999
    73         38
    74          4
    75          4
    76          6
    77         13
    78          2
    79          0
    80          0
    82          5
    83         32
    84          7
    85          0
    86          0
    87          1
    88          4
    89         37
    90         29
    91         33
    92          3
    93          0
    98          0
    99          0
   100          0
   101          1
   102          4
   103          8
   104          1
   105          0
   106          0
   110          1
   111          0
   113          0
   114          2
   115         15
   116         39
   117         24
   118         61
   119          6
   120          0
   123          0
   125          0
   126          2
   127          1
   128          1
   129          2
   130          8
   131          2
   132          3
   133          0
   134          0
   140          0
   141          0
   142          4
   143          3
   144          5
   145          1
   146          0
   147          0
   152          0
   153          0
   154          0
   155          2
   156          2
   157          0
   158          1
   159          0
   160          0
   161          1
   162          5
   163          0
   168          0
   169          1
   170          3
   171         16
   172          8
   173          1
   180        118
   181          9
   183         20
   184          5
   185          2
   186          1
   187          0
   189          0
   198         90
   199         17
   200         76
   201        167
   202         22
   203          1
   204          0
   212          5
   213         14
   214          3
   215          0
   227          8
   228          4
   229          0
   242          6
   243          1
   254          0
   256          0
   271         47
   272          7
   273          1