##TITLE=Library Entry 19492
##JCAMP-DX=Revision 4.10 
##DATA TYPE=MASS SPECTRUM
##SAMPLE DESCRIPTION=Chemical Concepts
##NAMES=HP
##CAS NAME=2-Hexenal, 2-methyl-
##MOLFORM=C7H12O
##CAS REGISTRY NO=28467-88-1
##MP= -300
##BP= -300
##MW= 112
##$RETENTION INDEX=884
##$CONDENSED SPECTRUM=NO
##NPOINTS= 55
##XYDATA=(XY..XY) 1 
    26         27
    27        217
    29        285
    30         13
    31         13
    33         11
    38         45
    39        402
    40         55
    41        569
    42        134
    43        210
    44          9
    45          8
    46          8
    47          8
    49         10
    50        115
    51        116
    52         53
    53        219
    55        999
    56         82
    57         59
    58         19
    61         18
    62         35
    63         42
    65         91
    66         21
    67        204
    68         53
    69        251
    70         45
    71         32
    77         80
    78         23
    79        280
    80         22
    81         72
    82         13
    83        315
    84         35
    85         15
    90          6
    91         34
    93         18
    94          3
    95         21
    97        303
    98         20
   111         19
   112        461
   113         24
   115          7