##TITLE=Library Entry 73019
##JCAMP-DX=Revision 4.10 
##DATA TYPE=MASS SPECTRUM
##SAMPLE DESCRIPTION=A.A.Kutin, Moscow, Russia
##NAMES=HP
##CAS NAME=Acetamide, N-(4-bromo-2-methylphenyl)-2-(4-morpholyl)-
##MOLFORM=C13H17BrN2O2
##CAS REGISTRY NO=284679-61-4
##MP= -300
##BP= -300
##MW= 312
##$RETENTION INDEX=0
##$CONDENSED SPECTRUM=NO
##NPOINTS= 161
##XYDATA=(XY..XY) 1 
    37          1
    38          3
    39         13
    40          5
    41         46
    42        112
    43         56
    44         18
    45          8
    46          0
    49          0
    50         10
    51         26
    52         13
    53          3
    54         10
    55          4
    56        112
    57          9
    58          2
    60          0
    61          1
    62          3
    63         10
    64          3
    65          3
    66          1
    67          0
    68          2
    69          2
    70         43
    71          6
    72         15
    73          1
    74          2
    75          5
    76          8
    77         30
    78         28
    79          5
    80          1
    81          0
    82          1
    83          0
    84          0
    85          4
    86         34
    87          3
    88          1
    89         12
    90         13
    91          3
    92          1
    93          0
    94          0
    95          0
    96          0
    98         20
   100        999
   101         65
   102          6
   103          4
   104         25
   105         17
   106          7
   107          1
   108          0
   113          0
   115          0
   116          1
   117          4
   118          4
   119          4
   120          0
   121          0
   126          0
   127          0
   128          0
   129          0
   130          0
   131          1
   132          3
   133          2
   134          0
   141          0
   142          0
   143          0
   144          0
   145          0
   146          1
   147          3
   148          1
   149          0
   155          0
   156          1
   157          1
   158          1
   159          0
   160          0
   161          0
   167          0
   169          2
   170          0
   171          2
   172          0
   173          0
   178          0
   182          2
   184         19
   185          6
   186         16
   187          5
   188          0
   194          0
   195          0
   196          0
   197          0
   198          2
   199          0
   200          1
   201          0
   205          0
   207          0
   208          0
   209          0
   210          0
   211          0
   212          1
   213          0
   214          1
   215          0
   223          0
   224          0
   225          0
   226          0
   227          1
   228          0
   229          1
   230          0
   239          0
   241          0
   253          0
   267          0
   269          4
   270          0
   271          4
   272          0
   279          0
   281          1
   282          0
   283          1
   284          0
   294          2
   295          0
   296          2
   297          0
   299          0
   312          8
   314          8
   315          1
   316          0