##TITLE=Library Entry 19050
##JCAMP-DX=Revision 4.10 
##DATA TYPE=MASS SPECTRUM
##SAMPLE DESCRIPTION=Chemical Concepts
##NAMES=HP
##CAS NAME=Decane, 1,2-dibromo-
##MOLFORM=C10H20Br2
##CAS REGISTRY NO=28467-71-2
##MP= -300
##BP= -300
##MW= 298
##$RETENTION INDEX=0
##$CONDENSED SPECTRUM=NO
##NPOINTS= 117
##XYDATA=(XY..XY) 1 
    25          0
    26         18
    27        355
    28         31
    29        393
    30         12
    37          1
    38         10
    39        273
    41        951
    42        155
    43        867
    44         28
    46          1
    49          0
    50          8
    51         21
    52         12
    53        137
    54         69
    55        999
    56        142
    57        829
    58         40
    62          0
    63          2
    64          1
    65         20
    66          9
    67        161
    68         39
    69        641
    70         96
    71        627
    72         32
    73          1
    74          0
    75          1
    77         14
    78          2
    79         24
    80          5
    81         84
    82         15
    83        629
    84         62
    85        169
    86         13
    87          0
    91          9
    93          7
    94          0
    95         35
    96          6
    97        338
    98         26
    99         12
   100          1
   105          3
   106          0
   107         22
   109         14
   110          3
   111          7
   112          1
   113          1
   119         14
   120          2
   121         29
   122          4
   123         14
   124          1
   125          1
   127          1
   128          0
   129          0
   133         13
   134          1
   135         79
   136          7
   137         79
   138          1
   139         66
   140          8
   141          5
   142          1
   147         14
   148          5
   149         64
   150          9
   151         64
   152          0
   161          2
   162          0
   163         67
   164          6
   165         66
   166          3
   175          0
   176          1
   177         41
   178          4
   179         41
   180          4
   185          1
   187          1
   189          1
   194          0
   201          1
   213          0
   215          1
   217          0
   219        102
   220         13
   221        101
   222         14
   223          1