##TITLE=Library Entry 10353
##JCAMP-DX=Revision 4.10 
##DATA TYPE=MASS SPECTRUM
##SAMPLE DESCRIPTION=S.A. Rang et al., IR & MS of Unsatd. Hydrocarbons, 1977
##NAMES=HP
##CAS NAME=2-Tridecyne
##MOLFORM=C13H24
##CAS REGISTRY NO=28467-75-6
##MP= -300
##BP= -300
##MW= 180
##$RETENTION INDEX=1351
##$CONDENSED SPECTRUM=NO
##NPOINTS= 118
##XYDATA=(XY..XY) 1 
    15          9
    24          1
    25          5
    26         22
    27        390
    28         15
    29        531
    30         14
    31         14
    37         18
    38         30
    39        328
    40        143
    41        953
    42        198
    43        999
    44        109
    45         33
    46          1
    47          1
    49          1
    50         11
    51         36
    52         37
    53        270
    54        468
    55        781
    56        223
    57        347
    58        101
    59         38
    60         61
    61         10
    62          1
    63          5
    64          3
    65         46
    66         76
    67        717
    68        593
    69        437
    70        126
    71        111
    72         13
    73         41
    74         82
    75         11
    76          1
    77         44
    78         11
    79        114
    80         54
    81        828
    82        343
    83        190
    84         57
    85         41
    86          4
    87         47
    88          7
    89          1
    91         21
    92          3
    93         39
    94         39
    95        984
    96        375
    97         73
    98         25
    99          6
   100          2
   101         16
   102          2
   103          1
   105          3
   106          1
   107         10
   108         12
   109        312
   110        114
   111         21
   112         10
   113          4
   114          2
   115          4
   116          1
   121          4
   122          3
   123         35
   124         15
   125          4
   126          5
   127          3
   128          1
   129          6
   135          3
   136          1
   137          9
   138         12
   139          2
   140          1
   141          2
   142          1
   143          7
   144          1
   149          2
   150          1
   151         17
   152          3
   153          1
   154          6
   155          1
   156          1
   163          1
   165          5
   166          1
   179          1
   180          2