##TITLE=Library Entry 50859
##JCAMP-DX=Revision 4.10 
##DATA TYPE=MASS SPECTRUM
##SAMPLE DESCRIPTION=D.HENNEBERG, MAX-PLANCK INSTITUTE, MULHEIM, WEST GERMAN
Y
##NAMES=HP
##CAS NAME=Furfuryl alcohol, TMS derivative
##MOLFORM=C8H14O2Si
##CAS REGISTRY NO=2846-62-0
##MP= -300
##BP= -300
##MW= 170
##$RETENTION INDEX=0
##$CONDENSED SPECTRUM=NO
##NPOINTS= 121
##XYDATA=(XY..XY) 1 
    25          0
    26          4
    27         72
    28         29
    29         20
    30          2
    31          8
    33          0
    34          0
    35          1
    36          0
    37          1
    38          4
    39         19
    40          1
    41          5
    42          8
    43         46
    44         15
    45         93
    46          6
    47         37
    48          3
    49          3
    50          7
    51         17
    52         11
    53        135
    54          7
    55          8
    56          3
    57          5
    58         10
    59         33
    60          6
    61         14
    62          3
    63          6
    64          1
    65          2
    66          1
    67          3
    68          1
    69          4
    70          3
    71          3
    72          5
    73        194
    74         19
    75        152
    76         10
    77         26
    78          5
    80          5
    81        999
    82         57
    83         10
    84          1
    85         14
    86          1
    87          1
    88          0
    89          0
    91          0
    93          0
    94          1
    95         13
    96          2
    97          4
    98          5
    99         12
   100          1
   101         12
   102          1
   103          1
   104          0
   105          0
   107          0
   108          0
   109          5
   110          1
   111         49
   112          8
   113         37
   114          4
   115          1
   116          1
   117          0
   119          0
   120          0
   121          0
   122          0
   123          0
   124          2
   125         52
   126          6
   127          9
   128          0
   129          1
   137         10
   138          0
   139          3
   140          1
   142         29
   143          4
   144          1
   148          0
   149          0
   151          0
   153          1
   154          4
   155        505
   156         67
   157         22
   158          2
   168          0
   169         17
   170         82
   171         11
   172          3
   173          0