##TITLE=Library Entry 99761
##JCAMP-DX=Revision 4.10 
##DATA TYPE=MASS SPECTRUM
##SAMPLE DESCRIPTION=A.A.Kutin, Moscow, Russia
##NAMES=HP
##CAS NAME=Benzamide, 3-methyl-N-(3,4-dimethylphenyl)-
##MOLFORM=C16H17NO
##CAS REGISTRY NO=284668-70-8
##MP= -300
##BP= -300
##MW= 239
##$RETENTION INDEX=0
##$CONDENSED SPECTRUM=NO
##NPOINTS= 114
##XYDATA=(XY..XY) 1 
    37          1
    38          8
    39         79
    40          9
    41         31
    42          3
    43          1
    44          0
    46          3
    50         14
    51         39
    52         20
    53         19
    54          3
    55          0
    59          1
    60          0
    61          1
    62          9
    63         41
    64         16
    65        184
    66         14
    67          2
    68          0
    69          0
    73          0
    74          2
    75          4
    76          6
    77         67
    78         19
    79          7
    80          2
    81          0
    83          0
    85          0
    86          1
    87          2
    89         44
    90         39
    91        462
    92         42
    93         14
    94          2
    95          0
    97          0
    98          0
   101          0
   102          2
   103          5
   104          6
   105          4
   106          3
   107          1
   111          0
   112          0
   114          0
   115          1
   116          3
   117          5
   119        999
   120        108
   121         20
   122         11
   123          1
   127          0
   128          0
   129          0
   130          0
   132          3
   133          0
   134          0
   139          0
   141          0
   146          4
   147          0
   151          0
   152          1
   153          0
   154          0
   165          1
   166          0
   167          0
   168          0
   177          0
   178          1
   179          1
   180          1
   181          0
   190          0
   191          0
   192          0
   193          1
   194          4
   195          2
   196          0
   198          0
   204          0
   205          0
   206          0
   207          0
   208          1
   209          0
   210          0
   220          0
   222          2
   223          1
   224          0
   236          1
   239        326
   240         59
   241          5
   242          0