##TITLE=Library Entry 64483
##JCAMP-DX=Revision 4.10 
##DATA TYPE=MASS SPECTRUM
##SAMPLE DESCRIPTION=A.A.Kutin, Moscow, Russia
##NAMES=HP
##CAS NAME=3-Amino-5-(benzylthio)-6-chloropyrazine-2-carboxylic acid
##MOLFORM=C12H10ClN3O2S
##CAS REGISTRY NO=284674-33-5
##MP= -300
##BP= -300
##MW= 295
##$RETENTION INDEX=0
##$CONDENSED SPECTRUM=NO
##NPOINTS= 205
##XYDATA=(XY..XY) 1 
    33          5
    34          1
    35          1
    36          6
    37          2
    38         11
    39         56
    40         30
    41         24
    42          4
    43         13
    44         24
    45         42
    47          6
    48          1
    49          2
    50          8
    51         22
    52          6
    53         11
    54          7
    55         10
    56          3
    57          6
    58          2
    59          4
    60         12
    61          3
    62         10
    63         29
    64         18
    65        159
    66         20
    67         11
    68         14
    69          6
    70         10
    71          7
    72          5
    73          7
    74          5
    75          4
    76          4
    77         14
    78          6
    79          7
    80          2
    81          5
    82          9
    83          4
    84          3
    85         10
    86          9
    87          3
    89         39
    91        999
    92         77
    93          8
    94          2
    95          2
    96          2
    97          3
    98          3
    99          5
   100          2
   101          6
   102          3
   103          3
   104          2
   105          2
   106          3
   107          2
   108          2
   109          5
   110          2
   111          3
   112          7
   113          4
   114          2
   115          2
   116          4
   117          9
   118          2
   119          4
   121         19
   122          4
   123          6
   124          2
   125          4
   126          4
   127          3
   128          4
   129          4
   130          4
   131          4
   132          2
   133          4
   134          2
   135          2
   136          1
   137          1
   139          5
   140          4
   141          1
   142          6
   143          3
   144          1
   145          3
   146          1
   147          3
   148          2
   149          2
   150          1
   151          1
   152          2
   153          2
   154          2
   155          9
   156          2
   157          1
   158          0
   160          4
   161          2
   162          1
   163          1
   164          1
   166          0
   168         10
   169          1
   170          1
   171          1
   172          3
   173          1
   174          1
   175          0
   176          1
   178          1
   180          2
   181          3
   182         15
   183          9
   184          1
   185          0
   186          1
   187          3
   188          2
   189          3
   190          1
   191          4
   192          1
   193          1
   194          0
   196          0
   197          0
   198          0
   199          1
   201          0
   204          1
   205          1
   206          1
   207          1
   208          0
   212          0
   213          1
   214         11
   215          8
   216         34
   218         88
   219         12
   220         24
   221          3
   222          0
   223          0
   226          0
   242          2
   244         34
   245          5
   246         10
   247          1
   248          1
   249          5
   250          4
   251         21
   252          4
   253          7
   254          1
   256          0
   260          1
   262         16
   263          2
   264          5
   265          0
   276          0
   277          3
   278          1
   279          1
   280          0
   292          1
   293          6
   295        205
   296         31
   297         70
   298         10
   299          3
   300          0