##TITLE=Library Entry 71045
##JCAMP-DX=Revision 4.10 
##DATA TYPE=MASS SPECTRUM
##SAMPLE DESCRIPTION=A.A.Kutin, Moscow, Russia
##NAMES=HP
##CAS NAME=Propanamide, N-[4-(4-chlorophenyl)-2-thiazolyl]-3-(1-pyrrolidinyl
)-
##MOLFORM=C16H18ClN3OS
##CAS REGISTRY NO=284679-59-0
##MP= -300
##BP= -300
##MW= 335
##$RETENTION INDEX=0
##$CONDENSED SPECTRUM=NO
##NPOINTS= 160
##XYDATA=(XY..XY) 1 
    35          0
    37          0
    38          0
    39         10
    40          2
    41         28
    42         29
    43         12
    44         20
    45         14
    46          0
    47          0
    48          0
    49          0
    50          4
    51          5
    52          1
    53          6
    54         18
    55         44
    56        107
    57          7
    58          1
    59          0
    60          0
    61          0
    62          2
    63          4
    64          1
    65          0
    66          0
    67          2
    68          7
    69         27
    70         18
    71          3
    72          1
    73          2
    74          3
    75         11
    76          3
    77          2
    78          0
    79          0
    80          1
    81          1
    82          2
    83          1
    84          9
    85          1
    86          1
    87          3
    88          1
    89         10
    90          1
    92          0
    93          2
    94          2
    95          1
    96         12
    98        999
    99         73
   100          4
   101          2
   102          6
   103          3
   104          0
   105          0
   106          0
   107          0
   108          1
   109          0
   110          1
   111          8
   112          1
   113          2
   114          2
   115          0
   116          0
   119          0
   120          2
   121          1
   122          0
   123          3
   124          5
   125          4
   126          0
   127          0
   128          0
   129          1
   131          0
   132          3
   133          7
   134          5
   135          1
   136          3
   137          3
   138          5
   139          1
   140          1
   141          0
   142          0
   146          5
   147          3
   148          1
   149          0
   150          0
   151          0
   154          0
   155          3
   156          0
   157          1
   158          0
   159          1
   160          0
   163          2
   164          0
   165          1
   168         23
   169          3
   170          8
   171          1
   172          0
   174         19
   175          6
   176          1
   177          0
   180          0
   181          0
   182          1
   183          0
   184          0
   195          0
   202          0
   208          0
   209          2
   210         13
   211          2
   212          5
   213          0
   222          0
   223          0
   224          0
   235          0
   236          1
   237          4
   238          1
   239          1
   240          0
   248          0
   264          0
   266          4
   267          0
   268          1
   333          0
   335         15
   336          3
   337          5
   338          1
   339          0