##TITLE=Library Entry 80778
##JCAMP-DX=Revision 4.10 
##DATA TYPE=MASS SPECTRUM
##SAMPLE DESCRIPTION=A.A.Kutin, Moscow, Russia
##NAMES=HP
##CAS NAME=Thiophene-2-carboxylic acid, (2-oxo-2-phenylethyl) ester
##MOLFORM=C13H10O3S
##CAS REGISTRY NO=284665-52-7
##MP= -300
##BP= -300
##MW= 246
##$RETENTION INDEX=0
##$CONDENSED SPECTRUM=NO
##NPOINTS= 152
##XYDATA=(XY..XY) 1 
    33          1
    34          0
    36          0
    37          5
    38         17
    39        145
    40         10
    41          4
    42          3
    43          3
    44          7
    45         11
    46          0
    47          0
    48          0
    50         38
    51         92
    52          7
    53          5
    54          0
    55          1
    57         23
    58          3
    59          1
    60          0
    61          0
    62          3
    63          8
    64          3
    65         17
    66          1
    67          0
    68          0
    69          2
    70          0
    71          0
    72          0
    73          1
    74          8
    75          8
    77        298
    78         21
    79          3
    80          1
    81          7
    82         13
    83         46
    84          5
    85          2
    86          0
    87          0
    89          8
    90          5
    91         23
    92          1
    93          0
    94          0
    95          0
    96          0
    97          0
    98          0
    99          0
   100          0
   102         13
   103         63
   105        999
   106         78
   107          5
   111        308
   112         20
   113         13
   114          1
   115          2
   118        194
   119         16
   120          1
   121          0
   122          0
   123          0
   124          0
   125          0
   126          0
   127          0
   128          1
   129          0
   131          2
   132          1
   133          0
   134          0
   135          1
   136          0
   137          0
   139          0
   141          0
   143          0
   147          0
   149          0
   150          0
   151          0
   152          0
   153          0
   158          0
   159          0
   160          0
   161          0
   163          0
   165          1
   166          0
   167          0
   169          0
   170          0
   171          0
   172          0
   173          0
   177          0
   178          2
   179          1
   180          0
   181          0
   183          0
   184          0
   185          0
   187          0
   189          0
   191          0
   192          0
   193          0
   194          0
   195          0
   199          0
   204          0
   205          0
   207          0
   208          0
   209          0
   215          0
   216          2
   217          0
   218          0
   219          0
   221          1
   223         86
   224         13
   225          1
   236          0
   237          1
   238          0
   243          0
   246         36
   247          5
   248          2
   249          0