##TITLE=Library Entry 4748
##JCAMP-DX=Revision 4.10 
##DATA TYPE=MASS SPECTRUM
##SAMPLE DESCRIPTION=NIST Mass Spectrometry Data Center
##NAMES=HP
##CAS NAME=1,3,5-Trimethyl-1H-pyrazol-4-amine
##MOLFORM=C6H11N3
##CAS REGISTRY NO=28466-21-9
##MP= -300
##BP= -300
##MW= 125
##$RETENTION INDEX=0
##$CONDENSED SPECTRUM=NO
##NPOINTS= 58
##XYDATA=(XY..XY) 1 
    13          3
    14         12
    15        258
    16          7
    17          4
    18         12
    26         35
    27        102
    28        308
    29         64
    30         55
    37          8
    38         26
    39         66
    40         69
    41         93
    42        999
    43         63
    44          5
    49          2
    50          9
    51         27
    52         74
    53         92
    54        149
    55         86
    56        879
    57        694
    58         25
    63         33
    64          6
    65         13
    66         24
    67         29
    68         21
    69         38
    70          5
    75          2
    76          1
    78          3
    79          3
    80         18
    81          9
    83        154
    84        282
    85         17
    93          3
    95          6
    96          3
    97          4
   107          5
   108          8
   109          4
   110         13
   122          4
   125        811
   126         64
   127          3