##TITLE=Library Entry 90738
##JCAMP-DX=Revision 4.10 
##DATA TYPE=MASS SPECTRUM
##SAMPLE DESCRIPTION=A.A.Kutin, Moscow, Russia
##NAMES=HP
##CAS NAME=Propanamide, N-(2-fluorophenyl)-3-(4-morpholyl)-
##MOLFORM=C13H17FN2O2
##CAS REGISTRY NO=284679-89-6
##MP= -300
##BP= -300
##MW= 252
##$RETENTION INDEX=0
##$CONDENSED SPECTRUM=NO
##NPOINTS= 119
##XYDATA=(XY..XY) 1 
    34          0
    37          1
    38          4
    39         13
    40          6
    41         60
    42        121
    43         26
    44         15
    45         21
    46          0
    47          0
    48          0
    50          4
    51          4
    52          6
    53          4
    54         28
    55         53
    56        103
    57         60
    58         11
    59          1
    60          0
    61          1
    62          3
    63          9
    64          5
    65          3
    66          0
    68         14
    69          8
    70         93
    71          6
    72          3
    73          0
    74          2
    75         11
    76          1
    77          3
    78          0
    79          0
    80          1
    81          5
    82         14
    83         73
    84         28
    85          5
    86         14
    87          1
    88          0
    89          3
    90         12
    91          5
    92          1
    93          0
    94          2
    95          6
    96          2
    97          0
    98          3
    99          0
   100          0
   101          0
   102          0
   103          0
   104          0
   105          0
   106          0
   107          0
   108          1
   109         10
   110         27
   111         19
   112         19
   114        999
   115         76
   116          4
   117          1
   118          1
   119          1
   120          0
   121          0
   122          1
   123          3
   124          4
   125          0
   126          0
   128          0
   130          0
   132          0
   133          0
   134          0
   135          0
   136          1
   137          3
   138          6
   139          0
   140          0
   144          0
   146          0
   147          0
   148          2
   149          0
   150          0
   151          0
   152          0
   164          0
   165          0
   166          1
   167          1
   168          0
   179          0
   193          0
   209          0
   237          0
   251          0
   252          0
   253          0