##TITLE=Library Entry 25622
##JCAMP-DX=Revision 4.10 
##DATA TYPE=MASS SPECTRUM
##SAMPLE DESCRIPTION=Japan AIST/NIMC Database- Spectrum MS-NW-8860
##NAMES=HP
##CAS NAME=l-(+)-Ascorbic acid 2,6-dihexadecanoate
##MOLFORM=C38H68O8
##CAS REGISTRY NO=28474-90-0
##MP= -300
##BP= -300
##MW= 652
##$RETENTION INDEX=0
##$CONDENSED SPECTRUM=NO
##NPOINTS= 237
##XYDATA=(XY..XY) 1 
    15          2
    16          2
    17          4
    18         15
    26          6
    27         60
    28         63
    29        176
    30          5
    31          7
    36          2
    37          3
    38          6
    39         60
    40         16
    41        434
    42        104
    43        849
    44         91
    45         41
    46          1
    47          1
    50          2
    51          4
    52          3
    53         21
    54         43
    55        576
    56        168
    57        999
    58         51
    59         29
    60        740
    61        217
    62          8
    63          2
    65          5
    66          7
    67         97
    68         92
    69        444
    70        145
    71        632
    72         37
    73        917
    74         98
    75          7
    76          1
    77          5
    78          4
    79         25
    80         14
    81        111
    82         88
    83        377
    84        199
    85        410
    86         31
    87        267
    88         47
    89          5
    90          1
    91          6
    92          2
    93         22
    94         14
    95        140
    96         86
    97        295
    98        345
    99        147
   100         17
   101        119
   102         59
   103          7
   104          1
   105          5
   106          2
   107         17
   108          8
   109         65
   110         43
   111        147
   112         92
   113         84
   114         24
   115        194
   116         76
   117          7
   118          2
   119          3
   120          1
   121         23
   122          7
   123         40
   124         27
   125         70
   126         29
   127         54
   128          8
   129        432
   130         54
   131          6
   132          1
   133          2
   134          2
   135         17
   136          6
   137         23
   138         21
   139         35
   140         31
   141         39
   142         19
   143        107
   144         28
   145          4
   146          1
   147          2
   148          1
   149         11
   150          4
   151         11
   152         15
   153         18
   154         14
   155         16
   156          3
   157        185
   158         33
   159          5
   160          2
   161          2
   162          1
   163          7
   164          2
   165          9
   166          9
   167         10
   168         13
   169          5
   170          1
   171        166
   172         24
   173          4
   174          2
   175          1
   176          1
   177          5
   178          2
   179          3
   180          2
   181          5
   182          6
   183          4
   184          1
   185        160
   186         22
   187          5
   191          2
   192          2
   193          1
   194         24
   195         10
   196         14
   197          9
   198          2
   199         78
   200         14
   201          2
   202          1
   205          1
   207          1
   208          1
   209          3
   210          2
   211          3
   212          1
   213        221
   214         33
   215          4
   218          1
   219          5
   220          6
   221          7
   222          1
   223          2
   225          3
   226          1
   227         63
   228         11
   229          2
   235          1
   236          4
   237          9
   238          8
   239        210
   240         37
   241          8
   242          3
   243          1
   252          1
   253          3
   254          1
   255          5
   256        244
   257         64
   258          8
   259          1
   267          1
   269          3
   270          4
   271          1
   277          1
   278          5
   279          1
   280          1
   283          1
   284          2
   285          1
   297          2
   299          5
   300          1
   311          2
   322          1
   327          1
   330          2
   339          1
   340          1
   353          2
   354          1
   378          1
   396         51
   397         13
   398          2
   414          1
   415          3