##TITLE=Library Entry 8900
##JCAMP-DX=Revision 4.10 
##DATA TYPE=MASS SPECTRUM
##SAMPLE DESCRIPTION=NIST Mass Spectrometry Data Center, 1990.
##NAMES=HP
##CAS NAME=Decane, 4-methyl-
##MOLFORM=C11H24
##CAS REGISTRY NO=2847-72-5
##MP= -300
##BP= -300
##MW= 156
##$RETENTION INDEX=1060
##$CONDENSED SPECTRUM=NO
##NPOINTS= 41
##XYDATA=(XY..XY) 1 
    15          5
    27        192
    28        105
    29        263
    30          6
    39        139
    40         44
    41        481
    42        178
    43        999
    44         43
    51          5
    52          4
    53         32
    54         18
    55        202
    56        136
    57        775
    58         37
    65          5
    67         13
    68          7
    69         56
    70        371
    71        859
    72         50
    82         17
    83         45
    84         53
    85         79
    86          5
    97          8
    98         10
    99          9
   112        128
   113         68
   114          5
   126         10
   127          5
   141          6
   156         12