##TITLE=Library Entry 107682
##JCAMP-DX=Revision 4.10 
##DATA TYPE=MASS SPECTRUM
##SAMPLE DESCRIPTION=Chemical Concepts
##NAMES=HP
##CAS NAME=Pyrazine, 2-methoxy-3-methyl-
##MOLFORM=C6H8N2O
##CAS REGISTRY NO=2847-30-5
##MP= -300
##BP= -300
##MW= 124
##$RETENTION INDEX=954
##$CONDENSED SPECTRUM=NO
##NPOINTS= 71
##XYDATA=(XY..XY) 1 
    26        279
    27        299
    28        208
    29         50
    30          6
    31          5
    35          1
    36          6
    37         40
    38         67
    39        115
    40        629
    41        106
    42        451
    43         19
    44          1
    45          3
    47          1
    49          4
    50          2
    51         47
    52        142
    53        108
    54        153
    55         57
    56         48
    57          3
    58          6
    59          0
    62          1
    63         11
    64         14
    65         25
    66         49
    67         43
    68        370
    69         18
    70          4
    71          0
    76          2
    77          4
    78          1
    79         54
    80         31
    81        354
    82         82
    83          6
    84          2
    85          1
    86          1
    90          0
    91          2
    92          5
    93        207
    94        220
    95        308
    96         19
    97          2
   105         21
   106        425
   107         34
   108          4
   109        470
   110         33
   111          1
   121          9
   122          1
   123        258
   124        999
   125         79
   126          6