##TITLE=Library Entry 3423
##JCAMP-DX=Revision 4.10 
##DATA TYPE=MASS SPECTRUM
##SAMPLE DESCRIPTION=Exported from NIST MS Search
##NAMES=HP
##CAS NAME=2-Propenoic acid, 2-methyl-, pentyl ester
##MOLFORM=C9H16O2
##CAS REGISTRY NO=2849-98-1
##MP= -300
##BP= -300
##MW= 156
##$RETENTION INDEX=1064
##$CONDENSED SPECTRUM=NO
##NPOINTS= 70
##XYDATA=(XY..XY) 1 
    15         53
    25          3
    26         24
    27        169
    28        102
    29        219
    30         10
    31         70
    33          3
    37         12
    38         28
    39        334
    40         84
    41        999
    42        397
    43        363
    44         32
    45        107
    46          3
    50          3
    51          5
    52          3
    53         22
    54         11
    55        352
    56         54
    57         70
    58         20
    59         68
    60          3
    65          1
    66          2
    67         12
    68         28
    69        999
    70        599
    71        116
    72          8
    73         14
    74         11
    75          1
    82          7
    83         22
    84          8
    85         13
    86         27
    87        491
    88         26
    89          3
    96          3
    97          5
    98          5
    99         19
   100         36
   101          5
   102          2
   109          2
   110          2
   111          3
   112          1
   113         13
   114          3
   115         10
   117          2
   127          2
   128          1
   129          4
   138          1
   141          1
   156          1