##TITLE=Library Entry 18980
##JCAMP-DX=Revision 4.10 
##DATA TYPE=MASS SPECTRUM
##SAMPLE DESCRIPTION=NIST Mass Spectrometry Data Center, 1990.
##NAMES=HP
##CAS NAME=6-Oxabicyclo[3.1.0]hexane
##MOLFORM=C5H8O
##CAS REGISTRY NO=285-67-6
##MP= -300
##BP= -300
##MW= 84
##$RETENTION INDEX=0
##$CONDENSED SPECTRUM=NO
##NPOINTS= 49
##XYDATA=(XY..XY) 1 
    13          6
    14         27
    15         72
    16          4
    18          4
    25         23
    26        204
    27        607
    28        358
    29        536
    30         18
    31         32
    32          1
    36          6
    37         46
    38         96
    39        519
    40        121
    41        847
    42        242
    43        148
    44         84
    45         13
    48          2
    49         14
    50         57
    51         52
    52         18
    53        120
    54          2
    55        999
    56        442
    57        116
    58         17
    60          3
    61          7
    62          9
    63          9
    64          2
    65         29
    66         44
    67         19
    68          2
    69         94
    70          4
    81          5
    83        215
    84         58
    85          3