##TITLE=Library Entry 33064
##JCAMP-DX=Revision 4.10 
##DATA TYPE=MASS SPECTRUM
##SAMPLE DESCRIPTION=James Little,Eastman Chem.Co.,Kingsport,TN
##NAMES=HP
##CAS NAME=6-Thiabicyclo[3.1.0]hexane
##MOLFORM=C5H8S
##CAS REGISTRY NO=285-75-6
##MP= -300
##BP= -300
##MW= 100
##$RETENTION INDEX=0
##$CONDENSED SPECTRUM=NO
##NPOINTS= 26
##XYDATA=(XY..XY) 1 
    27         89
    28         27
    29         35
    39        248
    40         59
    41        302
    44         36
    45        150
    47         30
    53         57
    54         26
    58         85
    65        131
    66        258
    67        999
    68         83
    71        130
    72         52
    85        273
    86         15
    87         14
    97         18
    99         68
   100        477
   101         35
   102         23