##TITLE=Library Entry 32560
##JCAMP-DX=Revision 4.10 
##DATA TYPE=MASS SPECTRUM
##SAMPLE DESCRIPTION=Chemical Concepts
##NAMES=HP
##CAS NAME=Bicyclo[3.1.0]hexane
##MOLFORM=C6H10
##CAS REGISTRY NO=285-58-5
##MP= -300
##BP= -300
##MW= 82
##$RETENTION INDEX=674
##$CONDENSED SPECTRUM=NO
##NPOINTS= 35
##XYDATA=(XY..XY) 1 
    27        193
    28        120
    29          7
    33          2
    37         12
    38         25
    39        322
    40         24
    41        453
    42         35
    43          4
    49          4
    50         29
    51         55
    52         29
    53        112
    54        653
    55         50
    56          6
    62          5
    63          7
    64          2
    65         40
    66         18
    67        999
    68         53
    73          2
    74          4
    77         30
    78          8
    79         57
    80         10
    81         98
    82        205
    83         13