##TITLE=Library Entry 54236
##JCAMP-DX=Revision 4.10 
##DATA TYPE=MASS SPECTRUM
##SAMPLE DESCRIPTION=NIST Mass Spectrometry Data Center, 2010
##NAMES=HP
##CAS NAME=Flecainide N-acetyl
##MOLFORM=C19H22F6N2O4
##CAS REGISTRY NO=285143-14-8
##MP= -300
##BP= -300
##MW= 456
##$RETENTION INDEX=2515
##$CONDENSED SPECTRUM=NO
##NPOINTS= 131
##XYDATA=(XY..XY) 1 
    15          1
    26          1
    27          4
    28         13
    29          8
    30         15
    33          2
    39          6
    41         26
    42         22
    43         81
    44          6
    50          4
    51          8
    52          4
    53         10
    54         11
    55         46
    56         92
    57         20
    58          1
    62          2
    63         10
    64         11
    65          5
    66          1
    67         11
    68         11
    69         10
    70         10
    72          2
    75          3
    76          7
    77          7
    78          3
    79         23
    80          7
    81          4
    82         24
    83         36
    84        999
    85         61
    86          2
    91          2
    92         20
    93          4
    94          3
    95          4
    96         15
    97         22
    98          9
    99          3
   101          1
   104          4
   105          3
   107         35
   108          7
   110          2
   111         28
   112         10
   113          6
   114          1
   115          1
   120          1
   121          2
   122          1
   123          1
   125         35
   126        864
   127         82
   128          4
   129          1
   132          2
   135         29
   136          4
   137          3
   138          3
   139         47
   140         23
   141          3
   142          1
   144          1
   145          1
   147          1
   163          2
   164          1
   168          1
   169          1
   174          2
   175          6
   176          1
   189          1
   190          5
   191          1
   202          2
   203          3
   209         19
   210          2
   216          1
   218         20
   219          8
   220          2
   225          2
   231          4
   232          1
   237          5
   238          1
   248          1
   253          2
   254          1
   261          1
   280          2
   281          2
   299          1
   301         78
   302          9
   303          1
   330          5
   331          6
   332          8
   333          1
   339          1
   373          1
   375          2
   377          1
   395          2
   396          1
   413          7
   437          1
   456          6
   457          1