##TITLE=Library Entry 2447
##JCAMP-DX=Revision 4.10 
##DATA TYPE=MASS SPECTRUM
##SAMPLE DESCRIPTION=KONINKLIJKE SHELL LABORATORIUM AMSTERDAM
##NAMES=HP
##CAS NAME=Dodecane, 1-(ethylthio)-
##MOLFORM=C14H30S
##CAS REGISTRY NO=2851-83-4
##MP= -300
##BP= -300
##MW= 230
##$RETENTION INDEX=0
##$CONDENSED SPECTRUM=NO
##NPOINTS= 132
##XYDATA=(XY..XY) 1 
    30         19
    31          7
    32          5
    33          3
    34          9
    35         82
    36          2
    37          5
    38          3
    39        163
    40         30
    41        999
    42        197
    43        852
    44         30
    45         80
    46         51
    47        279
    48         43
    49         15
    50          3
    51          6
    52          3
    53         52
    54         80
    55        765
    56        355
    57        412
    58          9
    59         33
    60         81
    61        192
    62        500
    63        225
    64         28
    65         15
    66          6
    67         90
    68         88
    69        470
    70        257
    71        131
    72          7
    73         14
    74          6
    75        610
    76         76
    77         38
    78          4
    79          7
    80          2
    81         31
    82         60
    83        283
    84        128
    85         66
    86          4
    87         32
    88          5
    89         90
    90         15
    91          6
    92          0
    93          1
    94          0
    95         10
    96         22
    97        170
    98         63
    99          9
   100          0
   101         10
   102          1
   103         22
   104          3
   105          1
   108          0
   109          2
   110          7
   111         66
   112         26
   113          4
   115          4
   116          0
   117         55
   118          4
   119          2
   123          0
   124          2
   125         16
   126         10
   127          2
   128          4
   129          5
   130          1
   131         13
   132          1
   133          0
   137          0
   138          1
   139          4
   140         13
   141          1
   143          1
   144          0
   145          6
   146          0
   147          0
   157          2
   158          0
   159          5
   160          0
   166          0
   168         11
   169          1
   171          0
   172          0
   173          2
   187          1
   199          1
   200          1
   201        470
   202         65
   203         24
   204          2
   215          3
   216          1
   217          0
   229         12
   230        104
   231         22
   232          6