##TITLE=Library Entry 42000
##JCAMP-DX=Revision 4.10 
##DATA TYPE=MASS SPECTRUM
##SAMPLE DESCRIPTION=S. MARKEY UNIV. OF COLO. MED. CTR., DENVER, COLORADO, U
SA
##NAMES=HP
##CAS NAME=1,3-Dihydroxyacetone dimer, 4TMS derivative
##MOLFORM=C18H44O6Si4
##CAS REGISTRY NO=28527-65-3
##MP= -300
##BP= -300
##MW= 468
##$RETENTION INDEX=0
##$CONDENSED SPECTRUM=NO
##NPOINTS= 85
##XYDATA=(XY..XY) 1 
    31         18
    40          7
    41         11
    42         13
    43         84
    44         46
    45        130
    46          5
    47         26
    55         10
    57         15
    58         45
    59         67
    60          8
    61         29
    66         15
    71          6
    72         31
    73        999
    74         89
    75        217
    76         13
    77         22
    85         18
    87         37
    88         14
    89         22
    93          4
    99          2
   101         31
   102         10
   103        382
   104         38
   105         24
   113          6
   115         17
   116         10
   117         80
   118          5
   119          6
   129        168
   130         31
   131         35
   133         46
   135          6
   143         10
   145         39
   146          8
   147        183
   148         25
   149         31
   159          2
   163         14
   173          2
   175         10
   177          8
   189         86
   190         17
   191         23
   199          8
   203         35
   204         11
   205         18
   206          5
   207         12
   216          3
   217        240
   218         89
   219        105
   220         25
   221         19
   235         13
   263          3
   275        111
   276         23
   277         17
   291          9
   293         74
   294         22
   295         11
   307          8
   365        166
   366         49
   367         24
   368          3