##TITLE=Library Entry 97689
##JCAMP-DX=Revision 4.10 
##DATA TYPE=MASS SPECTRUM
##SAMPLE DESCRIPTION=Chemical Concepts
##NAMES=HP
##CAS NAME=4-Pentenoic acid, 5-phenyl-
##MOLFORM=C11H12O2
##CAS REGISTRY NO=28525-69-1
##MP= -300
##BP= -300
##MW= 176
##$RETENTION INDEX=0
##$CONDENSED SPECTRUM=NO
##NPOINTS= 96
##XYDATA=(XY..XY) 1 
    25          1
    26         11
    27         59
    28         36
    29         11
    31          6
    32          2
    37          2
    38          8
    39         92
    40          7
    41         16
    42         10
    43          7
    44          5
    45         30
    46          2
    49          1
    50         36
    51        107
    52         25
    53         30
    54          4
    55         14
    56          2
    57          6
    58          2
    60          3
    61          2
    62         13
    63         52
    64         34
    65         65
    66          4
    67          1
    69          2
    70          2
    71          2
    73          3
    74         13
    75         17
    76         19
    77         85
    78         60
    79         18
    80          1
    81          1
    83          1
    85          8
    86          4
    87          5
    88          7
    89         29
    90          7
    91        274
    92         25
    93          1
    95          1
    96          1
    97          2
    98          3
    99          1
   101          5
   102         33
   103         28
   104         33
   105         13
   106          1
   107         17
   108          1
   113         22
   114          9
   115        299
   116        186
   117        999
   118        104
   119          5
   120          2
   125          1
   126          3
   127         26
   128         57
   129         96
   130        147
   131         68
   132          7
   133          7
   134          3
   135          1
   147          1
   157          2
   158          3
   159          2
   176        395
   177         49
   178          4