##TITLE=Library Entry 87461
##JCAMP-DX=Revision 4.10 
##DATA TYPE=MASS SPECTRUM
##SAMPLE DESCRIPTION=Exported from NIST MS Search
##NAMES=HP
##CAS NAME=1H-Pyrrole-2,5-dione, 1,1'-(1,3-propanediyl)bis-
##MOLFORM=C11H10N2O4
##CAS REGISTRY NO=28537-69-1
##MP= -300
##BP= -300
##MW= 234
##$RETENTION INDEX=0
##$CONDENSED SPECTRUM=NO
##NPOINTS= 45
##XYDATA=(XY..XY) 1 
    26        180
    27         30
    28        330
    29         10
    30         10
    32         10
    38         10
    39         60
    40         70
    41        180
    42         40
    43         20
    44         60
    52         10
    53         90
    54        260
    55         90
    56        330
    57         20
    66         20
    67         10
    68         10
    69         20
    70         10
    80         80
    81         20
    82        410
    83        100
    97         10
    98        120
   110        999
   111        470
   112         30
   119         40
   123         20
   124        160
   125         10
   136        790
   137        490
   138         50
   152         20
   153        100
   234        530
   235         60
   236         10