##TITLE=Library Entry 97746
##JCAMP-DX=Revision 4.10 
##DATA TYPE=MASS SPECTRUM
##SAMPLE DESCRIPTION=Exported from NIST MS Search
##NAMES=HP
##CAS NAME=1H-Pyrrole-2,5-dione, 1-(3-phenylpropyl)-
##MOLFORM=C13H13NO2
##CAS REGISTRY NO=28537-62-4
##MP= -300
##BP= -300
##MW= 215
##$RETENTION INDEX=0
##$CONDENSED SPECTRUM=NO
##NPOINTS= 44
##XYDATA=(XY..XY) 1 
    26         30
    27         30
    28         20
    39         40
    41         30
    50         20
    51         50
    52         20
    53         20
    54         50
    55         40
    56         30
    57         20
    63         20
    65        100
    66         10
    69         10
    77         80
    78         40
    79         40
    80         20
    82        170
    83        140
    84         10
    89         20
    91        280
    92         60
    98         20
   103         50
   104         60
   105         80
   110         70
   111        450
   112         30
   113         10
   115         80
   116         20
   117        999
   118        210
   119         20
   124         10
   215        490
   216         80
   217         20