##TITLE=Library Entry 54180
##JCAMP-DX=Revision 4.10 
##DATA TYPE=MASS SPECTRUM
##SAMPLE DESCRIPTION=Exported from NIST MS Search
##NAMES=HP
##CAS NAME=Crotonic acid, 4,4'-(pentamethylenedinitrilo)bis[4-hydroxy-, cycl
ic 1,4:1',4'-dianhydride, (Z)-
##MOLFORM=C13H14N2O4
##CAS REGISTRY NO=28537-77-1
##MP= -300
##BP= -300
##MW= 262
##$RETENTION INDEX=0
##$CONDENSED SPECTRUM=NO
##NPOINTS= 93
##XYDATA=(XY..XY) 1 
    27        100
    28          9
    29         90
    30         40
    32          0
    39         70
    40         20
    41        320
    42        100
    43        160
    44          5
    45         20
    49         20
    51         20
    52         20
    53         70
    54        340
    55        220
    56        180
    57        220
    58         10
    61         20
    65         10
    66         30
    67         70
    68         60
    69         90
    70        160
    71         30
    72         20
    76         10
    79         10
    80         80
    81         40
    82        440
    83         60
    84        999
    85         70
    86         60
    92         10
    93         10
    94         10
    95         30
    96         20
    97         40
    98        340
    99         40
   100         10
   103         10
   107         10
   108         30
   109         30
   110        660
   111        120
   112         20
   113         20
   120         10
   121         10
   122         10
   123         30
   124         30
   125         30
   127         20
   134         20
   135         20
   136         60
   137         80
   139         30
   140         10
   143         10
   149         60
   150         20
   151         20
   152        220
   153         50
   163         40
   164         30
   165        400
   166         10
   167         20
   177         10
   179        140
   180         20
   181         80
   182         10
   189         10
   190         10
   217         20
   218         10
   222         10
   224         20
   234         20
   262         10