##TITLE=Library Entry 87489
##JCAMP-DX=Revision 4.10 
##DATA TYPE=MASS SPECTRUM
##SAMPLE DESCRIPTION=Exported from NIST MS Search
##NAMES=HP
##CAS NAME=1H-Pyrrole-2,5-dione, 1,1'-(1,4-butanediyl)bis-
##MOLFORM=C12H12N2O4
##CAS REGISTRY NO=28537-70-4
##MP= -300
##BP= -300
##MW= 248
##$RETENTION INDEX=0
##$CONDENSED SPECTRUM=NO
##NPOINTS= 46
##XYDATA=(XY..XY) 1 
    26        190
    27         90
    28        120
    29         30
    30         20
    31         10
    39         60
    40         20
    41        120
    42         30
    43         30
    44         20
    52         20
    53         90
    54        290
    55        130
    56        150
    57         10
    66         10
    67         20
    68         30
    69         20
    70        150
    80         70
    82        310
    83         60
    84         20
    98         50
    99         20
   110        999
   111        140
   112         40
   123         10
   124         10
   136         10
   138         70
   149         40
   150         30
   151        650
   152         60
   165         10
   167        110
   168         10
   248        120
   249         20
   250         30