##TITLE=Library Entry 88015
##JCAMP-DX=Revision 4.10 
##DATA TYPE=MASS SPECTRUM
##SAMPLE DESCRIPTION=Exported from NIST MS Search
##NAMES=HP
##CAS NAME=Acrylic acid, 3-[1-hydroxy-N-(3-phenylpropyl)formimidoyl]-, cycli
c anhydride
##MOLFORM=C13H13NO2
##CAS REGISTRY NO=28537-67-9
##MP= -300
##BP= -300
##MW= 215
##$RETENTION INDEX=0
##$CONDENSED SPECTRUM=NO
##NPOINTS= 53
##XYDATA=(XY..XY) 1 
    25         54
    26        405
    27         81
    28         67
    29         81
    30         27
    39        135
    40        108
    41        189
    42         54
    43        108
    44        486
    50         54
    51        108
    52         27
    53         81
    54        648
    55        108
    56         81
    57         81
    63         54
    65        189
    66         27
    67         54
    68         27
    69         54
    70         54
    71         27
    77        162
    78         81
    79         81
    80         27
    81         27
    82        621
    83        189
    89         27
    91        486
    92         81
    98        216
   103         81
   104         81
   105         81
   110         81
   111        999
   112         54
   113         27
   115        135
   116         27
   117        567
   118        216
   170         27
   215        189
   216         27