##TITLE=Library Entry 76981
##JCAMP-DX=Revision 4.10 
##DATA TYPE=MASS SPECTRUM
##SAMPLE DESCRIPTION=Exported from NIST MS Search
##NAMES=HP
##CAS NAME=Pyrazolo[1,5-a]pyridine, 2,3-dimethyl-
##MOLFORM=C9H10N2
##CAS REGISTRY NO=28537-56-6
##MP= -300
##BP= -300
##MW= 146
##$RETENTION INDEX=0
##$CONDENSED SPECTRUM=NO
##NPOINTS= 21
##XYDATA=(XY..XY) 1 
    51        500
    52         40
    63        100
    64         20
    72         80
    73        150
    78        620
    79        720
    91         80
    92        150
   104        999
   105        280
   117        150
   118        140
   130         30
   131        260
   132         30
   145        700
   146        650
   147         70
   148         30