##TITLE=Library Entry 61984
##JCAMP-DX=Revision 4.10 
##DATA TYPE=MASS SPECTRUM
##SAMPLE DESCRIPTION=NIST Mass Spectrometry Data Center
##NAMES=HP
##CAS NAME=Benzyl cis-cinnamate
##MOLFORM=C16H14O2
##CAS REGISTRY NO=28541-02-8
##MP= -300
##BP= -300
##MW= 238
##$RETENTION INDEX=1959
##$CONDENSED SPECTRUM=NO
##NPOINTS= 54
##XYDATA=(XY..XY) 1 
    27          5
    38          6
    39         44
    50         44
    51        142
    52         26
    53         11
    62         13
    63         52
    64         12
    65        164
    66          9
    74         20
    75         24
    76         36
    77        355
    78         42
    79         37
    89         49
    90         34
    91        999
    92         87
   101          7
   102         77
   103        328
   104        154
   105         28
   107         31
   115        113
   116         35
   117          7
   118         10
   131        601
   132         95
   133          8
   146          6
   147        155
   148         15
   159          1
   160         15
   165          8
   167          4
   178         78
   179         32
   180          5
   191         24
   192        342
   193        232
   194         34
   219         13
   220         45
   221          9
   238         46
   239          8