##TITLE=Library Entry 65652
##JCAMP-DX=Revision 4.10 
##DATA TYPE=MASS SPECTRUM
##SAMPLE DESCRIPTION=Japan AIST/NIMC Database- Spectrum MS-IW-1713
##NAMES=HP
##CAS NAME=p-(Phenylsulfamoyl)benzoic acid
##MOLFORM=C13H11NO4S
##CAS REGISTRY NO=28547-16-2
##MP= -300
##BP= -300
##MW= 277
##$RETENTION INDEX=0
##$CONDENSED SPECTRUM=NO
##NPOINTS= 96
##XYDATA=(XY..XY) 1 
    17          2
    27          4
    28          6
    37          1
    38          8
    39         69
    40          6
    41          6
    42          1
    43          4
    44          4
    45          4
    48          1
    50         21
    51         23
    52          8
    53          5
    54          1
    55          1
    57          2
    62          4
    63         19
    64         27
    65        326
    66         30
    67          2
    69          1
    70          1
    71          2
    74          8
    75         16
    76         26
    77         11
    78          3
    79          1
    81          1
    83          1
    85          1
    89          1
    90          3
    91         26
    92        999
    93        123
    94          6
    95          1
    96          1
    97          2
   103          5
   104         10
   105          4
   106          1
   108          1
   109          1
   113          1
   114          2
   115          4
   121        105
   122          9
   123          1
   124          1
   128          1
   135          1
   137          1
   139          4
   140          4
   141          6
   142          1
   152          1
   153          2
   154          1
   155          1
   166          9
   167         26
   168         79
   169         19
   170          2
   183          2
   184          2
   185         35
   186          4
   187          2
   194          3
   195        149
   196         29
   197          3
   212         20
   213         13
   214          7
   232          1
   233          2
   242          2
   260          2
   277        510
   278         79
   279         32
   280          4