##TITLE=Library Entry 25108
##JCAMP-DX=Revision 4.10 
##DATA TYPE=MASS SPECTRUM
##SAMPLE DESCRIPTION=NIST Mass Spectrometry Data Center, 1990.
##NAMES=HP
##CAS NAME=Butane, 1-chloro-3,3-dimethyl-
##MOLFORM=C6H13Cl
##CAS REGISTRY NO=2855-08-5
##MP= -300
##BP= -300
##MW= 120
##$RETENTION INDEX=832
##$CONDENSED SPECTRUM=NO
##NPOINTS= 32
##XYDATA=(XY..XY) 1 
    14          9
    15         14
    26         14
    27         97
    28         19
    29         75
    38         20
    39        166
    41        514
    42         32
    43        124
    49         34
    50         19
    51         38
    52         10
    53         60
    54         10
    55         77
    56         10
    57        999
    58         42
    62          8
    63         46
    65         20
    67         22
    69        564
    70         32
    77          9
   104         14
   105        103
   106         11
   107         34