##TITLE=Library Entry 38723
##JCAMP-DX=Revision 4.10 
##DATA TYPE=MASS SPECTRUM
##SAMPLE DESCRIPTION=NIST Mass Spectrometry Data Center, 1998.
##NAMES=HP
##CAS NAME=Oxirane, decyl-
##MOLFORM=C12H24O
##CAS REGISTRY NO=2855-19-8
##MP= -300
##BP= -300
##MW= 184
##$RETENTION INDEX=1307
##$CONDENSED SPECTRUM=NO
##NPOINTS= 90
##XYDATA=(XY..XY) 1 
    15          7
    26          7
    27        153
    29        286
    30          9
    31         62
    33          1
    37          1
    38          5
    39        225
    40         43
    41        841
    42        236
    43        640
    44         47
    45         63
    46          2
    50          4
    51         13
    52          8
    53        104
    54        250
    55        886
    56        447
    57        456
    58        402
    59         84
    60          3
    63          2
    64          1
    65         21
    66         54
    67        495
    68        495
    69        585
    70        308
    71        999
    72         73
    73          8
    77         14
    78          3
    79         51
    80         24
    81        434
    82        568
    83        369
    84        166
    85        223
    86         18
    87          3
    91          6
    92          1
    93         12
    94         14
    95        328
    96        264
    97        210
    98         62
    99         23
   100          4
   101          1
   107          2
   108          4
   109        147
   110         94
   111         46
   112         13
   113         39
   114          4
   115          1
   122          1
   123         49
   124         50
   125          9
   126         30
   127         30
   128          3
   129          3
   137          9
   138         11
   139          1
   140          2
   141         13
   142          2
   151          1
   152          2
   155          3
   156          1
   166          1
   183          1