##TITLE=Library Entry 49040
##JCAMP-DX=Revision 4.10 
##DATA TYPE=MASS SPECTRUM
##SAMPLE DESCRIPTION=Japan AIST/NIMC Database- Spectrum MS-NW-3964
##NAMES=HP
##CAS NAME=Cyclohexane, 1,2,4-triethenyl-
##MOLFORM=C12H18
##CAS REGISTRY NO=2855-27-8
##MP= -300
##BP= -300
##MW= 162
##$RETENTION INDEX=1114
##$CONDENSED SPECTRUM=NO
##NPOINTS= 116
##XYDATA=(XY..XY) 1 
    14          2
    15          7
    26         13
    27        214
    28          6
    29         87
    30          2
    31          1
    37          3
    38         13
    39        386
    40         56
    41        536
    42         29
    43         33
    44          4
    45          1
    49          1
    50         23
    51         82
    52         54
    53        216
    54        695
    55        199
    56         14
    57          8
    58          3
    59          1
    61          2
    62          7
    63         25
    64          9
    65        138
    66        151
    67        818
    68         83
    69         26
    70         13
    71          7
    72          1
    73          2
    74          5
    75          5
    76          4
    77        362
    78        146
    79        999
    80        501
    81        144
    82         25
    83         23
    84          4
    85          2
    86          1
    87          1
    89          6
    90          3
    91        594
    92        267
    93        850
    94        238
    95        252
    96         31
    97          5
    98          1
    99          1
   101          3
   102          4
   103         18
   104         20
   105        332
   106        225
   107        154
   108        404
   109         44
   110          4
   111          1
   115         11
   116          5
   117         26
   118         10
   119        300
   120        182
   121         98
   122         14
   123          4
   124          2
   125          1
   126          1
   127          2
   128          4
   129          5
   130          4
   131         17
   132         12
   133        670
   134        269
   135         31
   136          3
   137          1
   141          2
   143          2
   144          1
   145          6
   146          3
   147        160
   148         22
   149          4
   150          1
   158          1
   159          2
   160          5
   161         20
   162         11
   163          4
   164          1