##TITLE=Library Entry 107358
##JCAMP-DX=Revision 4.10 
##DATA TYPE=MASS SPECTRUM
##SAMPLE DESCRIPTION=CATALOGUE OF MASS SPECTRA OF PESTICIDES, APRIL, 1975; J
. FREUDENTHAL & L. G. GRAMBERG, NAT'L INST. OF PUBLIC HEALTH, THE NETHERLAND
S
##NAMES=HP
##CAS NAME=3-Furancarboxamide, 2,5-dimethyl-N-phenyl-
##MOLFORM=C13H13NO2
##CAS REGISTRY NO=28562-70-1
##MP= -300
##BP= -300
##MW= 215
##$RETENTION INDEX=0
##$CONDENSED SPECTRUM=NO
##NPOINTS= 21
##XYDATA=(XY..XY) 1 
    39         20
    41         13
    43        214
    51         26
    52         20
    53         85
    65         27
    67         23
    77         34
    81        120
    93         15
    94         35
    95         28
   120         10
   121         16
   122         14
   123        999
   124         78
   127         11
   215        303
   216         38