##TITLE=Library Entry 77927
##JCAMP-DX=Revision 4.10 
##DATA TYPE=MASS SPECTRUM
##SAMPLE DESCRIPTION=V.A. KOPTYUG, ATLAS OF MS OF ORG. CMPDS., ED. 2
##NAMES=HP
##CAS NAME=2-Oxo-5-(4-nitrophenoxy)-4,6-diphenyl-1,2-dihydropyrimidine
##MOLFORM=C22H15N3O4
##CAS REGISTRY NO=28567-86-4
##MP= -300
##BP= -300
##MW= 385
##$RETENTION INDEX=0
##$CONDENSED SPECTRUM=NO
##NPOINTS= 119
##XYDATA=(XY..XY) 1 
    70         68
    71         90
    75         78
    76        135
    77         51
    78        127
    79         74
    80         95
    81        129
    82         72
    83        145
    84         73
    85         80
    87         32
    88         47
    89        171
    90         48
    91         78
    92        105
    93        112
    94         64
    95        107
    96         64
    97        120
    98         88
    99         36
   101         32
   102         52
   103        236
   104        999
   105        277
   106         66
   107         98
   108        123
   109        138
   110         55
   111         66
   112         36
   115         42
   116         49
   117         42
   118         38
   119         73
   120         58
   121         43
   122         37
   123         50
   124         30
   125         38
   127         42
   128         50
   129         74
   132         56
   139         45
   140         42
   141         69
   149         72
   151         50
   161         37
   162         65
   163         42
   164         46
   165         84
   167         31
   168         38
   169         38
   177         55
   178         76
   179        177
   180        164
   181         57
   190         38
   191         37
   192         38
   193         80
   194         65
   195        620
   196        149
   203         39
   204         53
   205         45
   206         48
   207         79
   208         47
   209         79
   210         32
   222         45
   223        191
   224         51
   225        191
   226         95
   234         46
   235         44
   237         75
   245         33
   246         32
   247        115
   248         82
   261         40
   262         44
   263        316
   264        263
   265         64
   322         38
   337         47
   338        174
   339         71
   340         38
   354         80
   355        543
   356        156
   357         36
   368        165
   369         96
   370         27
   384        496
   385        895
   386        213
   387         38