##TITLE=Library Entry 4515
##JCAMP-DX=Revision 4.10 
##DATA TYPE=MASS SPECTRUM
##SAMPLE DESCRIPTION=Chuck Anderson, Aldrich Chemical Co.
##NAMES=HP
##CAS NAME=4-Acetoxy-2-azetidinone
##MOLFORM=C5H7NO3
##CAS REGISTRY NO=28562-53-0
##MP= -300
##BP= -300
##MW= 129
##$RETENTION INDEX=0
##$CONDENSED SPECTRUM=NO
##NPOINTS= 40
##XYDATA=(XY..XY) 1 
    13         36
    14        175
    15        122
    16         23
    17         19
    18         51
    20         11
    24         12
    25         33
    26        110
    27        280
    28        158
    29        206
    30         10
    31         11
    35         19
    36        124
    37         12
    38         96
    39         78
    40        253
    41        268
    42        999
    43        700
    44        189
    45        251
    46          6
    50          3
    51         13
    52          9
    53          3
    54         11
    59          3
    60        240
    61          7
    67         15
    68         15
    69         82
    70         33
    86         55