##TITLE=Library Entry 96738
##JCAMP-DX=Revision 4.10 
##DATA TYPE=MASS SPECTRUM
##SAMPLE DESCRIPTION=NIST Mass Spectrometry Data Center
##NAMES=HP
##CAS NAME=2-Chlorobenzyl cyanide
##MOLFORM=C8H6ClN
##CAS REGISTRY NO=2856-63-5
##MP= -300
##BP= -300
##MW= 151
##$RETENTION INDEX=1270
##$CONDENSED SPECTRUM=NO
##NPOINTS= 61
##XYDATA=(XY..XY) 1 
    17          2
    25          2
    35          5
    36          5
    37         38
    38         52
    39         81
    40         12
    47          5
    48          4
    49         25
    50         92
    51         55
    52         12
    53          1
    56          2
    57          4
    58         25
    60          5
    61         46
    62         84
    63        132
    64         35
    65         17
    66          3
    72          7
    73         32
    75         73
    76         26
    77          6
    84         12
    85         22
    86         25
    87         42
    88         71
    89        219
    90         28
    96          2
    97         11
    98          5
    99         18
   100          4
   101          4
   102          2
   110          3
   111          7
   112          3
   114         80
   115        172
   116        999
   117         88
   118          4
   123         36
   124         19
   125         27
   126          6
   127          5
   151        356
   152         42
   153        119
   154          9