##TITLE=Library Entry 77921
##JCAMP-DX=Revision 4.10 
##DATA TYPE=MASS SPECTRUM
##SAMPLE DESCRIPTION=Exported from NIST MS Search
##NAMES=HP
##CAS NAME=2(1H)-Pyrimidinone, 5-phenoxy-4,6-diphenyl-
##MOLFORM=C22H16N2O2
##CAS REGISTRY NO=28567-85-3
##MP= -300
##BP= -300
##MW= 340
##$RETENTION INDEX=0
##$CONDENSED SPECTRUM=NO
##NPOINTS= 29
##XYDATA=(XY..XY) 1 
    73         77
    75         53
    76        114
    77        726
    78        187
    81         57
    83         79
    89        159
    94         81
    95         57
    97         57
   103        126
   104        999
   105        224
   106         51
   165        171
   166         87
   180        653
   181        236
   192        130
   193         67
   208         53
   263         89
   296        108
   323        177
   324         57
   339        346
   340        857
   341        193