##TITLE=Library Entry 11271
##JCAMP-DX=Revision 4.10 
##DATA TYPE=MASS SPECTRUM
##SAMPLE DESCRIPTION=LAC, NIDDK, NIH, Bethesda, MD 20892
##NAMES=HP
##CAS NAME=Pseudotomatidine o,N-diacetate
##MOLFORM=C31H49NO4
##CAS REGISTRY NO=2857-74-1
##MP= -300
##BP= -300
##MW= 499
##$RETENTION INDEX=0
##$CONDENSED SPECTRUM=NO
##NPOINTS= 186
##XYDATA=(XY..XY) 1 
    41        166
    42         61
    43        999
    44        195
    45         63
    46          8
    47          8
    48          8
    49         38
    50          6
    51         16
    53         34
    54         14
    55        190
    56         43
    57         66
    58         52
    59         18
    60         81
    61        149
    62         10
    64         12
    65         18
    66          9
    67        125
    68         24
    69         76
    70         47
    71         35
    72        105
    73         63
    74         13
    76          2
    77         48
    78         11
    79        119
    80         23
    81        152
    82         27
    83         47
    84        107
    85         42
    86         36
    87         14
    91        110
    92         23
    93        139
    94         38
    95        140
    96         33
    97         31
    98         21
    99         41
   100         97
   101         46
   102          4
   103          9
   104          9
   105         94
   106         35
   107        137
   108         74
   109        124
   110         25
   111         50
   112         31
   113         16
   114        281
   115         39
   116         11
   117         22
   118         11
   119         52
   120         27
   121         86
   122         35
   123         39
   124         20
   125         16
   126         35
   127         21
   128         19
   129         38
   130         15
   131         32
   132         11
   133         47
   134         18
   135         54
   136         15
   137         19
   138         12
   139          9
   140          8
   141         10
   142         15
   143         20
   144         18
   145         49
   146         14
   147         66
   148         35
   149         56
   150         16
   151         15
   152          7
   153          4
   154          2
   155          9
   156         35
   157         15
   158         11
   159         32
   160         15
   161         59
   162         73
   163         77
   164         18
   165         17
   166         11
   168          6
   171         11
   172         14
   173         22
   174         19
   175         16
   176          9
   177          9
   178          2
   179          4
   180          8
   181          6
   183          4
   185         15
   186          6
   187         13
   188         12
   189         11
   190          8
   191          4
   198          8
   199         11
   200          2
   201         19
   202          6
   203          8
   210          6
   213         11
   214          9
   215         30
   216         28
   217         23
   218         12
   222         18
   223         14
   224          8
   230          7
   239          2
   241          7
   253          7
   254          8
   255         26
   256          7
   257         10
   272         10
   274          8
   275          6
   276          7
   281          2
   283         12
   299          5
   315         29
   316         10
   343          9
   345         12
   358         19
   359         13
   377          4
   399          7
   438         22
   439         12
   440          4
   454          6
   497          4
   499         27
   500          8