##TITLE=Library Entry 20995
##JCAMP-DX=Revision 4.10 
##DATA TYPE=MASS SPECTRUM
##SAMPLE DESCRIPTION=J.M.WHITE GEN. MILLS RES. LAB., MINNEAPOLIS, MINN., USA
##NAMES=HP
##CAS NAME=Pregnan-20-one, 3-(acetyloxy)-5,6-epoxy-17-hydroxy-16-methyl-, (3
.beta.,5.alpha.,6.alpha.,16.alpha.)-
##MOLFORM=C24H36O5
##CAS REGISTRY NO=2857-83-2
##MP= -300
##BP= -300
##MW= 404
##$RETENTION INDEX=0
##$CONDENSED SPECTRUM=NO
##NPOINTS= 289
##XYDATA=(XY..XY) 1 
    50         19
    51        105
    52         65
    53        492
    54        123
    55        999
    56         79
    57        313
    58         37
    59         58
    60         78
    61        120
    62         10
    63         33
    64         28
    65        193
    66         94
    67        191
    68        146
    69        353
    70         43
    71        299
    72        340
    73         36
    74         13
    75         16
    76         13
    77        471
    78        122
    79        630
    80        129
    81        656
    82         91
    83        183
    84         35
    85        320
    86         50
    87         15
    88          6
    89         23
    90         16
    91        685
    92        149
    93        615
    94        249
    95        672
    96        140
    97        103
    98         36
    99         46
   100         20
   101        265
   102         32
   103         66
   104         53
   105        542
   106        130
   107        478
   108        209
   109        285
   110        102
   111         89
   112         18
   113         18
   114         18
   115        114
   116         57
   117        176
   118        133
   119        325
   120        307
   121        395
   122        299
   123        454
   124         88
   125         53
   126         18
   127         53
   128        109
   129        136
   130         58
   131        212
   132         80
   133        287
   134        115
   135        184
   136        156
   137        113
   138         35
   139         83
   140         21
   141        100
   142         67
   143        200
   144         70
   145        229
   146         73
   147        188
   148        100
   149        154
   150         59
   151         52
   152         25
   153         33
   154         23
   155         98
   156         55
   157         45
   158        154
   159        263
   160         96
   161        250
   162         82
   163         97
   164         31
   165         47
   166         18
   167         36
   168         18
   169         64
   170         36
   171        115
   172         56
   173        132
   174         58
   175        165
   176        100
   177         88
   178         36
   179         37
   180         12
   181         33
   182         18
   183         80
   184         44
   185        123
   186         43
   187         96
   188         47
   189        113
   190         49
   191         36
   192         15
   193         19
   194         19
   195         53
   196         23
   197         89
   198         49
   199        148
   200        127
   201        125
   202         44
   203         70
   204         28
   205         20
   206         12
   207         21
   208          9
   209         47
   210         32
   211        250
   212         66
   213        269
   214        102
   215        111
   216         60
   217         66
   218         18
   219         15
   220         11
   221         14
   222         12
   223         35
   224         41
   225        127
   226        415
   227        200
   228         60
   229        241
   230         59
   231        110
   232         37
   233         22
   234          8
   235          9
   236          6
   237         19
   238          9
   239         38
   240         10
   241         69
   242         59
   243        265
   244        283
   245        245
   246         41
   247          9
   248          4
   249         13
   250          6
   251         22
   252         12
   253         23
   254         42
   255         73
   256         19
   257         24
   258         10
   259         21
   260         29
   261        123
   262          7
   263         13
   265        158
   266         37
   267         38
   268         10
   269         41
   270         20
   271         19
   272         25
   273         73
   274         21
   275         12
   276          6
   277         10
   279         12
   280         32
   281         26
   282         48
   283        300
   284         71
   285         28
   286         60
   287         29
   288         16
   289         28
   290         10
   291          9
   293         82
   294         19
   295         13
   296          9
   297         65
   298        189
   299         50
   300         26
   301        108
   302         35
   303          9
   304         15
   305         12
   306          7
   308        123
   309         29
   310         18
   311        124
   312         28
   313         12
   314         18
   315         30
   316        171
   317         37
   318          6
   320         12
   325         29
   326        447
   327         49
   328         29
   329          7
   343         95
   344        186
   345         41
   346          6
   358         32
   359         17
   361         33
   362         11
   368         14
   371         14
   375         15
   376         82
   377         15
   386         40
   387         11
   404        329
   405         85
   406         12