##TITLE=Library Entry 60221
##JCAMP-DX=Revision 4.10 
##DATA TYPE=MASS SPECTRUM
##SAMPLE DESCRIPTION=G.S. KING, CHEM. PATHOL. DEP., QUEEN CHARLOTTE'S HOSP.,
 LONDON
##NAMES=HP
##CAS NAME=Acetophenone benzyloxime
##MOLFORM=C15H15NO
##CAS REGISTRY NO=28570-76-5
##MP= -300
##BP= -300
##MW= 225
##$RETENTION INDEX=0
##$CONDENSED SPECTRUM=NO
##NPOINTS= 26
##XYDATA=(XY..XY) 1 
    41         12
    42         12
    50         44
    51        132
    52         24
    63         24
    65        124
    76         24
    77        252
    78         52
    79         24
    89         12
    91        999
    92        172
   103         44
   104         52
   105         64
   106         52
   119         24
   195         92
   196         12
   208         24
   223         12
   224        184
   225        164
   226         24