##TITLE=Library Entry 68271
##JCAMP-DX=Revision 4.10 
##DATA TYPE=MASS SPECTRUM
##SAMPLE DESCRIPTION=NIST Mass Spectrometry Data Center, 2010
##NAMES=HP
##CAS NAME=Borneol, trifluoroacetate (ester)
##MOLFORM=C12H17F3O2
##CAS REGISTRY NO=28587-55-5
##MP= -300
##BP= -300
##MW= 250
##$RETENTION INDEX=1124
##$CONDENSED SPECTRUM=NO
##NPOINTS= 111
##XYDATA=(XY..XY) 1 
    15          1
    26          1
    27         26
    28          5
    29         29
    30          1
    31          1
    38          2
    39         58
    40         11
    41        162
    42         12
    43         59
    44          3
    45          2
    47          3
    50          7
    51         16
    52          7
    53         66
    54         12
    55        129
    56         11
    57         19
    58          3
    59          5
    60          1
    61          1
    62          1
    63          4
    64          1
    65         29
    66         13
    67        109
    68         32
    69        203
    70         13
    71          3
    73         10
    74          1
    75          1
    76          1
    77         79
    78         16
    79        102
    80         44
    81        133
    82         37
    83         40
    84          5
    85          2
    89          1
    90          1
    91         88
    92         92
    93        390
    94         66
    95        999
    96         73
    97         24
    98          1
    99          3
   103          4
   104          1
   105         27
   106          6
   107         64
   108         36
   109         24
   110        173
   111         18
   112          2
   113          2
   115          2
   117          2
   119          8
   120          3
   121        354
   122         34
   123         18
   124          2
   125          2
   134          1
   135          3
   136        341
   137         85
   138          7
   139          2
   140          1
   147          1
   151          1
   153          1
   155          1
   166          3
   167         13
   168          1
   180          4
   181          1
   193          1
   194          1
   195          1
   206          2
   207         13
   208          2
   209          1
   217          2
   235         54
   236          7
   237          1
   250          7
   251          1