##TITLE=Library Entry 3178
##JCAMP-DX=Revision 4.10 
##DATA TYPE=MASS SPECTRUM
##SAMPLE DESCRIPTION=R.I.REED CHEMISTRY DEPT., UNIV. OF GLASGOW
##NAMES=HP
##CAS NAME=1H-Cycloprop[e]azulene, decahydro-1,1,4,7-tetramethyl-, [1aR-(1a.
alpha.,4.beta.,4a.beta.,7.beta.,7a.beta.,7b.alpha.)]-
##MOLFORM=C15H26
##CAS REGISTRY NO=28580-43-0
##MP= -300
##BP= -300
##MW= 206
##$RETENTION INDEX=1373
##$CONDENSED SPECTRUM=NO
##NPOINTS= 111
##XYDATA=(XY..XY) 1 
    26          8
    27        163
    28         40
    29        272
    30          5
    38          5
    39        239
    40         49
    41        999
    42         93
    43        193
    44          5
    50          6
    51         34
    52         19
    53        211
    54         44
    55        442
    56         52
    57         32
    63          8
    64          3
    65         96
    66         36
    67        446
    68         64
    69        283
    70         19
    71          6
    77        203
    78         50
    79        360
    80         61
    81        411
    82        338
    83         67
    84          5
    91        274
    92         48
    93        350
    94        102
    95        316
    96         55
    97         14
   102          2
   103         17
   104          8
   105        107
   106         29
   107        376
   108         92
   109        133
   110         34
   111          6
   112          1
   115         11
   116          5
   117         18
   118          4
   119         40
   120         13
   121        206
   122        137
   123         63
   124         21
   125          2
   127          1
   128          3
   129          5
   130          1
   131          5
   132          1
   133         15
   134          8
   135        150
   136         33
   137          9
   138          2
   139         60
   141          1
   142          0
   143          0
   144          0
   145          2
   146          1
   147          8
   148          5
   149         48
   150         43
   151          7
   152          0
   159          1
   160          0
   161          4
   162         12
   163        183
   164         36
   165         10
   166          2
   175          0
   176          0
   177          5
   178          3
   179          0
   189          1
   191         15
   192          2
   193          0
   206         42
   207          6
   208          0