##TITLE=Library Entry 50496
##JCAMP-DX=Revision 4.10 
##DATA TYPE=MASS SPECTRUM
##SAMPLE DESCRIPTION=KONINKLIJKE SHELL LABORATORIUM AMSTERDAM
##NAMES=HP
##CAS NAME=Pentalene, octahydro-2,5-dimethyl-
##MOLFORM=C10H18
##CAS REGISTRY NO=28588-55-8
##MP= -300
##BP= -300
##MW= 138
##$RETENTION INDEX=0
##$CONDENSED SPECTRUM=NO
##NPOINTS= 84
##XYDATA=(XY..XY) 1 
    36          0
    37          3
    38         15
    39        252
    40         38
    41        346
    42         62
    43         51
    44         28
    45          0
    46          1
    49          1
    50         13
    51         35
    52         20
    53        101
    54        109
    55        258
    56         28
    57         24
    58          2
    62          3
    63         10
    64          2
    65         27
    66         19
    67        210
    68        122
    69         53
    70         12
    71          7
    72          1
    73          1
    74          1
    75          2
    76          2
    77         41
    78         12
    79         52
    80         45
    81        999
    82        112
    83         17
    84          3
    85          5
    86          1
    89          2
    91         22
    92          3
    93         19
    94          8
    95        106
    96        389
    97         45
    98          3
    99          1
   103          2
   104          0
   105          4
   106          1
   107          3
   108          1
   109         24
   110         12
   111          1
   112          0
   114          0
   115          1
   116          0
   117          1
   118          0
   119          5
   120          0
   121          1
   123         52
   124         13
   125          1
   133          3
   134          1
   135          3
   136          1
   137          1
   138         77
   139          8