##TITLE=Library Entry 67539
##JCAMP-DX=Revision 4.10 
##DATA TYPE=MASS SPECTRUM
##SAMPLE DESCRIPTION=NIST Mass Spectrometry Data Center
##NAMES=HP
##CAS NAME=Benzene, 4-bromo-1,2-dimethoxy-
##MOLFORM=C8H9BrO2
##CAS REGISTRY NO=2859-78-1
##MP= -300
##BP= -300
##MW= 216
##$RETENTION INDEX=1424
##$CONDENSED SPECTRUM=NO
##NPOINTS= 133
##XYDATA=(XY..XY) 1 
    14          6
    15         67
    16          1
    18          1
    25          2
    26          6
    27          5
    28         12
    29         27
    30          6
    31         16
    32          1
    36          1
    37         21
    38         27
    39         31
    40          5
    41          7
    42          3
    43          6
    44          1
    45          2
    47          1
    48          1
    49         22
    50        147
    51        271
    52         19
    53         52
    54          3
    55         18
    56          1
    59          1
    60          4
    61         43
    62         98
    63        237
    64         40
    65        186
    66        166
    67         10
    68          2
    69          6
    72          1
    73         13
    74         54
    75         66
    76         50
    77        102
    78         34
    79        477
    80         32
    81          8
    82          3
    89          1
    90          3
    91         10
    92         54
    93         58
    94        999
    95         71
    96          4
    99          1
   100          1
   104         10
   105          5
   106         14
   107         71
   108         13
   109         12
   115          1
   116          4
   117         16
   118          5
   119         17
   120          1
   121         21
   122         33
   123          4
   127          2
   128          6
   129         11
   130          8
   131         14
   132          7
   133         16
   134          1
   135         15
   136          1
   137          8
   138          3
   140          1
   141          3
   142         22
   143         78
   144         24
   145         77
   146          5
   147          3
   154          3
   155         91
   156          9
   157         99
   158         36
   159         16
   160         29
   161          4
   170         44
   171         23
   172         46
   173        207
   174         15
   175        178
   176         11
   177          1
   183          1
   185          6
   186          2
   187          5
   188          2
   189          1
   199         16
   200         19
   201        388
   202         48
   203        364
   204         29
   205          3
   216        874
   217         83
   218        853
   219         77
   220          6