##TITLE=Library Entry 98447
##JCAMP-DX=Revision 4.10 
##DATA TYPE=MASS SPECTRUM
##SAMPLE DESCRIPTION=Japan AIST/NIMC Database- Spectrum MS-NW-8332
##NAMES=HP
##CAS NAME=3-Pyridinepropanol
##MOLFORM=C8H11NO
##CAS REGISTRY NO=2859-67-8
##MP= -300
##BP= -300
##MW= 137
##$RETENTION INDEX=1292
##$CONDENSED SPECTRUM=NO
##NPOINTS= 76
##XYDATA=(XY..XY) 1 
    14          1
    15          5
    17          2
    18          7
    19          1
    26         11
    27         67
    28         45
    29         23
    30          5
    31         97
    32          2
    37          7
    38         24
    39        203
    40         24
    41         25
    42          7
    43         15
    44          6
    45         25
    46          1
    49          3
    50         39
    51        113
    52         69
    53         59
    54         21
    55          5
    56          1
    57         12
    58          4
    61          3
    62          9
    63         43
    64         26
    65        297
    66         69
    67         26
    68          3
    74          4
    75          6
    76          8
    77        112
    78        113
    79         99
    80         62
    81          7
    89          5
    90          7
    91        117
    92        522
    93        224
    94         22
    95          1
   102          1
   103          2
   104         60
   105         21
   106        155
   107         23
   108         11
   109          2
   116          3
   117         54
   118        999
   119        871
   120         78
   121          3
   132          1
   133          1
   134          3
   135          4
   136          8
   137         93
   138          9