##TITLE=Library Entry 66344
##JCAMP-DX=Revision 4.10 
##DATA TYPE=MASS SPECTRUM
##SAMPLE DESCRIPTION=NIST Mass Spectrometry Data Center, 2009
##NAMES=HP
##CAS NAME=3-(2-Pyridyl)-1-propanol
##MOLFORM=C8H11NO
##CAS REGISTRY NO=2859-68-9
##MP= -300
##BP= -300
##MW= 137
##$RETENTION INDEX=1276
##$CONDENSED SPECTRUM=NO
##NPOINTS= 66
##XYDATA=(XY..XY) 1 
    15          1
    19          1
    26          5
    27         20
    28         11
    29         10
    30          2
    31         24
    37          3
    38          9
    39         48
    40          8
    41         10
    42          4
    43          6
    44          2
    49          2
    50         31
    51         84
    52         65
    53         33
    54         12
    55          2
    57          1
    58          3
    61          2
    62          5
    63         16
    64          9
    65         53
    66         60
    67         15
    68          2
    74          2
    75          4
    76          5
    77         31
    78        111
    79         68
    80         21
    81          1
    87          1
    89          3
    90          4
    91         12
    92         73
    93        999
    94         72
    95          2
   102          1
   103          1
   104         19
   105         11
   106        225
   107         72
   108          7
   109          2
   117         14
   118         46
   119          6
   120         95
   121          8
   122          1
   134          1
   136         17
   137          1