##TITLE=Library Entry 2665
##JCAMP-DX=Revision 4.10 
##DATA TYPE=MASS SPECTRUM
##SAMPLE DESCRIPTION=NIST Mass Spectrometry Data Center, 1990.
##NAMES=HP
##CAS NAME=8-Oxabicyclo[5.1.0]octane
##MOLFORM=C7H12O
##CAS REGISTRY NO=286-45-3
##MP= -300
##BP= -300
##MW= 112
##$RETENTION INDEX=0
##$CONDENSED SPECTRUM=NO
##NPOINTS= 48
##XYDATA=(XY..XY) 1 
    15         19
    26         62
    27        363
    28         85
    29        263
    31         23
    37         20
    38         78
    39        632
    40        153
    41        999
    42        341
    43        265
    44         63
    45         27
    50         59
    51         98
    52         43
    53        209
    54        168
    55        866
    56        530
    57        464
    58         60
    62         17
    63         25
    65         63
    66         89
    67        502
    68        589
    69        286
    70        218
    71        191
    77        102
    79        425
    80         30
    81         63
    83        479
    84        122
    85         41
    91         39
    93         41
    94         91
    95         14
    97        350
    98         26
   111         83
   112         91