##TITLE=Library Entry 51913
##JCAMP-DX=Revision 4.10 
##DATA TYPE=MASS SPECTRUM
##SAMPLE DESCRIPTION=Japan AIST/NIMC Database- Spectrum MS-NW- 833
##NAMES=HP
##CAS NAME=7-Oxabicyclo[4.1.0]heptane
##MOLFORM=C6H10O
##CAS REGISTRY NO=286-20-4
##MP= -300
##BP= -300
##MW= 98
##$RETENTION INDEX=1158
##$CONDENSED SPECTRUM=NO
##NPOINTS= 62
##XYDATA=(XY..XY) 1 
    14          4
    15         30
    17          1
    18          3
    25          2
    26         45
    27        331
    28         80
    29        178
    30          5
    31         29
    32          2
    37         18
    38         47
    39        490
    40        102
    41        875
    42        791
    43        193
    44        190
    45          9
    49          6
    50         34
    51         47
    52         21
    53        103
    54        583
    55        325
    56        166
    57        411
    58         18
    59          1
    61          3
    62          6
    63          9
    64          1
    65         22
    66          8
    67        100
    68        122
    69        259
    70        269
    71         36
    72          2
    73          2
    74          4
    75          1
    76          1
    77         43
    78         17
    79        122
    80         84
    81         17
    82         10
    83        999
    84         56
    85          3
    95          2
    96          2
    97        153
    98        160
    99         11