##TITLE=Library Entry 50333
##JCAMP-DX=Revision 4.10 
##DATA TYPE=MASS SPECTRUM
##SAMPLE DESCRIPTION=CARL DJERASSI DEPT OF CHEM STANFORD UNIV STANFORD CALIF
 94305
##NAMES=HP
##CAS NAME=7-Thiabicyclo[4.1.0]heptane
##MOLFORM=C6H10S
##CAS REGISTRY NO=286-28-2
##MP= -300
##BP= -300
##MW= 114
##$RETENTION INDEX=1390
##$CONDENSED SPECTRUM=NO
##NPOINTS= 57
##XYDATA=(XY..XY) 1 
    28        150
    29         50
    31         20
    32         30
    38         20
    39        240
    40         30
    41        300
    42         60
    43         20
    44         20
    45        170
    46         10
    47         30
    50         20
    51         50
    52         20
    53        180
    54        230
    55        100
    56         20
    57         30
    58         40
    59         30
    60        200
    61         10
    62         10
    63         10
    65         50
    66         20
    67        180
    68         20
    69         30
    70         20
    71         90
    72         30
    73        170
    74         10
    75         10
    76         10
    77         70
    79        310
    80        640
    81        999
    82        100
    83         70
    84         10
    85         90
    86         30
    87         10
    97         10
    98         10
    99         40
   113         10
   114        550
   115         40
   116         20