##TITLE=Library Entry 3146
##JCAMP-DX=Revision 4.10 
##DATA TYPE=MASS SPECTRUM
##SAMPLE DESCRIPTION=Chemical Concepts
##NAMES=HP
##CAS NAME=5,10-Dioxatricyclo[7.1.0.0(4,6)]decane
##MOLFORM=C8H12O2
##CAS REGISTRY NO=286-75-9
##MP= -300
##BP= -300
##MW= 140
##$RETENTION INDEX=0
##$CONDENSED SPECTRUM=NO
##NPOINTS= 75
##XYDATA=(XY..XY) 1 
    24          0
    25          3
    26         68
    27        583
    28         63
    29        305
    30         12
    31         97
    36          0
    37         14
    38         37
    39        461
    40         76
    41        999
    42        218
    43        203
    44        105
    45         24
    46          0
    47          0
    49          2
    50         28
    51         46
    52         20
    53        158
    54        117
    55        483
    56        112
    57        163
    58         14
    59          2
    60          0
    61          1
    62          3
    63          7
    64          1
    65         43
    66         57
    67        685
    68        462
    69        185
    70         51
    71         19
    72          0
    73          1
    74          0
    75          1
    77         68
    78         26
    79        179
    80         33
    81         62
    82         10
    83        157
    84        124
    85         10
    86          1
    91         27
    92          3
    93         28
    94         13
    95         50
    96         46
    97         52
    98          4
    99          0
   103          1
   104          2
   105          0
   107          2
   109          1
   111          3
   112          0
   121          4
   122          1