##TITLE=Library Entry 19180
##JCAMP-DX=Revision 4.10 
##DATA TYPE=MASS SPECTRUM
##SAMPLE DESCRIPTION=Japan AIST/NIMC Database- Spectrum MS-NW-3975
##NAMES=HP
##CAS NAME=13-Oxabicyclo[10.1.0]tridecane
##MOLFORM=C12H22O
##CAS REGISTRY NO=286-99-7
##MP= -300
##BP= -300
##MW= 182
##$RETENTION INDEX=0
##$CONDENSED SPECTRUM=NO
##NPOINTS= 120
##XYDATA=(XY..XY) 1 
    14          3
    15         10
    16          1
    17          3
    18         14
    19          1
    26         12
    27        245
    28         82
    29        285
    30          8
    31         24
    32         19
    36          1
    37          1
    38          5
    39        226
    40         38
    41        791
    42        193
    43        286
    44         50
    45         26
    50          5
    51         14
    52          9
    53         80
    54        285
    55        999
    56        241
    57        309
    58         59
    59         18
    60          1
    62          1
    63          3
    64          1
    65         16
    66         59
    67        663
    68        428
    69        473
    70        206
    71        146
    72         17
    73          6
    74          2
    77         18
    78         11
    79        163
    80        165
    81        491
    82        568
    83        395
    84        105
    85         57
    86          9
    87          4
    89          2
    91         14
    92          5
    93        155
    94        121
    95        300
    96        332
    97        269
    98        114
    99         18
   100          5
   101          4
   105          5
   106          3
   107         86
   108         56
   109        122
   110         52
   111        247
   112         35
   113          6
   114          3
   115          2
   117          1
   119          2
   120          2
   121        111
   122         46
   123         41
   124         13
   125         35
   126          7
   127          2
   131          1
   133          2
   134          3
   135         58
   136         37
   137         10
   138          6
   139         13
   140          3
   141          1
   149          9
   150          2
   151          3
   152          2
   153          4
   154          3
   155          2
   161          2
   162          3
   163          6
   164          8
   165          2
   166          3
   167          3
   178          1
   180          1
   181          2
   182          9
   183          2