##TITLE=Library Entry 84159
##JCAMP-DX=Revision 4.10 
##DATA TYPE=MASS SPECTRUM
##SAMPLE DESCRIPTION=Chemical Concepts
##NAMES=HP
##CAS NAME=1,10,25,26-Tetraaza-4,7-dioxatetracyclo[8.7.7.1(12,16).1(19,23)]h
exacos-12,14,16(25),19,21,23(26)-hexaene
##MOLFORM=C20H26N4O2
##CAS REGISTRY NO=286013-88-5
##MP= -300
##BP= -300
##MW= 354
##$RETENTION INDEX=0
##$CONDENSED SPECTRUM=NO
##NPOINTS= 183
##XYDATA=(XY..XY) 1 
    27         17
    28         42
    29         18
    30         24
    31         13
    39         33
    40         46
    41         21
    42         69
    43         12
    44         24
    45         44
    51         12
    52         17
    53         18
    54         16
    56         36
    58          8
    59         11
    63          9
    64         20
    65         88
    66         34
    67         14
    70          2
    72         11
    73         11
    77        128
    78        140
    79        123
    80         39
    81          8
    86          9
    90          5
    91         47
    92         73
    93         79
    94         35
    98          8
    99         13
   103          1
   104        112
   105        164
   106        489
   107        999
   108        117
   109          6
   111         17
   112          7
   116          7
   117         36
   118         59
   119         96
   120        143
   121        152
   122         66
   123         34
   130         22
   131        209
   132        291
   133        750
   134        220
   135        267
   136         69
   137         27
   138         18
   140         38
   143         36
   144        175
   145        395
   146        344
   147        384
   148        272
   149        148
   150         24
   151         16
   154         13
   155         18
   156         18
   157         43
   158         68
   159         62
   160         95
   161        135
   162         57
   163         62
   164         26
   165         30
   166          9
   168          9
   169         11
   170         14
   171         13
   172         24
   173         27
   174         23
   175         23
   176         41
   177         36
   178         41
   179         24
   180          2
   181          2
   183          1
   186         26
   187         13
   188         44
   189         21
   190         42
   191         53
   192         21
   193         59
   194        102
   195         24
   196          9
   197         11
   198         19
   202         11
   204         17
   205         12
   206        106
   207        195
   208         63
   209        175
   210         43
   211         12
   212          9
   218         70
   219         16
   220         37
   221         23
   222         61
   223         34
   224         26
   225         13
   226         14
   227         11
   230          5
   232         29
   233         30
   234         17
   235         11
   236         18
   237         23
   238         25
   239         16
   240          2
   247          8
   248        264
   249         51
   250         18
   251         32
   252         16
   253         36
   254         10
   260          9
   262         14
   265         73
   266         41
   267         14
   268         52
   269         10
   278         16
   279        105
   280         27
   281         24
   282          3
   292         13
   293         33
   294         12
   295          9
   309         58
   310         15
   314         37
   315          8
   324         24
   325          8
   326         14
   339         13
   353         17
   354        240
   355         68
   356          9