##TITLE=Library Entry 82837
##JCAMP-DX=Revision 4.10 
##DATA TYPE=MASS SPECTRUM
##SAMPLE DESCRIPTION=A.A.Kutin, Moscow, Russia
##NAMES=HP
##CAS NAME=Urea, 1-acetyl-3-benzyl-
##MOLFORM=C10H12N2O2
##CAS REGISTRY NO=28614-96-2
##MP= -300
##BP= -300
##MW= 192
##$RETENTION INDEX=0
##$CONDENSED SPECTRUM=NO
##NPOINTS= 66
##XYDATA=(XY..XY) 1 
    37          3
    38         10
    39         31
    40          6
    41         10
    42         32
    43        222
    44         18
    45          0
    49          3
    50         35
    51         77
    52         29
    55          0
    56          3
    59         20
    60        160
    61          6
    62          8
    63         19
    64          6
    65         57
    66          4
    67          2
    70         50
    71          2
    72          1
    73          3
    74         11
    75          8
    76         16
    77        156
    78         85
    79        205
    80         19
    81          1
    85         27
    86          4
    87          2
    89         28
    91        207
    92         17
    93          3
    95          1
    99          1
   102          1
   104        108
   105         95
   106        999
   107        331
   108         24
   109          1
   117          1
   120          1
   132         54
   133         92
   134          8
   135          1
   147          3
   148          2
   149          7
   150          5
   192        163
   193         21
   194          3
   195          1