##TITLE=Library Entry 98585
##JCAMP-DX=Revision 4.10 
##DATA TYPE=MASS SPECTRUM
##SAMPLE DESCRIPTION=Chemical Concepts
##NAMES=HP
##CAS NAME=1H-Indole-1-carboxaldehyde, 2,3-dihydro-
##MOLFORM=C9H9NO
##CAS REGISTRY NO=2861-59-8
##MP= -300
##BP= -300
##MW= 147
##$RETENTION INDEX=0
##$CONDENSED SPECTRUM=NO
##NPOINTS= 93
##XYDATA=(XY..XY) 1 
    27         36
    28         31
    29         30
    30          1
    32          3
    36          0
    37         10
    38         28
    39        120
    40         16
    41         26
    42          5
    43          1
    44          0
    45          0
    46          1
    47          1
    49          2
    50         38
    51         74
    52         30
    53          8
    54          2
    55          0
    56          0
    57          1
    58         37
    59         19
    60          7
    61          8
    62         30
    63         90
    64         38
    65        141
    66         14
    67          2
    68          0
    69          0
    70          2
    71          0
    73          2
    74         10
    75         11
    76         10
    77         34
    78         14
    79          3
    80          1
    85          1
    86          4
    87          6
    88          7
    89        103
    90         81
    91        323
    92         32
    93          4
    94          1
    95          0
    96          1
    97          0
    98          0
    99          0
   100          0
   101          1
   102          4
   103          4
   104          5
   105          0
   106          7
   107          1
   114          1
   115          1
   116         17
   117        144
   118        999
   119        167
   120         10
   121          0
   128          5
   129          1
   130          7
   131          0
   132          0
   135          5
   136          0
   144          0
   145          2
   146         14
   147        640
   148         68
   149          4
   150          0