##TITLE=Library Entry 57106
##JCAMP-DX=Revision 4.10 
##DATA TYPE=MASS SPECTRUM
##SAMPLE DESCRIPTION=NIST Mass Spectrometry Data Center, 1990.
##NAMES=HP
##CAS NAME=2,3,4-Trimethyl-5-hexen-3-ol
##MOLFORM=C9H18O
##CAS REGISTRY NO=28638-29-1
##MP= -300
##BP= -300
##MW= 142
##$RETENTION INDEX=0
##$CONDENSED SPECTRUM=NO
##NPOINTS= 42
##XYDATA=(XY..XY) 1 
    27        120
    28         81
    29         78
    31         15
    32         12
    39        164
    40         36
    41        353
    43        916
    44         40
    45        199
    50         21
    51         40
    52         18
    53        100
    54         30
    55        194
    56         39
    57         43
    59         33
    63         10
    65         34
    67        179
    69        484
    70         40
    71        112
    77         42
    78         12
    79         57
    80         12
    81         83
    82         21
    83         32
    87        999
    88         50
    91         27
    93         15
    95         29
    99        123
   109        121
   110         11
   124         32