##TITLE=Library Entry 52186
##JCAMP-DX=Revision 4.10 
##DATA TYPE=MASS SPECTRUM
##SAMPLE DESCRIPTION=Chemical Concepts
##NAMES=HP
##CAS NAME=Ethanone, 1-cyclohexyl-2-(methylsulfinyl)-
##MOLFORM=C9H16O2S
##CAS REGISTRY NO=2863-48-1
##MP= -300
##BP= -300
##MW= 188
##$RETENTION INDEX=0
##$CONDENSED SPECTRUM=NO
##NPOINTS= 61
##XYDATA=(XY..XY) 1 
    26         20
    27        296
    28         31
    29        277
    31         31
    35         29
    38         19
    39        385
    40         62
    41        536
    42        134
    43        407
    44         39
    45        111
    46         39
    47        111
    48         91
    49         23
    50         30
    51         50
    52         28
    53        138
    54        101
    55        932
    56         79
    57         36
    61        365
    62         58
    63        395
    64        149
    65         54
    66         28
    67        326
    68         44
    69         48
    71         50
    77         89
    78        106
    79        245
    80         50
    81        239
    82         45
    83        999
    84        146
    89         65
    91         67
    95         58
    97         31
   105        124
   107        131
   109         32
   111        136
   123         22
   124         87
   125        237
   126         35
   133          7
   153         11
   171        438
   172        119
   173         55