##TITLE=Library Entry 66047
##JCAMP-DX=Revision 4.10 
##DATA TYPE=MASS SPECTRUM
##SAMPLE DESCRIPTION=Exported from NIST MS Search
##NAMES=HP
##CAS NAME=Bicyclo[3.1.0]hex-2-ene, 4-methyl-1-(1-methylethyl)-
##MOLFORM=C10H16
##CAS REGISTRY NO=28634-89-1
##MP= -300
##BP= -300
##MW= 136
##$RETENTION INDEX=966
##$CONDENSED SPECTRUM=NO
##NPOINTS= 41
##XYDATA=(XY..XY) 1 
    15         35
    26         10
    27        188
    28         23
    29         52
    38         12
    39        175
    40         26
    41        178
    42         10
    43         83
    50         19
    51         67
    52         28
    53         73
    54          6
    55         30
    58          7
    62          6
    63         21
    65         57
    66         11
    67         22
    68          6
    77        363
    78         57
    79        116
    80         33
    81         15
    91        352
    92        308
    93        999
    94        102
   103         10
   105         36
   106         10
   107         13
   119          9
   121         29
   136         66
   137          7