##TITLE=Library Entry 71818
##JCAMP-DX=Revision 4.10 
##DATA TYPE=MASS SPECTRUM
##SAMPLE DESCRIPTION=D.HENNEBERG, MAX-PLANCK INSTITUTE, MULHEIM, WEST GERMAN
Y
##NAMES=HP
##CAS NAME=2(3H)-Furanone, 5-ethyldihydro-5-methyl-
##MOLFORM=C7H12O2
##CAS REGISTRY NO=2865-82-9
##MP= -300
##BP= -300
##MW= 128
##$RETENTION INDEX=1095
##$CONDENSED SPECTRUM=NO
##NPOINTS= 74
##XYDATA=(XY..XY) 1 
    26         84
    27        304
    28        248
    29        214
    30          3
    31          9
    32         12
    33          0
    37          4
    38         12
    39        132
    40         21
    41        212
    42         58
    43        828
    44         21
    45         10
    46          0
    47          1
    49          1
    50         14
    51         17
    52          7
    53         38
    54         21
    55        203
    56        203
    57        174
    58          6
    59          2
    60          1
    61          0
    62          1
    63          3
    64          1
    65          5
    66          2
    67         33
    68          7
    69        145
    70         12
    71        139
    72         17
    73        207
    74          9
    75          1
    77          1
    78          1
    79          3
    80          1
    81         16
    82          8
    83          5
    84         60
    85         31
    86          1
    91          0
    94          1
    95         33
    96          2
    97          1
    98          6
    99        999
   100         49
   101          6
   105          1
   107          0
   110          3
   111          1
   113        139
   114          8
   115          1
   128          2
   129          0