##TITLE=Library Entry 53171
##JCAMP-DX=Revision 4.10 
##DATA TYPE=MASS SPECTRUM
##SAMPLE DESCRIPTION=A.A.Kutin, Moscow, Russia
##NAMES=HP
##CAS NAME=2(5H)-Furanone, 3-hydroxy-4,5-dimethyl-
##MOLFORM=C6H8O3
##CAS REGISTRY NO=28664-35-9
##MP= -300
##BP= -300
##MW= 128
##$RETENTION INDEX=1110
##$CONDENSED SPECTRUM=NO
##NPOINTS= 63
##XYDATA=(XY..XY) 1 
    34          0
    36          0
    37         15
    38         28
    39        135
    40         18
    41         67
    43        443
    44         32
    45         41
    46          1
    47          0
    48          1
    49          6
    50         24
    51         25
    52         14
    53         97
    55        702
    56        111
    57        423
    58         23
    59          1
    60          0
    61          2
    62          2
    63          3
    64          1
    65          4
    66          6
    67         14
    68          1
    69         12
    71         42
    72        206
    73         11
    74          0
    78          0
    81          6
    83        999
    84        101
    85        202
    86         10
    87          1
    89          0
    92          0
    93          0
    94          0
    95          0
    98          1
    99         11
   100         30
   101          2
   107          0
   108          0
   113        101
   114          7
   115          9
   116          3
   121          0
   122          0
   128        787
   129        173