##TITLE=Library Entry 59732
##JCAMP-DX=Revision 4.10 
##DATA TYPE=MASS SPECTRUM
##SAMPLE DESCRIPTION=Humboldt-Universitat zu Berlin, Department of Chemistry
, Analytical Group
##NAMES=HP
##CAS NAME=Acetic acid, phenylhydrazonochloro-, ethyl ester
##MOLFORM=C10H11ClN2O2
##CAS REGISTRY NO=28663-68-5
##MP= -300
##BP= -300
##MW= 226
##$RETENTION INDEX=0
##$CONDENSED SPECTRUM=NO
##NPOINTS= 150
##XYDATA=(XY..XY) 1 
    12          1
    13          1
    14          7
    15         29
    16          5
    17         22
    18         82
    19          1
    25          1
    26         29
    27        171
    28         55
    29        328
    30         13
    31          3
    32          0
    35          3
    36          7
    37         15
    38         57
    39        267
    40         36
    41         38
    42          6
    43         22
    44          9
    45         12
    47          3
    48          1
    49          3
    50         27
    51         83
    52         43
    53          6
    54         20
    55          5
    56          1
    57          5
    59          1
    60          1
    61          9
    62         42
    63         85
    64        149
    65        543
    66         52
    67          5
    68          1
    69          3
    70          1
    71          2
    72          0
    73          2
    74          6
    75          5
    77        113
    78         14
    79          6
    80          1
    81          1
    82          1
    83          2
    84          2
    85          1
    87          2
    88          4
    89         12
    91        999
    92        438
    93         58
    94          4
    95          1
    96          0
    97          1
    98          2
    99          3
   100          1
   101          1
   102          1
   103          2
   104          2
   105         18
   106          4
   107          6
   108          1
   109          0
   110          0
   111          0
   112          1
   113          3
   114          4
   115          2
   116          4
   117          7
   118         60
   119         34
   120         17
   121          5
   122          0
   123          2
   124          2
   125          4
   126          3
   127          3
   128          1
   129          1
   131          1
   132          0
   133          4
   134          2
   135          0
   140          0
   141          4
   142          0
   143          1
   144          3
   145         32
   146          4
   147          2
   149          1
   150          1
   152        285
   153         39
   154         88
   155         11
   156          1
   162          9
   163          2
   164          0
   167          0
   169          0
   171          0
   173          0
   180         12
   181         14
   182          5
   183          5
   184          0
   190          5
   191          0
   197          1
   198         20
   199          2
   200          7
   201          0
   226        184
   227         22
   228         62
   229          7
   230          0