##TITLE=Library Entry 54183
##JCAMP-DX=Revision 4.10 
##DATA TYPE=MASS SPECTRUM
##SAMPLE DESCRIPTION=Div. of Experiment Therapeutics WRAIR, WRAMC, Washingto
n DC 20307
##NAMES=HP
##CAS NAME=N-[3-Isoquinolyl]-3-N-pyrrolidinopropylamine
##MOLFORM=C16H21N3
##CAS REGISTRY NO=28662-42-2
##MP= -300
##BP= -300
##MW= 255
##$RETENTION INDEX=0
##$CONDENSED SPECTRUM=NO
##NPOINTS= 96
##XYDATA=(XY..XY) 1 
    41         64
    42        173
    43         34
    44         13
    47          2
    49          2
    50          5
    51         19
    52          4
    53          6
    54         19
    55         97
    56         46
    57         21
    58          4
    62          5
    63         13
    64          4
    65          5
    67          5
    68         22
    69         21
    70         76
    71         35
    72          7
    74          3
    75         12
    76          8
    77         41
    78         12
    79          3
    80          5
    81          3
    82         26
    83         58
    84        999
    85         62
    86         14
    87          1
    88          6
    89         35
    90         19
    91          8
    92          3
    94          1
    96        175
    97         34
    98        130
    99         14
   100          5
   101         42
   102         30
   103         11
   108          1
   109          3
   110        597
   111        145
   112         16
   114          6
   115         12
   116         35
   117         72
   118          9
   128        180
   129        109
   130        131
   131         13
   142          8
   143         14
   144         63
   145         42
   146         16
   155          4
   156         35
   157        274
   158        164
   159         18
   160          5
   167          4
   168         11
   169         89
   170         89
   171        180
   172         22
   181          4
   182          1
   183         28
   184         28
   185         40
   186         26
   187          3
   188          3
   254          3
   255        159
   256         38
   257          4