##TITLE=Library Entry 22066
##JCAMP-DX=Revision 4.10 
##DATA TYPE=MASS SPECTRUM
##SAMPLE DESCRIPTION=D.HENNEBERG, MAX-PLANCK INSTITUTE, MULHEIM, WEST GERMAN
Y
##NAMES=HP
##CAS NAME=4-Undecene, 2-methyl-, (E)-
##MOLFORM=C12H24
##CAS REGISTRY NO=28665-57-8
##MP= -300
##BP= -300
##MW= 168
##$RETENTION INDEX=0
##$CONDENSED SPECTRUM=NO
##NPOINTS= 53
##XYDATA=(XY..XY) 1 
    21          6
    25         11
    26         27
    27        244
    28         67
    29        210
    31          8
    39        309
    40         26
    41        841
    42        113
    43        642
    44         16
    49          9
    51         27
    52         20
    53        110
    54        250
    55        824
    56        999
    57        436
    58         29
    65         48
    66         11
    67        112
    68         80
    69        837
    70        211
    71         55
    75          6
    77         26
    78         13
    79         28
    80         19
    81         73
    82         46
    83        330
    84        116
    85         25
    91         10
    93          6
    95         12
    96          7
    97        117
    98         18
   111         15
   112         61
   113          6
   125         12
   126         14
   140         15
   168         91
   169         17