##TITLE=Library Entry 66196
##JCAMP-DX=Revision 4.10 
##DATA TYPE=MASS SPECTRUM
##SAMPLE DESCRIPTION=NIST Mass Spectrometry Data Center, 2010
##NAMES=HP
##CAS NAME=Bicyclo[3.1.0]hex-2-ene, 2-methyl-5-(1-methylethyl)-
##MOLFORM=C10H16
##CAS REGISTRY NO=2867-05-2
##MP= -300
##BP= -300
##MW= 136
##$RETENTION INDEX=929
##$CONDENSED SPECTRUM=NO
##NPOINTS= 49
##XYDATA=(XY..XY) 1 
    27         23
    39         90
    41         94
    43         49
    50         14
    51         44
    52         18
    53         41
    54          6
    55         23
    57          7
    58          6
    59          4
    62          4
    63         21
    64          9
    65         72
    66         14
    67         27
    68          6
    74          3
    75          5
    77        423
    78         65
    79        124
    80         30
    81          9
    89          5
    90          2
    91        523
    92        311
    93        999
    94         84
   103         15
   104          3
   105         49
   106         18
   107         15
   108          3
   114          1
   115         11
   116          5
   117         10
   119         34
   120          6
   121         44
   122          5
   136        106
   137          7