##TITLE=Library Entry 35650
##JCAMP-DX=Revision 4.10 
##DATA TYPE=MASS SPECTRUM
##SAMPLE DESCRIPTION=NIST Mass Spectrometry Data Center
##NAMES=HP
##CAS NAME=Trifluoroacetyl-lavandulol
##MOLFORM=C12H17F3O2
##CAS REGISTRY NO=28673-24-7
##MP= -300
##BP= -300
##MW= 250
##$RETENTION INDEX=1251
##$CONDENSED SPECTRUM=NO
##NPOINTS= 134
##XYDATA=(XY..XY) 1 
    15          6
    17          1
    18          1
    20          2
    26          3
    27         57
    28         24
    29         79
    30          3
    31          8
    32          1
    33          4
    37          1
    38          4
    39        129
    40         39
    41        467
    42         39
    43        210
    44         13
    45         25
    46          1
    47          9
    50         16
    51         26
    52         11
    53        123
    54         18
    55        154
    56        139
    57         45
    58          9
    59         16
    60          2
    61         55
    62          3
    63          3
    64          1
    65         39
    66         17
    67        272
    68        409
    69        999
    70         54
    71          9
    72          1
    73          7
    74          1
    75          1
    77         50
    78         15
    79        203
    80        184
    81        318
    82         45
    83         18
    84          2
    85          5
    86          1
    87          1
    89          1
    91         54
    92         32
    93        538
    94         81
    95        177
    96         20
    97         69
    98          2
    99         38
   100          2
   103          3
   104          1
   105         28
   106          6
   107         93
   108         49
   109         20
   110          2
   111          3
   112          1
   113          5
   114          1
   115          6
   116          1
   117          3
   119          9
   121        439
   122         46
   123         70
   124          7
   125         19
   126          1
   127          8
   131          1
   133          1
   134          1
   135          9
   136        124
   137        261
   138         27
   139          3
   141          1
   143          1
   147          2
   150          1
   151          1
   153          2
   155         72
   156          4
   163          1
   164          4
   165          2
   166          1
   167         12
   168          2
   169          2
   175          1
   177          1
   179          3
   180          2
   181          5
   182          6
   183          1
   189          1
   193          1
   194         15
   195          2
   206          1
   207          2
   208          2
   235          1
   250          6
   251          1