##TITLE=Library Entry 48810
##JCAMP-DX=Revision 4.10 
##DATA TYPE=MASS SPECTRUM
##SAMPLE DESCRIPTION=Chemical Concepts
##NAMES=HP
##CAS NAME=2,5-Methano-1H-inden-1-one, 2,3,3a,4,5,7a-hexahydro-
##MOLFORM=C10H12O
##CAS REGISTRY NO=28673-75-8
##MP= -300
##BP= -300
##MW= 148
##$RETENTION INDEX=0
##$CONDENSED SPECTRUM=NO
##NPOINTS= 73
##XYDATA=(XY..XY) 1 
    26         12
    27        112
    28         15
    29          8
    37          7
    38         25
    39        215
    40         41
    41        120
    42         11
    43          5
    44         16
    45          3
    49          3
    50         51
    51        129
    52         61
    53         78
    54         13
    55         48
    56          4
    57         13
    58         21
    59          7
    61          5
    62         18
    63         60
    64         16
    65        101
    66        122
    67         22
    68         13
    69          4
    70          4
    73          3
    74         10
    75         18
    76         11
    77        371
    78        805
    79        999
    80        163
    81         21
    82          5
    86          3
    87          4
    89         17
    90          7
    91        257
    92        169
    93         29
    94         14
    95          6
   102          6
   103         26
   104         16
   105        116
   106         16
   107          9
   115         23
   116          6
   117         20
   118          5
   119         22
   120         32
   121          5
   128          3
   129          6
   130          3
   133          4
   148        194
   149         24
   150          4