##TITLE=Library Entry 1171
##JCAMP-DX=Revision 4.10 
##DATA TYPE=MASS SPECTRUM
##SAMPLE DESCRIPTION=Chuck Anderson, Aldrich Chemical Co.
##NAMES=HP
##CAS NAME=1,5-Dichloro-2,3-dinitrobenzene
##MOLFORM=C6H2Cl2N2O4
##CAS REGISTRY NO=28689-08-9
##MP= -300
##BP= -300
##MW= 236
##$RETENTION INDEX=0
##$CONDENSED SPECTRUM=NO
##NPOINTS= 144
##XYDATA=(XY..XY) 1 
    16          1
    17          1
    18          5
    24          0
    25          1
    26          1
    27          1
    28          5
    29          0
    30        999
    31          4
    32          3
    35          3
    36          9
    37         27
    38         14
    39          1
    41          0
    44          2
    45          0
    46         41
    47          7
    48          2
    49         14
    50         10
    51          6
    52          2
    53          4
    54          0
    55          0
    60         13
    61         33
    62         49
    63         29
    64          9
    65          8
    66          1
    67          1
    71          6
    72         24
    73         65
    74        207
    75         24
    76          7
    77          1
    78          0
    79          0
    80          0
    82          0
    83          7
    84         72
    85         17
    86         33
    87         21
    88         15
    89          4
    90          3
    91          0
    92          1
    94          2
    95          2
    96         13
    97        201
    98         22
    99         68
   100          7
   101          3
   102          1
   106          1
   107         16
   108         36
   109        185
   110         50
   111         61
   112         13
   113         15
   114          1
   115          4
   118          3
   119          2
   120         21
   121          2
   122         15
   123          2
   124         10
   125          6
   126          4
   127          6
   128          0
   129          1
   131          3
   132         64
   133          4
   134         46
   135          3
   136         10
   137          5
   138          2
   139          2
   140          0
   143          1
   144         62
   145          4
   146         43
   147          2
   148         25
   149          1
   150         12
   152          1
   153          1
   155          1
   160         22
   161          0
   162         25
   163          1
   164         27
   165          0
   166         12
   167          1
   172          1
   174          1
   176          3
   177          0
   178          2
   190         13
   191          0
   192          9
   193          0
   194          1
   204          1
   206         15
   207          1
   208          9
   209          0
   210          1
   220          3
   222          2
   235          0
   236        112
   237          7
   238         74
   239          4
   240         12
   241          0