##TITLE=Library Entry 66843
##JCAMP-DX=Revision 4.10 
##DATA TYPE=MASS SPECTRUM
##SAMPLE DESCRIPTION=A.A.Kutin, Moscow, Russia
##NAMES=HP
##CAS NAME=Benzaldehyde, 2-hydroxy-5-(1-methylpropyl)-, phenylhydrazone
##MOLFORM=C17H20N2O
##CAS REGISTRY NO=286832-98-2
##MP= -300
##BP= -300
##MW= 268
##$RETENTION INDEX=0
##$CONDENSED SPECTRUM=NO
##NPOINTS= 200
##XYDATA=(XY..XY) 1 
    33          1
    34          1
    35          0
    36          1
    37          6
    38         22
    39        159
    40         35
    41         86
    42         13
    43         27
    44         24
    45          5
    47          3
    49          2
    50         21
    51         76
    52         35
    53         44
    54         17
    55         49
    56         12
    57         32
    58          2
    60          3
    61          5
    62         11
    63         48
    64         55
    65        372
    66         94
    67         18
    68          5
    69          9
    70          6
    71          8
    72          2
    73          5
    74          5
    75         11
    76         18
    77        177
    78         40
    79         33
    80          9
    81          7
    82          3
    83          6
    84          3
    85          3
    86          1
    87          2
    88          4
    89         23
    90         22
    91        191
    92        321
    93        999
    94        179
    95         17
    96          2
    97          4
    98          2
    99          1
   101         11
   102         19
   103         51
   104         21
   105         40
   106         21
   107         41
   108          7
   109          5
   110          2
   111          2
   113         19
   114          3
   115         23
   116         16
   117         21
   118         52
   119        255
   120        132
   121         99
   122         10
   123          2
   124          0
   125          2
   126          2
   127          6
   128         10
   129         19
   130          7
   131         14
   132         31
   133         29
   134         44
   135         11
   136          6
   137          3
   138          0
   139          2
   140          2
   141          2
   142          2
   143          3
   144          5
   145         10
   146         93
   147         35
   148         62
   149         16
   150          7
   151          2
   152          4
   153          2
   154          3
   155          2
   156          5
   157          3
   158          2
   159          3
   160         10
   161          6
   162          8
   163         45
   164          6
   165          6
   166          9
   167          9
   168          5
   169          2
   170          2
   171          5
   172          1
   173          1
   175          6
   176         14
   177          8
   178          3
   179          2
   180          3
   181          5
   182          8
   183         10
   184         13
   185          2
   186          0
   189          0
   190          0
   191          1
   192          3
   193          4
   194          7
   195         15
   196          5
   197          3
   198          1
   199          0
   201          1
   204          1
   205          2
   206          1
   207          3
   208          2
   209          4
   210          9
   211         51
   212         17
   213          3
   219          3
   221         13
   222         15
   223          8
   224          5
   225          4
   226          2
   227          1
   234          0
   235          2
   236          3
   237         22
   239        310
   240         44
   241          5
   242          0
   249          1
   251        102
   252         21
   253         26
   254          5
   264          0
   265          3
   267        130
   268        745
   269        139
   270         14
   271          1
   277          1
   278          0