##TITLE=Library Entry 20987
##JCAMP-DX=Revision 4.10 
##DATA TYPE=MASS SPECTRUM
##SAMPLE DESCRIPTION=Exported from NIST MS Search
##NAMES=HP
##CAS NAME=Pregn-4-ene-3,20-dione, 17-hydroxy-16-methyl-, (16.alpha.)-
##MOLFORM=C22H32O3
##CAS REGISTRY NO=2868-02-2
##MP= -300
##BP= -300
##MW= 344
##$RETENTION INDEX=0
##$CONDENSED SPECTRUM=NO
##NPOINTS= 257
##XYDATA=(XY..XY) 1 
    50         34
    51        186
    52        134
    53        630
    54        131
    55        999
    56         76
    57        225
    58         34
    59         38
    60          5
    61          5
    62         10
    63         62
    64         35
    65        313
    66        152
    67        625
    68        124
    69        297
    70         31
    71        230
    72        240
    73         23
    74          8
    75         23
    76         17
    77        716
    78        216
    79        860
    80        150
    81        423
    82         73
    83        135
    84         22
    85        343
    86         61
    87         23
    88          5
    89         34
    90         27
    91        935
    92        177
    93        505
    94        160
    95        384
    96        105
    97        145
    98         30
    99         38
   100         22
   101        290
   102         37
   103        104
   104         77
   105        565
   106        150
   107        555
   108        174
   109        324
   110         66
   111         79
   112         12
   113         25
   114         25
   115        150
   116         73
   117        198
   118         80
   119        350
   120        195
   121        490
   122        288
   123        410
   124        470
   125         80
   126         12
   127         45
   128        122
   129        116
   130         52
   131        197
   132         85
   133        300
   134        197
   135        250
   136        168
   137        220
   138         90
   139         25
   140         10
   141         57
   142         54
   143         93
   144         48
   145        175
   146         87
   147        268
   148        173
   149        305
   150         94
   151         68
   152         25
   153         20
   154         11
   155         41
   156         24
   157         83
   158         43
   159        217
   160         90
   161        231
   162         95
   163         92
   164         22
   165         22
   166          7
   167         18
   168          8
   169         35
   170         22
   171         80
   172         50
   173        150
   174        144
   175        255
   176         83
   177         68
   178         17
   179         13
   180          7
   181         13
   182          3
   183         34
   184         29
   185        104
   186         66
   187        220
   188         73
   189        135
   190         60
   191         30
   192         10
   193         17
   194          2
   195         13
   196          2
   197         26
   198         22
   199         63
   200         61
   201        143
   202        180
   203        156
   204         48
   205         20
   206          2
   207          2
   208          2
   209         17
   210         10
   211         54
   212         20
   213        105
   214         45
   215         82
   216         39
   217         62
   218         14
   219          5
   220          3
   221          5
   223         14
   224         10
   225         35
   226         42
   227        115
   228        143
   229        465
   230        107
   231         97
   232         62
   233         12
   235          2
   237         10
   238          5
   239         18
   240         15
   241        185
   242        124
   243        116
   244        520
   245        555
   246         97
   247         10
   248          2
   249          2
   250          2
   251         11
   252          2
   253         12
   254         15
   255         52
   256         82
   257         73
   258         27
   259         12
   260          6
   265         20
   266         10
   267         15
   268         13
   269        114
   270         42
   271         15
   272         28
   273         20
   274         18
   275          2
   279          5
   280         30
   281         20
   282         15
   283        307
   284        610
   285        135
   286         33
   287          7
   293         24
   294          5
   297         30
   298        327
   299         90
   301        200
   302         44
   303          4
   307          4
   308         18
   309         10
   311        243
   312         60
   313         10
   314         14
   316        300
   317         68
   318          8
   324          8
   326        540
   327        138
   328         35
   329         47
   330         10
   340          8
   342         10
   344        760
   345        193
   346         25