##TITLE=Library Entry 1018
##JCAMP-DX=Revision 4.10 
##DATA TYPE=MASS SPECTRUM
##SAMPLE DESCRIPTION=Japan AIST/NIMC Database- Spectrum MS-NW-8307
##NAMES=HP
##CAS NAME=1-Tridecanamine
##MOLFORM=C13H29N
##CAS REGISTRY NO=2869-34-3
##MP= -300
##BP= -300
##MW= 199
##$RETENTION INDEX=0
##$CONDENSED SPECTRUM=NO
##NPOINTS= 57
##XYDATA=(XY..XY) 1 
    16          2
    17          1
    18          1
    27         14
    28         32
    29         34
    30        999
    31         19
    32          4
    39          9
    40          2
    41         64
    42         16
    43         66
    44        100
    45         70
    46          1
    53          3
    54          4
    55         49
    56         26
    57         23
    58          6
    59         19
    67          4
    68          4
    69         26
    70         11
    71          6
    72         15
    73          7
    81          1
    82          4
    83         12
    84          7
    85          2
    86         37
    87          5
    96          2
    97          8
    98          4
   100         17
   101          2
   110          1
   111          3
   112          3
   114          8
   115          1
   125          1
   126          1
   128          5
   142          6
   156          5
   170          3
   184          1
   198          4
   199          6