##TITLE=Library Entry 109173
##JCAMP-DX=Revision 4.10 
##DATA TYPE=MASS SPECTRUM
##SAMPLE DESCRIPTION=Chemical Concepts
##NAMES=HP
##CAS NAME=Benzene, (1-propenylsulfonyl)-, (E)-
##MOLFORM=C9H10O2S
##CAS REGISTRY NO=28691-72-7
##MP= -300
##BP= -300
##MW= 182
##$RETENTION INDEX=0
##$CONDENSED SPECTRUM=NO
##NPOINTS= 129
##XYDATA=(XY..XY) 1 
    27         61
    29         16
    30          0
    31          2
    33          0
    34          1
    35         16
    36          1
    37         14
    38         35
    39        362
    40         22
    41        207
    42          6
    43        112
    44          8
    45         63
    46          2
    47          6
    48          6
    49          7
    50        107
    51        407
    52         33
    53         19
    54          1
    55          5
    56          1
    57         21
    58         13
    59          7
    60          1
    61         38
    62          6
    63         16
    64          6
    65         52
    66         24
    67          2
    68          0
    69         13
    70          3
    71         10
    72          5
    73          8
    74         30
    75         24
    76         22
    77        507
    78        225
    79         17
    80          0
    81         19
    82          3
    83          1
    84          1
    85          0
    86          1
    87          3
    88          1
    89         50
    90          4
    91         29
    92          4
    93          7
    94        206
    95         13
    96          2
    97        142
    98          8
    99          5
   100          0
   101          0
   102          2
   103         10
   104          1
   105          9
   106          1
   107          0
   108          3
   109         29
   110         24
   111          3
   112          1
   113          1
   114          1
   115         33
   116         10
   117         39
   118         15
   119          2
   120          1
   121          2
   122          1
   123          0
   124          0
   125        999
   126        140
   127         48
   128          5
   129          0
   131          0
   132          1
   133          5
   134          2
   135          3
   136          1
   137         27
   138          2
   139          2
   141         11
   142          2
   143          1
   147         11
   148          1
   149          1
   150          0
   151          1
   153         15
   154          2
   155          1
   163          0
   166          0
   167          1
   181          1
   182        126
   183         14
   184          5
   185          1