##TITLE=Library Entry 163
##JCAMP-DX=Revision 4.10 
##DATA TYPE=MASS SPECTRUM
##SAMPLE DESCRIPTION=Exported from NIST MS Search
##NAMES=HP
##CAS NAME=Cyclobutane
##MOLFORM=C4H8
##CAS REGISTRY NO=287-23-0
##MP= -300
##BP= -300
##MW= 56
##$RETENTION INDEX=465
##$CONDENSED SPECTRUM=NO
##NPOINTS= 31
##XYDATA=(XY..XY) 1 
     1         26
     2          2
    12          5
    13          8
    14         21
    15         30
    24          2
    25         16
    26        226
    27        420
    28        999
    29        111
    36          3
    37         24
    38         33
    39        198
    40         62
    41        893
    42         31
    43          1
    48          3
    49         17
    50         50
    51         37
    52         10
    53         47
    54         34
    55        193
    56        622
    57         27
    58          1