##TITLE=Library Entry 17921
##JCAMP-DX=Revision 4.10 
##DATA TYPE=MASS SPECTRUM
##SAMPLE DESCRIPTION=Exported from NIST MS Search
##NAMES=HP
##CAS NAME=Thietane
##MOLFORM=C3H6S
##CAS REGISTRY NO=287-27-4
##MP= -300
##BP= -300
##MW= 74
##$RETENTION INDEX=744
##$CONDENSED SPECTRUM=NO
##NPOINTS= 47
##XYDATA=(XY..XY) 1 
    12          6
    13          9
    14         16
    15         15
    16          1
    24          2
    25          8
    26         49
    27         81
    28         32
    29          6
    30          1
    32         19
    33          8
    34          4
    35          8
    36          5
    37         17
    38         24
    39         96
    40         10
    41         84
    42          4
    43          1
    44         10
    45        246
    46        999
    47         72
    48         46
    49          2
    50          1
    56          2
    57         10
    58         19
    59         19
    60          2
    61          1
    68          4
    69         13
    70          2
    71         15
    72          2
    73         21
    74        420
    75         17
    76         19
    77          1