##TITLE=Library Entry 100330
##JCAMP-DX=Revision 4.10 
##DATA TYPE=MASS SPECTRUM
##SAMPLE DESCRIPTION=Exported from NIST MS Search
##NAMES=HP
##CAS NAME=Benzene, 2-ethyl-1,3-dimethyl-
##MOLFORM=C10H14
##CAS REGISTRY NO=2870-04-4
##MP= -300
##BP= -300
##MW= 134
##$RETENTION INDEX=1080
##$CONDENSED SPECTRUM=NO
##NPOINTS= 89
##XYDATA=(XY..XY) 1 
     1          1
     2          3
    12          1
    13          1
    14          1
    15         24
    16          1
    23          1
    25          1
    26          4
    27         59
    28          6
    29         10
    30          1
    37          1
    38          7
    39         88
    40         11
    41         58
    42          2
    43          1
    44          1
    45          1
    46          1
    49          1
    50         13
    51         52
    52         18
    53         31
    54          1
    55          4
    56          1
    57          4
    58         11
    59          3
    60          1
    61          1
    62          6
    63         29
    64         21
    65         56
    66         20
    67          5
    73          1
    74          3
    75          7
    76          6
    77         81
    78         29
    79         29
    80          2
    81          1
    82          1
    85          1
    86          1
    87          2
    88          1
    89         11
    90          5
    91        115
    92         12
    93         11
    94          1
    95          1
    98          1
    99          1
   100          1
   101          5
   102          6
   103         38
   104         26
   105         65
   106         11
   107          2
   113          3
   114          6
   115         54
   116         26
   117         54
   118         22
   119        999
   120         89
   121          3
   131          6
   132          1
   133         10
   134        290
   135         34
   136          2