##TITLE=Library Entry 71642
##JCAMP-DX=Revision 4.10 
##DATA TYPE=MASS SPECTRUM
##SAMPLE DESCRIPTION=Div. of Experiment Therapeutics WRAIR, WRAMC, Washingto
n DC 20307
##NAMES=HP
##CAS NAME=3-[3-Pyrrolidin-1-yl]butylamino]isoquinoline
##MOLFORM=C17H23N3
##CAS REGISTRY NO=28707-13-3
##MP= -300
##BP= -300
##MW= 269
##$RETENTION INDEX=0
##$CONDENSED SPECTRUM=NO
##NPOINTS= 113
##XYDATA=(XY..XY) 1 
    41         67
    42         58
    43         25
    44         21
    47          1
    49          7
    50          3
    51         11
    52          3
    53          7
    54         21
    55         54
    56        110
    57          8
    58          2
    62          3
    63         10
    64          2
    65          2
    67          2
    68         24
    69         36
    70         68
    71         18
    72          2
    74          2
    75          8
    76          6
    77         32
    78          7
    79          1
    80          2
    81          1
    82         10
    83         12
    84         35
    85          4
    86          6
    87          1
    88          5
    89         30
    90         13
    91          2
    94          2
    95          1
    96         29
    97         24
    98        999
    99         75
   101         40
   102         24
   103          7
   104          1
   108          1
   110        103
   111         15
   112         53
   113          5
   114          4
   115         10
   116         35
   117         47
   118          4
   122          0
   124        122
   125         31
   126         38
   127         12
   128        138
   129         63
   130         55
   131          5
   135          7
   139          2
   141          1
   142          6
   143          9
   144         41
   145         19
   146          2
   154          1
   155          2
   156          8
   157        178
   158         60
   159          5
   160          1
   168          2
   169         47
   170         13
   171         52
   172          9
   181          4
   182          5
   183         26
   184         61
   185          9
   195          0
   197          9
   198         14
   199          8
   200          9
   201          1
   202          1
   212          1
   224          0
   226          1
   254          0
   267          3
   268         10
   269         79
   270         16
   271          2