##TITLE=Library Entry 61015
##JCAMP-DX=Revision 4.10 
##DATA TYPE=MASS SPECTRUM
##SAMPLE DESCRIPTION=LAC, NIDDK, NIH, Bethesda, MD 20892
##NAMES=HP
##CAS NAME=2,5-Di-O-benzoyl-1,3,4,6-tetra-O-benzyl-d-mannitol
##MOLFORM=C48H46O8
##CAS REGISTRY NO=28712-16-5
##MP= -300
##BP= -300
##MW= 750
##$RETENTION INDEX=0
##$CONDENSED SPECTRUM=NO
##NPOINTS= 74
##XYDATA=(XY..XY) 1 
    41          5
    43          5
    44         12
    45          1
    50          7
    51         15
    52          1
    55          4
    57          5
    62          1
    63          6
    65         31
    66          2
    69         26
    76          1
    77         81
    78          9
    79         10
    81          6
    82          2
    89          8
    91        999
    92         76
    93          4
   100          1
   105        352
   106         31
   107         15
   108          4
   111         10
   117          3
   119          5
   122          7
   123          4
   131         12
   133          2
   136          2
   145          7
   163          5
   167          1
   177         28
   178          6
   179          4
   180          1
   181        138
   182         20
   195          7
   201          2
   203          1
   207          8
   215          6
   219         14
   233          1
   251          1
   253          8
   264          5
   267          1
   269          8
   297          4
   325          4
   355         12
   356          2
   375         80
   376         21
   377          1
   414          1
   431          1
   445         13
   502          1
   551          4
   553         47
   554         15
   555          2
   750          1