##TITLE=Library Entry 70354
##JCAMP-DX=Revision 4.10 
##DATA TYPE=MASS SPECTRUM
##SAMPLE DESCRIPTION=A.ROSENTHAL, UNIVERSITY OF BRITISH COLUMBIA, VANCOUVER,
 CANADA
##NAMES=HP
##CAS NAME=Tri-O-acetyl-D-glucal
##MOLFORM=C12H16O7
##CAS REGISTRY NO=2873-29-2
##MP= -300
##BP= -300
##MW= 272
##$RETENTION INDEX=0
##$CONDENSED SPECTRUM=NO
##NPOINTS= 21
##XYDATA=(XY..XY) 1 
    54         60
    60        320
    68        100
    69         80
    73         33
    80         80
    81        400
    85         60
    86        270
    97        999
   102         10
   110        999
   127         50
   128        220
   139        900
   144         10
   145         70
   152        360
   170        100
   199         20
   229         30