##TITLE=Library Entry 17736
##JCAMP-DX=Revision 4.10 
##DATA TYPE=MASS SPECTRUM
##SAMPLE DESCRIPTION=V.A.Korolev, Moscow, Russia
##NAMES=HP
##CAS NAME=3-Chloro-1H-indole-2-carboxylic acid
##MOLFORM=C9H6ClNO2
##CAS REGISTRY NO=28737-32-8
##MP= -300
##BP= -300
##MW= 195
##$RETENTION INDEX=0
##$CONDENSED SPECTRUM=NO
##NPOINTS= 93
##XYDATA=(XY..XY) 1 
    35          4
    36          4
    37         39
    38         68
    39        135
    40         39
    41         32
    42         19
    43         55
    44         45
    45        999
    46         24
    47         60
    48         26
    49        115
    50        198
    51        153
    52        136
    53         33
    54         21
    55         26
    56         21
    57         46
    59         24
    60         51
    61        167
    62        194
    63        171
    64         59
    65         35
    66          8
    67          3
    69          8
    70          2
    71         13
    72         45
    73        102
    74        107
    75        109
    76        112
    77         70
    78         13
    79          3
    84         39
    85         59
    86         89
    87        130
    88        131
    89         93
    90          9
    91          2
    95          3
    96         21
    97         51
    98         16
    99         21
   100         10
   101          6
   102         16
   103          5
   104          9
   105          2
   110          6
   111          9
   112         11
   114        340
   115         65
   116          7
   121         11
   122          2
   123        153
   124         17
   125         50
   126          4
   132          6
   133          2
   143         22
   144          1
   148         12
   149        280
   150         56
   151         95
   152         13
   160         14
   161          5
   177        470
   178         50
   179        156
   180         16
   195        207
   196         21
   197         66
   198          7