##TITLE=Library Entry 2299
##JCAMP-DX=Revision 4.10 
##DATA TYPE=MASS SPECTRUM
##SAMPLE DESCRIPTION=RADIAN CORP
##NAMES=HP
##CAS NAME=Pentanedioyl dichloride
##MOLFORM=C5H6Cl2O2
##CAS REGISTRY NO=2873-74-7
##MP= -300
##BP= -300
##MW= 168
##$RETENTION INDEX=0
##$CONDENSED SPECTRUM=NO
##NPOINTS= 90
##XYDATA=(XY..XY) 1 
    12          1
    13          5
    14         23
    15         43
    16          1
    20          2
    24          1
    25         12
    26        101
    27        296
    28         46
    29         58
    30          3
    31          7
    33          3
    34         20
    35         87
    36         25
    37         67
    38         99
    39        439
    40         70
    41        999
    42        855
    43         67
    44         14
    45          8
    47          8
    48         10
    49        132
    50         23
    51         38
    52          5
    53         23
    54          8
    55        825
    56         32
    57          5
    58          6
    59        135
    60         11
    61         23
    62          8
    63        482
    64         12
    65        159
    66          5
    67          3
    68         35
    69         86
    70         51
    71          5
    72          7
    73          6
    74         13
    75         20
    76         68
    77        274
    78         54
    79         89
    80         13
    81          2
    85          8
    86          1
    87          9
    89         11
    91         19
    92          3
    93          6
    95          3
    96          5
    97        363
    98         23
    99          5
   100         88
   101         79
   102          6
   104        293
   105        635
   106        124
   107        208
   108         10
   128          6
   129         39
   130          3
   132         25
   133        776
   134         51
   135        252
   136         15