##TITLE=Library Entry 28142
##JCAMP-DX=Revision 4.10 
##DATA TYPE=MASS SPECTRUM
##SAMPLE DESCRIPTION=Japan AIST/NIMC Database- Spectrum MS-NW-4274
##NAMES=HP
##CAS NAME=2-Propenamide, N-(1,1-dimethyl-3-oxobutyl)-
##MOLFORM=C9H15NO2
##CAS REGISTRY NO=2873-97-4
##MP= -300
##BP= -300
##MW= 169
##$RETENTION INDEX=0
##$CONDENSED SPECTRUM=NO
##NPOINTS= 69
##XYDATA=(XY..XY) 1 
    14          1
    15         38
    18          2
    25          1
    26         11
    27        159
    28         16
    29         26
    30         11
    31          2
    37          1
    38          3
    39         30
    40          7
    41         43
    42         57
    43        414
    44         17
    45          3
    50          1
    51          2
    52          3
    53          8
    54         14
    55        500
    56         30
    57         26
    58        999
    59         36
    60          3
    67          2
    68          3
    69          2
    70          6
    71          6
    72        305
    73         13
    74          1
    79          1
    81          3
    82          9
    83        198
    84         22
    85          5
    86          2
    94          1
    96          4
    97          7
    98        121
    99         25
   100        157
   101          9
   109          1
   110          6
   111          9
   112        318
   113         22
   114         12
   115          1
   123          1
   126        180
   127         48
   128          3
   141          2
   152          2
   154         52
   155          5
   169         42
   170          5