##TITLE=Library Entry 11204
##JCAMP-DX=Revision 4.10 
##DATA TYPE=MASS SPECTRUM
##SAMPLE DESCRIPTION=Chemical Concepts
##NAMES=HP
##CAS NAME=N-Cyanomethyl-N-methylacetamide
##MOLFORM=C5H8N2O
##CAS REGISTRY NO=28741-21-1
##MP= -300
##BP= -300
##MW= 112
##$RETENTION INDEX=0
##$CONDENSED SPECTRUM=NO
##NPOINTS= 57
##XYDATA=(XY..XY) 1 
    25          1
    26          9
    27         30
    28         72
    29         10
    30         53
    31          1
    37          1
    38          9
    39         18
    40         71
    41         51
    42        190
    43        999
    44         97
    45          3
    50          1
    51          3
    52          4
    53          5
    54          8
    55         11
    56         34
    57         11
    58          1
    63          0
    65          1
    66          3
    67         14
    68          3
    69        179
    70        107
    71          8
    72          5
    73          0
    74          0
    76          1
    77          1
    81          1
    82          0
    83          6
    84         27
    85          2
    86          6
    91          1
    93          1
    95          1
    97         31
    98          1
   104          1
   105          0
   108          1
   109          0
   110          1
   111          1
   112        255
   113         18