##TITLE=Library Entry 2250
##JCAMP-DX=Revision 4.10 
##DATA TYPE=MASS SPECTRUM
##SAMPLE DESCRIPTION=NIST Mass Spectrometry Data Center, 1990.
##NAMES=HP
##CAS NAME=Benzaldehyde, 2-(2-propenyloxy)-
##MOLFORM=C10H10O2
##CAS REGISTRY NO=28752-82-1
##MP= -300
##BP= -300
##MW= 162
##$RETENTION INDEX=0
##$CONDENSED SPECTRUM=NO
##NPOINTS= 83
##XYDATA=(XY..XY) 1 
    14          3
    15         11
    17          1
    18          2
    25          2
    26         11
    27         26
    28         18
    29         21
    30          1
    31          3
    32          4
    36          2
    37         21
    38         72
    39        321
    40          1
    41        999
    42         31
    43          5
    49          5
    50         58
    51         87
    52          8
    53         11
    54          3
    55         19
    56          2
    60          1
    61          9
    62         28
    63         72
    64         41
    65        140
    66         25
    67          5
    68          7
    69          1
    73          4
    74         19
    75         14
    76         24
    77         68
    78         21
    79         26
    80          3
    89          2
    91         45
    92         42
    93         56
    94         13
    95          4
   102          2
   103         14
   104         13
   105         57
   106         15
   107          8
   108          1
   114          1
   115          9
   116         16
   117         21
   118          6
   119         48
   120         31
   121        191
   122         22
   123          2
   130          1
   131          6
   133         78
   134         49
   135          6
   144          6
   145          5
   147         21
   148          2
   159          1
   161        120
   162        320
   163         33
   164          3