##TITLE=Library Entry 62272
##JCAMP-DX=Revision 4.10 
##DATA TYPE=MASS SPECTRUM
##SAMPLE DESCRIPTION=B. F. SMITH
##NAMES=HP
##CAS NAME=Benzenepropanenitrile, .alpha.-methylene-
##MOLFORM=C10H9N
##CAS REGISTRY NO=28769-48-4
##MP= -300
##BP= -300
##MW= 143
##$RETENTION INDEX=0
##$CONDENSED SPECTRUM=NO
##NPOINTS= 73
##XYDATA=(XY..XY) 1 
    25          5
    26         42
    27         71
    28         20
    29          3
    37         35
    38         76
    39        336
    40         36
    41         50
    42          3
    43         14
    45          2
    49         11
    50        130
    51        188
    52         95
    53         11
    55          3
    57          7
    58          9
    59          3
    60          4
    61         31
    62         71
    63        162
    64         54
    65        215
    66         19
    70          3
    71          8
    73         15
    74         48
    75         45
    76         34
    77         59
    78         22
    79          3
    84          3
    85         12
    86         21
    87         27
    88         22
    89        101
    90         41
    91        999
    92         80
    93          4
    94          3
    98          4
    99          5
   100          5
   101          7
   102         21
   103         25
   104          8
   110          2
   112          3
   113         20
   114         50
   115        436
   116        723
   117         88
   118          5
   126          2
   127          6
   128         14
   140         53
   141         27
   142        268
   143        889
   144         99
   145          5