##TITLE=Library Entry 74634
##JCAMP-DX=Revision 4.10 
##DATA TYPE=MASS SPECTRUM
##SAMPLE DESCRIPTION=Exported from NIST MS Search
##NAMES=HP
##CAS NAME=.beta.-D-Arabinopyranoside, methyl 2,3,4-tri-O-methyl-
##MOLFORM=C9H18O5
##CAS REGISTRY NO=2876-86-0
##MP= -300
##BP= -300
##MW= 206
##$RETENTION INDEX=0
##$CONDENSED SPECTRUM=NO
##NPOINTS= 49
##XYDATA=(XY..XY) 1 
    41        119
    42         38
    43        116
    44         58
    45        263
    53         19
    54         13
    55         58
    56         13
    57         27
    58         77
    59         42
    68         13
    69         32
    71         61
    72         13
    73        201
    74         23
    75        471
    76         32
    83         42
    84         11
    85         42
    87        218
    88        560
    89         38
    99         46
   101        999
   102         52
   104          1
   105         15
   106          1
   107          1
   111         11
   112          1
   113          3
   114         13
   115         67
   116         17
   117          5
   118          1
   119          9
   129          3
   131         13
   133          1
   143         19
   175         29
   176         71
   177          5