##TITLE=Library Entry 74635
##JCAMP-DX=Revision 4.10 
##DATA TYPE=MASS SPECTRUM
##SAMPLE DESCRIPTION=K.HEYNS ORG. CHEM. INST., UNIV., HAMBURG, GERMANY, F.R.
G.
##NAMES=HP
##CAS NAME=.beta.-D-Ribopyranoside, methyl 2,3,4-tri-O-methyl-
##MOLFORM=C9H18O5
##CAS REGISTRY NO=2876-87-1
##MP= -300
##BP= -300
##MW= 206
##$RETENTION INDEX=0
##$CONDENSED SPECTRUM=NO
##NPOINTS= 30
##XYDATA=(XY..XY) 1 
    41        113
    42         30
    43        106
    45        392
    53         19
    55         58
    56         16
    57         24
    58         99
    59         49
    69         30
    71         63
    73        271
    74         41
    75        472
    83         30
    85         44
    88        646
    89         39
    99         27
   101        999
   102         57
   111          3
   115         57
   129          4
   131          8
   143          6
   175          4
   176        102
   177          8