##TITLE=Library Entry 2724
##JCAMP-DX=Revision 4.10 
##DATA TYPE=MASS SPECTRUM
##SAMPLE DESCRIPTION=NIST Mass Spectrometry Data Center, 1994
##NAMES=HP
##CAS NAME=9-Octadecenylsuccinic acid
##MOLFORM=C22H40O4
##CAS REGISTRY NO=28777-98-2
##MP= -300
##BP= -300
##MW= 368
##$RETENTION INDEX=0
##$CONDENSED SPECTRUM=NO
##NPOINTS= 160
##XYDATA=(XY..XY) 1 
    18         47
    27        249
    28        171
    29        488
    32         49
    39        130
    41        999
    42        146
    43        845
    44         59
    52         24
    53        135
    54        112
    55        898
    56        112
    57        316
    65         86
    66         78
    67        625
    68        316
    69        462
    70         85
    71        147
    72         27
    73         26
    77        164
    79        492
    80        149
    81        631
    82        320
    83        298
    84         54
    85        104
    91        245
    92         58
    93        380
    94        129
    95        642
    96        344
    97        246
    98         57
    99        135
   100         59
   105        131
   106         49
   107        285
   108        100
   109        572
   110        199
   111        130
   112         25
   113         40
   114         25
   115         36
   116         25
   117         77
   118         25
   119         97
   120         37
   121        312
   122         98
   123        255
   124        249
   125         84
   126         24
   127         54
   128         62
   131        104
   132         22
   133         79
   134         31
   135        200
   136         72
   137        246
   138        108
   139         77
   140         38
   141        171
   142         65
   143         23
   144         22
   145         67
   146         22
   147         80
   148         30
   149        212
   150         64
   151        153
   152        314
   153        117
   154        326
   155        131
   156         22
   159         52
   161         58
   162         25
   163        210
   164         79
   165        204
   166         82
   167        472
   168        106
   169         69
   173         57
   175         48
   177        112
   178         88
   179        108
   180        125
   181        105
   182         25
   187         44
   189         40
   191        179
   192         77
   193        134
   194         35
   195        137
   196         32
   201         30
   205         78
   206         55
   207         87
   208         31
   209        231
   210         99
   211         25
   219        107
   220         64
   221         60
   222         18
   223         99
   224         39
   233        157
   234         58
   235         45
   236         18
   237        494
   238        220
   239         51
   240         25
   241          4
   247         68
   248         37
   250        122
   251        193
   252         90
   253         33
   261         56
   263         32
   265        268
   266        104
   279         56
   280         22
   293         33
   294         22
   305         68
   332         76
   350        277
   351         65