##TITLE=Library Entry 32879
##JCAMP-DX=Revision 4.10 
##DATA TYPE=MASS SPECTRUM
##SAMPLE DESCRIPTION=F. TURECEK,HEYROVSKY INST PHYS CHEM & ELECTROCHEM,PRAGU
E,CZECH
##NAMES=HP
##CAS NAME=trans-2,5-Dioxabicyclo[4.4.0]decan-3-one
##MOLFORM=C8H12O3
##CAS REGISTRY NO=28783-02-0
##MP= -300
##BP= -300
##MW= 156
##$RETENTION INDEX=0
##$CONDENSED SPECTRUM=NO
##NPOINTS= 41
##XYDATA=(XY..XY) 1 
    27        148
    28        426
    29        106
    31         46
    38         14
    39        204
    40         37
    41        361
    42        140
    43         84
    44         46
    51         37
    52         17
    53         51
    54        398
    55         93
    56         15
    57         56
    58         15
    65         28
    66         10
    67        999
    68         56
    69         74
    70         28
    71         46
    77         37
    78         19
    79         51
    80         42
    81         74
    82        463
    83         46
    84         65
    85         10
    97         46
   111         19
   112         23
   127         10
   128         18
   156         20