##TITLE=Library Entry 90109
##JCAMP-DX=Revision 4.10 
##DATA TYPE=MASS SPECTRUM
##SAMPLE DESCRIPTION=K. Jacobson, LBC, NIDDK, NIH, Bethesda, MD 20892
##NAMES=HP
##CAS NAME=Pirenzepine, N-ethyl-
##MOLFORM=C21H25N5O2
##CAS REGISTRY NO=28781-52-4
##MP= -300
##BP= -300
##MW= 379
##$RETENTION INDEX=0
##$CONDENSED SPECTRUM=NO
##NPOINTS= 170
##XYDATA=(XY..XY) 1 
    42        292
    43        143
    44         38
    45          6
    50          6
    51          8
    52          5
    53          4
    54         16
    55         24
    56        132
    57         33
    58         36
    59          2
    60          3
    63          4
    64          7
    65          7
    66          6
    67          4
    68         10
    70        544
    71        113
    72         17
    73          2
    75          4
    76         13
    77         18
    78         14
    79          6
    80          3
    81          5
    82         17
    83         34
    84         38
    85         10
    89          4
    90         15
    91          9
    92          7
    93          6
    94          0
    95          4
    96          7
    97         16
    98         67
    99         97
   100          8
   101          4
   102         19
   103          9
   104          5
   105          5
   106          2
   107          1
   109          3
   110          0
   111         33
   112         29
   113        999
   114         76
   115         10
   116          4
   117          5
   118          4
   119          5
   120          4
   121          2
   124          0
   125          1
   126          0
   127          6
   128          7
   129          9
   130          6
   131          0
   132          3
   133          2
   134          1
   135          2
   136          1
   138          2
   139          6
   140         25
   141         28
   142          8
   143          1
   144          0
   146          4
   149          3
   150          0
   152          1
   153          4
   154          5
   155         10
   156          5
   165          0
   166          4
   167         13
   168         55
   169         15
   170          3
   179          3
   180          6
   181         13
   182         22
   183         11
   184          3
   190          0
   192          1
   193          4
   194         12
   195         15
   196         98
   197         35
   198          4
   206          5
   207          6
   208         10
   209         10
   210         17
   211         23
   212          6
   220          9
   221          4
   222         14
   223          5
   224         72
   225         11
   234          3
   235          2
   236          8
   237          7
   238         45
   239         89
   240         36
   241          5
   250          1
   251          1
   252         41
   253         12
   254          1
   264          6
   266         31
   267          6
   278          3
   279         48
   280         32
   281         13
   282          3
   296          7
   297          2
   309         21
   310          5
   312          2
   322         52
   323         69
   324         14
   325          1
   335          1
   336         25
   337         26
   338          6
   349          3
   370          0
   377          0
   378          2
   379        180
   380         48
   381          7