##TITLE=Library Entry 21946
##JCAMP-DX=Revision 4.10 
##DATA TYPE=MASS SPECTRUM
##SAMPLE DESCRIPTION=NIST Mass Spectrometry Data Center, 1994
##NAMES=HP
##CAS NAME=2-Propen-1-amine, 2-methyl-
##MOLFORM=C4H9N
##CAS REGISTRY NO=2878-14-0
##MP= -300
##BP= -300
##MW= 71
##$RETENTION INDEX=0
##$CONDENSED SPECTRUM=NO
##NPOINTS= 43
##XYDATA=(XY..XY) 1 
    12          1
    13          3
    14         13
    15         31
    16          4
    17          4
    18         13
    25          4
    26         26
    27        113
    28        465
    29        124
    30        886
    31         22
    32          1
    34          3
    36          5
    37         37
    38         76
    39        280
    40         37
    41         99
    42         64
    43        148
    44         17
    49          5
    50         20
    51         24
    52         28
    53         41
    54         60
    55          5
    56        999
    57         36
    64          1
    65          1
    66          1
    67          1
    68         11
    69          1
    70         96
    71         31
    72          2