##TITLE=Library Entry 85886
##JCAMP-DX=Revision 4.10 
##DATA TYPE=MASS SPECTRUM
##SAMPLE DESCRIPTION=G.S. KING, CHEM. PATHOL. DEP., QUEEN CHARLOTTE'S HOSP.,
 LONDON
##NAMES=HP
##CAS NAME=2-Cyclopenten-1-one, 2,3,4-trimethyl-
##MOLFORM=C8H12O
##CAS REGISTRY NO=28790-86-5
##MP= -300
##BP= -300
##MW= 124
##$RETENTION INDEX=1071
##$CONDENSED SPECTRUM=NO
##NPOINTS= 29
##XYDATA=(XY..XY) 1 
    40         12
    41         44
    42         12
    43         24
    44         12
    45         12
    53         44
    54         44
    55         44
    56         32
    57         12
    67         84
    68         32
    69         12
    79        132
    80         24
    81        532
    82         52
    83         12
    91         12
    93         12
    95         24
    96        124
    97         12
   109        999
   110         84
   123         24
   124        412
   125         44