##TITLE=Library Entry 83933
##JCAMP-DX=Revision 4.10 
##DATA TYPE=MASS SPECTRUM
##SAMPLE DESCRIPTION=D.HENNEBERG, MAX-PLANCK INSTITUTE, MULHEIM, WEST GERMAN
Y
##NAMES=HP
##CAS NAME=Benzeneethanol, .beta.-methyl-.alpha.-phenyl-
##MOLFORM=C15H16O
##CAS REGISTRY NO=28795-94-0
##MP= -300
##BP= -300
##MW= 212
##$RETENTION INDEX=0
##$CONDENSED SPECTRUM=NO
##NPOINTS= 116
##XYDATA=(XY..XY) 1 
    27         10
    28         29
    29          5
    38          0
    39          6
    40          0
    41          2
    43          4
    44          3
    49          0
    50          4
    51         18
    52          6
    53          5
    54          0
    55          1
    56          0
    57          2
    58          1
    63          2
    64          0
    65         10
    66          1
    67          0
    69          1
    70          0
    71          1
    74          0
    75          2
    76          2
    77        216
    78         66
    79        468
    80         29
    81          1
    82          0
    83          1
    84          0
    85          1
    89          5
    90          4
    91        346
    92         26
    93          1
    94          0
    95          0
    96          0
    97          1
    98          0
    99          0
   101          0
   102          5
   103         61
   104         61
   105        282
   106        786
   107        999
   108         75
   109          4
   110          0
   111          0
   113          0
   115         11
   116          5
   117          5
   118          2
   119          0
   120          0
   121          1
   123          0
   125          0
   127          0
   128          1
   129          0
   131          0
   133          1
   134          0
   135          0
   149          0
   150          0
   151          1
   152          5
   153          2
   154          0
   155          0
   163          0
   164          0
   165          9
   166          2
   167          3
   168          0
   169          0
   176          2
   177          3
   178         24
   179         39
   180         10
   181          1
   182          0
   183          0
   189          1
   190          1
   191          3
   192          2
   193          7
   194         26
   195         11
   196          3
   197          0
   207          0
   208          0
   210          0
   211          0
   212         33
   213          5
   214          0