##TITLE=Library Entry 26095
##JCAMP-DX=Revision 4.10 
##DATA TYPE=MASS SPECTRUM
##SAMPLE DESCRIPTION=A.A.Kutin, Moscow, Russia
##NAMES=HP
##CAS NAME=N-(2,4-Dichlorobenzyl)-2,2-dimethyl-N-(pyridin-3-ylmethyl)propana
mide
##MOLFORM=C18H20Cl2N2O
##CAS REGISTRY NO=287917-48-0
##MP= -300
##BP= -300
##MW= 350
##$RETENTION INDEX=0
##$CONDENSED SPECTRUM=NO
##NPOINTS= 280
##XYDATA=(XY..XY) 1 
    33          0
    35          5
    36         25
    37          5
    38         31
    39        217
    40         35
    41        355
    42         50
    43         44
    44          5
    45          1
    46          0
    47          0
    48          0
    49          3
    50         17
    51         34
    52         24
    53         16
    54          6
    55         34
    57        999
    58         76
    59          5
    60          1
    61          3
    62         14
    63         54
    64         35
    65        207
    66         23
    67          8
    68          3
    69         20
    70         15
    71          8
    72          2
    73         17
    74          8
    75         20
    76          5
    77          8
    78         20
    79         45
    80         34
    81          3
    82          2
    83          5
    84         17
    85        103
    86          9
    87          7
    89         73
    90         11
    92        487
    93        680
    94         68
    95          3
    96          1
    97          6
    98          2
    99         15
   100          4
   101          5
   102          4
   103          1
   104          3
   105         12
   107        202
   108         17
   109          6
   110          3
   111         12
   112          4
   113          4
   114          2
   115          2
   116          1
   117          3
   118          5
   119         16
   120         24
   121         46
   123         66
   124         31
   125         40
   126         12
   127          8
   128          1
   129          0
   130          1
   131          1
   133         18
   135         71
   136          9
   137          3
   138          4
   139          5
   140          4
   141          2
   142          1
   143          0
   144          0
   145          3
   146          3
   147          7
   148          6
   149          5
   150          2
   151          2
   152          2
   153          2
   154          1
   155          0
   159        506
   160         63
   161        307
   162         31
   163         55
   164          5
   165          1
   166         12
   167          6
   168          4
   169          0
   170          0
   171          1
   172          7
   174         86
   175         15
   176         47
   177          6
   178          8
   179          2
   180          3
   181          0
   182          0
   183          0
   184          0
   185          0
   187         13
   188          8
   189          9
   191        365
   192         47
   193          4
   194          2
   195          1
   196          0
   197          0
   198          0
   199          0
   200          3
   201          4
   202          6
   203          3
   204          2
   205          1
   206          0
   207          0
   208          0
   209          0
   210          0
   211          0
   212          0
   213          1
   214          3
   215          3
   216          1
   217          1
   218          0
   219          0
   220          0
   222          5
   223          2
   224          4
   225          1
   226          1
   227          0
   228          1
   229          6
   230          3
   231          8
   232          7
   233          3
   234          2
   235          0
   236          4
   237          2
   238          3
   239          1
   240          1
   241          0
   242          0
   243          0
   244          0
   245          0
   246          0
   247          0
   248          1
   249          0
   250          1
   251          0
   252          0
   253          0
   254          0
   255          1
   258        363
   259         66
   260        221
   261         35
   262         39
   263          7
   265         49
   266         10
   267         29
   268          5
   269          5
   270          0
   271          0
   272          0
   273          0
   274          0
   277          0
   278          0
   279          0
   280          1
   281          0
   282          0
   283          0
   284          0
   285          0
   286          0
   290          0
   291          0
   293         49
   294          9
   295         31
   296         10
   297         11
   298          2
   299          1
   300          0
   301          0
   302          0
   303          0
   307          1
   308          0
   309          1
   310          0
   311          0
   312          0
   315        285
   316         59
   317         89
   318         16
   319          1
   321          0
   323          0
   326          0
   328          0
   332          1
   333          0
   334          1
   335          9
   336          2
   337          6
   338          1
   339          1
   340          0
   347          0
   349          1
   350         21
   351         14
   352         14
   353          8
   354          3
   355          1
   356          0