##TITLE=Library Entry 81904
##JCAMP-DX=Revision 4.10 
##DATA TYPE=MASS SPECTRUM
##SAMPLE DESCRIPTION=A.A.Kutin, Moscow, Russia
##NAMES=HP
##CAS NAME=Benzo[b]1,4-dioxin-2-ol, 2,3-dihydro-3-benzoyl-
##MOLFORM=C15H12O4
##CAS REGISTRY NO=287933-34-0
##MP= -300
##BP= -300
##MW= 256
##$RETENTION INDEX=0
##$CONDENSED SPECTRUM=NO
##NPOINTS= 85
##XYDATA=(XY..XY) 1 
    33          1
    37          2
    39         28
    40          8
    41          3
    42          3
    43         10
    44          3
    45          0
    48          0
    50         37
    51         72
    52         43
    53          8
    54          2
    55          2
    57          0
    61          2
    63         19
    64         14
    65         34
    66          5
    67          2
    69         15
    71         20
    74          7
    77        349
    78         28
    79         11
    80         20
    81         15
    82          1
    83          0
    88          0
    89          5
    90         10
    91         18
    92          8
    93          6
    94          5
    95          6
    96          0
   102         11
   105        999
   106         47
   107          4
   108          2
   109         13
   110          9
   115          1
   118          2
   120         21
   121         28
   122          5
   123         18
   124          0
   127          0
   131          0
   132          1
   134         51
   135          3
   139          0
   146          0
   147         43
   148          5
   149          2
   151         13
   152          3
   153          0
   180          0
   181          4
   197          1
   209          3
   210          1
   228         18
   229          2
   234          0
   235          5
   238        426
   239         60
   240          6
   254          1
   256         96
   257         12
   258          1