##TITLE=Library Entry 62287
##JCAMP-DX=Revision 4.10 
##DATA TYPE=MASS SPECTRUM
##SAMPLE DESCRIPTION=A.A.Kutin, Moscow, Russia
##NAMES=HP
##CAS NAME=Propanedioic acid, 2-(methylthioxy)thiocarbonylamino-, diethyl di
ester
##MOLFORM=C9H15NO4S2
##CAS REGISTRY NO=287917-62-8
##MP= -300
##BP= -300
##MW= 265
##$RETENTION INDEX=0
##$CONDENSED SPECTRUM=NO
##NPOINTS= 163
##XYDATA=(XY..XY) 1 
    33         15
    34          5
    35          2
    36          1
    37          0
    39         12
    40         17
    41         34
    42         45
    43         47
    44         92
    45        244
    46         70
    47        149
    48         74
    49         15
    50          4
    51          1
    52          0
    53          1
    54          4
    55         11
    56         31
    57         16
    58         26
    59         73
    60         76
    61         64
    62          8
    63          8
    64         16
    65          2
    66          2
    67          4
    68          8
    69         46
    70         41
    71        136
    72        114
    73         26
    74        136
    75         49
    76         55
    77         59
    78          8
    79         22
    80          3
    81          3
    82          1
    83          4
    84          6
    85          6
    86         51
    87         18
    88         84
    89         68
    91        999
    92        151
    93        100
    94         13
    95          4
    96          2
    97          2
    99        189
   100         33
   101         20
   102        189
   103         40
   104         11
   105          9
   106          4
   107          3
   108          1
   109          1
   110          2
   111          1
   112          2
   113          2
   114         10
   116        292
   117         83
   118         63
   119         25
   120          9
   121          2
   122          0
   123          1
   126         15
   127          2
   128          6
   129          4
   130         64
   131         15
   132         11
   133         15
   134         28
   135          4
   136          2
   137          1
   138          0
   140          0
   142          2
   144        345
   145         84
   146         40
   147         14
   148         24
   149          3
   150          2
   151          4
   152          0
   155          2
   156          1
   157          5
   158         13
   159          2
   160         10
   162         80
   163          6
   164          4
   165          2
   170          4
   171         21
   172         32
   173        148
   174         76
   175         17
   176         10
   177          2
   178          2
   186         24
   187          2
   188          1
   190         47
   191         18
   192         34
   193          8
   194          4
   195          1
   202          1
   203          3
   204         11
   205          3
   206          2
   217         33
   218        120
   219         55
   220         49
   221          9
   222          4
   232          7
   233          0
   237          0
   250          0
   251         25
   252          3
   253          2
   263          2
   265        332
   266         39
   267         32
   268          3
   269          1