##TITLE=Library Entry 12585
##JCAMP-DX=Revision 4.10 
##DATA TYPE=MASS SPECTRUM
##SAMPLE DESCRIPTION=M. ODA, MIN. AGRIC. CHEM. INSP. STN., TOKYO, JAPAN
##NAMES=HP
##CAS NAME=2-Methyl-5-nitroacetanilide
##MOLFORM=C9H10N2O3
##CAS REGISTRY NO=2879-79-0
##MP= -300
##BP= -300
##MW= 194
##$RETENTION INDEX=0
##$CONDENSED SPECTRUM=NO
##NPOINTS= 11
##XYDATA=(XY..XY) 1 
    43        999
    77        240
    79        200
    94        130
   104        140
   106        500
   122         40
   151         10
   152        930
   177        210
   194        260