##TITLE=Library Entry 97488
##JCAMP-DX=Revision 4.10 
##DATA TYPE=MASS SPECTRUM
##SAMPLE DESCRIPTION=Japan AIST/NIMC Database- Spectrum MS-NW-3708
##NAMES=HP
##CAS NAME=Phenol, pentachloro-, trichloroacetate
##MOLFORM=C8Cl8O2
##CAS REGISTRY NO=2879-60-9
##MP= -300
##BP= -300
##MW= 408
##$RETENTION INDEX=0
##$CONDENSED SPECTRUM=NO
##NPOINTS= 170
##XYDATA=(XY..XY) 1 
    24          1
    28         11
    35         12
    37          4
    44          2
    47         56
    48          2
    49         17
    51          1
    59          3
    60         26
    61          3
    63         12
    65         10
    66          3
    71         17
    72          4
    73          5
    75          1
    76          1
    77          3
    78          2
    82         74
    83         24
    84         49
    85         15
    86          8
    87          9
    89          2
    94          4
    95         47
    96          6
    97         16
    98          2
   100          3
   101          4
   102          2
   105          6
   106         14
   107         10
   108          9
   109          4
   110         70
   111          4
   112         39
   113          2
   114          6
   115          1
   117        999
   118         19
   119        926
   120         14
   121        283
   122          4
   123         29
   129          1
   130         56
   131          6
   132         38
   133          6
   134          7
   141         35
   142         16
   143         36
   144         10
   145         18
   146          2
   147          9
   149          2
   153          1
   158          1
   165         82
   166          5
   167         75
   168          5
   169         22
   170          2
   171          3
   177          9
   179          9
   181          3
   193          1
   200          9
   201          3
   202         11
   203          5
   204          6
   205          2
   206          1
   212         17
   213          3
   214         24
   215          3
   216         11
   217          1
   218          2
   228          6
   229          2
   230          8
   231          2
   232          5
   233          1
   234          1
   235         77
   236          4
   237        125
   238          7
   239         86
   240          4
   241         26
   242          1
   243          4
   247         59
   248          4
   249         97
   250          6
   251         65
   252          5
   253         19
   254          1
   255          3
   259          1
   263         26
   264         15
   265         43
   266         22
   267         25
   268         13
   269          9
   270          4
   271          1
   277          1
   282          1
   284          3
   286          2
   288          1
   291         14
   292          1
   293         24
   294          2
   295         14
   296          1
   297          5
   299          1
   319          1
   321          1
   338          1
   340          2
   342          2
   344          1
   345          1
   347          1
   349          2
   351          1
   373          2
   375          4
   376          1
   377          5
   378          1
   379          2
   380          1
   408          6
   410         16
   411          2
   412         19
   413          1
   414         11
   415          1
   416          4
   418          1