##TITLE=Library Entry 12366
##JCAMP-DX=Revision 4.10 
##DATA TYPE=MASS SPECTRUM
##SAMPLE DESCRIPTION=R.M. Teeter, 203 Del Valle Circle, El Sobrante, CA 9480
3-3373, USA
##NAMES=HP
##CAS NAME=Cyclopentanepropanethiol, thiolacetate
##MOLFORM=C10H18OS
##CAS REGISTRY NO=28796-76-1
##MP= -300
##BP= -300
##MW= 186
##$RETENTION INDEX=0
##$CONDENSED SPECTRUM=NO
##NPOINTS= 78
##XYDATA=(XY..XY) 1 
    26          9
    27         51
    28         73
    29         47
    35          7
    39         78
    40         17
    41        291
    42         32
    43        999
    44         69
    45         30
    46         10
    47         37
    51          9
    52          6
    53         41
    54         43
    55        170
    56         12
    57          6
    58         15
    59         35
    60         15
    61         39
    65         15
    66         33
    67        398
    68        132
    69        180
    70         13
    71         25
    73          8
    74          6
    75          8
    76         43
    77         50
    79         25
    80         12
    81         94
    82        138
    83         38
    84          6
    87         66
    88          7
    89          6
    90          6
    91          8
    93         11
    94         10
    95         40
    96          8
    97          8
    98         27
   100         27
   101         21
   103          8
   108         14
   109        281
   110        122
   111         47
   112         12
   113         26
   114         24
   115         18
   126         83
   127          9
   135         12
   139         15
   141         25
   142         69
   143        875
   144         97
   145         46
   153          6
   168         10
   186          6
   187          3