##TITLE=Library Entry 13401
##JCAMP-DX=Revision 4.10 
##DATA TYPE=MASS SPECTRUM
##SAMPLE DESCRIPTION=A.A.Kutin, Moscow, Russia
##NAMES=HP
##CAS NAME=1H-Pyrazole-3-carbaldehyde oxime, 4-bromo-O-acetyl-
##MOLFORM=C6H6BrN3O2
##CAS REGISTRY NO=287979-21-9
##MP= -300
##BP= -300
##MW= 231
##$RETENTION INDEX=0
##$CONDENSED SPECTRUM=NO
##NPOINTS= 123
##XYDATA=(XY..XY) 1 
    33          1
    34          0
    36         10
    37         59
    38         56
    39         38
    40         29
    41         17
    43        999
    44         43
    45         49
    46          1
    47          0
    48          1
    49          8
    50         59
    51         61
    52         23
    53         16
    54          5
    55         18
    56          6
    57          3
    58          0
    60         26
    61          1
    62          6
    63         19
    64         30
    65         63
    66         44
    67          5
    68          1
    69          2
    70          1
    71          1
    72          0
    73          1
    74          0
    75          0
    76          1
    77          2
    79         46
    80         10
    81          9
    82          8
    83          3
    84          1
    85          1
    87          1
    89          0
    91         21
    92         12
    93         36
    94         16
    95          1
    96          0
    97          0
    98          0
   103          0
   104          3
   105          2
   106         10
   107          2
   108          7
   109          3
   110          6
   111          0
   112          0
   113          0
   114          0
   115          1
   116          3
   117         14
   118         30
   119         17
   120         28
   121          4
   122          1
   124          0
   126          0
   128          0
   129          3
   130          3
   131          4
   132          6
   133          2
   134          4
   135          0
   136          0
   137          0
   142          0
   143          1
   144         13
   145          3
   146         22
   147          2
   148          9
   149          1
   157          0
   158          3
   159          2
   160          3
   161          2
   162          0
   164          0
   171         38
   172          5
   173         41
   174          4
   175          6
   176          0
   187          1
   189        173
   191        181
   192          9
   193          0
   229          0
   231         25
   232          3
   233         25
   234          2
   235          0