##TITLE=Library Entry 33272
##JCAMP-DX=Revision 4.10 
##DATA TYPE=MASS SPECTRUM
##SAMPLE DESCRIPTION=NIST Mass Spectrometry Data Center
##NAMES=HP
##CAS NAME=1H-Imidazole
##MOLFORM=C3H4N2
##CAS REGISTRY NO=288-32-4
##MP= -300
##BP= -300
##MW= 68
##$RETENTION INDEX=1069
##$CONDENSED SPECTRUM=NO
##NPOINTS= 28
##XYDATA=(XY..XY) 1 
    14         27
    15          3
    17          1
    24          2
    25          8
    26         21
    27         44
    28        213
    29          4
    34          8
    37          1
    38         69
    39         98
    40        347
    41        555
    42         27
    43          1
    44          1
    50          2
    51          5
    52          4
    53          5
    64          1
    65          1
    66          6
    67         98
    68        999
    69         42