##TITLE=Library Entry 55036
##JCAMP-DX=Revision 4.10 
##DATA TYPE=MASS SPECTRUM
##SAMPLE DESCRIPTION=B.J.MILLARD SCHOOL OF PHARMACY, UNIV. OF LONDON, LONDON
, UK
##NAMES=HP
##CAS NAME=Isothiazole
##MOLFORM=C3H3NS
##CAS REGISTRY NO=288-16-4
##MP= -300
##BP= -300
##MW= 85
##$RETENTION INDEX=0
##$CONDENSED SPECTRUM=NO
##NPOINTS= 10
##XYDATA=(XY..XY) 1 
    39         30
    44         30
    45         70
    51         15
    52         20
    57         80
    58        400
    59        100
    84         30
    85        999