##TITLE=Library Entry 37072
##JCAMP-DX=Revision 4.10 
##DATA TYPE=MASS SPECTRUM
##SAMPLE DESCRIPTION=Chemical Concepts
##NAMES=HP
##CAS NAME=1-Oxa-3,4-diazacyclopentadiene
##MOLFORM=C2H2N2O
##CAS REGISTRY NO=288-99-3
##MP= -300
##BP= -300
##MW= 70
##$RETENTION INDEX=817
##$CONDENSED SPECTRUM=NO
##NPOINTS= 17
##XYDATA=(XY..XY) 1 
    26          2
    27         17
    28         38
    29        134
    30          3
    31          4
    39          2
    40          3
    41         86
    42        715
    43         23
    45          6
    46          5
    55         12
    69         12
    70        999
    71         23