##TITLE=Library Entry 28205
##JCAMP-DX=Revision 4.10 
##DATA TYPE=MASS SPECTRUM
##SAMPLE DESCRIPTION=H.E.GUNNING, UNIV. OF ALBERTA, EDMONTON, CANADA
##NAMES=HP
##CAS NAME=1,2,3-Thiadiazole
##MOLFORM=C2H2N2S
##CAS REGISTRY NO=288-48-2
##MP= -300
##BP= -300
##MW= 86
##$RETENTION INDEX=0
##$CONDENSED SPECTRUM=NO
##NPOINTS= 13
##XYDATA=(XY..XY) 1 
    26         65
    28         92
    29         47
    32         86
    44         59
    45         59
    46         32
    57        195
    58        999
    59         43
    60         47
    86        108
    87         14