##TITLE=Library Entry 34103
##JCAMP-DX=Revision 4.10 
##DATA TYPE=MASS SPECTRUM
##SAMPLE DESCRIPTION=NIST Mass Spectrometry Data Center, 1990.
##NAMES=HP
##CAS NAME=Oxazole
##MOLFORM=C3H3NO
##CAS REGISTRY NO=288-42-6
##MP= -300
##BP= -300
##MW= 69
##$RETENTION INDEX=580
##$CONDENSED SPECTRUM=NO
##NPOINTS= 30
##XYDATA=(XY..XY) 1 
    12         29
    13         45
    14        127
    15          5
    16          1
    17          0
    18          0
    20          3
    24          7
    25         24
    26         47
    27         47
    28        123
    29        194
    30          4
    38         91
    39        124
    40        607
    41        673
    42        203
    43          8
    44          1
    50          4
    51         11
    52          4
    54          4
    68        112
    69        999
    70         35
    71          1