##TITLE=Library Entry 33320
##JCAMP-DX=Revision 4.10 
##DATA TYPE=MASS SPECTRUM
##SAMPLE DESCRIPTION=Japan AIST/NIMC Database- Spectrum MS-NW-5084
##NAMES=HP
##CAS NAME=1H-Pyrazole
##MOLFORM=C3H4N2
##CAS REGISTRY NO=288-13-1
##MP= -300
##BP= -300
##MW= 68
##$RETENTION INDEX=864
##$CONDENSED SPECTRUM=NO
##NPOINTS= 31
##XYDATA=(XY..XY) 1 
    12          6
    13          9
    14         21
    15          2
    24          3
    25          7
    26         15
    27         30
    28        178
    29         10
    33          1
    34          3
    37          4
    38         23
    39         55
    40         93
    41        165
    42        394
    43         45
    44          3
    45          1
    51          2
    52          7
    53          7
    64          1
    65          1
    66          8
    67        105
    68        999
    69         43
    70          1