##TITLE=Library Entry 76589
##JCAMP-DX=Revision 4.10 
##DATA TYPE=MASS SPECTRUM
##SAMPLE DESCRIPTION=NIST Mass Spectrometry Data Center
##NAMES=HP
##CAS NAME=3H-1,2-Dithiole
##MOLFORM=C3H4S2
##CAS REGISTRY NO=288-26-6
##MP= -300
##BP= -300
##MW= 104
##$RETENTION INDEX=952
##$CONDENSED SPECTRUM=NO
##NPOINTS= 51
##XYDATA=(XY..XY) 1 
    25          1
    26          6
    27          8
    32         17
    33          4
    34          2
    35          1
    36          4
    37         20
    38         30
    39         83
    40         12
    44         12
    45        208
    46         24
    47         12
    48          1
    52         14
    53          1
    56          6
    57         36
    58         75
    59         90
    60         30
    61          5
    62          1
    64         86
    65          6
    66          7
    68         19
    69         94
    70         26
    71        108
    72         13
    73          5
    76          9
    77         13
    78         15
    79          2
    80          1
    88          1
    89          2
   100          4
   101          5
   102          2
   103        999
   104        608
   105        117
   106         55
   107          5
   108          1