##TITLE=Library Entry 35204
##JCAMP-DX=Revision 4.10 
##DATA TYPE=MASS SPECTRUM
##SAMPLE DESCRIPTION=Japan AIST/NIMC Database- Spectrum MS-NW-7367
##NAMES=HP
##CAS NAME=Isoxazole
##MOLFORM=C3H3NO
##CAS REGISTRY NO=288-14-2
##MP= -300
##BP= -300
##MW= 69
##$RETENTION INDEX=590
##$CONDENSED SPECTRUM=NO
##NPOINTS= 34
##XYDATA=(XY..XY) 1 
    12          9
    13         18
    14        106
    15          4
    24          9
    25         33
    26         51
    27         23
    28         66
    29        203
    30         33
    31          2
    32          1
    36         10
    37         45
    38        109
    39        138
    40        636
    41        366
    42        130
    43         22
    44          2
    49          3
    50          9
    51         22
    52         10
    53          5
    54          2
    67          8
    68        723
    69        999
    70         42
    71          4
    72          1