##TITLE=Library Entry 33982
##JCAMP-DX=Revision 4.10 
##DATA TYPE=MASS SPECTRUM
##SAMPLE DESCRIPTION=A. MAQUESTIAU
##NAMES=HP
##CAS NAME=1H-1,2,3-Triazole
##MOLFORM=C2H3N3
##CAS REGISTRY NO=288-36-8
##MP= -300
##BP= -300
##MW= 69
##$RETENTION INDEX=0
##$CONDENSED SPECTRUM=NO
##NPOINTS= 9
##XYDATA=(XY..XY) 1 
    26         23
    27         67
    29         69
    38         54
    39         64
    40        146
    43         13
    69        999
    70         37