##TITLE=Library Entry 4427
##JCAMP-DX=Revision 4.10 
##DATA TYPE=MASS SPECTRUM
##SAMPLE DESCRIPTION=NIST Mass Spectrometry Data Center, 1998.
##NAMES=HP
##CAS NAME=1H-Tetrazole
##MOLFORM=CH2N4
##CAS REGISTRY NO=288-94-8
##MP= -300
##BP= -300
##MW= 70
##$RETENTION INDEX=0
##$CONDENSED SPECTRUM=NO
##NPOINTS= 15
##XYDATA=(XY..XY) 1 
    12          9
    13         30
    14         33
    15         10
    21          3
    26         24
    27         70
    28        126
    29        129
    40         17
    41        141
    42        999
    43         62
    70         40
    71          2