##TITLE=Library Entry 25994
##JCAMP-DX=Revision 4.10 
##DATA TYPE=MASS SPECTRUM
##SAMPLE DESCRIPTION=Exported from NIST MS Search
##NAMES=HP
##CAS NAME=3-Dotriacontanone, 9,11-dihydroxy-4-methyl-, [4R-(4R*,9R*,11R*)]-
##MOLFORM=C33H66O3
##CAS REGISTRY NO=28808-36-8
##MP= -300
##BP= -300
##MW= 510
##$RETENTION INDEX=0
##$CONDENSED SPECTRUM=NO
##NPOINTS= 332
##XYDATA=(XY..XY) 1 
    26         31
    27         73
    28         43
    29        203
    30         15
    31         29
    39         39
    40         13
    41        280
    42         69
    43        527
    44         53
    45         59
    50         13
    51         10
    52         13
    53         23
    54         75
    55        442
    56        119
    57        999
    58        115
    59         93
    60         17
    65         15
    66         33
    67        221
    68        179
    69        424
    70        101
    71        302
    72         75
    73         53
    74         13
    75         21
    77         19
    78         12
    79         39
    80         39
    81        280
    82        233
    83        358
    85        260
    86        782
    87         61
    88         13
    89         15
    90         15
    91         21
    92         12
    93         73
    94         39
    95        328
    96        199
    97        300
    98         61
    99        256
   100         43
   101         23
   103         33
   104         17
   105         23
   106         17
   107         41
   108         39
   109        233
   110        272
   111        356
   112         93
   113        292
   114         41
   115         23
   116         15
   117         15
   119         23
   120         15
   121         83
   122         39
   123        233
   124         81
   125        155
   126         61
   127         53
   128         61
   129         21
   130         12
   131         12
   133         13
   134         13
   135         81
   136         41
   137        141
   138         53
   139        131
   140         33
   141         39
   142        579
   143         53
   144         13
   147         15
   149         53
   150         19
   151         49
   152         37
   153        121
   154         27
   155         39
   156         10
   157         19
   161         27
   162         10
   163         21
   164         13
   165         39
   166         27
   167         27
   168         87
   169         71
   170         49
   171        490
   172         59
   173         13
   175         12
   177         15
   178         13
   179         59
   180         19
   181         19
   182         12
   183         12
   184         29
   185         12
   186         27
   187         13
   189         13
   191         13
   193         19
   194         13
   195         21
   196         12
   197        211
   198         31
   199         13
   203         15
   205         13
   207         13
   208         12
   209         12
   210         12
   211         12
   212         12
   213         12
   215        442
   216         59
   217         10
   221         13
   222         13
   223         12
   224         12
   225         12
   235         10
   236         10
   237         10
   239         12
   249         12
   250         12
   251         12
   263         13
   264         10
   265         13
   277         10
   278         17
   279          8
   280         10
   291         12
   292         13
   293         12
   303          2
   304          0
   305          5
   306         27
   307         15
   308          5
   309          4
   310          1
   315          2
   316          2
   317          2
   318          2
   319          6
   320         11
   321          6
   322          5
   323         12
   324          5
   325         29
   326          5
   329          1
   330          1
   331          1
   332          2
   333         11
   334         30
   335         13
   336          4
   337          4
   338         13
   339          4
   343          1
   344          2
   345          2
   346          2
   347         13
   348          6
   349          4
   350          5
   351         25
   352          8
   353         19
   354          4
   355          2
   357          1
   358          1
   359          2
   360          4
   361          6
   362          6
   363          3
   364          5
   365         15
   366         11
   367          8
   368          3
   369          3
   370          1
   372          2
   373          2
   374          2
   375          5
   376          4
   377         10
   378          5
   379         15
   380          6
   381          1
   382          1
   383          1
   386          1
   387          4
   388         19
   389         85
   390         29
   391          9
   392         16
   393         12
   394          4
   395         10
   396          4
   397          2
   401          1
   402          3
   403          8
   404          4
   405          8
   406          5
   407        139
   408         45
   409         10
   410          5
   411          2
   415          2
   416         12
   417         54
   418         29
   419          9
   420          8
   421         15
   422          4
   423          3
   424          3
   425         59
   426         19
   427         10
   428          2
   431          3
   432          2
   433          4
   434          4
   435         79
   436         29
   437          5
   438          2
   439          5
   440          1
   441          1
   443          2
   444          2
   445         34
   446         15
   447          4
   449          3
   450          1
   451          1
   453         32
   454         10
   455          8
   456          5
   457          1
   459          4
   460          1
   461          1
   462          1
   463         14
   464          5
   472          1
   473         15
   474         48
   475         17
   476          4
   477          2
   481          2
   482          2
   483          2
   484          3
   488          6
   489          1
   490          1
   491          6
   492         24
   493          8
   510         12
   511          3