##TITLE=Library Entry 82954
##JCAMP-DX=Revision 4.10 
##DATA TYPE=MASS SPECTRUM
##SAMPLE DESCRIPTION=V.A.Korolev, Moscow, Russia
##NAMES=HP
##CAS NAME=s-.beta.-(4-Pyridylethyl)-L-cysteine
##MOLFORM=C10H14N2O2S
##CAS REGISTRY NO=28809-04-3
##MP= -300
##BP= -300
##MW= 226
##$RETENTION INDEX=0
##$CONDENSED SPECTRUM=NO
##NPOINTS= 77
##XYDATA=(XY..XY) 1 
    36          8
    38         13
    39         98
    40         54
    41         49
    42        145
    43        163
    44        120
    45         65
    46         52
    47         48
    48          8
    50         35
    51        124
    52         52
    53         38
    54         16
    55         11
    56          8
    57         13
    58         11
    59         32
    60          9
    61         69
    62          4
    63         17
    64          8
    65         58
    66         14
    67         13
    69          7
    70         13
    71         10
    73         10
    74        140
    75         18
    76         18
    77        117
    78         99
    79         71
    80         34
    87          9
    88         18
    89          3
    91         22
    92         42
    93        136
    94         23
   104         37
   105         53
   106        999
   107        315
   108         28
   109          6
   117         13
   118         77
   119         21
   120         11
   123         13
   124          8
   125        458
   126         34
   127         20
   136         24
   137         19
   138         90
   139         76
   140         19
   152        193
   153         81
   154         12
   181         36
   182          4
   183          3
   225          5
   226         23
   227          3