##TITLE=Library Entry 24752
##JCAMP-DX=Revision 4.10 
##DATA TYPE=MASS SPECTRUM
##SAMPLE DESCRIPTION=TNO Volatile Compounds in Food - Chemical Concepts
##NAMES=HP
##CAS NAME=2-Nonadecanone 2,4-dinitrophenylhydrazine
##MOLFORM=C25H42N4O4
##CAS REGISTRY NO=28813-61-8
##MP= -300
##BP= -300
##MW= 462
##$RETENTION INDEX=0
##$CONDENSED SPECTRUM=NO
##NPOINTS= 319
##XYDATA=(XY..XY) 1 
    42        646
    43        185
    45         36
    46          3
    47         18
    49         11
    50         49
    51         80
    52         58
    53        113
    54         98
    55        992
    56        239
    57        999
    58        171
    60        282
    61         24
    62         22
    63         48
    64         35
    65         65
    66         38
    67        200
    68        102
    69        647
    70        250
    71        394
    72         22
    73        282
    74         42
    75         49
    76         57
    77         59
    78         68
    79         56
    80         39
    81        157
    82        123
    83        506
    84         75
    85        152
    86          7
    87         63
    88        246
    89         13
    90         32
    91         59
    92         67
    93         40
    94         36
    95        148
    96        101
    97        591
    98         65
    99         40
   100          6
   101         47
   102         14
   103         51
   104         73
   105         44
   106         30
   107         44
   108         29
   109         61
   110         47
   111        221
   112         29
   113         25
   114          8
   115         35
   116         44
   117         59
   118         24
   119         34
   120         35
   121         15
   122         30
   123         25
   124         14
   125        106
   126         22
   127         19
   128          8
   129         14
   130         20
   131         28
   132         29
   133         42
   134         36
   135         25
   136          8
   137         15
   138         28
   139         46
   140          9
   141         10
   142         10
   143         22
   144         23
   145         26
   146         23
   147         36
   148         76
   149         76
   150         23
   151         20
   152         89
   153         47
   154          6
   155          7
   156          6
   157         13
   158         15
   159         35
   160         10
   161         77
   162         25
   163         47
   164         27
   165        122
   166         26
   167         16
   168         17
   169         13
   170          9
   171         26
   172         10
   173         16
   174          8
   175         13
   176         14
   177         51
   178        280
   179         42
   180         69
   181         53
   182          6
   183         23
   184          8
   185          7
   186          8
   187         14
   188         10
   189         63
   190         26
   191         92
   192         21
   193         71
   194         20
   195          9
   196         12
   197          4
   198         29
   199          9
   200          4
   201         12
   202          7
   203         24
   204         35
   205         17
   206         12
   207         46
   208          9
   209          8
   210          3
   211          3
   213          3
   214          2
   215         14
   216          6
   217         52
   218         20
   219         14
   220         33
   221          7
   222          7
   223          3
   224          8
   225          2
   227          2
   228          4
   229         18
   230          4
   231         12
   232         10
   233          9
   234         19
   235          2
   236          7
   237          4
   238         82
   239         12
   241          3
   242          2
   243          6
   244          4
   245         24
   246          7
   247          8
   248          4
   249          8
   250          2
   251          7
   252          5
   253          2
   254          2
   255          2
   257          3
   259          7
   260          2
   261          3
   263          5
   264         32
   265         19
   266          6
   267          2
   269          2
   271          5
   272          3
   273          2
   274          2
   275          3
   276          2
   277          2
   278          9
   279          6
   280         18
   281          8
   282          9
   283          4
   284          2
   285          2
   287          3
   288          3
   289          4
   294          2
   298          2
   299          3
   301          5
   302          2
   303          5
   304          2
   313          2
   315          6
   316          2
   317          3
   318          2
   325          4
   326          2
   329          4
   330          2
   334          2
   340          2
   341          5
   342          2
   343          2
   344          2
   345          4
   346          2
   347          2
   353          2
   357          6
   358          2
   359          2
   360          2
   361          3
   365          2
   366          2
   368          2
   369          4
   370         11
   371          7
   372          7
   373          8
   374          3
   375          3
   377          2
   381          2
   383         13
   384          7
   385          3
   386          2
   387          8
   388          3
   389          2
   391          3
   394          3
   396          2
   397          2
   398         13
   399          7
   400         15
   401          7
   402          5
   411          4
   412          6
   415          2
   416          2
   417          3
   419          2
   420          3
   426          2
   427         31
   428         20
   429          5
   430          4
   431          4
   432         42
   433         21
   434          6
   443          2
   444          4
   445          6
   446          5
   461          4
   462         19
   463          6
   464          2