##TITLE=Library Entry 87988
##JCAMP-DX=Revision 4.10 
##DATA TYPE=MASS SPECTRUM
##SAMPLE DESCRIPTION=A.A.Kutin, Moscow, Russia
##NAMES=HP
##CAS NAME=Acetamide, 2-cyano-N-(2-phenoxyethyl)-
##MOLFORM=C11H12N2O2
##CAS REGISTRY NO=288154-75-6
##MP= -300
##BP= -300
##MW= 204
##$RETENTION INDEX=0
##$CONDENSED SPECTRUM=NO
##NPOINTS= 100
##XYDATA=(XY..XY) 1 
    33          0
    34          1
    35          2
    36          1
    37          9
    38         43
    39        205
    40        164
    41         72
    42        121
    43         68
    44        679
    45         22
    46          1
    47          4
    48          2
    49          5
    50         54
    51        168
    52         18
    53         13
    54          7
    55         20
    56          8
    57          4
    58          2
    59          2
    60         11
    62         19
    63         47
    64         22
    65        127
    66         79
    67         18
    68        118
    69         11
    70         36
    71          4
    72          0
    73          2
    74         12
    75         10
    76         23
    77        358
    78         39
    79         73
    80          8
    81          2
    82          9
    83         15
    84          3
    85         12
    86          1
    87          2
    89          1
    91         78
    92         24
    93         24
    94        271
    95         22
    96          3
    97          8
   100          0
   102          0
   103          2
   104          3
   105          3
   106         12
   107         62
   108          8
   109          6
   111        999
   112         62
   113          4
   115          0
   116          0
   117          2
   119         33
   120         99
   121         10
   122          1
   127          0
   130          0
   131          0
   132          0
   133          1
   134          3
   135          5
   136          1
   144          3
   145          0
   149          0
   158          0
   160          0
   163          3
   164          2
   203          2
   204         34
   205          4
   206          0