##TITLE=Library Entry 5176
##JCAMP-DX=Revision 4.10 
##DATA TYPE=MASS SPECTRUM
##SAMPLE DESCRIPTION=A.S.Moskovkin,I.M.Karnaukh, Russian Center on Disaster
 Medicine
##NAMES=HP
##CAS NAME=7-Hydroxylamino-1,3,5-triazaadamantane
##MOLFORM=C7H14N4O
##CAS REGISTRY NO=28820-72-6
##MP= -300
##BP= -300
##MW= 170
##$RETENTION INDEX=0
##$CONDENSED SPECTRUM=NO
##NPOINTS= 110
##XYDATA=(XY..XY) 1 
    12         27
    13          5
    14         36
    15        142
    16         11
    17         79
    18        375
    19          1
    25          2
    26         37
    27        113
    28        363
    29        147
    30        170
    31         78
    32         34
    33          1
    34          1
    36          4
    38          2
    39         19
    40         22
    41        113
    42        999
    43         90
    44        125
    45         39
    46          8
    47          1
    48          1
    50          3
    51          4
    52         10
    53         12
    54         36
    55         59
    56         57
    57         76
    58         10
    59          4
    60         26
    61          3
    62          5
    63          2
    64          4
    65          5
    66          6
    67         25
    68         40
    69         55
    70         21
    71         34
    72          6
    73         10
    75          2
    76          3
    77          5
    78          3
    79          5
    80         10
    81         96
    82         37
    83        213
    84         30
    85         17
    87          2
    91          4
    93          9
    94          6
    95        301
    96         27
    97         47
    98         11
    99         35
   100          4
   101          1
   102          2
   104          3
   105          3
   107          8
   108          3
   109         14
   110         15
   111         27
   112         43
   113          8
   115          3
   121          3
   122          2
   123          4
   124        482
   125         42
   126          3
   127          4
   128         13
   129          4
   137          3
   138          6
   139          3
   140          5
   141          3
   152          3
   153        102
   154         14
   155          2
   168          5
   169          2
   170        193
   171         18
   172          1