##TITLE=Library Entry 50494
##JCAMP-DX=Revision 4.10 
##DATA TYPE=MASS SPECTRUM
##SAMPLE DESCRIPTION=M. IWAMOTO TOYO RAYON CO., SONOYANA, OTSU, SHIGA-KEN, J
APAN
##NAMES=HP
##CAS NAME=2,4-Hexadiene, 2-methyl-
##MOLFORM=C7H12
##CAS REGISTRY NO=28823-41-8
##MP= -300
##BP= -300
##MW= 96
##$RETENTION INDEX=729
##$CONDENSED SPECTRUM=NO
##NPOINTS= 58
##XYDATA=(XY..XY) 1 
    14          3
    15         38
    25          1
    26         27
    27        228
    28         42
    29         76
    30          1
    37         18
    38         42
    39        350
    40         51
    41        331
    42         27
    43         23
    44          3
    45          4
    46          9
    47          8
    48          9
    49          9
    50         60
    51        103
    52         46
    53        264
    54        121
    55        167
    56         24
    57          1
    61          8
    62         14
    63         33
    64          5
    65         64
    66         38
    67        196
    68         63
    69         22
    70          1
    73          1
    74          9
    75          9
    76          1
    77        122
    78         35
    79        249
    80         42
    81        999
    82         68
    83          1
    91         17
    92          1
    93         13
    94          3
    95         50
    96        441
    97         36
    98          1