##TITLE=Library Entry 36778
##JCAMP-DX=Revision 4.10 
##DATA TYPE=MASS SPECTRUM
##SAMPLE DESCRIPTION=A.A.Kutin, Moscow, Russia
##NAMES=HP
##CAS NAME=Pyridine-3-carboxamide, oxime, N-(2-trifluoromethylphenyl)-
##MOLFORM=C13H10F3N3O
##CAS REGISTRY NO=288246-53-7
##MP= -300
##BP= -300
##MW= 281
##$RETENTION INDEX=0
##$CONDENSED SPECTRUM=NO
##NPOINTS= 159
##XYDATA=(XY..XY) 1 
    33         14
    37         17
    38        140
    39        154
    40         56
    41         22
    42         11
    43         10
    44         10
    46          7
    50        627
    51        734
    52        312
    53         43
    54          8
    56         10
    57         47
    58          1
    61         33
    62         84
    63        195
    64        208
    66        116
    67         17
    69        999
    70         12
    73          2
    75        421
    76        457
    77        531
    78        747
    79         51
    80         29
    81         25
    83         86
    84          7
    86          4
    87         44
    88         78
    89         32
    90         67
    91         96
    92         68
    93         36
    95        155
    96         22
    97          7
    99         33
   100         65
   101         41
   104        470
   105        288
   106         70
   107         33
   108         23
   109         23
   110         13
   111          1
   113        242
   114        251
   115         22
   116         13
   118         14
   119         36
   120         70
   121         54
   122         28
   123          1
   125        176
   126         86
   127         31
   128          6
   129          1
   130          2
   132         64
   133         44
   134          5
   137          3
   139         74
   140        109
   141        339
   143         32
   145        199
   146         18
   147          7
   152        191
   153         18
   154          2
   157          8
   159         18
   161        451
   162         24
   165         22
   166         31
   167         29
   168         14
   169         32
   170         16
   171         10
   172          8
   173          2
   175          4
   176          4
   177          3
   179         11
   181         50
   182          9
   183         11
   184         10
   185          9
   187          6
   189          1
   190          4
   194        100
   195        166
   196         25
   197         11
   198         10
   199          2
   202          9
   203          3
   204          3
   209          9
   210         19
   212        554
   213         44
   214          5
   216         10
   217         34
   218          2
   222         75
   223         57
   224         56
   225          2
   229         64
   230         16
   231         12
   236          5
   237          4
   240          1
   242         29
   244        863
   245         89
   246          4
   249        214
   250         26
   258          1
   260         27
   261          2
   262         36
   263         78
   264        470
   265         62
   266          4
   279          2
   280         99
   281        730
   282         99
   283          6