##TITLE=Library Entry 1966
##JCAMP-DX=Revision 4.10 
##DATA TYPE=MASS SPECTRUM
##SAMPLE DESCRIPTION=A.A.Kutin, Moscow, Russia
##NAMES=HP
##CAS NAME=Carbamic acid, N-[6-(4-chlorophenoxy)-3-pyridyl]-, 2-propynyl est
er
##MOLFORM=C15H11ClN2O3
##CAS REGISTRY NO=288247-08-5
##MP= -300
##BP= -300
##MW= 302
##$RETENTION INDEX=0
##$CONDENSED SPECTRUM=NO
##NPOINTS= 102
##XYDATA=(XY..XY) 1 
    35          6
    36          2
    37         55
    39        999
    40         19
    45          2
    49          1
    50         28
    51         52
    52        109
    53         99
    54         31
    55         63
    56          7
    62         15
    63         44
    64         30
    65         26
    66         13
    73         12
    74         67
    75        107
    76         26
    77         15
    79         14
    80         28
    81         27
    82         38
    85          8
    90          1
    91         18
    92         12
    99         39
   100          4
   101         17
   102         12
   104          2
   106          3
   108          5
   109          5
   111        106
   112         17
   113         28
   114          3
   119          8
   120          2
   127          5
   128         15
   129         16
   130          5
   135          1
   136          1
   137         13
   138         51
   139         21
   140         19
   141          2
   149          5
   151          1
   155         33
   156         30
   157         60
   158          3
   162          1
   163         12
   164         33
   165         19
   166          8
   167          4
   174          1
   177          2
   183         27
   184        136
   185          9
   189          8
   190         17
   191         28
   192         51
   193         15
   194         13
   204          2
   205          1
   211         17
   218         60
   219        190
   220         59
   221         63
   222          6
   229         13
   230          6
   245         73
   246        153
   248         86
   249          4
   257         14
   262          2
   263         10
   274          2
   302        608
   303         85
   304        177
   305         30