##TITLE=Library Entry 1661
##JCAMP-DX=Revision 4.10 
##DATA TYPE=MASS SPECTRUM
##SAMPLE DESCRIPTION=A.A.Kutin, Moscow, Russia
##NAMES=HP
##CAS NAME=Carbamic acid, N-(6-methoxy-3-pyridyl)-, 2-propynyl ester
##MOLFORM=C10H10N2O3
##CAS REGISTRY NO=288247-12-1
##MP= -300
##BP= -300
##MW= 206
##$RETENTION INDEX=0
##$CONDENSED SPECTRUM=NO
##NPOINTS= 55
##XYDATA=(XY..XY) 1 
    37         70
    38        531
    39        999
    41         88
    42         64
    44         12
    50         29
    52        378
    53        248
    55        290
    56         19
    63          2
    64         46
    65         29
    66         47
    67         13
    68         54
    69         36
    75          2
    77         17
    78         26
    79         32
    80         92
    81         79
    82         68
    91          4
    92         59
    93         31
    94         24
    95         63
    96        166
    97          3
   107          2
   109          2
   119         23
   120        108
   121         76
   123        276
   124         20
   133          9
   134          3
   147         26
   149        234
   150        208
   151         26
   161         20
   166          2
   167          5
   168          2
   176          7
   177         68
   178          3
   205        221
   206        504
   207         36