##TITLE=Library Entry 98482
##JCAMP-DX=Revision 4.10 
##DATA TYPE=MASS SPECTRUM
##SAMPLE DESCRIPTION=A.A.Kutin, Moscow, Russia
##NAMES=HP
##CAS NAME=1,2,4-Oxadiazol-5(4H)-one, 3-[4-(trifluoromethyl)-3-pyridyl]-4-(2
,4-dimethylphenyl)-]
##MOLFORM=C16H12F3N3O2
##CAS REGISTRY NO=288247-11-0
##MP= -300
##BP= -300
##MW= 335
##$RETENTION INDEX=0
##$CONDENSED SPECTRUM=NO
##NPOINTS= 131
##XYDATA=(XY..XY) 1 
    37          1
    38         30
    39         86
    40         19
    41         22
    44         29
    45         74
    50        108
    51        106
    52         70
    53         42
    54          5
    57         14
    61          8
    62         28
    63         98
    64        106
    65         95
    66         21
    67          7
    69        186
    73          2
    75         69
    76        326
    77        282
    78         95
    79         73
    80         11
    81         15
    82          5
    86          2
    88         16
    89         68
    90        130
    91        283
    92         87
    93         55
    95         47
    96         10
    99         37
   100         32
   101         28
   102         86
   103        261
   104        103
   105         83
   106         22
   107         27
   109          5
   112          4
   113         14
   114         27
   116        179
   118        999
   119        692
   120         51
   121         12
   122          9
   124          6
   126        142
   127         18
   128         35
   129         21
   130         51
   131         43
   132         60
   133         24
   134         10
   138          7
   140         35
   142         21
   143         15
   145        277
   146        229
   147         51
   148          5
   152         38
   153         37
   154          7
   155          2
   158         14
   160         20
   162          8
   163         93
   164          3
   165          1
   166         11
   172        103
   173         15
   180          5
   186          3
   188          1
   193          2
   195         54
   200          2
   206          9
   207          7
   209          3
   220          7
   222         21
   223         26
   229          5
   236          3
   237         17
   243          3
   248          3
   249         14
   250         62
   251         49
   252         33
   256        151
   257         14
   263         14
   264         11
   269         10
   270        127
   271         22
   272         10
   274          8
   275         15
   276         25
   277         18
   278          1
   290         55
   291         92
   292          1
   316         12
   318          1
   335        382
   336         61
   337          1