##TITLE=Library Entry 1944
##JCAMP-DX=Revision 4.10 
##DATA TYPE=MASS SPECTRUM
##SAMPLE DESCRIPTION=A.A.Kutin, Moscow, Russia
##NAMES=HP
##CAS NAME=Carbamic acid, N-(6-isopropoxy-3-pyridyl)-, 2-propynyl ester
##MOLFORM=C12H14N2O3
##CAS REGISTRY NO=288247-35-8
##MP= -300
##BP= -300
##MW= 234
##$RETENTION INDEX=0
##$CONDENSED SPECTRUM=NO
##NPOINTS= 113
##XYDATA=(XY..XY) 1 
    37         77
    39        999
    41        292
    43        288
    45          4
    46          0
    50          3
    52        140
    53        147
    54         90
    55         74
    56          7
    57          1
    58          0
    59          2
    62          0
    64         25
    65         36
    66         24
    67          8
    68          3
    69          2
    70          0
    72          0
    73          2
    74          0
    75          1
    76          3
    77          5
    78          4
    80         49
    81        105
    82         93
    83         10
    84          0
    85          0
    91         10
    92         26
    93         11
    94          3
    95          2
    96          1
    97          1
    98          0
    99          0
   100          1
   102          2
   103          1
   104          2
   105          1
   109        305
   110         20
   111          2
   112          0
   116          0
   117          1
   119         27
   120         21
   121         18
   122          1
   124          1
   125          0
   126          0
   127          1
   129          2
   130          1
   131          2
   132          1
   133          0
   134          0
   136         87
   137         27
   138          1
   139          0
   144          0
   145          1
   147         20
   148          4
   149          1
   150          0
   151          2
   152          2
   153          2
   154          1
   155          0
   157          0
   160          0
   161          0
   163          7
   164          1
   165          0
   167          0
   173          0
   174          0
   175          1
   176          6
   177          3
   178          1
   179          1
   190          1
   192        314
   193         27
   194          2
   195          0
   205          0
   210          1
   212          0
   219         47
   220          3
   222          1
   234         93
   235         13
   236          1