##TITLE=Library Entry 47779
##JCAMP-DX=Revision 4.10 
##DATA TYPE=MASS SPECTRUM
##SAMPLE DESCRIPTION=A.A.Kutin, Moscow, Russia
##NAMES=HP
##CAS NAME=Benzamidoxime, N-(3-chloro-4-methoxyphenyl)-
##MOLFORM=C14H13ClN2O2
##CAS REGISTRY NO=288246-49-1
##MP= -300
##BP= -300
##MW= 276
##$RETENTION INDEX=0
##$CONDENSED SPECTRUM=NO
##NPOINTS= 211
##XYDATA=(XY..XY) 1 
    33          1
    35          4
    37         17
    38         37
    39         83
    41         22
    43         13
    44          5
    45         18
    47          1
    48          1
    50        235
    51        444
    52        187
    53         89
    54         10
    55          6
    56          1
    57          1
    58          0
    60         14
    61         36
    62         98
    63        247
    64         70
    65         82
    66         19
    67          5
    68          4
    69          4
    70          2
    72         18
    73         37
    74         79
    75        147
    76        363
    77        999
    78        219
    80        246
    81         11
    83          2
    84         13
    85         19
    86         54
    87         47
    88         41
    89         40
    90         46
    91         53
    92         26
    93         10
    94          8
    95          4
    97         34
    98         45
    99         53
   100         22
   101         20
   103        375
   104        245
   106        242
   107         14
   108          6
   109          6
   111         35
   112         40
   113         34
   114        103
   116         51
   117         11
   118         10
   120        136
   121         11
   122          5
   124         29
   125         20
   126         53
   127         25
   128         25
   129         33
   131         18
   132          2
   133          3
   134          1
   135          2
   136          2
   137          5
   138         16
   139         57
   140         36
   142        289
   144        108
   145          7
   146          2
   147          1
   148          2
   149          4
   150          4
   151          9
   152         17
   153         17
   154         13
   156        298
   157        152
   158         94
   159         45
   160          7
   161          5
   162          2
   163          4
   164          7
   165          6
   166         20
   167         57
   168         26
   169         16
   170          7
   171          2
   172          3
   173          7
   174          3
   175          6
   176          5
   177          5
   178          8
   179         20
   180         11
   181         22
   182          8
   183          5
   184          1
   185          0
   186          1
   187          1
   188          3
   189          2
   190          4
   191          5
   192         10
   193         17
   194         21
   195         11
   196          3
   197          2
   198          2
   199          0
   201         27
   202          6
   203         10
   204          2
   205          1
   207          4
   208          9
   209         30
   210         17
   211          3
   212          1
   213          5
   214         16
   215         63
   216         16
   217         22
   218          5
   219          0
   220          0
   221          1
   223         15
   224         70
   225         13
   226          2
   227          4
   229         51
   230         11
   231         13
   232          3
   233          1
   234          0
   239          1
   240          7
   243        818
   244        359
   245        274
   246        107
   247         19
   248          3
   249          1
   250          0
   251          0
   252          0
   253          0
   255          0
   258        122
   259        178
   260         89
   261         76
   262         26
   263         11
   264          5
   265          2
   266          0
   267          0
   272          2
   273          0
   276        743
   277        156
   278        205
   279         36
   280          7
   282          4
   283          0
   284          0