##TITLE=Library Entry 58812
##JCAMP-DX=Revision 4.10 
##DATA TYPE=MASS SPECTRUM
##SAMPLE DESCRIPTION=NIST Mass Spectrometry Data Center, 1994
##NAMES=HP
##CAS NAME=Ethyl-.alpha.-bromophenyl acetate
##MOLFORM=C10H11BrO2
##CAS REGISTRY NO=2882-19-1
##MP= -300
##BP= -300
##MW= 242
##$RETENTION INDEX=0
##$CONDENSED SPECTRUM=NO
##NPOINTS= 92
##XYDATA=(XY..XY) 1 
    12          1
    13          9
    14         26
    15        111
    16         12
    17          2
    18          8
    19          8
    25         11
    26         85
    27        320
    28         85
    29        646
    30         63
    31         71
    32          5
    36          6
    37         37
    38        108
    39        287
    40         59
    41         21
    42         16
    43         68
    44         28
    45         83
    46          8
    49         16
    50        140
    51        182
    52         44
    53         14
    59         22
    60          7
    61         70
    62        204
    63        487
    64        163
    65        133
    66         12
    73          6
    74         27
    75         31
    76          6
    77        156
    78          6
    79        369
    80         31
    81          6
    82          6
    85         16
    86         32
    87         29
    88          6
    89        882
    90        999
    91        999
    92         95
    93          8
   102          5
   103          7
   105         25
   107        275
   108         29
   115          7
   118        640
   119         91
   120          9
   125         11
   127          8
   135        258
   136         34
   143          5
   145          6
   152          6
   163        794
   164        169
   165         26
   166          6
   169        513
   171        504
   172         42
   176          4
   177          4
   178          2
   179          3
   180          2
   181          1
   197          4
   207          1
   242         11
   244         10