##TITLE=Library Entry 65203
##JCAMP-DX=Revision 4.10 
##DATA TYPE=MASS SPECTRUM
##SAMPLE DESCRIPTION=CONTINENTAL OIL CO., PONCA CITY, OKLA, USA
##NAMES=HP
##CAS NAME=Benzene, (3-cyclopentylpropyl)-
##MOLFORM=C14H20
##CAS REGISTRY NO=2883-12-7
##MP= -300
##BP= -300
##MW= 188
##$RETENTION INDEX=0
##$CONDENSED SPECTRUM=NO
##NPOINTS= 133
##XYDATA=(XY..XY) 1 
    26          6
    27         81
    28         24
    29         27
    30          1
    31          0
    36          0
    37          1
    38          6
    39        119
    40         18
    41        232
    42         28
    43         17
    44          0
    45          0
    47          0
    49          0
    50         12
    51         44
    52         14
    53         31
    54         15
    55        224
    56         11
    57          2
    58          0
    59          0
    61          0
    62          4
    63         21
    64          7
    65         91
    66         13
    67         74
    68         22
    69         89
    70          5
    71          0
    73          0
    74          6
    75          9
    76          9
    77         96
    78         73
    79         61
    80         10
    81         19
    82         17
    83         14
    84          1
    85          0
    86          1
    87          2
    88          2
    89         26
    90          6
    91        978
    92        999
    93         91
    94         30
    95         45
    96         10
    97         53
    98          4
    99          0
   100          0
   101          2
   102         10
   103         43
   104        155
   105        128
   106        112
   107         17
   108         12
   109          6
   110          2
   111          0
   112          0
   113          1
   114          1
   115         28
   116         10
   117         65
   118         26
   119         32
   120         13
   121          3
   122          3
   123          0
   125          0
   126          0
   127          3
   128          7
   129          6
   130          2
   131         52
   132          8
   133          3
   134          9
   135          1
   139          0
   140          0
   141          1
   142          0
   143          1
   144          1
   145         19
   146          9
   147          6
   148          0
   151          0
   152          0
   153          0
   154          0
   155          0
   156          0
   157          0
   158          0
   159          8
   160          6
   161          1
   165          0
   166          0
   169          0
   170          0
   173          4
   174          0
   186          2
   187          2
   188        348
   189         53
   190          3