##TITLE=Library Entry 52150
##JCAMP-DX=Revision 4.10 
##DATA TYPE=MASS SPECTRUM
##SAMPLE DESCRIPTION=Exported from NIST MS Search
##NAMES=HP
##CAS NAME=Cyclohexane, 1,1'-(2-methyl-1,3-propanediyl)bis-
##MOLFORM=C16H30
##CAS REGISTRY NO=2883-08-1
##MP= -300
##BP= -300
##MW= 222
##$RETENTION INDEX=0
##$CONDENSED SPECTRUM=NO
##NPOINTS= 146
##XYDATA=(XY..XY) 1 
    36          1
    37          2
    38          3
    39        150
    40         28
    41        790
    42         69
    43        143
    44          5
    45          1
    46          1
    47          1
    48          1
    49          1
    50          2
    51          9
    52          7
    53         84
    54        112
    55        964
    56         98
    57        116
    58          5
    59          1
    60          1
    61          1
    62          1
    63          2
    64          1
    65         15
    66         12
    67        197
    68         47
    69        360
    70         38
    71         55
    72          3
    73          1
    74          1
    75          1
    76          1
    77         18
    78          5
    79         30
    80         12
    81        120
    82        164
    83        999
    84         70
    85          8
    86          1
    87          1
    88          1
    89          1
    90          1
    91          7
    92          1
    93          5
    94          3
    95         51
    96        120
    97        462
    98         38
    99          2
   100          1
   101          1
   102          1
   103          1
   104          1
   105          1
   106          1
   107          2
   108          2
   109         59
   110         18
   111        190
   112         17
   113          1
   114          1
   115          1
   116          1
   117          1
   118          1
   119          1
   120          1
   121          1
   122          1
   123         27
   124          7
   125         85
   126          9
   127          1
   128          1
   129          1
   130          1
   131          1
   132          1
   133          1
   134          1
   135          3
   136          1
   137         22
   138        116
   139        177
   140         20
   141          1
   142          1
   143          1
   149          1
   150          1
   151         14
   152         10
   153          9
   154          2
   155          1
   156          1
   163          1
   164          1
   165          4
   166          1
   167          1
   168          1
   169          1
   177          1
   178          1
   179          1
   180          1
   181          1
   183          1
   184          1
   185          1
   192          1
   193          2
   194          1
   205          1
   206         79
   207        328
   208         55
   209          4
   210          1
   220          1
   221          1
   222         13
   223          3
   224          1
   225          1