##TITLE=Library Entry 55777
##JCAMP-DX=Revision 4.10 
##DATA TYPE=MASS SPECTRUM
##SAMPLE DESCRIPTION=Japan AIST/NIMC Database- Spectrum MS-NW-2058
##NAMES=HP
##CAS NAME=DL-Leucine, N-DL-leucyl-
##MOLFORM=C12H24N2O3
##CAS REGISTRY NO=2883-36-5
##MP= -300
##BP= -300
##MW= 244
##$RETENTION INDEX=0
##$CONDENSED SPECTRUM=NO
##NPOINTS= 140
##XYDATA=(XY..XY) 1 
    12          1
    14          2
    15         13
    16          2
    17         10
    18         51
    25          1
    26         15
    27         97
    28         86
    29         44
    30        245
    31          3
    32          1
    37          5
    38          9
    39         59
    40         19
    41        162
    42         68
    43        307
    44        205
    45          6
    46          2
    49          1
    50          4
    51          8
    52          9
    53         29
    54         20
    55         61
    56         19
    57         31
    58          4
    59          2
    60          1
    63          1
    64          1
    65          4
    66          5
    67         17
    68         22
    69         22
    70         63
    71         13
    72          7
    73          9
    74          5
    75          1
    77          2
    78          2
    79          3
    80          9
    81          9
    82         11
    83          7
    84         30
    85         16
    86        999
    87         59
    88          2
    91          2
    92          1
    93          3
    94          6
    95          9
    96         13
    97          9
    98         17
    99          3
   100          1
   101          1
   103          1
   104          1
   105          1
   106          1
   107          2
   108          2
   109          2
   110          4
   111          3
   112         13
   113         25
   114         14
   115          1
   116          2
   119          1
   120          1
   121          1
   122          4
   123          4
   124          4
   125          5
   126          2
   127          2
   128          1
   130          2
   132          4
   133          1
   136          1
   137          4
   138          8
   139          3
   140         36
   141         59
   142          9
   143          1
   144          1
   149          1
   151          2
   152          1
   153          5
   154          5
   155          6
   156          1
   157          1
   165          3
   166          5
   167          2
   168          1
   169          5
   170         83
   171          8
   172          1
   179          1
   181          3
   182          1
   183         10
   184          1
   187          3
   188          2
   196          1
   197          1
   199          2
   208          1
   209          2
   211          2
   212          1
   224          1
   229          2