##TITLE=Library Entry 51448
##JCAMP-DX=Revision 4.10 
##DATA TYPE=MASS SPECTRUM
##SAMPLE DESCRIPTION=Exported from NIST MS Search
##NAMES=HP
##CAS NAME=Octane, 2-cyclohexyl-
##MOLFORM=C14H28
##CAS REGISTRY NO=2883-05-8
##MP= -300
##BP= -300
##MW= 196
##$RETENTION INDEX=0
##$CONDENSED SPECTRUM=NO
##NPOINTS= 87
##XYDATA=(XY..XY) 1 
    29        420
    30          9
    37          1
    38          3
    39        175
    40         33
    41        771
    42        190
    43        421
    44         13
    50          2
    51          9
    52          7
    53         75
    54        103
    55        764
    56        186
    57        401
    58         17
    59          1
    62          1
    63          1
    64          1
    65         11
    66          9
    67        326
    68         48
    69        410
    70        172
    71        255
    72         13
    73          1
    77         11
    78          3
    79         22
    80          5
    81         63
    82        999
    83        939
    84        115
    85         13
    86          1
    91          4
    92          1
    93          2
    94          1
    95         11
    96          3
    97         44
    98          5
    99          1
   103          1
   105          1
   107          1
   108          1
   109          5
   110         70
   111        330
   112        247
   113         37
   114          2
   115          1
   123          1
   124          2
   125          8
   126          4
   127          1
   137          1
   138          1
   139          3
   140          1
   141          1
   152          1
   153          2
   154          1
   166          1
   167          5
   168          1
   178          1
   179          1
   180          1
   181          5
   182          1
   195          1
   196         47
   197          7
   198          1