##TITLE=Library Entry 71899
##JCAMP-DX=Revision 4.10 
##DATA TYPE=MASS SPECTRUM
##SAMPLE DESCRIPTION=B.BATEUP UNIV. OF ADELAIDE, ADELAIDE, S. AUSTRALIA
##NAMES=HP
##CAS NAME=1-Penten-3-ol, 3-ethyl-2-methyl-
##MOLFORM=C8H16O
##CAS REGISTRY NO=28832-46-4
##MP= -300
##BP= -300
##MW= 128
##$RETENTION INDEX=0
##$CONDENSED SPECTRUM=NO
##NPOINTS= 23
##XYDATA=(XY..XY) 1 
    27         30
    29         40
    39         60
    40         10
    41        100
    42         20
    43        320
    44         20
    45         60
    53         30
    55         70
    57        120
    67         20
    69         70
    70         10
    71        120
    79         20
    81         50
    86         30
    87        160
    99        999
   100        100
   128         40