##TITLE=Library Entry 87994
##JCAMP-DX=Revision 4.10 
##DATA TYPE=MASS SPECTRUM
##SAMPLE DESCRIPTION=Div. of Experiment Therapeutics WRAIR, WRAMC, Washingto
n DC 20307
##NAMES=HP
##CAS NAME=Thiophene, 2-methyl-5-[4-bromo-n-butyl]-
##MOLFORM=C9H13BrS
##CAS REGISTRY NO=288323-51-3
##MP= -300
##BP= -300
##MW= 232
##$RETENTION INDEX=0
##$CONDENSED SPECTRUM=NO
##NPOINTS= 80
##XYDATA=(XY..XY) 1 
    41        150
    42         37
    43          7
    45        183
    47         20
    50         33
    51         84
    52         11
    53        102
    55         30
    57         14
    58         31
    59        107
    61         14
    62          9
    63         25
    65         44
    66         17
    67         54
    69         39
    70         14
    71         51
    72          5
    73          6
    74          5
    75          5
    77         97
    78         51
    79         21
    81         11
    82          6
    83          4
    84          7
    85         16
    86          1
    87          3
    89          4
    91         30
    93         16
    95         20
    97         49
    98          6
    99          6
   100          1
   103          3
   104          0
   105          2
   107          4
   109         16
   111        999
   112         86
   113         25
   114          3
   115          3
   117          4
   119          2
   121          5
   123         36
   124         39
   125         16
   126          2
   127          1
   134          2
   135          5
   136          1
   137          8
   138          1
   140          0
   142          0
   149          1
   151          5
   152          4
   153         19
   154          2
   155          0
   231          2
   232         72
   234         71
   235          6
   236          1