##TITLE=Library Entry 59698
##JCAMP-DX=Revision 4.10 
##DATA TYPE=MASS SPECTRUM
##SAMPLE DESCRIPTION=Div. of Experiment Therapeutics WRAIR, WRAMC, Washingto
n DC 20307
##NAMES=HP
##CAS NAME=Carbamic acid, N-(3-oxo-4-isoxazolidinyl)-, benzyl ester
##MOLFORM=C11H12N2O4
##CAS REGISTRY NO=28832-02-2
##MP= -300
##BP= -300
##MW= 236
##$RETENTION INDEX=0
##$CONDENSED SPECTRUM=NO
##NPOINTS= 33
##XYDATA=(XY..XY) 1 
    41         31
    42         27
    43         30
    44         20
    45          9
    50         17
    51         44
    52         12
    53          3
    55         18
    58          3
    62          5
    63         31
    65        110
    66          4
    69          5
    74          3
    77         43
    79         37
    86         10
    87          7
    89         32
    91        999
    92         53
   101          2
   105         10
   106         24
   107         24
   108         22
   132          3
   150          1
   236          5
   237          1