##TITLE=Library Entry 51938
##JCAMP-DX=Revision 4.10 
##DATA TYPE=MASS SPECTRUM
##SAMPLE DESCRIPTION=Exported from NIST MS Search
##NAMES=HP
##CAS NAME=Cyclohexane, (3-cyclopentylpropyl)-
##MOLFORM=C14H26
##CAS REGISTRY NO=2883-07-0
##MP= -300
##BP= -300
##MW= 194
##$RETENTION INDEX=0
##$CONDENSED SPECTRUM=NO
##NPOINTS= 82
##XYDATA=(XY..XY) 1 
    37          2
    38          6
    39        279
    40         51
    41        960
    42        153
    43         89
    44          3
    50          4
    51         17
    52         12
    53        115
    54        149
    55        859
    56         59
    57         19
    58          1
    62          1
    63          3
    64          1
    65         23
    66         32
    67        383
    68        294
    69        338
    70         24
    71          4
    77         20
    78          6
    79         30
    80         14
    81        157
    82        803
    83        999
    84         64
    85          3
    91         13
    92         20
    93          6
    94          7
    95         72
    96        333
    97        117
    98         11
    99          1
   103          1
   104          1
   105          2
   106          1
   107          1
   108          4
   109         58
   110         31
   111         18
   112          7
   113          1
   121          1
   122          1
   123         12
   124         16
   125         11
   126          2
   127          1
   135          1
   136          1
   137         11
   138         12
   139          1
   151          6
   152          8
   153          1
   165          1
   166         19
   167          3
   179          1
   188          3
   189          1
   192          1
   193          1
   194        204
   195         32
   196          3