##TITLE=Library Entry 64677
##JCAMP-DX=Revision 4.10 
##DATA TYPE=MASS SPECTRUM
##SAMPLE DESCRIPTION=Div. of Experiment Therapeutics WRAIR, WRAMC, Washingto
n DC 20307
##NAMES=HP
##CAS NAME=4-[3-Chloro-6-hydroxybenzylidene]amino-2-benzyl-3-isoxazolidinone
##MOLFORM=C17H15ClN2O3
##CAS REGISTRY NO=28831-93-8
##MP= -300
##BP= -300
##MW= 330
##$RETENTION INDEX=0
##$CONDENSED SPECTRUM=NO
##NPOINTS= 103
##XYDATA=(XY..XY) 1 
    41         11
    42          6
    43         11
    44          1
    49          4
    50         22
    51         64
    52         12
    53          9
    54          9
    55         33
    56          6
    58          1
    61          1
    62          7
    63         29
    64          8
    65         82
    66          6
    67          1
    70          1
    71          1
    73         10
    74          9
    75         52
    76         19
    77        122
    78         24
    79          8
    84          4
    85          4
    86          5
    87          9
    89         23
    91        999
    92         84
    93          2
    98          1
    99         13
   100          6
   101          4
   102          8
   103          3
   104         44
   105         28
   106         35
   107          4
   110          3
   111         47
   112         72
   113         22
   114         23
   115          1
   116          2
   117         18
   118          9
   119          1
   125         13
   126          4
   127          8
   128          3
   131          1
   132         18
   133          8
   136          7
   137          1
   138         18
   139         55
   140         42
   141         53
   142         16
   143         11
   146         13
   152         28
   153         15
   154         41
   155         14
   156         13
   157          3
   160        127
   161         14
   164          8
   166        138
   167         40
   168         48
   169         12
   170          1
   176          6
   177        139
   178         15
   179          1
   180         32
   181         26
   182         13
   183          9
   196          3
   208          3
   239          5
   272          1
   330        145
   331         38
   332         48
   333         11