##TITLE=Library Entry 38306
##JCAMP-DX=Revision 4.10 
##DATA TYPE=MASS SPECTRUM
##SAMPLE DESCRIPTION=NIST Mass Spectrometry Data Center, 1990.
##NAMES=HP
##CAS NAME=1,6-Heptadien-4-ol
##MOLFORM=C7H12O
##CAS REGISTRY NO=2883-45-6
##MP= -300
##BP= -300
##MW= 112
##$RETENTION INDEX=876
##$CONDENSED SPECTRUM=NO
##NPOINTS= 39
##XYDATA=(XY..XY) 1 
    26         23
    27        188
    28         31
    29         81
    30         23
    31         38
    32          2
    37         17
    38         59
    39        391
    40         78
    41        724
    42        222
    43        942
    44         57
    50         21
    51         37
    52         15
    53         75
    54         13
    55         36
    57         13
    63         13
    65         21
    66         17
    67         27
    68         26
    69         90
    70         13
    71        999
    72         50
    77         40
    78         10
    79         60
    83         12
    84         11
    91         17
    94         22
    97         17