##TITLE=Library Entry 57534
##JCAMP-DX=Revision 4.10 
##DATA TYPE=MASS SPECTRUM
##SAMPLE DESCRIPTION=Div. of Experiment Therapeutics WRAIR, WRAMC, Washingto
n DC 20307
##NAMES=HP
##CAS NAME=3-Isoxazolidinone, 3-[(2-hydroxynaphth-1-yl)methyleneamino]-
##MOLFORM=C14H12N2O3
##CAS REGISTRY NO=28831-95-0
##MP= -300
##BP= -300
##MW= 256
##$RETENTION INDEX=0
##$CONDENSED SPECTRUM=NO
##NPOINTS= 107
##XYDATA=(XY..XY) 1 
    41         21
    42         31
    43         56
    44         43
    49          5
    50         50
    51        149
    52         22
    53         17
    54         21
    55        441
    56         17
    57         23
    58         45
    59         34
    60         10
    61          8
    62         41
    63        216
    64         87
    65         23
    69         12
    70         29
    71         15
    72          9
    74         44
    75         83
    76         44
    77        346
    83          7
    84         52
    85         10
    86         84
    87        999
    88         65
    89         62
    90         16
    91         25
    92         46
    93         29
    98         25
    99         23
   100         13
   101         61
   102         58
   103          9
   107         26
   111          2
   113         44
   114         83
   115        255
   116         32
   125         19
   126        110
   127        307
   128        287
   129         59
   130          7
   139         25
   140         42
   141         75
   142         22
   143         42
   144         26
   145          4
   151         11
   152         52
   153         35
   154        123
   155         45
   156         27
   157         57
   158          8
   166         29
   167         37
   168         72
   169        142
   170        466
   171         95
   172         26
   180         29
   181         80
   182        806
   183        204
   184         61
   185         18
   187         19
   195         29
   196        186
   197         48
   198         37
   199          5
   209          2
   211         11
   212         18
   213          9
   214          2
   224          7
   225         85
   226         23
   238          6
   239         51
   240         10
   255          7
   256        753
   257        141
   258         17