##TITLE=Library Entry 24272
##JCAMP-DX=Revision 4.10 
##DATA TYPE=MASS SPECTRUM
##SAMPLE DESCRIPTION=R.T.HOLMAN,UNIVERSITY OF MINNESOTA
##NAMES=HP
##CAS NAME=Hexadecanoic acid, 2-(hexadecyloxy)ethyl ester
##MOLFORM=C34H68O3
##CAS REGISTRY NO=28843-32-5
##MP= -300
##BP= -300
##MW= 524
##$RETENTION INDEX=0
##$CONDENSED SPECTRUM=NO
##NPOINTS= 332
##XYDATA=(XY..XY) 1 
    25          3
    26          9
    27         43
    28        178
    29        151
    30          8
    31         18
    32         31
    38          4
    39         31
    40         12
    41        318
    42        106
    43        818
    44         61
    45        106
    46          4
    47          4
    50          4
    51          3
    52          3
    53         15
    54         53
    55        492
    56        204
    57        999
    58         66
    59         40
    60         48
    61         23
    62          3
    63         21
    65          6
    66         31
    67        128
    68        204
    69        431
    70        200
    71        606
    72         53
    73         71
    74         26
    75         12
    76          2
    77          7
    78          4
    79         18
    80         28
    81        121
    82        568
    83        500
    84        227
    85        439
    86         52
    87        151
    88         85
    89         31
    90          3
    91          9
    92          3
    93         15
    94         15
    95        132
    96        280
    97        393
    98        257
    99        204
   100         53
   101         58
   102         10
   103          6
   104          9
   105        143
   106          7
   107         12
   108         12
   109         83
   110        113
   111        204
   112        113
   113         74
   114         21
   115         22
   116          9
   117         15
   118          3
   119          7
   120          5
   121         19
   122         12
   123         62
   124         60
   125         83
   126         45
   127         56
   128         23
   129         28
   130          8
   131          4
   132          4
   133          7
   134          3
   135         16
   136          7
   137         46
   138         48
   139         40
   140         46
   141         73
   142         10
   143         18
   144          5
   145          6
   146          4
   147          4
   148          3
   149         10
   150          7
   151         17
   152         28
   153         23
   154         51
   155         57
   156          9
   157         28
   158          7
   159          5
   160          9
   161          4
   162          3
   163          6
   164          3
   165         16
   166         25
   167         18
   168         25
   169         31
   170          6
   171         13
   172          5
   173          6
   174          3
   175          3
   176          2
   177          5
   178          3
   179         12
   180         21
   181         10
   182         30
   183         28
   184          8
   185         20
   186          6
   187          6
   190          6
   191          6
   192          6
   193          7
   194         40
   195         15
   196         25
   197         15
   198          5
   199         14
   200          4
   201          4
   202          3
   203          4
   204          3
   205          3
   207          8
   208          6
   209          6
   210          6
   211         14
   212          4
   213         19
   214          6
   215          3
   216          3
   217          6
   218          7
   219         19
   220         11
   221         12
   222        265
   223         47
   224         38
   225        121
   226         19
   227          9
   228          3
   229          4
   230          3
   231          3
   232          2
   233          3
   234          2
   235          4
   236         36
   237         44
   238         41
   239        378
   240         68
   241         21
   242          6
   243          2
   244          2
   245          2
   246          2
   247          1
   248          2
   250          6
   251          5
   252          4
   253        128
   254         45
   255        128
   256         58
   257         83
   258         14
   259          4
   260          2
   265          3
   266          5
   267         10
   268        136
   269        151
   270         31
   271         10
   272          4
   279          3
   280          3
   281         34
   282         31
   283        310
   284        234
   285        159
   286         29
   287         13
   288          4
   289          1
   293          3
   294          3
   295          5
   296          2
   297          2
   298          2
   299          4
   300          6
   301        143
   302         29
   303          5
   304          1
   305          1
   307          6
   308          2
   309          1
   310          1
   311          1
   312          2
   313          6
   314          3
   315          2
   316          1
   320          2
   321          3
   322          2
   323          1
   324          2
   325          2
   326          2
   328         38
   329         11
   330          2
   341         31
   342          9
   343          2
   344          1
   352          3
   355          3
   356          3
   357          2
   358          1
   359          1
   369          2
   370          3
   371          1
   383          3
   384          2
   385          1
   397          3
   398          2
   399          1
   401          1
   402          1
   411          1
   412          1
   424          2
   425          2
   426          2
   427          1
   439          1
   440          1
   441          1
   452          3
   453          2
   454          1
   455          1
   462          2
   463          3
   464          2
   479          2
   480          7
   481          5
   482          3
   483          2
   484          1
   494          2
   495          3
   496          2
   497          1
   508          2
   509          2
   510          1
   511          1
   523          6
   524         50
   525         19
   526          6
   527          1