##TITLE=Library Entry 7740
##JCAMP-DX=Revision 4.10 
##DATA TYPE=MASS SPECTRUM
##SAMPLE DESCRIPTION=Chemical Concepts
##NAMES=HP
##CAS NAME=1-Octadecanethiol
##MOLFORM=C18H38S
##CAS REGISTRY NO=2885-00-9
##MP= -300
##BP= -300
##MW= 286
##$RETENTION INDEX=0
##$CONDENSED SPECTRUM=NO
##NPOINTS= 161
##XYDATA=(XY..XY) 1 
    26          4
    27         81
    28         20
    29        295
    30          5
    31          8
    33          1
    34          4
    35          8
    38          1
    39         53
    41        700
    42        135
    43        999
    44         30
    45         84
    46          5
    47        102
    48          3
    49          5
    50          0
    51          1
    52          0
    53         28
    54         78
    55        915
    56        404
    57        953
    58         39
    59         68
    60         28
    61         80
    62          5
    63          4
    65          5
    66         15
    67        136
    68        295
    69        767
    70        388
    71        418
    72         21
    73          9
    74          4
    75          9
    76          1
    77          7
    79          9
    80          5
    81         85
    82        388
    83        860
    84        263
    85        230
    86         15
    87         36
    88         66
    89        244
    90         14
    91         11
    93          1
    94          1
    95         34
    96        261
    97        787
    98        175
    99         65
   100          5
   101         14
   102          5
   103         47
   104          3
   105          1
   107          2
   109         12
   110         88
   111        419
   112        120
   113         37
   114          3
   115          3
   116          0
   117         10
   119          1
   122          1
   123          9
   124         62
   125        237
   126         84
   127         20
   128          2
   129          2
   131          2
   132          3
   133         23
   134          1
   135          0
   136          0
   137          6
   138         53
   139        123
   140         64
   141         16
   142          1
   145          1
   147          4
   151          0
   152         35
   153         75
   154         45
   155         10
   156          0
   157          0
   159          2
   161          1
   166         27
   167         53
   168         36
   169          9
   170          1
   173          1
   177          1
   180         17
   181         35
   182         28
   183          8
   184          1
   185          2
   187          0
   194         12
   195         27
   196         23
   197          3
   198          3
   199          2
   201          2
   208          6
   209         18
   210         12
   211          2
   213          0
   214          4
   215          2
   222          5
   223         18
   224         64
   225         10
   226          0
   227          0
   229          1
   243          0
   252        321
   253         65
   254          5
   257          1
   271          0
   285         27
   286        245
   287         50
   288         17
   289          2