##TITLE=Library Entry 79186
##JCAMP-DX=Revision 4.10 
##DATA TYPE=MASS SPECTRUM
##SAMPLE DESCRIPTION=Japan AIST/NIMC Database- Spectrum MS-IW-3026
##NAMES=HP
##CAS NAME=1,7-Diphenyl-1,7-heptanedione
##MOLFORM=C19H20O2
##CAS REGISTRY NO=28861-22-5
##MP= -300
##BP= -300
##MW= 280
##$RETENTION INDEX=0
##$CONDENSED SPECTRUM=NO
##NPOINTS= 89
##XYDATA=(XY..XY) 1 
    27          9
    28          5
    29          6
    39          9
    40          1
    41         10
    42          3
    43          5
    50         12
    51         72
    52          5
    53          4
    55         32
    56          1
    57          1
    63          2
    65          5
    67          1
    69          2
    74          2
    75          3
    76         13
    77        422
    78         54
    79          7
    81          2
    83          1
    89          1
    91         22
    92          4
   101          1
   102          1
   103          5
   104         17
   105        999
   106         79
   107          6
   115          7
   116          2
   117          5
   118          1
   119          5
   120        360
   121         36
   122          2
   127          1
   128          3
   129          6
   130         39
   131          7
   132          3
   133         53
   134         13
   135          1
   141          1
   142         27
   143          7
   144          3
   145          9
   146         48
   147         13
   148          6
   152          1
   153          1
   156          2
   157         24
   158         12
   159          7
   160         56
   161        218
   162         25
   163          2
   171          1
   173          1
   174          4
   175         31
   176          5
   181          1
   185          1
   233          2
   234          1
   244          3
   245          1
   261          9
   262         85
   263         16
   264          2
   280         32
   281          7