##TITLE=Library Entry 87367
##JCAMP-DX=Revision 4.10 
##DATA TYPE=MASS SPECTRUM
##SAMPLE DESCRIPTION=NIST Mass Spectrometry Data Center
##NAMES=HP
##CAS NAME=1-Methoxy-1,4-cyclohexadiene
##MOLFORM=C7H10O
##CAS REGISTRY NO=2886-59-1
##MP= -300
##BP= -300
##MW= 110
##$RETENTION INDEX=939
##$CONDENSED SPECTRUM=NO
##NPOINTS= 62
##XYDATA=(XY..XY) 1 
    15         32
    25          1
    26         19
    27        108
    29         22
    30          3
    31          9
    32          1
    37         17
    38         51
    39        322
    40         66
    41        327
    42         27
    43         26
    45         77
    46          1
    49          8
    50         82
    51        140
    52         67
    53         68
    54         23
    55         47
    56          3
    57          2
    58          1
    61          7
    62         19
    63         45
    64         13
    65        212
    66        121
    67        455
    68         33
    69          8
    71          1
    73          4
    74         17
    75          6
    76          7
    77        331
    78        148
    79        354
    80         71
    81         19
    82          2
    83          3
    84          1
    91         12
    92          5
    93         11
    94        236
    95        329
    96         21
    97          1
   107         11
   108         35
   109        466
   110        999
   111         81
   112          4