##TITLE=Library Entry 79330
##JCAMP-DX=Revision 4.10 
##DATA TYPE=MASS SPECTRUM
##SAMPLE DESCRIPTION=A.A.Kutin, Moscow, Russia
##NAMES=HP
##CAS NAME=Benzamide, N-[2-oxo-2-(N2-methyl-N2-phenylhydrazino]ethyl-
##MOLFORM=C16H17N3O2
##CAS REGISTRY NO=28860-90-4
##MP= -300
##BP= -300
##MW= 283
##$RETENTION INDEX=0
##$CONDENSED SPECTRUM=NO
##NPOINTS= 68
##XYDATA=(XY..XY) 1 
    33          0
    36          0
    39         36
    42          7
    43          4
    45         45
    47          0
    51        317
    52         13
    53          3
    54          1
    56         14
    57          1
    58          0
    59          0
    61          1
    62          3
    63          6
    65          5
    66          1
    67          2
    68          0
    69          0
    70          0
    71          0
    72          0
    74         28
    77        646
    78         31
    79          3
    80          0
    81          0
    84          0
    86          0
    87          0
    89          1
    91          4
    92          3
    93          1
    94          0
   105        999
   106         56
   107          8
   108          0
   114          0
   116          2
   117          0
   118          0
   119          0
   122         50
   123          2
   124          0
   130          0
   134        226
   135        322
   136         18
   137          0
   148          0
   161         13
   162          1
   163          0
   171          0
   179         41
   180          1
   181          0
   255          0
   283          3
   284          0