##TITLE=Library Entry 25138
##JCAMP-DX=Revision 4.10 
##DATA TYPE=MASS SPECTRUM
##SAMPLE DESCRIPTION=A.Mazepa, Phys.-Chem.Institute, Odessa, Ukraine
##NAMES=HP
##CAS NAME=4-(3-Carboxy-propionyl)-piperazine-1-carboxylic acid tert-butyl e
ster
##MOLFORM=C13H22N2O5
##CAS REGISTRY NO=288851-44-5
##MP= -300
##BP= -300
##MW= 286
##$RETENTION INDEX=0
##$CONDENSED SPECTRUM=NO
##NPOINTS= 107
##XYDATA=(XY..XY) 1 
    52          7
    53          8
    54         24
    55        165
    56        324
    57        999
    58         68
    59         21
    60          6
    67          5
    68         11
    69        394
    70         59
    71          9
    72          5
    73         36
    74          9
    75          4
    76          4
    77         17
    78          4
    81          5
    82          5
    83         11
    84         12
    85        205
    86         19
    87         12
    88         31
    89          4
    90          4
    91          6
    92          3
    98          8
    99          5
   100         18
   101        113
   102          6
   103          4
   104          3
   112         12
   113         93
   114         26
   115         12
   116          3
   117          2
   118         46
   119          5
   120          3
   126          3
   127          7
   128          6
   129         28
   130         60
   131         33
   132          7
   133          2
   141         14
   142          3
   143         11
   144          8
   145          3
   146          2
   147          2
   155          2
   156          2
   157          8
   158          3
   159          4
   160          2
   166          2
   167          9
   168          3
   169          6
   170          2
   171          4
   172          2
   173          2
   184          2
   185          9
   186         57
   187          5
   188          2
   189          1
   190          1
   211          4
   212          4
   213        128
   214         13
   215         26
   216          3
   217          1
   227          7
   228          6
   229         65
   230        155
   231         16
   232          2
   233          1
   234          1
   269          4
   270          2
   271          2
   285          4
   286         62
   287          7
   288          1