##TITLE=Library Entry 88205
##JCAMP-DX=Revision 4.10 
##DATA TYPE=MASS SPECTRUM
##SAMPLE DESCRIPTION=NIST Mass Spectrometry Data Center, 1994
##NAMES=HP
##CAS NAME=3-Chlorobenzenesulfonyl chloride
##MOLFORM=C6H4Cl2O2S
##CAS REGISTRY NO=2888-06-4
##MP= -300
##BP= -300
##MW= 210
##$RETENTION INDEX=0
##$CONDENSED SPECTRUM=NO
##NPOINTS= 110
##XYDATA=(XY..XY) 1 
    12          1
    16         12
    17          0
    18          4
    24          1
    25          3
    26         12
    27          5
    28          7
    32         18
    33          1
    35         43
    36         19
    37         65
    38         73
    39         30
    40          2
    44          7
    45         17
    47         10
    48        145
    49         47
    50        359
    51        114
    52          7
    53          6
    54          3
    55          7
    56          4
    57         11
    58          4
    60         13
    61         46
    62         31
    63         50
    64         88
    65         11
    66          5
    67          1
    68          5
    69         33
    70          5
    71          5
    72         15
    73         85
    74        204
    75        621
    76        112
    77         20
    79          6
    80          3
    81         11
    82          9
    83          8
    84         31
    85         70
    86         14
    87         29
    89          5
    92          2
    93          5
    94          1
    95          8
    96          3
    97          3
    98          3
    99         49
   100          5
   101         17
   103          2
   105          3
   106          2
   107          4
   108         21
   109         13
   110          1
   111        999
   112        100
   113        323
   114         28
   115          3
   127          2
   131         14
   133          6
   134          2
   136          1
   142          2
   143          4
   144          6
   145          1
   146         60
   147          6
   148         38
   149          3
   150          6
   159          9
   160          1
   161          3
   175        457
   176         39
   177        170
   178         15
   179          8
   192          2
   210        164
   211         12
   212        115
   213          8
   214         22
   215          1