##TITLE=Library Entry 27652
##JCAMP-DX=Revision 4.10 
##DATA TYPE=MASS SPECTRUM
##SAMPLE DESCRIPTION=J. SHAW, BORRISTON RESEARCH, ROCKVILLE, MD, USA
##NAMES=HP
##CAS NAME=Silvex, propylene glycol butyl ether ester
##MOLFORM=C16H21Cl3O4
##CAS REGISTRY NO=28903-26-6
##MP= -300
##BP= -300
##MW= 382
##$RETENTION INDEX=0
##$CONDENSED SPECTRUM=NO
##NPOINTS= 159
##XYDATA=(XY..XY) 1 
    12          3
    13          2
    15         78
    16          6
    17         11
    18         27
    19          6
    26        201
    28        605
    31        165
    32          2
    33          1
    35          7
    36         16
    37          9
    39        138
    41        524
    43        265
    45        210
    46          4
    47          3
    49          7
    50          7
    51          3
    53         18
    55        219
    58        999
    61         17
    62         30
    63         15
    65          4
    66          1
    67          3
    69         26
    71         58
    73         97
    74         27
    75         10
    76          1
    77          2
    79          1
    80          1
    81          1
    83         22
    84         15
    85         34
    87         36
    89         12
    90          2
    91          1
    93          2
    97         76
    99         35
   101         69
   103         21
   104          1
   107         17
   109         49
   110          6
   111         14
   114        372
   115        137
   116         14
   117         12
   118          2
   119          2
   120          1
   121          2
   123          6
   125         19
   126          3
   127          6
   128          2
   129          5
   131         17
   132         12
   133         13
   134          9
   135          7
   136          2
   137          1
   141          1
   143         28
   144         18
   145         20
   146         11
   147          5
   148          3
   149          2
   151          4
   152          4
   153          4
   154          2
   155          2
   156          1
   157          1
   159         30
   160         15
   161         20
   162         14
   163          6
   164          5
   165          1
   167         15
   169         15
   171          6
   172         12
   173          9
   175          3
   177          2
   179         18
   180          4
   181         15
   182          3
   183          5
   184          1
   185          1
   187          9
   188         20
   189          9
   190         12
   191          5
   192          8
   193          2
   194          4
   196         62
   198         60
   199          6
   200         14
   201          2
   202          1
   207          1
   209          1
   211          1
   215          1
   217          1
   219          3
   221          1
   223         66
   225         64
   227         22
   228          1
   229          2
   264          1
   268          6
   270          7
   271          1
   272          2
   275          1
   309         14
   311         15
   312          2
   313          4
   378          1
   380          1
   382          7
   384          7
   385          1
   386          2