##TITLE=Library Entry 96742
##JCAMP-DX=Revision 4.10 
##DATA TYPE=MASS SPECTRUM
##SAMPLE DESCRIPTION=NIST Mass Spectrometry Data Center, 1994
##NAMES=HP
##CAS NAME=2-Chloro-3-cyano-6-methylpyridine
##MOLFORM=C7H5ClN2
##CAS REGISTRY NO=28900-10-9
##MP= -300
##BP= -300
##MW= 152
##$RETENTION INDEX=0
##$CONDENSED SPECTRUM=NO
##NPOINTS= 80
##XYDATA=(XY..XY) 1 
    12          4
    13          2
    14          3
    15         33
    18          0
    24          2
    25         11
    26         66
    27         72
    35         22
    36         20
    37        132
    38        165
    39        232
    40         64
    41         30
    42         16
    44          0
    45          7
    47         24
    48         12
    49         54
    50         96
    51        123
    52         90
    53         13
    58          8
    59          9
    60         22
    61         72
    62        154
    63        241
    64        214
    65         97
    66         23
    67          3
    72          6
    73         11
    75        108
    76        111
    77         18
    78          2
    79          2
    84          8
    85         47
    86         31
    87         38
    88         57
    89        144
    90        276
    91         92
    92          8
    97          8
    98         15
    99          8
   100         13
   101         35
   102          4
   103          3
   110         20
   111          7
   112         11
   113          4
   114          3
   115          3
   116        999
   117        179
   118         11
   124         14
   125         16
   126         11
   127          5
   128          2
   137         14
   139          4
   150          4
   152        678
   153         64
   154        214
   155         18