##TITLE=Library Entry 67536
##JCAMP-DX=Revision 4.10 
##DATA TYPE=MASS SPECTRUM
##SAMPLE DESCRIPTION=D.HENNEBERG, MAX-PLANCK INSTITUTE, MULHEIM, WEST GERMAN
Y
##NAMES=HP
##CAS NAME=1H-Pyrrole, 1,1'-(ethylborylene)bis[2,5-dimethyl-
##MOLFORM=C14H21BN2
##CAS REGISTRY NO=28916-14-5
##MP= -300
##BP= -300
##MW= 228
##$RETENTION INDEX=0
##$CONDENSED SPECTRUM=NO
##NPOINTS= 151
##XYDATA=(XY..XY) 1 
    37         53
    38         39
    39        173
    40         80
    41        227
    42        154
    43         14
    44          8
    45         12
    47          4
    49          0
    50         61
    51        188
    52        135
    53        204
    54         85
    55         50
    56         29
    57         42
    58         44
    59         11
    60          4
    61          2
    62         24
    63         69
    64         75
    65        153
    66        120
    67        120
    68         19
    69         35
    71          3
    72          7
    73         27
    75         27
    76         21
    77        102
    78        125
    79        103
    80        205
    81         26
    82         20
    83         35
    84         40
    85         77
    86          6
    88          4
    89         15
    90         20
    91         72
    92        144
    93        152
    94        999
    95        711
    96         70
    97          5
    98         11
    99         22
   100         69
   101          2
   102          2
   103         22
   104         87
   105         89
   106        221
   107         98
   108         34
   109         16
   110          5
   111         10
   112         10
   113          0
   114          7
   115         10
   116         32
   117         31
   118         75
   119         13
   120         24
   121          6
   122         11
   123          0
   124          5
   125          9
   127          0
   128         10
   129         14
   130         37
   131         32
   132         69
   133         46
   134         53
   135         25
   136         13
   137          6
   138         24
   139         31
   140          1
   141          1
   142          6
   143          4
   144         13
   145          2
   149          2
   150          5
   155         10
   156          6
   157          8
   158         20
   159          7
   163          2
   164         12
   165          4
   166          0
   167         17
   168         36
   169         46
   170         20
   171         21
   172         17
   181          5
   182         27
   183         78
   184         65
   185         43
   186          5
   187         10
   189          2
   191          0
   192          7
   195          4
   196         14
   197        104
   198        229
   199        203
   200        190
   201          2
   205          0
   206          2
   211         11
   212        234
   213        870
   214        120
   215          8
   219         16
   220         32
   226          8
   227         36
   228        529
   229         84
   230          6