##TITLE=Library Entry 64694
##JCAMP-DX=Revision 4.10 
##DATA TYPE=MASS SPECTRUM
##SAMPLE DESCRIPTION=Japan AIST/NIMC Database- Spectrum MS-IW-5525
##NAMES=HP
##CAS NAME=Benzoic acid, 3,5-bis(phenylmethoxy)-
##MOLFORM=C21H18O4
##CAS REGISTRY NO=28917-43-3
##MP= -300
##BP= -300
##MW= 334
##$RETENTION INDEX=0
##$CONDENSED SPECTRUM=NO
##NPOINTS= 58
##XYDATA=(XY..XY) 1 
    28          1
    38          1
    39         10
    41          5
    44          2
    50          1
    51          6
    52          2
    55          1
    62          1
    63          9
    64          3
    65         63
    66          4
    69          3
    77          3
    78          1
    79          1
    89          9
    90          5
    91        999
    92         86
    93          3
   105          1
   108          1
   115          1
   128          1
   129          1
   131          2
   137          1
   139          1
   141          2
   152          1
   153          1
   154          1
   155          1
   165          1
   167          5
   168          2
   169          1
   179          2
   180         30
   181         83
   182         11
   183          1
   197          2
   199          1
   225          3
   241          1
   242          1
   243          8
   244          2
   289          2
   317          3
   332          1
   334        144
   335         33
   336          5