##TITLE=Library Entry 28946
##JCAMP-DX=Revision 4.10 
##DATA TYPE=MASS SPECTRUM
##SAMPLE DESCRIPTION=Japan AIST/NIMC Database- Spectrum MS-NW-5804
##NAMES=HP
##CAS NAME=3-Cyclobutene-1,2-dione, 3,4-dihydroxy-
##MOLFORM=C4H2O4
##CAS REGISTRY NO=2892-51-5
##MP= -300
##BP= -300
##MW= 114
##$RETENTION INDEX=0
##$CONDENSED SPECTRUM=NO
##NPOINTS= 55
##XYDATA=(XY..XY) 1 
    12         49
    13         22
    14          1
    16          5
    17          4
    24         28
    25          6
    26          1
    27          1
    28        352
    29        863
    30         20
    31          2
    32          1
    34          2
    36          7
    38          1
    40         88
    41        101
    42          6
    43          7
    44         26
    45          5
    47          1
    48          2
    52         15
    53          2
    55          2
    56         64
    57          3
    58        999
    59         24
    60          6
    65          1
    67          1
    68         96
    69         75
    70          5
    71          2
    76          4
    78          2
    80          1
    81          1
    82          1
    83          1
    85          4
    86        514
    87         19
    88          4
    97          1
    98          1
   114        936
   115         48
   116          9
   117          1