##TITLE=Library Entry 5981
##JCAMP-DX=Revision 4.10 
##DATA TYPE=MASS SPECTRUM
##SAMPLE DESCRIPTION=A.A.Kutin, Moscow, Russia
##NAMES=HP
##CAS NAME=Ethanone, 1-cyclododecyl-
##MOLFORM=C14H26O
##CAS REGISTRY NO=28925-00-0
##MP= -300
##BP= -300
##MW= 210
##$RETENTION INDEX=1662
##$CONDENSED SPECTRUM=NO
##NPOINTS= 118
##XYDATA=(XY..XY) 1 
    35          0
    37          1
    39        182
    40         45
    41        581
    42        142
    43        999
    44         30
    45         16
    47          1
    48          0
    50          2
    51         11
    52          8
    53         81
    54        118
    55        557
    56         67
    57        112
    58         85
    59         50
    60          2
    62          0
    63          2
    65         19
    66         20
    67        136
    68         87
    69        319
    70         47
    71        478
    72         43
    73          2
    76          0
    77         16
    78         11
    79         43
    80         41
    81        115
    82        136
    83        215
    84         64
    85         81
    86         15
    87          1
    90          0
    91          7
    92          4
    93         23
    94         56
    95         85
    96        172
    97        241
    98         32
    99         15
   100         17
   101          1
   103          0
   105          1
   106          2
   107         21
   108         45
   109         46
   110         80
   111        128
   112         18
   113         20
   114         38
   115          5
   119          1
   121         36
   122         28
   123         22
   124         33
   125        111
   126         13
   127         19
   128         31
   129          3
   133          0
   135         43
   136         21
   137          8
   138          7
   139         14
   140          8
   141          6
   142         18
   143          2
   147          0
   149         33
   150         38
   151          9
   152         64
   153         20
   154          5
   155          9
   156          1
   163         23
   164          5
   165          3
   166          5
   167         15
   168          3
   169          4
   170          0
   177          8
   178          1
   181          3
   182          0
   192         24
   193          4
   195         17
   196          2
   199          0
   210        103
   211         15
   212          1