##TITLE=Library Entry 79845
##JCAMP-DX=Revision 4.10 
##DATA TYPE=MASS SPECTRUM
##SAMPLE DESCRIPTION=E.VAN LOOCK UNIV. OF LOUVAIN, HEVERLEE, BELGIUM
##NAMES=HP
##CAS NAME=Methanone, 1,2,3-cyclopropanetriyltris[phenyl-, (1.alpha.,2.alpha
.,3.beta.)-
##MOLFORM=C24H18O3
##CAS REGISTRY NO=2892-42-4
##MP= -300
##BP= -300
##MW= 354
##$RETENTION INDEX=0
##$CONDENSED SPECTRUM=NO
##NPOINTS= 22
##XYDATA=(XY..XY) 1 
    28         25
    39         37
    50         20
    51        118
    52         10
    63         10
    76         22
    77        387
    78         78
    89         11
   105        999
   106        118
   115         59
   116         12
   144         21
   220         15
   233         81
   234         14
   249        256
   250         48
   277         18
   354         24