##TITLE=Library Entry 34213
##JCAMP-DX=Revision 4.10 
##DATA TYPE=MASS SPECTRUM
##SAMPLE DESCRIPTION=Japan AIST/NIMC Database- Spectrum MS-NW-5288
##NAMES=HP
##CAS NAME=n-Nonenylsuccinic anhydride
##MOLFORM=C13H20O3
##CAS REGISTRY NO=28928-97-4
##MP= -300
##BP= -300
##MW= 224
##$RETENTION INDEX=0
##$CONDENSED SPECTRUM=NO
##NPOINTS= 177
##XYDATA=(XY..XY) 1 
    12          1
    13          2
    14          3
    15         10
    16          1
    17          1
    18          3
    24          2
    25         11
    26         94
    27        233
    28         35
    29        251
    30          6
    31          2
    36          2
    37          3
    38         10
    39        235
    40         41
    41        695
    42         65
    43        391
    44         15
    45          7
    46          1
    50         15
    51         49
    52         29
    53        173
    54         99
    55        655
    56        124
    57        259
    58         11
    59          8
    60          3
    61          2
    62          4
    63         15
    64          5
    65         60
    66         28
    67        285
    68        113
    69        999
    70        253
    71         71
    72         10
    73         12
    74          3
    75          3
    76          3
    77        111
    78         24
    79        171
    80         47
    81        314
    82        234
    83        596
    84         61
    85         23
    86          2
    87          1
    89          3
    90          6
    91         95
    92         27
    93        153
    94         47
    95        387
    96        128
    97        216
    98         27
    99         56
   100         45
   101          6
   102          1
   103          6
   104          5
   105         36
   106          9
   107        176
   108         98
   109        488
   110         88
   111         69
   112         15
   113          9
   114          5
   115          4
   116          1
   117          7
   118          2
   119         17
   120          5
   121        116
   122         63
   123        278
   124        500
   125        186
   126         49
   127         49
   128          6
   129          2
   130          1
   131         12
   132          3
   133          9
   134          5
   135         91
   136         33
   137        133
   138         60
   139         36
   140         43
   141         38
   142         15
   143          1
   144          1
   145         12
   146          3
   147          7
   148          3
   149         83
   150         35
   151         52
   152         23
   153         40
   154         29
   155         20
   156         11
   157          2
   159          5
   160          2
   161         10
   162          3
   163         48
   164         21
   165         10
   166          4
   167         58
   168         74
   169         36
   170          3
   171          1
   173          1
   175          1
   177         38
   178         12
   179         36
   180          6
   181         94
   182         55
   183          7
   185          1
   188          1
   189          1
   190          1
   191         17
   192          4
   193          2
   194          1
   195        117
   196         20
   197          8
   205         12
   206         26
   207          8
   208          2
   209         56
   210          8
   222          1
   223          4
   224        104
   225         14
   226          1