##TITLE=Library Entry 566
##JCAMP-DX=Revision 4.10 
##DATA TYPE=MASS SPECTRUM
##SAMPLE DESCRIPTION=NIST Mass Spectrometry Data Center, 1994
##NAMES=HP
##CAS NAME=3,4-di-n-Butoxy-3-cyclobutene-1,2-dione
##MOLFORM=C12H18O4
##CAS REGISTRY NO=2892-62-8
##MP= -300
##BP= -300
##MW= 226
##$RETENTION INDEX=0
##$CONDENSED SPECTRUM=NO
##NPOINTS= 79
##XYDATA=(XY..XY) 1 
    12          2
    13          1
    14          7
    15         25
    16          2
    17          1
    18          4
    19          0
    26         36
    27        310
    28        133
    29        999
    30         26
    31          7
    32          1
    37          2
    39        183
    41        781
    42         44
    43         62
    44         27
    45          9
    50          3
    51          4
    52          3
    53         18
    54          2
    55         90
    56         99
    57        869
    58        133
    59          4
    60          1
    67         13
    68         46
    69         56
    70         11
    71         33
    72          5
    73          4
    80          1
    81         12
    82          1
    83          7
    84          1
    85        268
    86         39
    87         57
    88          2
    95         17
    96         25
    97          4
    99         18
   100          2
   101          1
   108          0
   113         27
   114         40
   115         88
   116          4
   124          2
   125          3
   126          4
   127         13
   128          1
   141         64
   142         23
   143          2
   152          3
   153          1
   155          3
   167          0
   168          1
   170         31
   171         24
   172          2
   183          1
   226         53
   227          7