##TITLE=Library Entry 14307
##JCAMP-DX=Revision 4.10 
##DATA TYPE=MASS SPECTRUM
##SAMPLE DESCRIPTION=Div. of Experiment Therapeutics WRAIR, WRAMC, Washingto
n DC 20307
##NAMES=HP
##CAS NAME=5-Acetyl-10-bromo-5H-dibenzo[b,f]azepine
##MOLFORM=C16H12BrNO
##CAS REGISTRY NO=28941-65-3
##MP= -300
##BP= -300
##MW= 313
##$RETENTION INDEX=0
##$CONDENSED SPECTRUM=NO
##NPOINTS= 132
##XYDATA=(XY..XY) 1 
    41          7
    42         67
    43        999
    44         17
    45          2
    47          8
    48          1
    49         54
    50         43
    51         73
    52         14
    53          2
    55          1
    57          0
    61          2
    62         51
    63        103
    64         14
    65          5
    67          0
    68          5
    69          6
    70          0
    74         27
    75         41
    76         19
    77         13
    78          2
    79          0
    81          8
    82         26
    84         20
    85          1
    86         46
    87         50
    88         38
    89         40
    90          5
    94          2
    95          9
    96          8
    98         19
    99         17
   100          8
   101          8
   102          5
   109          1
   110          5
   111         11
   112          8
   113         35
   114         21
   115         18
   116          4
   117          1
   122          3
   123          4
   124          4
   125          8
   126         10
   127          5
   128          2
   134          2
   135          3
   136          2
   137         25
   138         23
   139         37
   140         36
   141          5
   149          1
   150          8
   151          8
   152          7
   153          1
   161         13
   162         29
   163        160
   164        127
   165        307
   166         46
   167          4
   176          5
   177          4
   178          2
   179          0
   180          3
   187          4
   188         55
   189         73
   190        530
   191        392
   192        197
   193         37
   194          4
   203          2
   204         10
   205          6
   206          2
   207          4
   217          4
   218          3
   219          1
   226          0
   227          2
   229          1
   231          0
   232          0
   233          3
   234         10
   235          5
   243          4
   245          3
   247          0
   254          0
   255          0
   258          0
   269         11
   270        315
   271        624
   272        315
   273        628
   274        106
   275          8
   278          2
   284          0
   312          2
   313        437
   314        114
   315        432
   316         60
   317          7