##TITLE=Library Entry 22220
##JCAMP-DX=Revision 4.10 
##DATA TYPE=MASS SPECTRUM
##SAMPLE DESCRIPTION=Japan AIST/NIMC Database- Spectrum MS-NW-8001
##NAMES=HP
##CAS NAME=D-(+)-.alpha.-Amino-.epsilon.-caprolactam
##MOLFORM=C6H12N2O
##CAS REGISTRY NO=28957-33-7
##MP= -300
##BP= -300
##MW= 128
##$RETENTION INDEX=0
##$CONDENSED SPECTRUM=NO
##NPOINTS= 69
##XYDATA=(XY..XY) 1 
    14          4
    15         54
    16          3
    17          2
    18          7
    26         17
    27        116
    28        360
    29        138
    30        497
    31         10
    33          2
    34          1
    37          4
    38          9
    39         82
    40         19
    41        114
    42        143
    43        671
    44        192
    45         25
    46          8
    49          1
    50          4
    51          7
    52          9
    53         19
    54         45
    55         53
    56        999
    57        177
    58         78
    59         11
    65          4
    66         10
    67         18
    68         29
    69         17
    70        137
    71        182
    72        256
    73         14
    78          1
    80          6
    81         22
    82        284
    83        562
    84        101
    85         12
    86          3
    93          1
    94          1
    95          1
    96          2
    97          1
    98          7
    99         78
   100         52
   101          4
   109          1
   110         54
   111         94
   112          8
   113          1
   127          1
   128         81
   129         31
   130          2