##TITLE=Library Entry 71268
##JCAMP-DX=Revision 4.10 
##DATA TYPE=MASS SPECTRUM
##SAMPLE DESCRIPTION=Div. of Experiment Therapeutics WRAIR, WRAMC, Washingto
n DC 20307
##NAMES=HP
##CAS NAME=2,4,6-Triamino-5-chloroacetamido-pyrimidine
##MOLFORM=C6H9ClN6O
##CAS REGISTRY NO=28951-79-3
##MP= -300
##BP= -300
##MW= 216
##$RETENTION INDEX=0
##$CONDENSED SPECTRUM=NO
##NPOINTS= 82
##XYDATA=(XY..XY) 1 
    41         29
    42         18
    43        138
    44         48
    45          9
    47         32
    48         10
    52         30
    53        163
    54         66
    55        111
    56        121
    57         72
    58          9
    59         21
    60         69
    61         10
    62         16
    63         37
    64         56
    65        124
    67         67
    69        228
    70         61
    71         89
    73         72
    74         17
    75         17
    77        105
    79        281
    81        409
    82         95
    88        100
    89        109
    91        744
    92         60
    93         45
    95        117
    98        999
    99         12
   101          7
   103          7
   105         46
   106         19
   107        117
   108         24
   109          8
   111         36
   112          7
   113          7
   115         27
   117         16
   118         13
   119         16
   120          9
   121         18
   122         14
   123          7
   124         18
   125         66
   126         19
   127         25
   129         21
   131         75
   133         59
   135        327
   136          7
   139         29
   141          8
   142          9
   143          9
   146          9
   149         18
   150          9
   153         17
   159          7
   161         18
   187          7
   189         12
   216        460
   218        148
   219         14