##TITLE=Library Entry 13899
##JCAMP-DX=Revision 4.10 
##DATA TYPE=MASS SPECTRUM
##SAMPLE DESCRIPTION=Shen K. Yang, Dept. of Pharmacology., USUHS, Bethesda,
 MD 20814
##NAMES=HP
##CAS NAME=Benzophenone, 2-acetamino-2',5-dichloro-
##MOLFORM=C15H11Cl2NO2
##CAS REGISTRY NO=289504-18-3
##MP= -300
##BP= -300
##MW= 307
##$RETENTION INDEX=2300
##$CONDENSED SPECTRUM=NO
##NPOINTS= 182
##XYDATA=(XY..XY) 1 
    43        999
    44         18
    45          2
    47         10
    49         53
    50         58
    51         71
    52         30
    53         13
    54          2
    55          6
    56          2
    57          6
    60          1
    61         15
    62         49
    63        130
    64         24
    65         11
    66          2
    67          2
    68          2
    69          6
    70          4
    71          5
    73         37
    74         41
    75        131
    76         28
    77         35
    78          4
    79          0
    80          2
    81          2
    83         13
    84         29
    85         13
    86         30
    87         21
    88         20
    89         22
    90         61
    91         21
    92          2
    93          1
    94          0
    95          1
    97         13
    98         25
    99         65
   100         13
   101         19
   102          4
   103          1
   104          2
   105          8
   106          0
   107          0
   109          4
   110          0
   111        166
   113         83
   114         10
   115          7
   116          2
   117          1
   118          1
   119          1
   121          1
   122          2
   123          5
   124         26
   125         28
   126         99
   127         14
   128         22
   129          2
   132          1
   133          1
   134          0
   135          1
   136          2
   137          8
   139        166
   140         28
   141         44
   142          2
   145          1
   147          1
   149         15
   150         11
   151          8
   152          4
   153         19
   154        121
   155         11
   156         30
   157          2
   160          1
   161          1
   162          1
   163          5
   164         24
   165         11
   166         45
   167         39
   168         48
   169          4
   170         15
   171          1
   173          9
   174          3
   175          4
   176          2
   177          5
   178          2
   180         10
   182          2
   184          0
   185          1
   186          2
   187          1
   188          1
   193          1
   194          6
   195         48
   196         10
   197          1
   198          2
   200         16
   201         20
   202         11
   203          8
   204          2
   207          0
   209          0
   211          1
   212          1
   213          1
   214          1
   215          0
   222          0
   229         69
   230        441
   231         88
   232        163
   233         22
   235         11
   236         16
   237          8
   238         11
   239          3
   240          2
   241          0
   244          2
   246          0
   248         17
   250         14
   251          2
   252          2
   264         88
   265        185
   266         94
   267        140
   268         31
   269         27
   270          3
   272          4
   273          1
   274          1
   278          1
   279          1
   280          0
   290          0
   292          1
   294          0
   307        142
   308         24
   309         94
   310         15
   311         16
   312          2