##TITLE=Library Entry 12251
##JCAMP-DX=Revision 4.10 
##DATA TYPE=MASS SPECTRUM
##SAMPLE DESCRIPTION=Div. of Experiment Therapeutics WRAIR, WRAMC, Washingto
n DC 20307
##NAMES=HP
##CAS NAME=2,4,6-Triamino-5-glycolamidopyrimidine
##MOLFORM=C6H10N6O2
##CAS REGISTRY NO=28951-77-1
##MP= -300
##BP= -300
##MW= 198
##$RETENTION INDEX=0
##$CONDENSED SPECTRUM=NO
##NPOINTS= 68
##XYDATA=(XY..XY) 1 
    41         47
    42        275
    43        999
    45        122
    50         63
    51         14
    52         27
    53        132
    54         89
    55         82
    56         25
    58         30
    59        162
    60         32
    63         26
    65         23
    66         28
    68        132
    69        109
    70        140
    71         28
    74         12
    75         68
    76        325
    77         35
    80         41
    81         12
    82         36
    84         25
    86         38
    89         34
    93         36
    94         30
    95         48
    96         72
    97         57
   101         14
   102         31
   103         23
   104        186
   105         59
   106        111
   107         40
   108        139
   110         37
   112        553
   113         37
   115         37
   116         63
   122         94
   123         55
   125        181
   126         13
   138         28
   139        634
   140         65
   141         12
   142         28
   143         23
   166         16
   167         71
   168         29
   179         19
   180         93
   181         42
   197         32
   198        309
   199         37