##TITLE=Library Entry 78887
##JCAMP-DX=Revision 4.10 
##DATA TYPE=MASS SPECTRUM
##SAMPLE DESCRIPTION=A.A.Kutin, Moscow, Russia
##NAMES=HP
##CAS NAME=Pyrazole-5-carboxaldehyde, 4-bromo-1-(4-methylbenzyl)-
##MOLFORM=C12H11BrN2O
##CAS REGISTRY NO=289504-55-8
##MP= -300
##BP= -300
##MW= 278
##$RETENTION INDEX=0
##$CONDENSED SPECTRUM=NO
##NPOINTS= 79
##XYDATA=(XY..XY) 1 
    33          3
    35          2
    36          1
    37         11
    38         30
    39         69
    40          9
    44          0
    46          0
    48          0
    50          8
    51         66
    52         47
    53         29
    54          3
    62          2
    63         14
    64         36
    65         51
    66         12
    71          3
    77        167
    78         59
    79        117
    80         11
    81          1
    82          5
    84          4
    85          1
    88          0
    89         25
    90         10
    91         34
    92          9
    93          9
   101          4
   102         15
   103         96
   104         60
   105        999
   106         92
   107          4
   114          4
   115         12
   116         12
   117          5
   118         15
   119          5
   120          4
   124          4
   128          1
   130          6
   132          9
   138          3
   139          5
   140          3
   142          3
   143          5
   144          3
   156          4
   159          3
   169          5
   170          4
   171         49
   172          5
   199         45
   200         10
   249         20
   251         18
   260          3
   262          3
   263         21
   265         18
   275         16
   277         25
   278         82
   279         19
   280         79
   281         11