##TITLE=Library Entry 15703
##JCAMP-DX=Revision 4.10 
##DATA TYPE=MASS SPECTRUM
##SAMPLE DESCRIPTION=D.HENNEBERG, MAX-PLANCK INSTITUTE, MULHEIM, WEST GERMAN
Y
##NAMES=HP
##CAS NAME=2-Propen-1-amine, 2-bromo-N-methyl-
##MOLFORM=C4H8BrN
##CAS REGISTRY NO=28952-70-7
##MP= -300
##BP= -300
##MW= 149
##$RETENTION INDEX=0
##$CONDENSED SPECTRUM=NO
##NPOINTS= 59
##XYDATA=(XY..XY) 1 
    26          7
    27         24
    28        153
    29         15
    30        178
    31          6
    32          0
    33          0
    36          1
    37          1
    38          7
    39        126
    40         29
    41         81
    42        116
    43         40
    44        999
    45         23
    51          0
    52          8
    53          5
    54         24
    55         17
    56          1
    57          2
    58         12
    65          0
    66          1
    67          3
    68         54
    69         27
    70        236
    71         11
    79          2
    80          4
    81          2
    82          4
    83          1
    84          1
    93          4
    95          2
    96          0
    97          0
    98          0
   105          2
   106          0
   107          4
   108          1
   110          3
   119         10
   120          2
   121          8
   122          2
   146          0
   148         17
   149         49
   150         16
   151         57
   152          2