##TITLE=Library Entry 72402
##JCAMP-DX=Revision 4.10 
##DATA TYPE=MASS SPECTRUM
##SAMPLE DESCRIPTION=NIST Mass Spectrometry Data Center
##NAMES=HP
##CAS NAME=Henicosane-6,8-dione
##MOLFORM=C21H40O2
##CAS REGISTRY NO=289681-92-1
##MP= -300
##BP= -300
##MW= 324
##$RETENTION INDEX=2380
##$CONDENSED SPECTRUM=NO
##NPOINTS= 174
##XYDATA=(XY..XY) 1 
    27         10
    28          2
    29         38
    30          1
    31          1
    39         19
    40          5
    41        153
    42         34
    43        339
    44         11
    51          1
    52          1
    53         16
    54          9
    55        189
    56         36
    57        196
    58         46
    59         10
    65          3
    66          2
    67         48
    68         12
    69        204
    70         37
    71        441
    72         32
    79          7
    80         38
    81         63
    82         14
    83         66
    84         76
    85        186
    86         14
    87          2
    93          9
    94         26
    95         95
    96         27
    97        147
    98         84
    99        999
   100        927
   101         64
   102          6
   107          9
   108          7
   109         67
   110         19
   111         70
   112         33
   113        214
   114        128
   115         16
   116          1
   120          1
   121         16
   122          7
   123         68
   124         50
   125         27
   126         12
   127         39
   133          2
   135         10
   136          5
   137         31
   138        198
   139         30
   140         14
   141        567
   142         75
   143         10
   144          1
   147          3
   148          1
   149          4
   150          4
   151         15
   152          7
   153          6
   154         24
   155          9
   156        436
   157         94
   158          9
   161          1
   163          2
   164          2
   165          5
   166          7
   167          6
   168          8
   169        148
   170         24
   171          2
   175          1
   179          6
   180         20
   181          6
   182          1
   183         13
   184          9
   189          1
   190          1
   191          2
   192        127
   193         41
   194         29
   195          5
   196          1
   197          5
   198         36
   199          5
   203          1
   204          1
   206          3
   207         23
   208         12
   209          4
   210         27
   211        249
   212         50
   213          5
   217          2
   218          1
   221          2
   222          3
   223          2
   224          1
   225         23
   226         10
   227          3
   232          3
   233          1
   235         51
   236         10
   239          5
   240          7
   241          2
   249          1
   250         92
   251         17
   252          2
   253        281
   254         51
   255          6
   263          7
   264          5
   265          1
   267          4
   268         33
   269          8
   270          1
   278          1
   279          1
   281         66
   282         22
   283          3
   288          3
   289          1
   291          1
   295          9
   296          3
   306         64
   307         14
   309          3
   310          1
   323          8
   324         43
   325         14
   326          2