##TITLE=Library Entry 28467
##JCAMP-DX=Revision 4.10 
##DATA TYPE=MASS SPECTRUM
##SAMPLE DESCRIPTION=A.A.Kutin, Moscow, Russia
##NAMES=HP
##CAS NAME=Benzamide, 5-bromo-2-hydroxy-N-(3-dimethylaminopropyl)-
##MOLFORM=C12H17BrN2O2
##CAS REGISTRY NO=289660-53-3
##MP= -300
##BP= -300
##MW= 300
##$RETENTION INDEX=0
##$CONDENSED SPECTRUM=NO
##NPOINTS= 100
##XYDATA=(XY..XY) 1 
    33          0
    34          0
    37          0
    38          2
    39          7
    40         13
    41         11
    42         39
    43         15
    44         61
    45         10
    46          4
    50          0
    51          1
    52          0
    53          9
    54          1
    55          2
    56         17
    58        999
    59         51
    60          1
    61          0
    62          3
    63         18
    64          6
    65          2
    66          1
    68          1
    70         35
    71          7
    72         79
    73          4
    74          1
    75          1
    77          0
    78          1
    79          1
    80          1
    81          0
    82          2
    84         26
    85         13
    86          5
    87          0
    89          0
    90          1
    91          3
    92          6
    93          0
    94          0
    98          0
    99          1
   101          4
   117          2
   119          3
   120          5
   121          3
   129          0
   133          0
   134          0
   142          1
   143          9
   144          1
   145          9
   146          0
   149          0
   150          2
   158          1
   160          1
   169          0
   170          4
   171          6
   172          5
   173          6
   176          0
   197          1
   198          7
   199         20
   200          8
   201         18
   202          1
   211          1
   213          1
   217          0
   222          0
   228          8
   229          2
   230          8
   231          1
   242          0
   244          0
   255          0
   256          1
   257          1
   258          0
   285          0
   300         50
   302         55
   303          6