##TITLE=Library Entry 45426
##JCAMP-DX=Revision 4.10 
##DATA TYPE=MASS SPECTRUM
##SAMPLE DESCRIPTION=A.A.Kutin, Moscow, Russia
##NAMES=HP
##CAS NAME=Isoindole-1,3(1H,3H)-dione, 4-nitro-2-(benzo[b]1,4-dioxan-6-yl)-
##MOLFORM=C16H10N2O6
##CAS REGISTRY NO=289721-69-3
##MP= -300
##BP= -300
##MW= 326
##$RETENTION INDEX=0
##$CONDENSED SPECTRUM=NO
##NPOINTS= 125
##XYDATA=(XY..XY) 1 
    33         10
    37          8
    38         38
    39         96
    40         39
    41         25
    42         16
    43         50
    44         20
    46         47
    50         61
    51         81
    52         31
    53         59
    54         22
    55         14
    57          3
    61         10
    62         53
    63         77
    64         47
    65         80
    67         84
    68         57
    69         14
    70         13
    74        328
    75        999
    77        146
    78         17
    79         58
    80         30
    81          2
    84          1
    86          1
    87         20
    88         28
    89         53
    90         29
    91         57
    93        221
    95         44
    99          5
   101         36
   102         25
   103        205
   104         36
   105         31
   107         48
   108          1
   113         38
   114         53
   115         15
   116          2
   117         31
   119         38
   121        108
   122         18
   123          8
   125         12
   126          8
   127         10
   128         19
   129         12
   130          3
   133          9
   135          7
   138          1
   139         22
   140        163
   141         41
   142          7
   143          1
   145          5
   147          4
   148          4
   149          6
   151         42
   152         36
   153         11
   155          3
   156          5
   157          4
   158          1
   161        110
   162         24
   163          7
   164          4
   165          1
   167         15
   168         47
   169         18
   170          9
   171          8
   175         10
   176          2
   177         14
   178          1
   180         11
   182          1
   184          7
   195         20
   196        167
   197         23
   198          6
   208          8
   211          1
   212         23
   213          5
   223         35
   224         50
   225          8
   226          1
   236          8
   237          9
   241          9
   242         25
   252          7
   279          4
   280         33
   281         10
   296          4
   297          1
   326        239
   327         34