##TITLE=Library Entry 3453
##JCAMP-DX=Revision 4.10 
##DATA TYPE=MASS SPECTRUM
##SAMPLE DESCRIPTION=Mark Whitten, Florida Museum of Natural History, U. of
 Florida
##NAMES=HP
##CAS NAME=cis-.beta.-Farnesene
##MOLFORM=C15H24
##CAS REGISTRY NO=28973-97-9
##MP= -300
##BP= -300
##MW= 204
##$RETENTION INDEX=1444
##$CONDENSED SPECTRUM=NO
##NPOINTS= 83
##XYDATA=(XY..XY) 1 
    41        999
    42         49
    43         75
    44          4
    50         10
    51         41
    52         27
    53        187
    54         19
    55        174
    56         14
    57         40
    58          2
    62          2
    63         10
    64          4
    65         76
    66         26
    67        236
    68         93
    69        801
    70         45
    71         30
    72          2
    75          1
    77        129
    78         29
    79        201
    80         37
    81        211
    82         60
    83         12
    84          4
    89          3
    91        175
    92         87
    93        464
    94         59
    95         72
    96          7
    97          2
   102          2
   103          9
   105         83
   106         29
   107         89
   108         15
   109         52
   110          6
   111          8
   112          5
   113          3
   115          7
   116          2
   117          9
   119         81
   120        177
   121         48
   122          8
   123         11
   124          2
   128          2
   131          3
   133        228
   134         54
   135         24
   136          8
   137          3
   145          1
   146          1
   147         29
   148         31
   149          6
   159          1
   161        126
   162         27
   163          2
   175          7
   176          4
   189         20
   190          3
   204         52
   205          8