##TITLE=Library Entry 31836
##JCAMP-DX=Revision 4.10 
##DATA TYPE=MASS SPECTRUM
##SAMPLE DESCRIPTION=B. Derendyaev, Novosibirsk Institute of Organic Chemist
ry
##NAMES=HP
##CAS NAME=Benzene, 1-nitro-2-(p-methylphenoxy)-4-fluoro-
##MOLFORM=C13H10FNO3
##CAS REGISTRY NO=28987-57-7
##MP= -300
##BP= -300
##MW= 247
##$RETENTION INDEX=0
##$CONDENSED SPECTRUM=NO
##NPOINTS= 34
##XYDATA=(XY..XY) 1 
    37         11
    38         50
    39        497
    40         43
    41        187
    42         11
    43         56
    44         17
    45         10
    46         23
    50        208
    51        428
    52        187
    53        209
    54         17
    55         65
    56         29
    57        177
    61         28
    62        114
    63        464
    64        134
    65        999
    66         72
    67         81
    68         54
    69         67
    70         85
    71         35
    72         28
    73         57
    74         99
    75        131
    76        295