##TITLE=Library Entry 20308
##JCAMP-DX=Revision 4.10 
##DATA TYPE=MASS SPECTRUM
##SAMPLE DESCRIPTION=D.HENNEBERG, MAX-PLANCK INSTITUTE, MULHEIM, WEST GERMAN
Y
##NAMES=HP
##CAS NAME=Cyclododecane, ethyl-
##MOLFORM=C14H28
##CAS REGISTRY NO=28981-49-9
##MP= -300
##BP= -300
##MW= 196
##$RETENTION INDEX=0
##$CONDENSED SPECTRUM=NO
##NPOINTS= 68
##XYDATA=(XY..XY) 1 
    26         10
    27        135
    28        115
    29        296
    30         10
    39        127
    40         24
    41        215
    42        193
    43        560
    44        365
    51          9
    52          5
    53         62
    54        107
    55        999
    56        463
    57        484
    58         21
    65         12
    66         12
    67        172
    68        217
    69        785
    70        433
    71        237
    72        103
    77        103
    78          4
    79         15
    80          9
    81         91
    82        260
    83        210
    84        254
    85        141
    86         10
    93          8
    94          2
    95         52
    96        154
    97        628
    98        159
    99         16
   109         34
   110         51
   111        347
   112        100
   113         13
   123         12
   124         34
   125        140
   126         52
   127         10
   138          5
   139         30
   140         43
   141         10
   152          5
   153         20
   154         13
   164         10
   165        130
   166        175
   167         63
   168         10
   196        115
   197         15