##TITLE=Library Entry 14546
##JCAMP-DX=Revision 4.10 
##DATA TYPE=MASS SPECTRUM
##SAMPLE DESCRIPTION=Chemical Concepts
##NAMES=HP
##CAS NAME=1-[5-(3-Acetyl-4-hydroxyphenylthio)-2-hydroxyphenyl]ethanone
##MOLFORM=C16H14O4S
##CAS REGISTRY NO=28992-32-7
##MP= -300
##BP= -300
##MW= 302
##$RETENTION INDEX=0
##$CONDENSED SPECTRUM=NO
##NPOINTS= 235
##XYDATA=(XY..XY) 1 
    25          0
    26          4
    27         13
    28          2
    29          7
    31          2
    36          1
    37          5
    38         12
    39         59
    40          4
    41          4
    42          9
    43        999
    44         16
    45         40
    46          2
    47          3
    48          0
    49          3
    50         20
    51         39
    52         19
    53         54
    54          3
    55         11
    56          1
    57          2
    58          3
    59          2
    60          1
    61          6
    62         18
    63         52
    64         20
    65         18
    66          7
    67          5
    68          2
    69         32
    70         20
    71         17
    72          2
    73          3
    74          7
    75          7
    76          6
    77         39
    78         58
    79         13
    80          2
    81          6
    82          4
    83          3
    84          2
    85          9
    86          3
    87          5
    88          2
    89         11
    90          4
    91          7
    92         22
    93         11
    94          7
    95         33
    96         23
    97         10
    98          5
    99          5
   101          2
   102          3
   103          2
   104          1
   105          7
   106          3
   107          4
   108          6
   109          4
   110          2
   111          3
   112          1
   113          5
   114          3
   115         19
   116          4
   117          2
   118          6
   119          2
   120          8
   121         41
   122          5
   123         54
   124         16
   125         11
   126          6
   127          8
   128          6
   129          4
   130          1
   131          3
   132          1
   133          3
   134          5
   135          4
   136         36
   137          9
   138          3
   139          5
   140          2
   141          4
   142          2
   143          1
   144          2
   145          4
   146          1
   147          2
   148          1
   149         35
   150          5
   151         13
   152         14
   153          7
   154          2
   155          9
   156          2
   157          2
   158          5
   159          6
   160          3
   161          4
   162          2
   163          4
   164          1
   165          8
   166          2
   167         72
   168         10
   169          7
   170          3
   171         10
   172          2
   173          2
   174          1
   175          1
   176          1
   177          2
   178          1
   179          2
   180          1
   181          3
   182          2
   183          5
   184         10
   185          6
   186          2
   187         15
   188          7
   189          7
   190          2
   191          1
   195          2
   196          1
   197          2
   198          2
   199          6
   200          5
   201          3
   202          1
   203          4
   204          1
   205          2
   207          1
   208          2
   209          2
   210          1
   211          3
   212          2
   213          8
   214          3
   215          5
   216          9
   217          9
   218         21
   219          4
   220          1
   221          1
   223          3
   224          4
   225          3
   226          3
   227          3
   229          2
   230          2
   231          5
   232          2
   237          2
   240          2
   241          6
   242          9
   243          4
   244          3
   245         23
   246          4
   247          2
   251          1
   255          4
   256          1
   257          1
   258          2
   259          9
   260         49
   261          9
   262          3
   266          2
   267          1
   269         10
   270          5
   271          2
   272          2
   273          3
   274          2
   284         13
   285          4
   286          2
   287         87
   288         16
   289          6
   290          2
   300          2
   302        654
   303         96
   304         38
   305          7
   306          1