##TITLE=Library Entry 43423
##JCAMP-DX=Revision 4.10 
##DATA TYPE=MASS SPECTRUM
##SAMPLE DESCRIPTION=NIST Mass Spectrometry Data Center
##NAMES=HP
##CAS NAME=Phenylalanine, 2TMS derivative
##MOLFORM=C15H27NO2Si2
##CAS REGISTRY NO=2899-52-7
##MP= -300
##BP= -300
##MW= 309
##$RETENTION INDEX=1636
##$CONDENSED SPECTRUM=NO
##NPOINTS= 157
##XYDATA=(XY..XY) 1 
    15          1
    27          1
    28          7
    29          4
    30          1
    31          4
    39          7
    41          3
    42          3
    43         32
    44         24
    45        146
    46         11
    47         17
    48          1
    49          1
    50          2
    51          5
    52          3
    53          3
    54          1
    55          7
    56          5
    57         11
    58         25
    59         53
    60          8
    61         11
    62          1
    63          5
    64          2
    65         29
    66          4
    67          1
    68          1
    69          1
    70          6
    71          5
    72         25
    73        999
    74         95
    75        100
    76          8
    77         13
    78          5
    79          1
    80          1
    81          1
    82          1
    83          1
    84          6
    85          3
    86         16
    87          5
    88          2
    89          8
    90          5
    91        116
    92         17
    93          4
    94          1
    95          1
    96          1
    97          1
    98          2
   100        192
   101         30
   102         15
   103         30
   104          8
   105         10
   106          1
   107          3
   110          1
   112          1
   113          1
   114          1
   115         10
   116          4
   117         21
   118         11
   119         13
   120         26
   121         15
   122          2
   123          1
   126          1
   127          1
   128          3
   129          2
   130         39
   131         32
   132         38
   133         42
   134         11
   135         12
   136          2
   137          1
   142          1
   143          1
   144          5
   145          7
   146         20
   147        224
   148         39
   149         22
   150          3
   151          1
   157          1
   158          5
   159          6
   160         26
   161          9
   162         12
   163          9
   164          2
   165          1
   172          2
   173          1
   174         10
   175          3
   176         16
   177         16
   178          4
   179          1
   187          1
   188          2
   189          1
   190          6
   191          9
   192        671
   193        114
   194         32
   195          4
   202          2
   203         11
   204         15
   205          5
   206          2
   215          1
   216          2
   218        820
   219        166
   220         75
   221          9
   222          3
   235          1
   266         62
   267         19
   268          6
   269          2
   276          1
   278          1
   280          1
   294         14
   295          3
   296          1