##TITLE=Library Entry 96454
##JCAMP-DX=Revision 4.10 
##DATA TYPE=MASS SPECTRUM
##SAMPLE DESCRIPTION=A.Pleshkova, Nesmeyanov Inst.Org.Elem.Cpds, Moscow
##NAMES=HP
##CAS NAME=Alanine, 2TMS derivative
##MOLFORM=C9H23NO2Si2
##CAS REGISTRY NO=2899-44-7
##MP= -300
##BP= -300
##MW= 233
##$RETENTION INDEX=1110
##$CONDENSED SPECTRUM=NO
##NPOINTS= 63
##XYDATA=(XY..XY) 1 
    41          4
    42         16
    43         50
    44         66
    45        124
    46         50
    47         19
    55          9
    56          5
    57         12
    58         20
    59         89
    60         12
    61         16
    66         26
    67          4
    70          9
    71          6
    72         44
    73        751
    74         90
    75        105
    76          9
    77         10
    86         33
    87         27
    88         16
    94         30
    95          6
   100         74
   101         40
   102         19
   103         60
   104          6
   113         12
   114         17
   115         69
   116        999
   117        257
   118         89
   119         14
   128         13
   129          5
   130          6
   131         15
   132          9
   133         26
   134          5
   146         13
   147        253
   148         42
   149         21
   150          4
   189          4
   190         65
   191         13
   192          6
   216          2
   217          3
   218         48
   219          9
   220          5
   233          1