##TITLE=Library Entry 49976
##JCAMP-DX=Revision 4.10 
##DATA TYPE=MASS SPECTRUM
##SAMPLE DESCRIPTION=NIST Mass Spectrometry Data Center, 1990.
##NAMES=HP
##CAS NAME=1,3,5-Triazine
##MOLFORM=C3H3N3
##CAS REGISTRY NO=290-87-9
##MP= -300
##BP= -300
##MW= 81
##$RETENTION INDEX=663
##$CONDENSED SPECTRUM=NO
##NPOINTS= 29
##XYDATA=(XY..XY) 1 
    12         17
    13         21
    14          5
    15          1
    18          1
    24         14
    25         20
    26         50
    27        415
    28        627
    29         11
    31          1
    32          0
    33          1
    38         46
    39         42
    40         29
    41          3
    45          1
    52         37
    53        231
    54        750
    55         20
    59          1
    64          1
    78          1
    81        999
    82         41
    83          0