##TITLE=Library Entry 125
##JCAMP-DX=Revision 4.10 
##DATA TYPE=MASS SPECTRUM
##SAMPLE DESCRIPTION=Exported from NIST MS Search
##NAMES=HP
##CAS NAME=1,2,4-Triazine
##MOLFORM=C3H3N3
##CAS REGISTRY NO=290-38-0
##MP= -300
##BP= -300
##MW= 81
##$RETENTION INDEX=0
##$CONDENSED SPECTRUM=NO
##NPOINTS= 12
##XYDATA=(XY..XY) 1 
    25         73
    26        650
    27        268
    28        999
    38         73
    39         83
    40         70
    51         73
    52         90
    53        500
    81        288
    82         33