##TITLE=Library Entry 17103
##JCAMP-DX=Revision 4.10 
##DATA TYPE=MASS SPECTRUM
##SAMPLE DESCRIPTION=Institute of Organic Chemistry, Novosibirsk, USSR 1988
##NAMES=HP
##CAS NAME=Butanoic acid, 4-methoxy-, methyl ester
##MOLFORM=C6H12O3
##CAS REGISTRY NO=29006-01-7
##MP= -300
##BP= -300
##MW= 132
##$RETENTION INDEX=935
##$CONDENSED SPECTRUM=NO
##NPOINTS= 51
##XYDATA=(XY..XY) 1 
    26         10
    27         52
    28         63
    29        110
    30          7
    31         41
    32          3
    33          9
    36          0
    37          1
    38          5
    39         51
    40         10
    41        169
    42         63
    43        216
    44         22
    45        999
    46         23
    47          6
    53          2
    55         35
    56         11
    57         23
    58         93
    59        743
    60         31
    68          3
    69        216
    70         13
    71         61
    72         49
    73         15
    74        455
    75         21
    76          2
    85         39
    86          2
    87         35
    88          2
    89          0
    99          6
   100         70
   101        327
   102         58
   103          3
   117         35
   118          2
   131          0
   132          3
   133          0