##TITLE=Library Entry 30181
##JCAMP-DX=Revision 4.10 
##DATA TYPE=MASS SPECTRUM
##SAMPLE DESCRIPTION=CARL DJERASSI DEPT OF CHEM STANFORD UNIV STANFORD CALIF
 94305
##NAMES=HP
##CAS NAME=Butanoic acid, 4-ethoxy-, methyl ester
##MOLFORM=C7H14O3
##CAS REGISTRY NO=29006-04-0
##MP= -300
##BP= -300
##MW= 146
##$RETENTION INDEX=909
##$CONDENSED SPECTRUM=NO
##NPOINTS= 33
##XYDATA=(XY..XY) 1 
    41        287
    42         89
    43        514
    44        108
    45        623
    46         19
    50         49
    55         69
    56         39
    57        207
    58         69
    59        999
    60         39
    69        108
    70         19
    71         49
    72        118
    73        564
    74        772
    75         39
    85        396
    86         59
    87        554
    88         49
    89         19
   100         19
   101        148
   102        138
   114         39
   115        128
   116         19
   117        316
   118         19