##TITLE=Library Entry 24647
##JCAMP-DX=Revision 4.10 
##DATA TYPE=MASS SPECTRUM
##SAMPLE DESCRIPTION=Exported from NIST MS Search
##NAMES=HP
##CAS NAME=Butyric acid, 4-butoxy-, methyl ester
##MOLFORM=C9H18O3
##CAS REGISTRY NO=29006-06-2
##MP= -300
##BP= -300
##MW= 174
##$RETENTION INDEX=0
##$CONDENSED SPECTRUM=NO
##NPOINTS= 41
##XYDATA=(XY..XY) 1 
    41        509
    42        133
    43        262
    44         47
    45        705
    46         19
    49         35
    51         15
    55         58
    56        141
    57        999
    58         58
    59        549
    60         19
    69         72
    70         19
    71         58
    72         19
    73         11
    74        627
    75         39
    76         13
    83         19
    84         19
    85        619
    86         49
    87        617
    88         78
    89         11
   100         23
   101        588
   102        196
   103         15
   115         19
   117        447
   118         33
   131         19
   141         15
   142         15
   144         15
   174         19