##TITLE=Library Entry 6904
##JCAMP-DX=Revision 4.10 
##DATA TYPE=MASS SPECTRUM
##SAMPLE DESCRIPTION=Exported from NIST MS Search
##NAMES=HP
##CAS NAME=2-Hexanone, 6-methoxy-
##MOLFORM=C7H14O2
##CAS REGISTRY NO=29006-00-6
##MP= -300
##BP= -300
##MW= 130
##$RETENTION INDEX=0
##$CONDENSED SPECTRUM=NO
##NPOINTS= 36
##XYDATA=(XY..XY) 1 
    41        125
    42         23
    43        999
    44         34
    45        648
    46         28
    47         15
    53         15
    54         15
    55        109
    56         78
    57         39
    58         65
    59         42
    60         15
    67         15
    69         15
    70         28
    71        218
    72         39
    73         34
    75         15
    79         15
    80         15
    81         15
    83        125
    84         18
    85         34
    87         18
    97         56
    98        381
    99         40
   111         15
   112         34
   115         18
   130         15