##TITLE=Library Entry 23335
##JCAMP-DX=Revision 4.10 
##DATA TYPE=MASS SPECTRUM
##SAMPLE DESCRIPTION=V.G.Zaikin, Petrochem. Synth. Inst., Moscow
##NAMES=HP
##CAS NAME=Dichloroacetic acid butyl ester
##MOLFORM=C6H10Cl2O2
##CAS REGISTRY NO=29003-73-4
##MP= -300
##BP= -300
##MW= 184
##$RETENTION INDEX=1071
##$CONDENSED SPECTRUM=NO
##NPOINTS= 44
##XYDATA=(XY..XY) 1 
    26         13
    27        125
    28         36
    29        422
    30         13
    31          6
    35         11
    36         15
    37          6
    38         15
    39        101
    40         23
    41        519
    42         35
    43         48
    44         56
    47         19
    48         59
    49         13
    50         28
    51         17
    52          6
    53          9
    54          6
    55         88
    56        223
    57        999
    58         48
    59          4
    65          4
    69          4
    73          6
    76         77
    77         10
    78         21
    79         10
    83        131
    84          5
    85         95
    86          6
    87         12
   111         25
   113         20
   115          5