##TITLE=Library Entry 79384
##JCAMP-DX=Revision 4.10 
##DATA TYPE=MASS SPECTRUM
##SAMPLE DESCRIPTION=Japan AIST/NIMC Database- Spectrum MS-NW-5745
##NAMES=HP
##CAS NAME=N-Benzoyl-dl-phenylalanine
##MOLFORM=C16H15NO3
##CAS REGISTRY NO=2901-76-0
##MP= -300
##BP= -300
##MW= 269
##$RETENTION INDEX=0
##$CONDENSED SPECTRUM=NO
##NPOINTS= 113
##XYDATA=(XY..XY) 1 
    17          2
    18          7
    26          2
    27         18
    28         21
    29          2
    37          3
    38          7
    39         44
    40          4
    41          9
    42          2
    43          2
    44          7
    45          6
    49          2
    50         47
    51        164
    52         19
    53          3
    55          2
    61          2
    62          8
    63         24
    64          8
    65         68
    66          5
    73          2
    74         13
    75         16
    76         34
    77        555
    78         57
    79         13
    80          1
    86          1
    87          2
    88          1
    89         18
    90         11
    91        378
    92         49
    93          4
    94          1
   101          1
   102         14
   103         39
   104         84
   105        999
   106         79
   107          8
   111          3
   112          3
   115          1
   116          4
   117          9
   118         14
   119          8
   120         14
   121         14
   122         56
   123          4
   128          4
   129          1
   130          9
   131         16
   132          7
   133          9
   134         15
   135          2
   139          2
   141          1
   145          1
   146          5
   147        107
   148        550
   149         56
   150          9
   151          1
   152          2
   160          1
   161          1
   162          1
   163          1
   164          4
   165          5
   166          1
   167          1
   178          6
   179          3
   180          1
   195          1
   196          1
   204          3
   205          2
   206          4
   207          4
   208          1
   210          1
   222          2
   223         14
   224         28
   225         62
   226         10
   227          1
   249          8
   250          2
   251         40
   252          8
   253          1
   269         53
   270          9
   271          1