##TITLE=Library Entry 64299
##JCAMP-DX=Revision 4.10 
##DATA TYPE=MASS SPECTRUM
##SAMPLE DESCRIPTION=Japan AIST/NIMC Database- Spectrum MS-IW-6673
##NAMES=HP
##CAS NAME=4-Ethyl-2-hydroxy-5-(p-tolylazo)-2,4,6-cycloheptatrien-1-one
##MOLFORM=C16H16N2O2
##CAS REGISTRY NO=2902-39-8
##MP= -300
##BP= -300
##MW= 268
##$RETENTION INDEX=0
##$CONDENSED SPECTRUM=NO
##NPOINTS= 198
##XYDATA=(XY..XY) 1 
    15          1
    17          7
    18          1
    26          3
    27         29
    28         20
    29          8
    30          2
    32          2
    37          1
    38          7
    39         82
    40          9
    41         38
    42          5
    43         11
    44          1
    50         14
    51         56
    52         39
    53         52
    54          9
    55         69
    56          2
    57          1
    61          3
    62          8
    63         42
    64         15
    65        236
    66         23
    67          9
    68          4
    69          3
    74          3
    75          6
    76          8
    77        159
    78         48
    79         59
    80         24
    81         17
    82          3
    83          2
    84          1
    87          1
    88          1
    89         30
    90         20
    91        999
    92         90
    93         25
    94          9
    95          4
    96          2
    97          2
    98          2
    99          1
   101          1
   102          6
   103         48
   104         29
   105         30
   106        210
   107        388
   108         61
   109          8
   110          3
   111          4
   112          4
   113          1
   115          8
   116         22
   117         10
   118         19
   119         72
   120         30
   121         41
   122         40
   123          6
   124          1
   126          1
   127          3
   128          4
   129          3
   130          4
   131         13
   132         39
   133         38
   134         97
   135         68
   136          9
   137         13
   138          2
   139          1
   140          1
   141          3
   142          5
   143          4
   144         10
   145          7
   146          5
   147          9
   148          6
   149         48
   150          7
   151          7
   152          5
   153          6
   154          6
   155          4
   156          3
   157          3
   158          6
   159          3
   160          3
   161          5
   162         53
   163         21
   164          4
   165         39
   166          7
   167          5
   168          5
   169          4
   170          3
   171          2
   172          1
   173          1
   176          9
   177         55
   178         10
   179          6
   180          6
   181          9
   182         10
   183          9
   184          4
   185          2
   186          1
   187          2
   188          1
   191          1
   192          2
   193          3
   194          5
   195         10
   196         14
   197         16
   198          9
   199          3
   200          1
   202          1
   205          1
   206          2
   207          7
   208          6
   209          9
   210         12
   211         11
   212          4
   213          3
   214          1
   219          1
   220          1
   221          5
   222         11
   223         21
   224         22
   225        199
   226         36
   227          5
   228          1
   233          1
   234          1
   235          3
   236          1
   237         47
   238         86
   239         48
   240         14
   241          3
   242          1
   249          1
   250          2
   251         17
   252         20
   253        602
   254        107
   255         12
   256          1
   265          1
   266        213
   267         78
   268        980
   269        191
   270         25
   271          2