##TITLE=Library Entry 7172
##JCAMP-DX=Revision 4.10 
##DATA TYPE=MASS SPECTRUM
##SAMPLE DESCRIPTION=LAC, NIDDK, NIH, Bethesda, MD 20892
##NAMES=HP
##CAS NAME=5-Cholestene-3-ol, 24-methyl-
##MOLFORM=C28H48O
##CAS REGISTRY NO=290299-12-6
##MP= -300
##BP= -300
##MW= 400
##$RETENTION INDEX=0
##$CONDENSED SPECTRUM=NO
##NPOINTS= 232
##XYDATA=(XY..XY) 1 
    41        344
    42         72
    43        999
    44         38
    45          7
    47          7
    48          3
    49         38
    51         17
    53         50
    55        504
    56         48
    57        316
    58         16
    59          8
    65         22
    66         12
    67        188
    68         33
    69        207
    70         26
    71        194
    72         11
    77         67
    78         18
    79        183
    80         29
    81        265
    82         41
    83        125
    84         48
    85         84
    86         24
    91        196
    92         46
    93        203
    94         63
    95        254
    96         35
    97         93
    98          8
    99         12
   103         12
   104         16
   105        222
   106         63
   107        245
   108         67
   109        116
   110         20
   111         44
   112          5
   113          6
   115         19
   116         11
   117         67
   118         37
   119        135
   120         94
   121        120
   122         40
   123         70
   124         34
   125         40
   126          5
   127          9
   128         17
   129         37
   130         20
   131         94
   132         32
   133        130
   134         49
   135        102
   136         32
   137         33
   138         15
   139          9
   141         13
   142         13
   143         70
   144         34
   145        165
   146         41
   147         98
   148         32
   149         60
   150         13
   151         25
   152          9
   153          4
   155         10
   156          8
   157         46
   158         52
   159        109
   160         61
   161        106
   162         27
   163         88
   164         17
   165         27
   166         10
   167          5
   169          9
   170          5
   171         36
   172         16
   173         58
   174         21
   175         31
   176         16
   177         31
   178         58
   179         17
   183          9
   184          5
   185         34
   186         17
   187         36
   188         10
   189         19
   190          8
   191         26
   192          9
   193          6
   197         12
   198          5
   199         38
   200         11
   201         23
   202          7
   203         12
   204          4
   205         20
   206          5
   207          8
   211         10
   212          4
   213        101
   214         31
   215         49
   216         18
   217         22
   218          8
   219         14
   220          8
   221          5
   225          4
   227         20
   228         25
   229         33
   230         12
   231         59
   232         20
   233         34
   234         31
   235          7
   239          7
   241         12
   243          3
   245          8
   246         14
   247         10
   248          7
   253          8
   254          7
   255         65
   256         17
   257          9
   259          7
   260          8
   261         19
   262          6
   271         15
   272         14
   273         71
   274         22
   275         15
   276          8
   281          8
   283          7
   287          6
   288         31
   289        101
   290         22
   296          3
   299         11
   300          7
   301         10
   302         14
   303         28
   304          7
   313          5
   314         46
   315         93
   316         25
   317          4
   327          6
   328          8
   329         29
   330          8
   339          5
   340         13
   341          9
   342          5
   343          7
   353          4
   354          7
   355          4
   356          4
   357          6
   365          5
   366          5
   367         51
   368         17
   369          6
   371          3
   381         21
   382         72
   383         26
   384         10
   385         59
   386         23
   387         10
   397          3
   398          1
   399         15
   400        321
   401         98
   402         14
   403          1