##TITLE=Library Entry 79624
##JCAMP-DX=Revision 4.10 
##DATA TYPE=MASS SPECTRUM
##SAMPLE DESCRIPTION=Div. of Experiment Therapeutics WRAIR, WRAMC, Washingto
n DC 20307
##NAMES=HP
##CAS NAME=2-Methyl-3-hydroxy-1,4-naphthoquinone-4-benzoylhydrazone
##MOLFORM=C18H14N2O3
##CAS REGISTRY NO=29020-81-3
##MP= -300
##BP= -300
##MW= 306
##$RETENTION INDEX=0
##$CONDENSED SPECTRUM=NO
##NPOINTS= 40
##XYDATA=(XY..XY) 1 
    43          5
    50         33
    51        129
    52         12
    55         10
    62          8
    63         22
    65         13
    74          6
    75         19
    76         27
    77        491
    78         32
    89         21
    90          5
    91         31
   101          9
   102         24
   103         10
   104          3
   105        999
   106         73
   115        110
   116         23
   117         24
   127         16
   128          2
   130         15
   145         38
   173        129
   174         16
   201        402
   202         53
   203          2
   277         35
   278         37
   279          3
   289          2
   306         48
   307         11