##TITLE=Library Entry 57164
##JCAMP-DX=Revision 4.10 
##DATA TYPE=MASS SPECTRUM
##SAMPLE DESCRIPTION=CARL DJERASSI DEPT OF CHEM STANFORD UNIV STANFORD CALIF
 94305
##NAMES=HP
##CAS NAME=1,3-Dioxolane-2-propanol, 2-methyl-, acetate
##MOLFORM=C9H16O4
##CAS REGISTRY NO=29021-95-2
##MP= -300
##BP= -300
##MW= 188
##$RETENTION INDEX=0
##$CONDENSED SPECTRUM=NO
##NPOINTS= 35
##XYDATA=(XY..XY) 1 
    41         50
    42         30
    43        630
    44         30
    45         30
    53         20
    55         30
    56         10
    57         10
    58         20
    59         50
    61         10
    67         30
    68         10
    69         70
    70         10
    71         20
    72         20
    73         10
    74         10
    83         20
    84         20
    85         50
    86         10
    87        999
    88         60
    89         10
    97         10
    98         30
    99         10
   100         10
   113        100
   114         10
   131         20
   173        130