##TITLE=Library Entry 9757
##JCAMP-DX=Revision 4.10 
##DATA TYPE=MASS SPECTRUM
##SAMPLE DESCRIPTION=CARL DJERASSI DEPT OF CHEM STANFORD UNIV STANFORD CALIF
 94305
##NAMES=HP
##CAS NAME=1,3-Dioxolane-2-propanol, 2-methyl-
##MOLFORM=C7H14O3
##CAS REGISTRY NO=29021-98-5
##MP= -300
##BP= -300
##MW= 146
##$RETENTION INDEX=0
##$CONDENSED SPECTRUM=NO
##NPOINTS= 26
##XYDATA=(XY..XY) 1 
    41        170
    42        130
    43        999
    44         60
    45         60
    50         20
    51         20
    52         70
    54         80
    55         80
    56         20
    57         20
    58        140
    59         30
    61         20
    62         30
    69         80
    71         20
    72         10
    83        150
    84        300
    85        170
    86         10
    87        280
    88         20
   131         40