##TITLE=Library Entry 10301
##JCAMP-DX=Revision 4.10 
##DATA TYPE=MASS SPECTRUM
##SAMPLE DESCRIPTION=N.W. Davies, Centr. Sci. Lab., Univ. Tasmania, Hobart,
 Australia
##NAMES=HP
##CAS NAME=Bicyclo[3.1.1]heptane-2-methanol, 6,6-dimethyl-, acetate
##MOLFORM=C12H20O2
##CAS REGISTRY NO=29021-36-1
##MP= -300
##BP= -300
##MW= 196
##$RETENTION INDEX=1381
##$CONDENSED SPECTRUM=NO
##NPOINTS= 64
##XYDATA=(XY..XY) 1 
    25          8
    26          9
    27         94
    38          7
    39        133
    40         36
    41        435
    42         45
    43        999
    44         21
    45         11
    51         27
    52         15
    53        108
    54         78
    55        259
    56         34
    57         42
    59          7
    61          7
    63          8
    65         37
    66         37
    67        441
    68        147
    69        531
    70         40
    71         16
    73         23
    77         80
    78         33
    79        260
    80        290
    81        311
    82        708
    83         75
    84         38
    85          7
    89          8
    91         92
    92         83
    93        943
    94        189
    95        377
    96         38
    97         10
    99         24
   104          7
   105         28
   106         11
   107        168
   108         70
   109         24
   110          7
   111          8
   119         27
   121        453
   122         46
   123        121
   124         10
   134          7
   135         20
   136        243
   137         27