##TITLE=Library Entry 61913
##JCAMP-DX=Revision 4.10 
##DATA TYPE=MASS SPECTRUM
##SAMPLE DESCRIPTION=Japan AIST/NIMC Database- Spectrum MS-IW-3727
##NAMES=HP
##CAS NAME=Benzenesulfonamide, N-(4-chlorophenyl)-4-methyl-
##MOLFORM=C13H12ClNO2S
##CAS REGISTRY NO=2903-34-6
##MP= -300
##BP= -300
##MW= 281
##$RETENTION INDEX=0
##$CONDENSED SPECTRUM=NO
##NPOINTS= 145
##XYDATA=(XY..XY) 1 
    26          1
    27          6
    28         10
    29          1
    32          2
    36          3
    37          4
    38         17
    39         86
    40          9
    41         27
    42          3
    43          5
    44          3
    45          7
    47          1
    48          2
    49          5
    50         15
    51         33
    52         15
    53          6
    54          1
    55          5
    56          2
    57          6
    60          1
    61          6
    62         24
    63        108
    64         49
    65        217
    66         13
    67          7
    68          1
    69          5
    70          4
    71          4
    72          2
    73         47
    74          8
    75         20
    76          6
    77         20
    78          9
    79          7
    80          2
    81          2
    82          2
    83          4
    84          3
    85          3
    86          3
    87          4
    88          4
    89         58
    90         81
    91        999
    92        102
    93          5
    95          3
    96          1
    97          4
    98          4
    99        223
   100         17
   101         72
   102          6
   103          1
   104          1
   105          2
   106          2
   107          5
   108          3
   109          2
   110          1
   111          7
   112          1
   113          2
   114          1
   115          3
   116          1
   118          1
   119          1
   121          3
   122          2
   123          4
   124          6
   125         15
   126        815
   127        104
   128        266
   129         32
   130          2
   137          1
   138          2
   139         42
   140          9
   141          4
   142          1
   149          6
   150          1
   151          2
   152          5
   153          6
   154          4
   155        726
   156         62
   157         36
   158          3
   164          1
   165          3
   166          7
   167         18
   168          3
   175          1
   177          1
   178          2
   179          3
   180         24
   181         21
   182         38
   183          6
   189          1
   190          1
   194          1
   201          5
   202          9
   203          3
   204          3
   211          1
   214          3
   215          2
   216         34
   217         12
   218         11
   219          4
   225          1
   239          1
   281        789
   282        122
   283        298
   284         44
   285         14
   286          2