##TITLE=Library Entry 98330
##JCAMP-DX=Revision 4.10 
##DATA TYPE=MASS SPECTRUM
##SAMPLE DESCRIPTION=NIST Mass Spectrometry Data Center
##NAMES=HP
##CAS NAME=3-Phenylpropyl cinnamate, (E)-
##MOLFORM=C18H18O2
##CAS REGISTRY NO=290311-72-7
##MP= -300
##BP= -300
##MW= 266
##$RETENTION INDEX=2356
##$CONDENSED SPECTRUM=NO
##NPOINTS= 67
##XYDATA=(XY..XY) 1 
    27          4
    28          1
    29          1
    38          2
    39         21
    40          2
    41         11
    50         18
    51         62
    52         12
    53          6
    54          1
    55          1
    57          1
    61          1
    62          5
    63         21
    64          4
    65         50
    66          4
    69          1
    73          1
    74          9
    75         13
    76         20
    77        197
    78         36
    79         17
    80          1
    86          1
    87          1
    89         10
    90          5
    91        166
    92         17
    93          1
    98          1
   101          5
   102         51
   103        238
   104         34
   105         16
   106          1
   107          3
   115         34
   116          8
   117        620
   118        999
   119         99
   120          6
   128          1
   129          2
   130          2
   131        205
   132         21
   133          3
   134          2
   147         24
   148          8
   149          2
   165          1
   175          1
   178          2
   179          1
   191          1
   266          3
   267          1