##TITLE=Library Entry 52956
##JCAMP-DX=Revision 4.10 
##DATA TYPE=MASS SPECTRUM
##SAMPLE DESCRIPTION=CARL DJERASSI DEPT OF CHEM STANFORD UNIV STANFORD CALIF
 94305
##NAMES=HP
##CAS NAME=2-Nonen-4-one, 2-methyl-
##MOLFORM=C10H18O
##CAS REGISTRY NO=2903-23-3
##MP= -300
##BP= -300
##MW= 154
##$RETENTION INDEX=1215
##$CONDENSED SPECTRUM=NO
##NPOINTS= 33
##XYDATA=(XY..XY) 1 
    27         90
    29         90
    39         90
    40         20
    41        100
    43        190
    51         10
    53         50
    54         20
    55        250
    56         20
    57         10
    58         40
    59         10
    67         10
    69         50
    71         10
    77         10
    79         10
    81         10
    82         30
    83        999
    84         60
    85         10
    93         10
    96         10
    97         10
    98        290
    99         30
   111         90
   112         10
   139         70
   154         30