##TITLE=Library Entry 95198
##JCAMP-DX=Revision 4.10 
##DATA TYPE=MASS SPECTRUM
##SAMPLE DESCRIPTION=D.K. KLIPA, DOW CHEM. CO., MICH. DIV., MIDLAND, MICH.,
 USA
##NAMES=HP
##CAS NAME=Tetracyclo[10.3.0.0(1,9).0(3,7)]pentadeca-2,7,11-trien-10-one
##MOLFORM=C15H16O
##CAS REGISTRY NO=290300-44-6
##MP= -300
##BP= -300
##MW= 212
##$RETENTION INDEX=0
##$CONDENSED SPECTRUM=NO
##NPOINTS= 26
##XYDATA=(XY..XY) 1 
    39        380
    41        260
    53        210
    65        220
    67        220
    77        510
    78        220
    91        620
   115        999
   116        320
   117        750
   128        630
   129        410
   141        730
   142        250
   153        220
   155        640
   168        270
   169        430
   170        660
   171        210
   183        260
   184        900
   211        130
   212        400
   213         90