##TITLE=Library Entry 33926
##JCAMP-DX=Revision 4.10 
##DATA TYPE=MASS SPECTRUM
##SAMPLE DESCRIPTION=Chemical Concepts
##NAMES=HP
##CAS NAME=2(3H)-Furanone, dihydro-3-methylene-5,5-diphenyl-
##MOLFORM=C17H14O2
##CAS REGISTRY NO=29043-99-0
##MP= -300
##BP= -300
##MW= 250
##$RETENTION INDEX=0
##$CONDENSED SPECTRUM=NO
##NPOINTS= 123
##XYDATA=(XY..XY) 1 
    26          1
    27          7
    28          6
    29          0
    37          0
    38          2
    39         30
    40        287
    41         10
    43          0
    44          1
    45          0
    50         11
    51         56
    52          5
    53          1
    55          0
    62          3
    63         12
    64          3
    65          5
    67          0
    68        999
    69         37
    70          2
    74          4
    75          6
    76         21
    77        174
    78         13
    79          0
    81          0
    82          2
    83          0
    86          1
    87          3
    88          4
    89         10
    90          1
    91         42
    92          1
    94          0
    95          1
    98          0
    99          0
   100          1
   101          8
   102          6
   103          2
   104          1
   105        307
   106         23
   107          1
   111          0
   113          1
   114          0
   115         13
   116          2
   117         13
   118          1
   125          2
   126          4
   127          8
   128         13
   129          5
   130          0
   137          0
   138          0
   139          4
   140          0
   144          1
   145          6
   146          0
   150          1
   151          4
   152         11
   153          4
   154          3
   155          0
   159          1
   162          0
   163          3
   164          4
   165         18
   166          3
   167          1
   172         11
   173         85
   174         11
   175          1
   176          3
   177          1
   178          8
   179          3
   180          0
   181          6
   182          6
   183          2
   184          0
   189          6
   190          4
   191          9
   192          1
   194          3
   195          0
   200          1
   201          1
   202          9
   203          9
   204          5
   205          6
   206          8
   207          1
   209          0
   221          0
   222          3
   223          0
   233          1
   249          0
   250        375
   251         65
   252          7
   253          0