##TITLE=Library Entry 19883
##JCAMP-DX=Revision 4.10 
##DATA TYPE=MASS SPECTRUM
##SAMPLE DESCRIPTION=Japan AIST/NIMC Database- Spectrum MS-NW-4289
##NAMES=HP
##CAS NAME=1,3,5-Triazine-1,3,5(2H,4H,6H)-tripropanoic acid, 2,4,6-trioxo-
##MOLFORM=C12H15N3O9
##CAS REGISTRY NO=2904-41-8
##MP= -300
##BP= -300
##MW= 345
##$RETENTION INDEX=0
##$CONDENSED SPECTRUM=NO
##NPOINTS= 254
##XYDATA=(XY..XY) 1 
    12          3
    13          4
    14          9
    15         81
    16          5
    17         26
    18         96
    24          3
    25         16
    26        102
    27        331
    28        160
    29         61
    30         91
    31         20
    32          4
    36          2
    37          1
    38          2
    39          6
    40         35
    41         52
    42        198
    43        119
    44        145
    45        193
    46         12
    47          1
    48          1
    51          1
    52          3
    53         14
    54         20
    55        999
    56        881
    57         27
    58          6
    59          1
    60         73
    61          3
    64          3
    65          2
    66          1
    67          3
    68         16
    69        281
    70        544
    71         70
    72        269
    73         33
    74         29
    75          1
    77          1
    79          1
    80          2
    81          5
    82         27
    83         11
    84        135
    85         39
    86         16
    87         37
    88         57
    89          3
    90          2
    91          1
    92          1
    93          1
    94          2
    95          5
    96         50
    97         23
    98        454
    99        125
   100         17
   101          3
   102          1
   105          1
   107          1
   108         14
   109          2
   110         10
   111         22
   112        100
   113         98
   114         36
   115          9
   116         52
   117          4
   118          3
   121          7
   122          1
   123          1
   124          3
   125         24
   126          8
   127         54
   128         50
   129         34
   130         25
   131          2
   133          1
   136          1
   137          1
   138         15
   139         18
   140         20
   141         66
   142         21
   143          6
   149          1
   150          1
   152          3
   153          9
   154         12
   155        183
   156         62
   157         38
   158         11
   159         12
   160          1
   165          2
   166          9
   167          9
   168         17
   169          9
   170          5
   171         17
   172          3
   173          1
   179          2
   180          4
   181        139
   182         60
   183         93
   184         89
   185         13
   186          4
   192          2
   193          1
   194          3
   195          6
   196          5
   197          5
   198          2
   199         17
   200          8
   201          9
   202         14
   203          2
   204          1
   206          1
   207         26
   208         20
   209        158
   210        152
   211        218
   212         30
   213          9
   214         31
   215          4
   216          2
   217          1
   218          1
   219          1
   220          4
   221          1
   222          2
   223          3
   224          1
   225         13
   226         11
   227        452
   228         69
   229         41
   230          6
   231          1
   232          1
   233          1
   234          4
   235          3
   236         13
   237         64
   238         37
   239         12
   240         10
   241          9
   242          5
   243          2
   244          1
   245          1
   246          1
   248          1
   249          1
   250          1
   251          1
   252          3
   253        132
   254         95
   255        166
   256         56
   257         10
   258          2
   259          1
   261          1
   262          1
   263          1
   264         11
   265          4
   266          2
   267          3
   268          1
   269          1
   270          1
   271         44
   272          9
   273          7
   274          3
   275          1
   276          1
   277          1
   278          2
   279          1
   280          9
   281         20
   282         46
   283        381
   284         54
   285         11
   286         78
   287         11
   288          3
   289          1
   290          1
   292          1
   295          1
   297          1
   298         11
   299        446
   300         63
   301         66
   302          9
   303          2
   304          1
   308          1
   310          1
   312          1
   317          1
   325          1
   327        199
   328         46
   329          6
   330          1
   345          2