##TITLE=Library Entry 19465
##JCAMP-DX=Revision 4.10 
##DATA TYPE=MASS SPECTRUM
##SAMPLE DESCRIPTION=D.HENNEBERG, MAX-PLANCK INSTITUTE, MULHEIM, WEST GERMAN
Y
##NAMES=HP
##CAS NAME=Cyclopentane, 1-methyl-3-(2-methylpropyl)-
##MOLFORM=C10H20
##CAS REGISTRY NO=29053-04-1
##MP= -300
##BP= -300
##MW= 140
##$RETENTION INDEX=948
##$CONDENSED SPECTRUM=NO
##NPOINTS= 81
##XYDATA=(XY..XY) 1 
    27        274
    28         46
    29        258
    30          5
    31          1
    32          2
    35          0
    37          2
    38          6
    39        271
    40         44
    41        717
    42        125
    43        354
    44         11
    45          1
    46          0
    48          0
    49          1
    50          6
    51         24
    52         13
    53         95
    54         58
    55        999
    56        480
    57        325
    58         14
    59          0
    62          0
    63          4
    64          1
    65         20
    66         13
    67        168
    68         46
    69        358
    70        190
    71         82
    72          5
    73          7
    74          0
    75          1
    77         22
    78          5
    79         23
    80          5
    81        122
    82        147
    83        411
    84        103
    85         22
    86          1
    89          0
    91          7
    92          0
    93          2
    94          0
    95         28
    96        243
    97        532
    98         54
    99          3
   103          0
   105          0
   109          1
   110          1
   111         30
   112         66
   113         23
   114          2
   123          1
   124          0
   125         21
   126          2
   127          1
   138          0
   139          1
   140         48
   141          5
   142          2