##TITLE=Library Entry 51375
##JCAMP-DX=Revision 4.10 
##DATA TYPE=MASS SPECTRUM
##SAMPLE DESCRIPTION=Japan AIST/NIMC Database- Spectrum MS-IW-7513
##NAMES=HP
##CAS NAME=4,7-Diisopropenyl-2,9-dimethyldecan-3,8-diol
##MOLFORM=C18H34O2
##CAS REGISTRY NO=29051-49-8
##MP= -300
##BP= -300
##MW= 282
##$RETENTION INDEX=0
##$CONDENSED SPECTRUM=NO
##NPOINTS= 140
##XYDATA=(XY..XY) 1 
    15          3
    17          6
    18          2
    26          6
    27        100
    28         21
    29         83
    30          2
    31         17
    37          3
    38          6
    39         72
    40         15
    41        481
    42         41
    43        401
    44         15
    45         18
    50          2
    51          7
    52          4
    53         55
    54         11
    55        239
    56         21
    57         74
    58          5
    59          7
    63          1
    65         12
    66          7
    67        184
    68        195
    69        955
    70        228
    71         60
    72        175
    73        475
    74         21
    75          1
    77         22
    78          4
    79         49
    80         24
    81        166
    82        999
    83        177
    84         18
    85         49
    86          3
    91         25
    92         20
    93        139
    94         88
    95        345
    96         56
    97         26
    98          7
    99          5
   103          1
   105         16
   106          5
   107         89
   108         23
   109        159
   110         77
   111        113
   112         11
   113          8
   114          1
   115          1
   117          1
   119          9
   120          3
   121         78
   122         47
   123        117
   124         44
   125          8
   126          3
   127         14
   128          8
   129          1
   131          1
   133          8
   134          3
   135         85
   136         71
   137         38
   138        138
   139         24
   140          3
   141          3
   144          1
   145        105
   146          9
   147         11
   148          8
   149        205
   150         29
   151          8
   152          3
   153          3
   154          4
   157          1
   161          3
   162          1
   163          9
   164          5
   165          4
   166          1
   167        108
   168         12
   169          1
   175          4
   176          2
   177         31
   178          9
   179          2
   183          1
   189          2
   190          2
   191          4
   192         75
   193         16
   194          2
   195          4
   196          1
   203         14
   204          2
   208          1
   210         21
   211          4
   221         12
   222          2
   231          1
   239          4
   246          4
   247          1
   264          2