##TITLE=Library Entry 68785
##JCAMP-DX=Revision 4.10 
##DATA TYPE=MASS SPECTRUM
##SAMPLE DESCRIPTION=NIST Mass Spectrometry Data Center
##NAMES=HP
##CAS NAME=2-Fluorobenzenesulphonyl chloride
##MOLFORM=C6H4ClFO2S
##CAS REGISTRY NO=2905-21-7
##MP= -300
##BP= -300
##MW= 194
##$RETENTION INDEX=0
##$CONDENSED SPECTRUM=NO
##NPOINTS= 89
##XYDATA=(XY..XY) 1 
    16          9
    18          4
    25          3
    26          9
    27         11
    28          9
    29          2
    31         38
    32         16
    33          6
    35         32
    36         11
    37         39
    38         37
    39         43
    40          2
    44          5
    45         37
    46          1
    48        112
    49         25
    50        158
    51         82
    52          4
    53          3
    55          2
    56         18
    57         86
    58          5
    61         23
    62         25
    63         45
    64         67
    65         12
    66          6
    68        100
    69        145
    70         16
    71         17
    72          2
    74        100
    75        512
    76         41
    77          2
    80         18
    81         16
    82         10
    83         76
    84          6
    85          2
    87          5
    88          1
    89          2
    91          2
    92         13
    93         26
    95        999
    96         89
    97          5
    99         12
   100          3
   101          4
   103          3
   106          1
   108          2
   109          1
   111        141
   112          8
   113          2
   115         21
   116          2
   117          2
   126          4
   127          6
   128          4
   130         21
   131          2
   132          7
   143         11
   144          2
   159        770
   160         57
   161         39
   162          3
   194        179
   195         16
   196         63
   197          5
   198          3