##TITLE=Library Entry 7995
##JCAMP-DX=Revision 4.10 
##DATA TYPE=MASS SPECTRUM
##SAMPLE DESCRIPTION=Leung Pu, NIH, Bethesda, Maryland, U.S.
##NAMES=HP
##CAS NAME=Dipropylene glycol dipelargonate
##MOLFORM=C24H46O5
##CAS REGISTRY NO=29059-00-5
##MP= -300
##BP= -300
##MW= 414
##$RETENTION INDEX=0
##$CONDENSED SPECTRUM=NO
##NPOINTS= 224
##XYDATA=(XY..XY) 1 
    41        705
    42        143
    43        999
    44         21
    45         55
    46          1
    47          2
    49          4
    50          0
    51          4
    52          2
    53         28
    54         48
    55        495
    56        216
    57        856
    58         51
    59         56
    60         63
    61         55
    62          1
    63          1
    64          1
    65          5
    66          3
    67         77
    68         51
    69        199
    70        296
    71        540
    72         15
    73         84
    74         37
    75          6
    76          0
    77          4
    78          2
    79         13
    80         10
    81         96
    82         40
    83        147
    84        269
    85         74
    86         11
    87         49
    88          6
    89          9
    90          0
    91          4
    92          1
    93          9
    94         15
    95         25
    96         27
    97         72
    98        166
    99         41
   100        366
   101        225
   102         15
   103          7
   104          0
   105          1
   106          1
   107          3
   108          1
   109          9
   110          8
   111         28
   112        270
   113        239
   114         24
   115         29
   116         10
   117          4
   118         24
   119          8
   120          0
   121          9
   122          5
   123         31
   124          6
   125         11
   126         14
   127        102
   128         12
   129         32
   130          6
   131         11
   132          1
   133          0
   135          1
   136          8
   137          3
   138         11
   139         27
   140        115
   141        394
   142        740
   143         18
   144          8
   145         13
   146          1
   147          0
   149          0
   150          0
   151          0
   152          2
   153          3
   154         45
   155         56
   156         11
   157         29
   158         42
   159        163
   160         27
   161          3
   166          0
   167          1
   168          3
   169         28
   170         17
   171         42
   172         27
   173          9
   174          1
   175          0
   181          0
   182          3
   183          7
   184          8
   185         68
   186         10
   187          2
   188          6
   189          2
   195          0
   196          2
   197         17
   198         74
   199        716
   200         96
   201         11
   202          3
   203          4
   209          0
   210          0
   211          1
   212          2
   213         15
   214         18
   215          7
   216          1
   217         61
   218          7
   219          1
   223          0
   225          0
   226          2
   227          4
   228          2
   229          4
   230          1
   231          1
   238          0
   239          0
   240          4
   241          3
   242          3
   243         13
   244          2
   245          0
   252          0
   254          0
   255          0
   256          1
   257          2
   258         10
   259          1
   268          2
   269          2
   270          3
   271         20
   272          3
   273          0
   280          0
   281          0
   282          0
   283          0
   284          1
   285          0
   288          0
   297          0
   298          1
   299          0
   301          0
   312         11
   313          2
   315          0
   326          0
   328          0
   329          1
   330          0
   338          0
   340          0
   341          1
   343          2
   344          0
   354          0
   355          1
   356          0
   357         17
   358          2
   359          0
   369          2
   370          0
   371          1
   374          1
   375          0
   385          0
   413          0
   414          1
   415          0