##TITLE=Library Entry 88206
##JCAMP-DX=Revision 4.10 
##DATA TYPE=MASS SPECTRUM
##SAMPLE DESCRIPTION=NIST Mass Spectrometry Data Center, 1994
##NAMES=HP
##CAS NAME=2-Chlorobenzenesulfonyl chloride
##MOLFORM=C6H4Cl2O2S
##CAS REGISTRY NO=2905-23-9
##MP= -300
##BP= -300
##MW= 210
##$RETENTION INDEX=0
##$CONDENSED SPECTRUM=NO
##NPOINTS= 90
##XYDATA=(XY..XY) 1 
    16          5
    26         10
    27         17
    28         18
    32         12
    35         27
    36         22
    37         50
    38         68
    39         41
    44          4
    45         23
    47          8
    48         78
    49         46
    50        338
    51        118
    52          9
    53          6
    54          3
    55         12
    56          7
    57          8
    58          5
    60          8
    61         37
    62         22
    63         46
    64         50
    65          6
    66          3
    68          5
    69         46
    70          8
    71          5
    72         16
    73         80
    74        227
    75        728
    76        102
    77         17
    79          6
    81         12
    82          7
    83         11
    84         36
    85         76
    86         14
    87         36
    88          8
    93          4
    95          8
    96          6
    97          3
    98          3
    99         48
   100          4
   101         15
   107          4
   108         23
   109         10
   110          3
   111        999
   112         88
   113        315
   114         26
   115          3
   127         23
   128          6
   129          7
   131         16
   133          6
   144          7
   145          3
   146         28
   148         20
   150          4
   159          8
   160          3
   175        651
   176         55
   177        241
   178         19
   179         10
   184          4
   210        200
   211         18
   212        146
   213         11
   214         28