##TITLE=Library Entry 38328
##JCAMP-DX=Revision 4.10 
##DATA TYPE=MASS SPECTRUM
##SAMPLE DESCRIPTION=Exported from NIST MS Search
##NAMES=HP
##CAS NAME=Butyric acid, ester with p-hydroxybenzonitrile
##MOLFORM=C11H11NO2
##CAS REGISTRY NO=29052-10-6
##MP= -300
##BP= -300
##MW= 189
##$RETENTION INDEX=1512
##$CONDENSED SPECTRUM=NO
##NPOINTS= 51
##XYDATA=(XY..XY) 1 
    26          9
    27        122
    28          7
    29         12
    37         17
    38         17
    39         76
    40          9
    41        151
    42         36
    43        878
    44         25
    50         11
    51         12
    52          6
    53          4
    55         55
    56          3
    60          2
    61          3
    62         11
    63         36
    64         48
    65          8
    69          6
    70         22
    71        999
    72         38
    73          4
    74          3
    75         15
    76          9
    77          2
    87          1
    88          3
    89          3
    90         35
    91         17
    92          4
    93          2
   102         26
   103          3
   116          3
   117          2
   118          5
   119         68
   120         12
   130          4
   146          3
   189         11
   190          3