##TITLE=Library Entry 66528
##JCAMP-DX=Revision 4.10 
##DATA TYPE=MASS SPECTRUM
##SAMPLE DESCRIPTION=Philip Morris R&D
##NAMES=HP
##CAS NAME=(+)-4-Carene
##MOLFORM=C10H16
##CAS REGISTRY NO=29050-33-7
##MP= -300
##BP= -300
##MW= 136
##$RETENTION INDEX=1009
##$CONDENSED SPECTRUM=NO
##NPOINTS= 75
##XYDATA=(XY..XY) 1 
    36          6
    37          1
    38         12
    39        140
    40         23
    41        196
    42         12
    43        185
    44          9
    45          3
    46          1
    47          0
    49          1
    50         12
    51         57
    52         26
    53         83
    54          7
    55         82
    56          3
    57          6
    58         18
    59         19
    60          8
    61         13
    62          5
    63         14
    64          7
    65         63
    66         12
    67         66
    68         18
    69          9
    70          0
    74          2
    75          2
    76          0
    77        306
    78         44
    79        342
    80         77
    81         31
    82          2
    86          1
    87          0
    88          0
    89          4
    90          1
    91        371
    92        116
    93        999
    94         95
    95         11
   102          1
   103         24
   104          5
   105        187
   106         47
   107        127
   108         44
   109          3
   115          6
   116          1
   117          6
   118          0
   119         38
   120          7
   121        879
   122         85
   123          3
   134          0
   135          6
   136        622
   137         64
   138          2