##TITLE=Library Entry 60770
##JCAMP-DX=Revision 4.10 
##DATA TYPE=MASS SPECTRUM
##SAMPLE DESCRIPTION=Chemical Concepts
##NAMES=HP
##CAS NAME=Piperidine, 1-(phenylmethyl)-
##MOLFORM=C12H17N
##CAS REGISTRY NO=2905-56-8
##MP= -300
##BP= -300
##MW= 175
##$RETENTION INDEX=0
##$CONDENSED SPECTRUM=NO
##NPOINTS= 130
##XYDATA=(XY..XY) 1 
    26          7
    27         46
    28         35
    29         39
    30         31
    31          0
    35          5
    36          2
    37          2
    38          7
    39         86
    40         13
    41        130
    42        154
    43         27
    44         22
    45          1
    47         13
    48          8
    49         87
    50         15
    51         47
    52         13
    53         15
    54         23
    55        104
    56         45
    57         32
    58          2
    59          3
    61          1
    62          8
    63         36
    64         13
    65        161
    66         13
    67         12
    68         18
    69         31
    70         16
    71          9
    72          1
    73          2
    74          3
    75          4
    76          5
    77         29
    78         13
    79         15
    80          6
    81          4
    82         22
    83         15
    84        448
    85         40
    86         42
    87          6
    88          8
    89         39
    90         29
    91        999
    92        170
    93         11
    94          1
    95          2
    96         11
    97         22
    98        598
    99         55
   100          2
   102          2
   103          7
   104         32
   105         17
   106          9
   107          5
   108          5
   109          1
   110          0
   111          2
   112          1
   113          1
   115          4
   116          3
   117         18
   118         44
   119         16
   120          7
   121          1
   123          0
   125          1
   126          1
   127          1
   128          2
   129          2
   130          5
   131          6
   132         51
   133         13
   134         21
   135          2
   137          0
   138          0
   139          0
   140          0
   141          1
   142          1
   143          1
   144          4
   145          3
   146         52
   147          7
   148          1
   149          1
   150          1
   154          0
   155          1
   158          1
   159          1
   160          8
   161          1
   168          1
   172          8
   173         13
   174        566
   175        498
   176         77
   177          5
   178          1
   179          0