##TITLE=Library Entry 18835
##JCAMP-DX=Revision 4.10 
##DATA TYPE=MASS SPECTRUM
##SAMPLE DESCRIPTION=D.HENNEBERG, MAX-PLANCK INSTITUTE, MULHEIM, WEST GERMAN
Y
##NAMES=HP
##CAS NAME=Zinc, di-3-butenyl-
##MOLFORM=C8H14Zn
##CAS REGISTRY NO=29067-32-1
##MP= -300
##BP= -300
##MW= 174
##$RETENTION INDEX=0
##$CONDENSED SPECTRUM=NO
##NPOINTS= 74
##XYDATA=(XY..XY) 1 
    27        206
    28         66
    29        190
    30          4
    32          0
    33          0
    36          0
    37          6
    38         11
    39        172
    40         13
    41         68
    42          2
    45          7
    48          1
    49          6
    50         26
    51         31
    52         14
    53         98
    54        133
    55        999
    56         85
    57          2
    63          0
    64         38
    65          7
    66         21
    67         21
    68         15
    69          3
    73          7
    77          0
    78          3
    79          1
    80          2
    81         22
    82         41
    83          2
    89          1
    90          0
    91          9
    92          3
    93          5
    94          3
    95          7
    96          1
   105          0
   108          0
   109          1
   110          0
   117          0
   118         12
   119         55
   120         16
   121         31
   122         14
   123         20
   124          3
   125          0
   133          0
   135          0
   137          0
   146          3
   147          0
   148          1
   149          0
   150          1
   174         22
   175          2
   176         12
   177          3
   178          8
   179          0