##TITLE=Library Entry 594
##JCAMP-DX=Revision 4.10 
##DATA TYPE=MASS SPECTRUM
##SAMPLE DESCRIPTION=Chemical Concepts
##NAMES=HP
##CAS NAME=4,9-Decadienoic acid, 2-nitro-, ethyl ester
##MOLFORM=C12H19NO4
##CAS REGISTRY NO=29085-46-9
##MP= -300
##BP= -300
##MW= 241
##$RETENTION INDEX=0
##$CONDENSED SPECTRUM=NO
##NPOINTS= 109
##XYDATA=(XY..XY) 1 
    26         73
    27        496
    28        127
    29        999
    30        169
    31        113
    36          6
    37          6
    38         34
    39        527
    40        118
    41        844
    42        122
    43        239
    44         62
    45        114
    46         54
    47         15
    50         38
    51         96
    52         47
    53        307
    54        454
    55        826
    56        129
    57        156
    60         15
    63         19
    65        158
    66        141
    67        947
    68        203
    69        155
    70         68
    71         69
    72         24
    73        232
    74         86
    77        179
    78        111
    79        796
    80        236
    81        520
    82        167
    83        201
    84         57
    85        189
    86         43
    87          7
    88         31
    91        204
    92         61
    93        407
    94        180
    95        178
    96         76
    97        170
    98         39
    99         60
   100         19
   101        133
   102        173
   103         31
   104         18
   105        104
   106         99
   107        197
   108        102
   109         80
   110         18
   111        183
   112         66
   113          9
   114         25
   115         35
   117         10
   119        119
   120        103
   121        190
   122         43
   123         79
   124         99
   125         90
   126          7
   128         21
   129         23
   130         18
   131         42
   132         17
   133         21
   134         44
   135          7
   136         51
   137         52
   138         58
   139         28
   140         46
   141         50
   147         46
   148         10
   149         55
   150         30
   151         33
   152         89
   153         75
   154         14
   165          7
   168         18
   180         12