##TITLE=Library Entry 2905
##JCAMP-DX=Revision 4.10 
##DATA TYPE=MASS SPECTRUM
##SAMPLE DESCRIPTION=A.A.Kutin, Moscow, Russia
##NAMES=HP
##CAS NAME=Pentanedioic acid, dihydrazide, N2,N2'-bis(cyclohexylideno)-
##MOLFORM=C18H30N4O2
##CAS REGISTRY NO=29094-13-1
##MP= -300
##BP= -300
##MW= 334
##$RETENTION INDEX=0
##$CONDENSED SPECTRUM=NO
##NPOINTS= 172
##XYDATA=(XY..XY) 1 
    33         44
    34          1
    35          1
    36          3
    37         12
    39        430
    41        999
    42        297
    43        207
    44        153
    45        145
    47          1
    49          1
    50         15
    51         54
    53        259
    54        332
    55        938
    56        138
    57        138
    58         30
    59         30
    60         13
    62          3
    63          9
    65         56
    67        342
    68         97
    69        267
    70         29
    71         21
    72         33
    73          8
    74          7
    75          3
    77         53
    78         17
    79        127
    81        187
    82         84
    83        135
    84         95
    86         51
    87          3
    88          1
    89          1
    90          2
    91          6
    92         11
    93         22
    94         86
    96        876
    97        106
    98         87
   100         78
   102          7
   104          1
   105          3
   106          2
   107          5
   108         11
   109         23
   110         60
   111        134
   112        127
   113        122
   114         18
   115         11
   116          1
   118          2
   119          3
   120          2
   121          3
   122          6
   123         19
   124         19
   125         24
   126         13
   127          5
   128         26
   129          2
   130          1
   131          1
   132          1
   133          1
   134          3
   135          9
   136          8
   137         11
   138         12
   139         33
   140          7
   141          5
   143         15
   144          2
   145          3
   146          1
   147          1
   148          2
   149          5
   151         27
   152         10
   153         15
   154         62
   155          6
   156          1
   160          3
   161          1
   162          2
   163          3
   165         10
   166         16
   167         45
   168          9
   169          2
   170          1
   171          1
   174          1
   175          2
   176          6
   177         13
   179         69
   180         14
   181         59
   182          7
   183          1
   184          1
   188          1
   189          1
   191          2
   192          3
   193         10
   194          7
   195         10
   196         12
   197          2
   203          1
   204          1
   205         11
   206          2
   211          1
   215          1
   217          2
   218          2
   219          3
   220          9
   221         19
   223        100
   224          7
   225          1
   234          1
   236          1
   237          1
   238          5
   239          4
   240          6
   241          1
   252          1
   254          2
   284          1
   286          1
   287          2
   289          4
   291         16
   292          2
   328          1
   329          1
   330          2
   332          3
   333          2
   334         14
   335          3