##TITLE=Library Entry 80704
##JCAMP-DX=Revision 4.10 
##DATA TYPE=MASS SPECTRUM
##SAMPLE DESCRIPTION=Japan AIST/NIMC Database- Spectrum MS-NW-8409
##NAMES=HP
##CAS NAME=3-Methyl-2-(O-methylbenzyl)butanol
##MOLFORM=C13H20O
##CAS REGISTRY NO=29107-38-8
##MP= -300
##BP= -300
##MW= 192
##$RETENTION INDEX=0
##$CONDENSED SPECTRUM=NO
##NPOINTS= 108
##XYDATA=(XY..XY) 1 
    15          2
    17          1
    18          2
    26          1
    27         69
    28          6
    29         35
    30          1
    31         48
    38          3
    39         66
    40          8
    41        189
    42          9
    43        150
    44          6
    45        108
    46          2
    50          8
    51         36
    52         11
    53         32
    54          3
    55         26
    56          5
    57         42
    58          4
    59          4
    62          4
    63         22
    64          7
    65         55
    66          6
    67         10
    68          4
    69        200
    70         12
    71         25
    72          2
    74          2
    75          4
    76          5
    77        138
    78         50
    79        116
    80          8
    81          2
    82         11
    83          3
    85          2
    86          5
    87          5
    88          1
    89         15
    90          5
    91        338
    92         61
    93         14
    94          3
   100          1
   101          2
   102         11
   103         78
   104        197
   105        999
   106        685
   107         71
   108          4
   114          1
   115         58
   116         31
   117         86
   118        271
   119         61
   120          6
   121          5
   122          5
   126          1
   127          8
   128         23
   129         27
   130         20
   131        371
   132         49
   133          9
   134          1
   141          4
   142          2
   143          4
   144          6
   145         19
   146          3
   147          5
   149          3
   150          2
   157          3
   158          1
   159        113
   160         16
   161          8
   162          1
   172          1
   173          2
   174         56
   175          8
   192        208
   193         29
   194          2