##TITLE=Library Entry 80690
##JCAMP-DX=Revision 4.10 
##DATA TYPE=MASS SPECTRUM
##SAMPLE DESCRIPTION=Japan AIST/NIMC Database- Spectrum MS-NW-8408
##NAMES=HP
##CAS NAME=4-Methyl-3-(O-methylbenzyl)pentanenitrile
##MOLFORM=C14H19N
##CAS REGISTRY NO=29107-40-2
##MP= -300
##BP= -300
##MW= 201
##$RETENTION INDEX=0
##$CONDENSED SPECTRUM=NO
##NPOINTS= 87
##XYDATA=(XY..XY) 1 
    15          1
    26          1
    27         33
    28          5
    29          8
    30          1
    38          2
    39         36
    40          4
    41         45
    42          5
    43         21
    44          2
    50          5
    51         20
    52          8
    53         15
    54          6
    55         10
    57          1
    58          1
    62          2
    63         12
    64          4
    65         30
    66          4
    67          3
    68          2
    69         10
    70          2
    71          1
    74          1
    75          3
    76          3
    77         69
    78         24
    79         60
    80          4
    81          1
    84          2
    85         16
    86          1
    87          1
    89          9
    90          3
    91         79
    92         21
    93          2
    96         66
    97          4
   101          1
   102          6
   103         40
   104         30
   105        999
   106        188
   107         12
   114          1
   115         31
   116         12
   117         27
   118         11
   119          7
   127          4
   128         10
   129         10
   130          6
   131         12
   132          4
   140          1
   141          2
   142          2
   143          5
   144          7
   145         12
   146          2
   156          2
   157          1
   158         32
   159          7
   160          6
   161          1
   184          1
   186          3
   187          1
   201         42
   202          7