##TITLE=Library Entry 81338
##JCAMP-DX=Revision 4.10 
##DATA TYPE=MASS SPECTRUM
##SAMPLE DESCRIPTION=Japan AIST/NIMC Database- Spectrum MS-NW-8454
##NAMES=HP
##CAS NAME=4-Methyl-3-(O-methylbenzyl)pentanoic acid
##MOLFORM=C14H20O2
##CAS REGISTRY NO=29107-41-3
##MP= -300
##BP= -300
##MW= 220
##$RETENTION INDEX=0
##$CONDENSED SPECTRUM=NO
##NPOINTS= 126
##XYDATA=(XY..XY) 1 
    12          2
    13          1
    14          9
    15         50
    16          4
    17          6
    18          1
    26          9
    27        323
    28         30
    29        124
    30          3
    31         17
    37          2
    38          8
    39        175
    40         19
    41        374
    42         39
    43        239
    44          8
    45         71
    46          2
    47          1
    50         11
    51         44
    52         16
    53         52
    54          8
    55         99
    56          8
    57          9
    58          2
    59          7
    60         21
    61          1
    62          4
    63         21
    64          7
    65         55
    66          6
    67         12
    68          9
    69        259
    70         16
    71          9
    72          1
    73        132
    74          7
    75          4
    76          5
    77        125
    78         55
    79        145
    80          9
    81          3
    82          3
    83          4
    85          4
    86          1
    87          3
    89         14
    90          5
    91        222
    92         53
    93         10
    94          1
    95          1
    96          1
    97         73
    98          5
    99          1
   100          1
   101          2
   102          9
   103         75
   104        157
   105        999
   106        336
   107         27
   108          1
   113          4
   114          3
   115         80
   116         40
   117         65
   118         22
   119         16
   120          2
   121          3
   127          8
   128         21
   129         26
   130         14
   131        115
   132         18
   133          4
   134          1
   135          5
   141          5
   142          2
   143          9
   144          7
   145        348
   146         55
   147          6
   157          3
   158          3
   159         17
   160        656
   161         99
   162          7
   174          1
   176          2
   177          6
   178          2
   187          2
   201          2
   202          4
   203         32
   204          5
   205          1
   206          3
   220        292
   221         48
   222          5