##TITLE=Library Entry 80661
##JCAMP-DX=Revision 4.10 
##DATA TYPE=MASS SPECTRUM
##SAMPLE DESCRIPTION=Japan AIST/NIMC Database- Spectrum MS-NW-8405
##NAMES=HP
##CAS NAME=Ethyl 2-cyano-3-methyl-2-(O-methylbenzyl)butanoate
##MOLFORM=C16H21NO2
##CAS REGISTRY NO=29107-35-5
##MP= -300
##BP= -300
##MW= 259
##$RETENTION INDEX=0
##$CONDENSED SPECTRUM=NO
##NPOINTS= 99
##XYDATA=(XY..XY) 1 
    15          1
    18          1
    26          1
    27         33
    28          9
    29         40
    30          1
    38          1
    39         19
    40          2
    41         22
    42          2
    43         23
    44          2
    45          1
    50          2
    51         10
    52          5
    53          9
    54          1
    55          2
    62          1
    63          7
    64          3
    65         17
    66          3
    67          2
    68          1
    69          1
    75          1
    76          2
    77         47
    78         15
    79         44
    80          6
    89          6
    90          2
    91         38
    92         22
    93          4
    94          2
   101          1
   102          4
   103         29
   104         30
   105        999
   106         91
   107          4
   109          1
   113          1
   114          1
   115         22
   116          9
   117          9
   118          2
   119         18
   120          3
   121          1
   126          2
   127          5
   128          8
   129          9
   130          5
   131          2
   140          4
   141          3
   142          6
   143         12
   144         40
   145          8
   153          1
   154          3
   155          1
   156          4
   157          1
   158          1
   159          1
   168          1
   169          1
   170         20
   171          7
   172          8
   173          2
   174          1
   184          1
   185          2
   186          6
   187          1
   188         19
   189          2
   198          1
   200          1
   202          1
   214          3
   216         14
   217         26
   218          4
   259         19
   260          3