##TITLE=Library Entry 83515
##JCAMP-DX=Revision 4.10 
##DATA TYPE=MASS SPECTRUM
##SAMPLE DESCRIPTION=Japan AIST/NIMC Database- Spectrum MS-IW-3789
##NAMES=HP
##CAS NAME=Benzenesulfonic acid, p-methyl-, 2-phenylhydrazide
##MOLFORM=C13H14N2O2S
##CAS REGISTRY NO=29110-75-6
##MP= -300
##BP= -300
##MW= 262
##$RETENTION INDEX=0
##$CONDENSED SPECTRUM=NO
##NPOINTS= 106
##XYDATA=(XY..XY) 1 
    26          3
    27         12
    28          9
    29         10
    32          1
    36          1
    37         11
    38         19
    39         74
    40          6
    41         14
    42          1
    43          3
    44          3
    45         12
    46          1
    48          8
    49          8
    50         71
    51        183
    52         40
    53         13
    54          1
    55          2
    57          2
    58          1
    59          1
    60          3
    61         10
    62         20
    63         57
    64         26
    65        184
    66         13
    67         10
    68          1
    69          9
    70          2
    71          3
    72          1
    73          7
    74         24
    75         15
    76         16
    77        670
    78         92
    79         39
    80         30
    81          3
    82          2
    83          1
    84          1
    85          4
    86          5
    87          4
    88          2
    89         43
    90         21
    91        394
    92        253
    93         38
    94          3
    95          5
    96          1
    97          2
   105         86
   106        334
   107        999
   108        122
   109          8
   110          2
   111          9
   115          1
   121          8
   122          5
   123          9
   124          9
   125          2
   126          1
   135          3
   138          1
   139         99
   140         24
   141          7
   142          1
   149          1
   152          2
   153          1
   154          1
   155          8
   156        212
   157         20
   158         10
   159          1
   165          1
   167          2
   168          1
   171          2
   182          2
   183          1
   196          1
   197          1
   247          1
   262         76
   263         11
   264          4