##TITLE=Library Entry 18710
##JCAMP-DX=Revision 4.10 
##DATA TYPE=MASS SPECTRUM
##SAMPLE DESCRIPTION=Japan AIST/NIMC Database- Spectrum MS-NW-3876
##NAMES=HP
##CAS NAME=cis,trans-5,9-Cyclododecadiene-cis-1,2-diol
##MOLFORM=C12H20O2
##CAS REGISTRY NO=29118-70-5
##MP= -300
##BP= -300
##MW= 196
##$RETENTION INDEX=0
##$CONDENSED SPECTRUM=NO
##NPOINTS= 162
##XYDATA=(XY..XY) 1 
    14          3
    15         19
    16          2
    17          4
    18         13
    25          1
    26         12
    27        238
    28         55
    29        166
    30          6
    31         87
    32         13
    33          2
    34          5
    36          1
    37          3
    38         12
    39        404
    40         66
    41        733
    42         71
    43        246
    44        118
    45         50
    46          2
    47          9
    48          1
    49          1
    50         15
    51         52
    52         31
    53        234
    54        999
    55        524
    56         69
    57        305
    58         37
    59         10
    60         21
    61          8
    62          5
    63         13
    64          4
    65         78
    66        105
    67        864
    68        424
    69        307
    70        172
    71        119
    72         19
    73         50
    74        123
    75          9
    76          3
    77        121
    78         73
    79        491
    80        315
    81        610
    82        233
    83        288
    84        250
    85         64
    86         56
    87         37
    88          6
    89          3
    90          2
    91        203
    92        112
    93        353
    94        140
    95        306
    96        178
    97        353
    98        171
    99         64
   100        153
   101         21
   102          4
   103          9
   104         45
   105         86
   106         92
   107        115
   108        138
   109        346
   110        140
   111        121
   112         71
   113         37
   114         17
   115         10
   116          6
   117         69
   118         32
   119        101
   120         47
   121         98
   122         59
   123        192
   124        149
   125         44
   126         14
   127         21
   128          9
   129          9
   130          6
   131         69
   132         65
   133         27
   134         74
   135        129
   136         72
   137        118
   138         17
   139         18
   140          8
   141          7
   142          7
   143          3
   144          1
   145         26
   146          5
   147         14
   148          4
   149         91
   150         67
   151         28
   152         15
   153         63
   154         14
   155          6
   156          3
   157          2
   158          3
   159          8
   160         86
   161         14
   162          3
   163         34
   164          6
   165          6
   166          2
   167          9
   168         11
   169          3
   170          1
   177          8
   178         79
   179         11
   180          1
   181          2
   182          1
   192          2
   194          2
   195          2
   196         79
   197         11
   198          1