##TITLE=Library Entry 823
##JCAMP-DX=Revision 4.10 
##DATA TYPE=MASS SPECTRUM
##SAMPLE DESCRIPTION=A.Mazepa, Phys.-Chem.Institute, Odessa, Ukraine
##NAMES=HP
##CAS NAME=Acetic acid, ((4-chloro-2,1,3-benzothiadiazol-5-yl)oxy)-, ethyl e
ster
##MOLFORM=C10H9ClN2O3S
##CAS REGISTRY NO=29123-12-4
##MP= -300
##BP= -300
##MW= 272
##$RETENTION INDEX=0
##$CONDENSED SPECTRUM=NO
##NPOINTS= 117
##XYDATA=(XY..XY) 1 
    26          9
    27        239
    28        352
    29        999
    30          9
    31        343
    32         67
    33          4
    34          2
    41         62
    42        124
    43        158
    44         75
    45        185
    46         46
    47         12
    48          6
    49          3
    56          9
    57         10
    58          6
    59        641
    60          7
    61          7
    62          4
    65          3
    66        126
    67         17
    68         73
    69         22
    70         78
    71          7
    74          7
    75         18
    76         51
    77          4
    78          4
    79         12
    80        110
    81          5
    82          4
    83         46
    84         20
    85          6
    86          5
    87        168
    88          8
    89          6
    90          2
   104          5
   105          4
   106         39
   107          9
   108         53
   109          7
   110         11
   111          4
   112          9
   113          1
   130          1
   133         17
   134        112
   135        124
   136         22
   137          8
   139          2
   140          5
   141          1
   142         20
   143          1
   144          5
   145          2
   146          1
   157        139
   158         23
   159         39
   160          4
   162          1
   167         15
   168          3
   169        110
   170         31
   171        168
   172         10
   173         29
   174          1
   179          1
   180         26
   181         17
   184          2
   185        119
   186        213
   187         41
   188         62
   189          2
   198          1
   199        457
   200         23
   201        149
   202          6
   207          3
   208         11
   209        853
   210         58
   211         39
   236          2
   237        386
   238         40
   239          6
   244         11
   245          2
   246          2
   272        674
   273         62
   274        255
   275         10
   276          2