##TITLE=Library Entry 39592
##JCAMP-DX=Revision 4.10 
##DATA TYPE=MASS SPECTRUM
##SAMPLE DESCRIPTION=N.W. Davies, Centr. Sci. Lab., Univ. Tasmania, Hobart,
 Australia
##NAMES=HP
##CAS NAME=Atenolol
##MOLFORM=C14H22N2O3
##CAS REGISTRY NO=29122-68-7
##MP= -300
##BP= -300
##MW= 266
##$RETENTION INDEX=0
##$CONDENSED SPECTRUM=NO
##NPOINTS= 55
##XYDATA=(XY..XY) 1 
    27         43
    29         20
    30        568
    31         16
    32         61
    39         25
    40         18
    41         73
    42         34
    43        100
    44         52
    45         15
    51         13
    52          9
    53          6
    54          6
    55         18
    56         92
    57         64
    58         27
    60         22
    63          5
    65          8
    69          5
    70         14
    71         22
    72        999
    73         53
    74          8
    77         25
    78         18
    79         11
    84          7
    86          8
    89         12
    90         10
    91         12
    98         13
   100         22
   102         15
   104          6
   106          8
   107         57
   108          7
   116         16
   121          5
   131          6
   145          7
   149         16
   151          6
   164          5
   190          6
   222         26
   223          5
   251         14