##TITLE=Library Entry 96844
##JCAMP-DX=Revision 4.10 
##DATA TYPE=MASS SPECTRUM
##SAMPLE DESCRIPTION=Exported from NIST MS Search
##NAMES=HP
##CAS NAME=Indane, 1-nonyl-
##MOLFORM=C18H28
##CAS REGISTRY NO=29138-83-8
##MP= -300
##BP= -300
##MW= 244
##$RETENTION INDEX=0
##$CONDENSED SPECTRUM=NO
##NPOINTS= 84
##XYDATA=(XY..XY) 1 
    14          2
    15          8
    16          1
    26          5
    27         92
    28         27
    29        137
    30          3
    38          2
    39         56
    40          9
    41        126
    42         20
    43         85
    44          1
    50          4
    51         13
    52          4
    53         13
    54          3
    55         26
    56          7
    57         14
    58          1
    62          2
    63          9
    64          3
    65         16
    66          2
    67          3
    68          1
    69          5
    70          2
    71          3
    74          1
    75          3
    76          2
    77         15
    78          7
    79          3
    81          1
    83          1
    87          1
    88          1
    89          8
    90          2
    91         91
    92          7
    96          2
   101          2
   102          6
   103          6
   104          4
   105          6
   106          2
   114          6
   115         85
   116         60
   117        999
   118        106
   119          7
   126          2
   127          7
   128         19
   129         17
   130         18
   131         16
   132          3
   133          2
   139          2
   141          3
   142          2
   143          7
   144          3
   145          2
   152          1
   153          1
   155          1
   165          1
   172          1
   191          1
   242          1
   244         45
   245          9