##TITLE=Library Entry 99059
##JCAMP-DX=Revision 4.10 
##DATA TYPE=MASS SPECTRUM
##SAMPLE DESCRIPTION=Exported from NIST MS Search
##NAMES=HP
##CAS NAME=Pentadecane, 2-methyl-2-phenyl-
##MOLFORM=C22H38
##CAS REGISTRY NO=29138-94-1
##MP= -300
##BP= -300
##MW= 302
##$RETENTION INDEX=0
##$CONDENSED SPECTRUM=NO
##NPOINTS= 111
##XYDATA=(XY..XY) 1 
    12          1
    13          1
    14          1
    15          2
    16          1
    26          2
    27         33
    28         14
    29         70
    30          2
    37          1
    38          1
    39         22
    40          4
    41        153
    42         22
    43        102
    44          8
    45          1
    50          1
    51          6
    52          2
    53          7
    54          4
    55         44
    56         14
    57         33
    58          2
    62          1
    63          1
    64          1
    65          5
    66          1
    67          4
    68          2
    69         15
    70          7
    71         10
    72          1
    74          1
    75          1
    76          1
    77         15
    78          9
    79         27
    80          2
    81          1
    82          1
    83          4
    84          1
    85          5
    86          1
    89          2
    90          2
    91        160
    92         14
    93          1
    95          1
    96          1
    97          2
    98          1
    99          1
   101          1
   102          2
   103         16
   104          6
   105         66
   106          6
   107          1
   111          1
   112          1
   113          1
   115          8
   116          4
   117         14
   118         39
   119        999
   120         97
   121          4
   122          1
   125          1
   127          1
   128          2
   129          2
   130          1
   131          6
   132          2
   133          2
   134          1
   141          1
   142          1
   143          1
   144          1
   145          2
   146          1
   147          1
   153          2
   154          1
   155          1
   159          1
   161          1
   175          1
   210          1
   211          1
   231          1
   245          1
   285          1
   287          2
   288          1
   302         13
   303          4