##TITLE=Library Entry 65217
##JCAMP-DX=Revision 4.10 
##DATA TYPE=MASS SPECTRUM
##SAMPLE DESCRIPTION=NIST Mass Spectrometry Data Center, 1990.
##NAMES=HP
##CAS NAME=Benzene, nonadecyl-
##MOLFORM=C25H44
##CAS REGISTRY NO=29136-19-4
##MP= -300
##BP= -300
##MW= 344
##$RETENTION INDEX=0
##$CONDENSED SPECTRUM=NO
##NPOINTS= 48
##XYDATA=(XY..XY) 1 
    14          9
    27         24
    28          6
    29         70
    39         20
    40         11
    41        158
    42         36
    43        251
    44         11
    53          7
    54         10
    55        102
    56         29
    57        143
    65         29
    67         13
    69         41
    70         13
    71         52
    77         16
    78         26
    79         22
    80          7
    83         20
    85         29
    91        607
    92        999
    93         81
    94         20
    97         12
   103         12
   104         81
   105         83
   106         22
   115          7
   117         22
   118         11
   119         32
   120         13
   133        112
   134         42
   135          8
   147         21
   148         11
   161         10
   344        286
   345         76