##TITLE=Library Entry 15815
##JCAMP-DX=Revision 4.10 
##DATA TYPE=MASS SPECTRUM
##SAMPLE DESCRIPTION=Div. of Experiment Therapeutics WRAIR, WRAMC, Washingto
n DC 20307
##NAMES=HP
##CAS NAME=1-Methyl-1-phenyl-3-[2-hydroxyethyl]-2-thiourea
##MOLFORM=C10H14N2OS
##CAS REGISTRY NO=29146-61-0
##MP= -300
##BP= -300
##MW= 210
##$RETENTION INDEX=0
##$CONDENSED SPECTRUM=NO
##NPOINTS= 91
##XYDATA=(XY..XY) 1 
    42        344
    44        999
    45        219
    47         22
    49         38
    50        149
    51        412
    52         46
    53          3
    54         23
    56         86
    57         62
    58        122
    60         56
    61         16
    62         22
    63         58
    64         38
    65         77
    66         32
    67         30
    69         24
    70         22
    72         53
    74        346
    75         49
    77        777
    78         70
    79          9
    80          8
    81          3
    82         11
    83         12
    84         16
    86         16
    88         43
    90         14
    91        136
    93        758
    94         58
    96         42
    97          9
    99          1
   101         41
   103          5
   104        120
   105         18
   106         44
   108         14
   109        118
   110         15
   111          5
   115          5
   116          3
   118        113
   119         17
   120         25
   121          4
   123          4
   124          8
   125          7
   131         15
   133        169
   135        482
   136        117
   137         19
   138          5
   147          5
   148          1
   149          2
   150         36
   151          4
   163         10
   165        101
   166         30
   167         13
   168          1
   175         15
   176         34
   177         36
   178          5
   179          6
   180          4
   191         27
   192         38
   193          8
   194          1
   210        301
   211         34
   212          6
   213          1