##TITLE=Library Entry 79536
##JCAMP-DX=Revision 4.10 
##DATA TYPE=MASS SPECTRUM
##SAMPLE DESCRIPTION=Div. of Experiment Therapeutics WRAIR, WRAMC, Washingto
n DC 20307
##NAMES=HP
##CAS NAME=1-Benzoyl-3-[2-hydroxypropyl]-2-thiourea
##MOLFORM=C11H14N2O2S
##CAS REGISTRY NO=29146-66-5
##MP= -300
##BP= -300
##MW= 238
##$RETENTION INDEX=0
##$CONDENSED SPECTRUM=NO
##NPOINTS= 75
##XYDATA=(XY..XY) 1 
    41         23
    43         34
    44         17
    45         33
    47          9
    49         61
    51        137
    52          8
    53          2
    55          6
    56         18
    57         14
    58         26
    59          4
    60         24
    61          0
    62          2
    63          2
    65          2
    67          0
    69          5
    70          4
    72         20
    73          6
    74         17
    75          4
    77        422
    78         20
    79         32
    80          1
    82          1
    84         50
    86         37
    88          8
    89          1
    93          2
    96          2
    99         10
   100          0
   101          3
   102          2
   105        999
   106         62
   107          4
   109          9
   110          9
   111          0
   115          9
   117          2
   122        144
   123          9
   127          7
   132          3
   134          0
   151          3
   152          1
   164          1
   179          2
   181        198
   182         14
   183          7
   187          0
   193          1
   194          8
   203         10
   205         78
   206          8
   207          3
   219          0
   220         76
   221         15
   222          2
   238         81
   239         16
   240          5