##TITLE=Library Entry 66070
##JCAMP-DX=Revision 4.10 
##DATA TYPE=MASS SPECTRUM
##SAMPLE DESCRIPTION=Div. of Experiment Therapeutics WRAIR, WRAMC, Washingto
n DC 20307
##NAMES=HP
##CAS NAME=1-Phenyl-3-[2-hydroxypropyl]-2-thiourea
##MOLFORM=C10H14N2OS
##CAS REGISTRY NO=29146-64-3
##MP= -300
##BP= -300
##MW= 210
##$RETENTION INDEX=0
##$CONDENSED SPECTRUM=NO
##NPOINTS= 96
##XYDATA=(XY..XY) 1 
    41        208
    42         19
    43        121
    45        163
    46          1
    47          9
    49          0
    50         20
    51        310
    52         38
    53          7
    54         17
    55          2
    56         70
    57         52
    58         79
    59         20
    60        118
    61          2
    62         18
    63         31
    64         17
    65        118
    66         96
    67         12
    68          6
    69          9
    70          6
    72         88
    73         16
    74         58
    75         11
    77        510
    78         58
    79         11
    80          6
    82         31
    83          9
    84          6
    86          3
    88          5
    90          9
    91         25
    93        999
    94        200
    95         15
    96          1
    97          8
   100         31
   102          6
   104         43
   105          5
   106         28
   107          0
   108          1
   109        110
   110         40
   111          7
   117         11
   119        187
   120         12
   121          4
   123          2
   124          9
   125          6
   131         18
   132          7
   133         17
   136        256
   137         15
   138          9
   149          6
   151        422
   152        157
   153        298
   154         27
   155         11
   159         16
   161          1
   163          6
   165          5
   166          6
   175         10
   177         87
   178          8
   179          1
   191          1
   192        115
   193         15
   194          6
   195          0
   209          1
   210        290
   211         33
   212         16
   213          2