##TITLE=Library Entry 81278
##JCAMP-DX=Revision 4.10 
##DATA TYPE=MASS SPECTRUM
##SAMPLE DESCRIPTION=Chuck Anderson, Aldrich Chemical Co.
##NAMES=HP
##CAS NAME=Diethyl 2-(p-tolyl)malonate
##MOLFORM=C14H18O4
##CAS REGISTRY NO=29148-27-4
##MP= -300
##BP= -300
##MW= 250
##$RETENTION INDEX=0
##$CONDENSED SPECTRUM=NO
##NPOINTS= 82
##XYDATA=(XY..XY) 1 
    14          2
    15         15
    19          2
    26         22
    27        184
    28         48
    29        579
    30         20
    31         45
    36          4
    38          6
    39         44
    40          3
    41         15
    42          3
    43         20
    44         19
    45         30
    46          6
    50         22
    51         69
    52         27
    53         20
    55          2
    62         10
    63         38
    64          6
    65         43
    66          4
    74          8
    75         12
    76         17
    77        309
    78        160
    79         33
    87          2
    89         22
    90          4
    91        217
    92         14
    93        331
    94         21
   101          5
   102         45
   103        225
   104        232
   105        999
   106         78
   107         10
   115          8
   117         18
   118          2
   119         82
   120          4
   121        584
   122         41
   123          1
   131         32
   132        499
   133        128
   134         14
   135          1
   145          3
   147         15
   148          2
   149        623
   150        214
   151         18
   159          6
   160         14
   176         17
   177        597
   178        322
   179         35
   180          2
   204         38
   205         12
   206         15
   207          0
   250        367
   251         53
   252          6