##TITLE=Library Entry 79641
##JCAMP-DX=Revision 4.10 
##DATA TYPE=MASS SPECTRUM
##SAMPLE DESCRIPTION=Div. of Experiment Therapeutics WRAIR, WRAMC, Washingto
n DC 20307
##NAMES=HP
##CAS NAME=1-Benzoyl-3-[2-hydroxyethyl]-2-thiourea
##MOLFORM=C10H12N2O2S
##CAS REGISTRY NO=29146-60-9
##MP= -300
##BP= -300
##MW= 224
##$RETENTION INDEX=0
##$CONDENSED SPECTRUM=NO
##NPOINTS= 114
##XYDATA=(XY..XY) 1 
    41          6
    42         48
    43         96
    44         64
    45         48
    46          5
    47          3
    48          1
    49          1
    50         54
    51        198
    52         17
    53          4
    54          2
    55          5
    56          2
    57          7
    58          5
    59         15
    60        198
    61         10
    62          7
    63          4
    64          2
    65          7
    66          2
    68          1
    69         21
    70          3
    71          0
    72         23
    73          9
    74         15
    75         14
    76         37
    77        682
    78         53
    79         37
    80          2
    82          0
    84          0
    85         11
    86         21
    87         14
    88          1
    89          1
    90          4
    91          3
    92          2
    93         13
    94          1
    95          0
   100          6
   101         98
   102         10
   103         13
   104         28
   105        999
   106         98
   107          7
   108          1
   109         17
   110         21
   111          2
   112          0
   113          1
   118          4
   119         27
   120          6
   121          6
   122         91
   123          7
   130          0
   132          2
   133          0
   134          2
   135          1
   136          3
   137          2
   138          2
   139          2
   147          4
   148          1
   149          3
   151         10
   152          3
   153          0
   154          0
   161          1
   162          5
   163          3
   164          3
   165          5
   166          0
   179          7
   180         49
   181         30
   182          5
   183          1
   188          2
   189          1
   191          2
   193          1
   198          1
   205         71
   206        270
   207         70
   208         17
   209          3
   223          0
   224        178
   225         21
   226          8
   227          1