##TITLE=Library Entry 45271
##JCAMP-DX=Revision 4.10 
##DATA TYPE=MASS SPECTRUM
##SAMPLE DESCRIPTION=Japan AIST/NIMC Database- Spectrum MS-NW-6417
##NAMES=HP
##CAS NAME=Ethanol, 2-(trimethylsilyl)-
##MOLFORM=C5H14OSi
##CAS REGISTRY NO=2916-68-9
##MP= -300
##BP= -300
##MW= 118
##$RETENTION INDEX=0
##$CONDENSED SPECTRUM=NO
##NPOINTS= 43
##XYDATA=(XY..XY) 1 
    15          5
    16          1
    18          1
    26          2
    27          8
    28          6
    29         14
    30          1
    31          9
    32          1
    39          1
    41          1
    42          9
    43         44
    44         14
    45         44
    46          3
    47         57
    48          3
    49          1
    53          5
    54          1
    55          7
    56          1
    57          5
    58          5
    59         17
    60          5
    61         13
    62          1
    66          1
    70          1
    71          2
    72          8
    73        154
    74         14
    75        999
    76         74
    77         36
    78          1
    85          1
    87          1
   101          2