##TITLE=Library Entry 10048
##JCAMP-DX=Revision 4.10 
##DATA TYPE=MASS SPECTRUM
##SAMPLE DESCRIPTION=Japan AIST/NIMC Database- Spectrum MS-NW-1054
##NAMES=HP
##CAS NAME=1,3-Dioxolane, 2,2-dimethyl-
##MOLFORM=C5H10O2
##CAS REGISTRY NO=2916-31-6
##MP= -300
##BP= -300
##MW= 102
##$RETENTION INDEX=0
##$CONDENSED SPECTRUM=NO
##NPOINTS= 39
##XYDATA=(XY..XY) 1 
    13          1
    14         10
    15         67
    16          3
    17          3
    18         10
    25          1
    26         11
    27         42
    28         35
    29         42
    30          4
    31         34
    32          2
    37          2
    38          7
    39         58
    40         22
    41        109
    42        258
    43        999
    44         39
    45         27
    53          1
    55          2
    57         11
    58         31
    59         44
    60          2
    61         13
    72        151
    73         11
    83          2
    85          1
    86          2
    87        744
    88         33
    89          4
   101          4