##TITLE=Library Entry 15475
##JCAMP-DX=Revision 4.10 
##DATA TYPE=MASS SPECTRUM
##SAMPLE DESCRIPTION=Japan AIST/NIMC Database- Spectrum MS-NW-8437
##NAMES=HP
##CAS NAME=3-Hydroxy-N,N-dimethylpropanamide
##MOLFORM=C5H11NO2
##CAS REGISTRY NO=29164-29-2
##MP= -300
##BP= -300
##MW= 117
##$RETENTION INDEX=0
##$CONDENSED SPECTRUM=NO
##NPOINTS= 60
##XYDATA=(XY..XY) 1 
    13          1
    14          9
    15        125
    16          2
    17         25
    18          4
    25          1
    26          9
    27         68
    28         85
    29         57
    30         79
    31        168
    32          4
    38          1
    39          4
    40          9
    41         23
    42        218
    43        338
    44        999
    45        791
    46        238
    47          6
    52          2
    53          3
    54          5
    55        111
    56         40
    57          8
    58        224
    59          7
    60          1
    62          1
    68          3
    69          3
    70          8
    71         22
    72        408
    73        302
    74         32
    75          2
    82          1
    84          3
    86         17
    87        222
    88         12
    89          2
    93          1
    97          2
    98        134
    99         94
   100        143
   101          9
   102         22
   103          1
   116         29
   117        331
   118         46
   119          3