##TITLE=Library Entry 20018
##JCAMP-DX=Revision 4.10 
##DATA TYPE=MASS SPECTRUM
##SAMPLE DESCRIPTION=Chemical Concepts
##NAMES=HP
##CAS NAME=Carbonochloridic acid, 1,6-hexanediyl ester
##MOLFORM=C8H12Cl2O4
##CAS REGISTRY NO=2916-20-3
##MP= -300
##BP= -300
##MW= 242
##$RETENTION INDEX=0
##$CONDENSED SPECTRUM=NO
##NPOINTS= 88
##XYDATA=(XY..XY) 1 
    21          0
    22          0
    23          1
    25          1
    26         27
    27        235
    29         53
    30          7
    31         18
    35         29
    36        137
    37          9
    38         47
    39        225
    40         51
    41        790
    42        254
    43         80
    44        427
    45         15
    46          1
    49          4
    50         10
    51         17
    52         11
    53         69
    54        968
    55        999
    56        160
    57         18
    58          3
    59          0
    61          2
    62          6
    63        431
    64          7
    65        139
    66          9
    67        998
    68         65
    69         97
    70         10
    71          5
    72          0
    73          0
    74          1
    75          8
    76         30
    77         13
    78          8
    79         16
    80          5
    81         76
    82        291
    83        197
    84         14
    85          1
    89          7
    90         12
    91          5
    92          4
    93         36
    94          0
    95         10
    97          0
    98          2
    99          1
   100          1
   103          0
   105          0
   106          2
   107         11
   109          2
   116          0
   117          0
   118          3
   119          3
   120          2
   121         16
   122          1
   123          5
   127          4
   134         10
   135          1
   136          3
   137          0
   187          0
   207          1