##TITLE=Library Entry 35535
##JCAMP-DX=Revision 4.10 
##DATA TYPE=MASS SPECTRUM
##SAMPLE DESCRIPTION=A.A.Kutin, Moscow, Russia
##NAMES=HP
##CAS NAME=1-Hexadecyn-3-ol, 3,7,11,15-tetramethyl-
##MOLFORM=C20H38O
##CAS REGISTRY NO=29171-23-1
##MP= -300
##BP= -300
##MW= 294
##$RETENTION INDEX=2319
##$CONDENSED SPECTRUM=NO
##NPOINTS= 122
##XYDATA=(XY..XY) 1 
    33         25
    34          0
    38          1
    39         17
    40         32
    41         99
    43        265
    44          9
    45          3
    50          0
    51          3
    52          0
    53         12
    55        118
    56         46
    57        163
    58         19
    59          9
    60          0
    65          3
    66          7
    67         34
    69        999
    70         82
    71        121
    72          8
    73          6
    76          2
    77         14
    78          3
    79         35
    80         19
    81         72
    82         35
    83         85
    84        491
    85         74
    86          3
    87          0
    90          0
    91         17
    92         11
    93         71
    94         38
    95         76
    96         28
    97         58
    98         19
    99         11
   100          3
   101          0
   104          2
   105          8
   106          4
   107         36
   108         19
   109         49
   110         23
   111         46
   112         12
   113          9
   115          0
   116          1
   118          1
   119          6
   121         76
   122         42
   123         36
   124         10
   125         14
   126         12
   127          6
   133          4
   134          3
   135         46
   136         22
   137         11
   138          5
   139          6
   140          3
   141          5
   147          4
   149         24
   150         10
   151          6
   152          3
   153          2
   154          1
   155          2
   161          4
   163         16
   164          2
   166          1
   168          0
   169          0
   175          0
   177          1
   178          2
   179          3
   180          0
   181          0
   189          0
   191          5
   192          0
   193          1
   203          0
   205          1
   207          1
   210          1
   211          0
   221          0
   224          1
   225          2
   248          2
   250          2
   251          0
   260          0
   261          4
   262          0
   276          0
   279          3
   280          0