##TITLE=Library Entry 49158
##JCAMP-DX=Revision 4.10 
##DATA TYPE=MASS SPECTRUM
##SAMPLE DESCRIPTION=NIST Mass Spectrometry Data Center
##NAMES=HP
##CAS NAME=Bis(chloromethyl)dimethylsilane
##MOLFORM=C4H10Cl2Si
##CAS REGISTRY NO=2917-46-6
##MP= -300
##BP= -300
##MW= 156
##$RETENTION INDEX=0
##$CONDENSED SPECTRUM=NO
##NPOINTS= 84
##XYDATA=(XY..XY) 1 
    12          2
    13          7
    14         34
    15         64
    16          1
    18          1
    26         24
    27         95
    28         69
    29        133
    30         12
    31         15
    35          7
    36          8
    37          4
    38          4
    39         15
    41         50
    42         90
    43        260
    44         45
    45         19
    47         10
    49        111
    50          7
    51         34
    53         56
    54         14
    55         34
    56          5
    57         11
    58         24
    59          3
    60          2
    61          2
    63        299
    64         36
    65        153
    66         19
    67         24
    68          2
    69          1
    70          1
    71          4
    72         12
    75          2
    76         14
    77         42
    79        999
    80         88
    81        348
    82         21
    83         11
    87          1
    88          1
    89          1
    90          1
    91          4
    92          8
    93         28
    94          4
    95          9
    99         77
   100         10
   101         48
   102          3
   103         10
   104          1
   105          6
   107        592
   108         58
   109        202
   110         18
   111          8
   113        145
   114         15
   115         98
   116          7
   117         17
   118          1
   141         18
   142          2
   143         12
   145          2