##TITLE=Library Entry 19721
##JCAMP-DX=Revision 4.10 
##DATA TYPE=MASS SPECTRUM
##SAMPLE DESCRIPTION=Japan AIST/NIMC Database- Spectrum MS-NW-5329
##NAMES=HP
##CAS NAME=1-Hexadecanethiol
##MOLFORM=C16H34S
##CAS REGISTRY NO=2917-26-2
##MP= -300
##BP= -300
##MW= 258
##$RETENTION INDEX=0
##$CONDENSED SPECTRUM=NO
##NPOINTS= 169
##XYDATA=(XY..XY) 1 
    14          1
    15          2
    26          4
    27        124
    28         45
    29        321
    30          8
    31          2
    32         13
    33          3
    34          8
    35         14
    36          1
    37          1
    38          2
    39         96
    40         20
    41        783
    42        176
    43        986
    44         34
    45         29
    46         10
    47        155
    48          6
    49          8
    50          2
    51          4
    52          3
    53         48
    54        106
    55        999
    56        527
    57        917
    58         42
    59         11
    60         41
    61        119
    62          9
    63          7
    64          1
    65          8
    66         11
    67        147
    68        334
    69        878
    70        537
    71        423
    72         24
    73         12
    74          7
    75          9
    76          3
    77          6
    78          2
    79         11
    80          5
    81         69
    82        347
    83        965
    84        403
    85        240
    86         15
    87         33
    88         44
    89        234
    90         15
    91         21
    92          3
    93          5
    94          2
    95         30
    96        175
    97        738
    98        255
    99         59
   100          4
   101         13
   102          4
   103         31
   104          5
   105          7
   106          1
   107          2
   108          1
   109          9
   110         63
   111        376
   112        188
   113         36
   114          3
   115          5
   116          1
   117          5
   118          1
   119          2
   122          1
   123          6
   124         39
   125        190
   126        119
   127         22
   128          2
   129          3
   131          3
   132          1
   133          1
   135          2
   137          2
   138         25
   139         79
   140         85
   141         15
   142          1
   143          1
   145          2
   146          1
   147          1
   149          7
   150          1
   151          1
   152         14
   153         45
   154         59
   155         12
   156          1
   159          2
   166          9
   167         25
   168         47
   169          8
   170          1
   173          1
   180          5
   181         13
   182         21
   183          5
   185          1
   187          1
   194          5
   195         14
   196         86
   197         15
   198          1
   201          2
   202          2
   203          1
   209          1
   210          1
   211          1
   213          1
   215          1
   223          2
   224        219
   225         43
   226          4
   229          3
   230          4
   238          1
   243          1
   252          2
   254          1
   255          1
   256          2
   257         29
   258        102
   259         19
   260          7
   261          1