##TITLE=Library Entry 98916
##JCAMP-DX=Revision 4.10 
##DATA TYPE=MASS SPECTRUM
##SAMPLE DESCRIPTION=V.Zaikin,Inst.Petrochem.Synth.,RAS,Moscow
##NAMES=HP
##CAS NAME=6-Octen-1-yn-3-ol, 3,7-dimethyl-
##MOLFORM=C10H16O
##CAS REGISTRY NO=29171-20-8
##MP= -300
##BP= -300
##MW= 152
##$RETENTION INDEX=1091
##$CONDENSED SPECTRUM=NO
##NPOINTS= 89
##XYDATA=(XY..XY) 1 
    25          5
    26         26
    27        129
    28         26
    29         79
    31          6
    37          7
    38         19
    39        264
    40         72
    41        742
    42         52
    43        615
    44         18
    45         13
    49          3
    50         29
    51         71
    52         28
    53        170
    54         32
    55        648
    56        116
    57         28
    58         52
    59         24
    61          4
    62          8
    63         23
    64          6
    65         67
    66         50
    67        289
    68        123
    69        996
    70         62
    71        182
    72         19
    74          4
    75          3
    77        101
    78         36
    79        217
    80         37
    81        119
    82         76
    83        187
    84         52
    85          8
    86         10
    89          4
    90          3
    91        384
    92        141
    93        125
    94        115
    95        149
    96         19
    97         16
   102          4
   103         42
   104         41
   105        113
   106         50
   107         36
   108         37
   109        260
   110         37
   111         18
   115         18
   116          5
   117         69
   118         15
   119        999
   120         92
   121         27
   122          9
   123         60
   124         15
   126          3
   131          3
   133         51
   134         60
   135         15
   136          4
   137        469
   138         47
   139          3
   151          5