##TITLE=Library Entry 3744
##JCAMP-DX=Revision 4.10 
##DATA TYPE=MASS SPECTRUM
##SAMPLE DESCRIPTION=NIST Mass Spectrometry Data Center
##NAMES=HP
##CAS NAME=2-Propenamide, N-cyclohexyl-2-methyl-
##MOLFORM=C10H17NO
##CAS REGISTRY NO=2918-67-4
##MP= -300
##BP= -300
##MW= 167
##$RETENTION INDEX=0
##$CONDENSED SPECTRUM=NO
##NPOINTS= 76
##XYDATA=(XY..XY) 1 
    15         29
    17          1
    18          8
    26         14
    27        120
    28        202
    29         86
    30         44
    32          1
    37          6
    39        404
    41        999
    42        104
    43         99
    44         35
    46          1
    50          4
    51         13
    52          9
    53         43
    54         76
    55        146
    56         62
    58        135
    59          5
    63          1
    65          9
    67        111
    69        900
    70         68
    71          7
    72          2
    73         28
    74          1
    76          2
    77         10
    78          2
    79         18
    80          7
    81         34
    82         87
    83         57
    84         12
    86        987
    87         50
    88          3
    92          2
    93          2
    94          5
    95          8
    96         37
    97         35
    98        111
    99         13
   107          1
   108          2
   110        116
   111         14
   112         10
   113          1
   121          1
   122          2
   124        149
   125         17
   126          7
   135          1
   136          1
   138         10
   139         11
   140          1
   150          1
   152         20
   153          1
   167        205
   168         25
   169          1