##TITLE=Library Entry 70466
##JCAMP-DX=Revision 4.10 
##DATA TYPE=MASS SPECTRUM
##SAMPLE DESCRIPTION=J.E. WILKINSON S-CUBED, SAN DIEGO, CA.
##NAMES=HP
##CAS NAME=Chlorothiophos sulfoxide 2,5 isomer
##MOLFORM=C11H15Cl2O4PS2
##CAS REGISTRY NO=29185-21-5
##MP= -300
##BP= -300
##MW= 376
##$RETENTION INDEX=0
##$CONDENSED SPECTRUM=NO
##NPOINTS= 227
##XYDATA=(XY..XY) 1 
    40          1
    41          0
    43         20
    44          1
    45        113
    46          4
    47        159
    48          0
    51          1
    53         19
    57          0
    58          0
    59          6
    60         10
    61         20
    62         43
    63         76
    64          1
    65        191
    69         32
    70          0
    71          1
    72          4
    73         30
    74         18
    75         13
    76          0
    79         34
    80         19
    81         69
    82          4
    84          6
    85         16
    86          1
    87          3
    88          2
    89          3
    90          1
    91         22
    92          0
    93         63
    94          1
    95          6
    96         23
    97        999
    98          8
    99         59
   100          0
   101          1
   103          5
   104          2
   105          5
   106          4
   107          7
   108          9
   109        228
   110          3
   111         11
   112          1
   113         10
   114          3
   115          6
   116          1
   117         19
   118          3
   119          5
   120          3
   121         19
   122          0
   123          5
   125        435
   126         11
   127         15
   129         23
   133          7
   136          1
   137         41
   138          1
   139          1
   140          0
   141          7
   142          2
   143          4
   144          6
   145         14
   148          2
   149          8
   151          4
   152          4
   153        224
   154         10
   155          7
   157         11
   158          7
   159          4
   160          6
   161          5
   162          1
   164          6
   165          2
   166          7
   168          0
   169          1
   171          1
   172          0
   173         15
   174          2
   175          9
   176          2
   177         22
   179         17
   182          1
   183          2
   185          0
   187          8
   188          0
   189          8
   190          2
   192         10
   193         15
   195          4
   196          1
   197          2
   203          0
   204          2
   205          7
   206          9
   207         43
   208         26
   209        186
   210         25
   211        109
   212          1
   213         10
   214          0
   217          0
   219          1
   220          0
   221          6
   222         21
   223          7
   224         22
   225         16
   226          6
   227          3
   228          2
   229          1
   235          1
   236          1
   237          5
   238          2
   239          3
   240          6
   241          1
   242          1
   243          0
   244          0
   250          3
   251          0
   252          2
   253          4
   254          2
   255         15
   256         16
   257         15
   258          7
   259          1
   260          1
   261          0
   265          0
   268          4
   269         32
   270         21
   271         21
   272          5
   273          1
   274          1
   275          0
   278          5
   280          1
   285        275
   286         23
   287        120
   288         12
   289         10
   292          1
   296          0
   297          5
   298          0
   299          2
   300          0
   301          0
   302          0
   303         21
   304          4
   305         17
   307          2
   308          0
   309          0
   313        106
   314          9
   315         42
   319          2
   321          0
   325          7
   326          3
   327          1
   328          1
   331          3
   333         14
   334          0
   335          8
   337          0
   341        348
   342         43
   343        141
   344         12
   345          5
   346          0
   347          0
   360          0
   361         15
   362          1
   363         11
   364          0
   365          1
   377          1