##TITLE=Library Entry 73693
##JCAMP-DX=Revision 4.10 
##DATA TYPE=MASS SPECTRUM
##SAMPLE DESCRIPTION=Div. of Experiment Therapeutics WRAIR, WRAMC, Washingto
n DC 20307
##NAMES=HP
##CAS NAME=4-Bromo-5-[2-morpholinoethyl]amino veratrole
##MOLFORM=C14H21BrN2O3
##CAS REGISTRY NO=29194-86-3
##MP= -300
##BP= -300
##MW= 344
##$RETENTION INDEX=0
##$CONDENSED SPECTRUM=NO
##NPOINTS= 154
##XYDATA=(XY..XY) 1 
    41         34
    42        170
    43         29
    44         15
    45          7
    47         15
    48          7
    49          5
    50         14
    51          2
    52         15
    53         10
    54         23
    55         37
    56        121
    57         17
    58          3
    61          0
    62          3
    63          8
    64          6
    65         14
    66          7
    67          3
    68         10
    69          5
    70         53
    71          9
    72         20
    74          1
    75          3
    76          5
    77         16
    78         13
    79         16
    80          4
    81          2
    82          5
    83          4
    84          1
    85          2
    86          1
    87          2
    88          2
    89          1
    90          4
    91          8
    92         14
    93         12
    94          8
    95          5
    96          0
    98         15
   100        999
   101         71
   102          4
   103          1
   104         13
   105          5
   106         17
   107         10
   108          7
   109          4
   110          2
   112          7
   113          7
   114          8
   116          2
   117          4
   118          2
   119          5
   120         16
   121         13
   122         16
   123          2
   125          1
   129          2
   131          3
   132          3
   133          2
   134          6
   135          5
   136         11
   137          1
   138          3
   143          2
   145          0
   147          3
   148          3
   149          7
   150         61
   151         10
   152          3
   153          2
   157          6
   158          1
   159          5
   160          0
   162          2
   163          1
   164         15
   165         36
   166          7
   170          0
   172          2
   173          3
   175          2
   177          2
   178          5
   179          3
   180          0
   183          0
   184          0
   185          3
   186          2
   187          2
   188          4
   190          3
   198          2
   199          5
   200         16
   201          6
   202         13
   203          5
   205          4
   207          1
   212          0
   214          3
   215          2
   216          3
   218          0
   228         22
   229          4
   230         27
   231          5
   232          5
   234          0
   242          6
   243         71
   244        126
   245         80
   246        121
   247         10
   257          1
   258          2
   259          0
   260          2
   265         61
   266          9
   344        178
   345         32
   346        179
   347         30
   348          2