##TITLE=Library Entry 48063
##JCAMP-DX=Revision 4.10 
##DATA TYPE=MASS SPECTRUM
##SAMPLE DESCRIPTION=PYTCAS 20(11) 2521(1981); R GMELIN ET AL
##NAMES=HP
##CAS NAME=1,2,4,6-Tetrathiepane
##MOLFORM=C3H6S4
##CAS REGISTRY NO=292-45-5
##MP= -300
##BP= -300
##MW= 170
##$RETENTION INDEX=1483
##$CONDENSED SPECTRUM=NO
##NPOINTS= 10
##XYDATA=(XY..XY) 1 
    45        700
    46        470
    60        350
    64        110
    78        999
    93        100
   105         40
   124        600
   137         60
   170        600