##TITLE=Library Entry 81087
##JCAMP-DX=Revision 4.10 
##DATA TYPE=MASS SPECTRUM
##SAMPLE DESCRIPTION=LAC, NIDDK, NIH, Bethesda, MD 20892
##NAMES=HP
##CAS NAME=Phenylacetic acid, 2,.alpha.,.alpha.-trimethyl-
##MOLFORM=C11H14O2
##CAS REGISTRY NO=29205-99-0
##MP= -300
##BP= -300
##MW= 178
##$RETENTION INDEX=0
##$CONDENSED SPECTRUM=NO
##NPOINTS= 101
##XYDATA=(XY..XY) 1 
    41        367
    43        162
    44          8
    45        260
    46          7
    47         10
    48          4
    49          4
    50         51
    51        162
    52         39
    53         53
    54          5
    55         27
    56          5
    57         22
    58         32
    59          8
    60          4
    61          4
    62         28
    63        122
    64         40
    65        212
    66         18
    67          8
    68          1
    73          6
    74         17
    75         21
    76         18
    77        211
    78         64
    79         77
    80          6
    81          3
    82          1
    83          1
    87          9
    88          7
    89         62
    90          5
    91        601
    92         60
    93        163
    94         11
    95          2
    96          0
    97          3
    98          2
    99          3
   100          0
   101          6
   102         25
   103         70
   105        999
   106         72
   107          8
   108          2
   109          3
   110          1
   111          1
   113          3
   114          1
   115        226
   116         54
   117        233
   118         55
   119        419
   120         36
   121          9
   122         18
   123          2
   126          2
   127          9
   128         16
   129         14
   130          3
   131         34
   132         46
   133        798
   134         75
   135         10
   136         39
   137          3
   139          1
   141          1
   143          3
   145         21
   146          4
   147          2
   159          0
   160          2
   161          1
   162          3
   163         24
   164          2
   177          2
   178        338
   179         36
   180          3