##TITLE=Library Entry 54929
##JCAMP-DX=Revision 4.10 
##DATA TYPE=MASS SPECTRUM
##SAMPLE DESCRIPTION=Exported from NIST MS Search
##NAMES=HP
##CAS NAME=5,10-Tetradecanedione
##MOLFORM=C14H26O2
##CAS REGISTRY NO=29210-62-6
##MP= -300
##BP= -300
##MW= 226
##$RETENTION INDEX=0
##$CONDENSED SPECTRUM=NO
##NPOINTS= 73
##XYDATA=(XY..XY) 1 
    41        450
    42         80
    43        230
    44         20
    54         40
    55        300
    56         70
    57        900
    58        280
    59         50
    60         20
    67        120
    68         20
    69         90
    70         20
    71         90
    72         60
    73         30
    81        160
    82         30
    83         60
    84        380
    85        999
    86         70
    87         20
    95         40
    97         40
    98         30
   100         70
   101         60
   102         10
   109         50
   110         10
   111        130
   112         20
   113        130
   114         30
   115         20
   123        220
   124         50
   126        400
   127        100
   128         20
   129         40
   131         20
   135         30
   137         20
   139         20
   141         30
   142         40
   143         20
   144         10
   151         50
   152         10
   155         10
   156         10
   157         20
   158         30
   166         10
   167         10
   168         10
   169         50
   170         10
   172         20
   179         10
   184        100
   185         20
   197         20
   198         20
   200         10
   208         10
   226         30
   227         10