##TITLE=Library Entry 58700
##JCAMP-DX=Revision 4.10 
##DATA TYPE=MASS SPECTRUM
##SAMPLE DESCRIPTION=A.A.Kutin, Moscow, Russia
##NAMES=HP
##CAS NAME=5-(2-Iodo-benzylidene)-2-thioxo-imidazolidin-4-one
##MOLFORM=C10H7IN2OS
##CAS REGISTRY NO=292168-67-3
##MP= -300
##BP= -300
##MW= 330
##$RETENTION INDEX=0
##$CONDENSED SPECTRUM=NO
##NPOINTS= 109
##XYDATA=(XY..XY) 1 
    37         12
    38         25
    39        108
    40         21
    41         24
    42        108
    43         41
    44         51
    45         34
    46          8
    47          4
    49          8
    50         63
    51         47
    52          6
    53         11
    55          6
    56          3
    57         21
    58         10
    59          9
    60         10
    61         28
    62         75
    63        207
    64         18
    65          9
    66         50
    68          5
    69         99
    70         13
    71         10
    72          3
    73         13
    74         60
    75         57
    76         20
    77         11
    79          3
    81         33
    82         39
    83         14
    84          6
    85          9
    86         16
    87         26
    88         39
    89        999
    90         90
    91          9
    92          5
    93         74
    94          8
    95          7
    97          4
    98         12
    99          6
   100          7
   101         27
   102         10
   103          3
   104          3
   105         11
   106         23
   107          9
   108          4
   114          2
   115          2
   116          9
   117          3
   121          7
   127         64
   128         53
   129          3
   130         27
   132         75
   133        532
   134         74
   135         37
   136          4
   148          2
   149         36
   150          3
   159          5
   160          6
   161         68
   162          9
   163          3
   171          3
   176         19
   177          3
   201         11
   203        887
   204        116
   205         51
   206          5
   212          3
   214          3
   217          3
   254          2
   257          4
   258          5
   260        349
   261         31
   262         16
   287          3
   330        176
   331         20
   332          8