##TITLE=Library Entry 10769
##JCAMP-DX=Revision 4.10 
##DATA TYPE=MASS SPECTRUM
##SAMPLE DESCRIPTION=Exported from NIST MS Search
##NAMES=HP
##CAS NAME=2,7-Octanedione, 4,5-diisopropyl-
##MOLFORM=C14H26O2
##CAS REGISTRY NO=29210-63-7
##MP= -300
##BP= -300
##MW= 226
##$RETENTION INDEX=0
##$CONDENSED SPECTRUM=NO
##NPOINTS= 72
##XYDATA=(XY..XY) 1 
    41        150
    42         20
    43        999
    44         20
    45         10
    53         30
    54         10
    55         80
    56         20
    57         20
    58         20
    59         20
    67         30
    68         10
    69        100
    70         20
    71        100
    77         20
    79         30
    80         10
    81         40
    83         70
    85         20
    91         20
    93         20
    95         40
    96         20
    97         40
    98         10
    99         20
   101        999
   102         20
   106         20
   107         80
   109         40
   110         40
   111        100
   112         30
   113        730
   114         90
   115         20
   121         40
   122         10
   123        220
   124         30
   125         90
   126         30
   135         20
   139         20
   140         20
   141         10
   147         20
   150         20
   151         40
   153         30
   164         20
   165        150
   166         30
   167         30
   168        130
   169        100
   170         20
   183         40
   185          5
   193         10
   194          2
   208         15
   209          4
   211         10
   212          2
   226          5
   227          1