##TITLE=Library Entry 8908
##JCAMP-DX=Revision 4.10 
##DATA TYPE=MASS SPECTRUM
##SAMPLE DESCRIPTION=Chemical Concepts
##NAMES=HP
##CAS NAME=2,6-Heptanedione, 3-acetyl-
##MOLFORM=C9H14O3
##CAS REGISTRY NO=29214-57-1
##MP= -300
##BP= -300
##MW= 170
##$RETENTION INDEX=0
##$CONDENSED SPECTRUM=NO
##NPOINTS= 87
##XYDATA=(XY..XY) 1 
    25          0
    26          3
    27         37
    29         10
    31          4
    33          0
    37          0
    38          1
    39         30
    41         26
    42         14
    43        999
    44         24
    45          6
    46          0
    50          1
    51          2
    52          1
    53         12
    54          1
    55         37
    56          2
    57          3
    58        116
    59          5
    60          0
    61          1
    63          0
    64          0
    65          2
    66          2
    67         15
    68          3
    69         13
    70          9
    71        290
    72         16
    73          1
    77          0
    78          0
    79          0
    81          6
    82          1
    83          9
    84          3
    85         74
    86         10
    87          0
    91          1
    93          0
    94          0
    95         89
    96          7
    97          4
    98          0
    99          0
   100         19
   101          3
   107          0
   108          0
   109         33
   110        113
   111         11
   112          1
   113         74
   114          5
   115          1
   119          1
   124          0
   125          1
   126          0
   127         51
   128         94
   129          7
   130          0
   134          0
   135          0
   137          7
   138          0
   144          0
   151          0
   152         10
   153          1
   155          0
   170         25
   171          2
   172          0