##TITLE=Library Entry 3667
##JCAMP-DX=Revision 4.10 
##DATA TYPE=MASS SPECTRUM
##SAMPLE DESCRIPTION=D.HENNEBERG, MAX-PLANCK INSTITUTE, MULHEIM, WEST GERMAN
Y
##NAMES=HP
##CAS NAME=2,3-Hexadiene, 2-methyl-
##MOLFORM=C7H12
##CAS REGISTRY NO=29212-09-7
##MP= -300
##BP= -300
##MW= 96
##$RETENTION INDEX=0
##$CONDENSED SPECTRUM=NO
##NPOINTS= 73
##XYDATA=(XY..XY) 1 
    23          0
    25          4
    26         34
    27        371
    28         66
    29        177
    30          4
    31          2
    33          0
    34          0
    35          3
    36          1
    37         27
    38         50
    39        603
    40        100
    41        999
    42         97
    43         66
    44         11
    45         10
    46          8
    47          3
    48          2
    49         11
    50         81
    51        172
    52         71
    53        530
    54        180
    55        340
    56         86
    57         10
    58          4
    59          2
    60          1
    61         10
    62         24
    63         52
    64          9
    65        157
    66         78
    67        637
    68         78
    69         66
    70          4
    71          1
    72          1
    73          5
    74         12
    75         22
    76          4
    77        171
    78         30
    79        429
    80         57
    81        858
    82         56
    83          2
    84         20
    85          4
    86          2
    87          0
    89          1
    90          0
    91         26
    92          4
    93         18
    94         23
    95         48
    96        706
    97         55
    98          1