##TITLE=Library Entry 11982
##JCAMP-DX=Revision 4.10 
##DATA TYPE=MASS SPECTRUM
##SAMPLE DESCRIPTION=Japan AIST/NIMC Database- Spectrum MS-IW-2807
##NAMES=HP
##CAS NAME=2-Butenoic acid, 3-(acetyloxy)-, ethyl ester
##MOLFORM=C8H12O4
##CAS REGISTRY NO=29214-62-8
##MP= -300
##BP= -300
##MW= 172
##$RETENTION INDEX=0
##$CONDENSED SPECTRUM=NO
##NPOINTS= 85
##XYDATA=(XY..XY) 1 
    13          2
    14         11
    15         59
    16          4
    17          1
    18          3
    25          2
    26         13
    27         69
    28         24
    29        174
    30          5
    31         35
    37          2
    38          5
    39         17
    40          7
    41         19
    42         85
    43        999
    44         42
    45        106
    46          7
    47          1
    50          1
    51          2
    52          2
    53          5
    55          7
    56          9
    57          3
    58         43
    59          5
    60        144
    61         46
    62          2
    63          2
    65          2
    66          1
    67          2
    68          4
    69         94
    70         22
    71          9
    73         17
    74          1
    77          2
    80          1
    81         17
    82          1
    84        150
    85        359
    86         26
    87         78
    88        191
    89         11
    90          1
    91          2
    94          1
    95          1
    98          2
    99          1
   101          5
   102         88
   103          9
   104          1
   105          1
   109         44
   110          3
   112          1
   113          5
   115         52
   116          3
   124         48
   125          4
   126          1
   127         60
   128          5
   129          1
   130        367
   131         25
   132          3
   138          1
   144          3
   172          1