##TITLE=Library Entry 70598
##JCAMP-DX=Revision 4.10 
##DATA TYPE=MASS SPECTRUM
##SAMPLE DESCRIPTION=MASS SPECTROMETRY CENTER, UNIV. OF UTAH EPA-PTSEL 2900
##NAMES=HP
##CAS NAME=Chlorpyrifos
##MOLFORM=C9H11Cl3NO3PS
##CAS REGISTRY NO=2921-88-2
##MP= -300
##BP= -300
##MW= 349
##$RETENTION INDEX=1973
##$CONDENSED SPECTRUM=NO
##NPOINTS= 167
##XYDATA=(XY..XY) 1 
    15         46
    26         55
    27        357
    29        733
    30         19
    31          7
    34          2
    35          9
    36         35
    37         31
    38         15
    42          6
    43         60
    44         12
    45         95
    47        211
    48         23
    49         29
    53         17
    59         17
    60         42
    61         16
    62         37
    63        127
    64         10
    65        266
    69          2
    71         17
    72         49
    73         20
    74         26
    75         32
    76          6
    79         37
    80         56
    81         82
    82          7
    83         19
    84         19
    85         15
    86         12
    91         18
    93         76
    94          6
    96         46
    97        999
    98        173
    99         81
   100         59
   101          2
   106          7
   107        120
   108         34
   109        213
   110         42
   111         21
   112          6
   113         10
   114         39
   115         18
   119         17
   121         54
   123         12
   125        308
   126         14
   127         21
   130         16
   132         11
   133         59
   134         55
   135         44
   136         34
   137         18
   141         16
   142         51
   144         39
   145         17
   146         25
   147         11
   148          2
   153         62
   161         53
   162         34
   163         36
   164         24
   165         13
   166         13
   168         89
   169         95
   170         89
   171         93
   172         34
   173         32
   178          4
   180         69
   182         59
   184         19
   194         12
   196         13
   197        905
   198        112
   199        884
   200        112
   201        283
   202         42
   203         35
   204          2
   207         42
   208        224
   209         68
   210        220
   211         40
   212         99
   213        162
   214         42
   215        163
   216         19
   217         58
   219          6
   224         14
   226         12
   228         10
   240          3
   241         14
   242          2
   243         19
   244         81
   245         14
   246         67
   248         29
   257         37
   258        260
   259         44
   260        195
   261         23
   262         55
   272          6
   274          3
   276         70
   277         13
   278         68
   279          3
   280         26
   285         14
   286        206
   287         31
   288        173
   289         19
   290         60
   292         43
   294         38
   296         16
   304         32
   306         33
   308         12
   314        474
   315         63
   316        345
   317         40
   318         85
   319         10
   320         11
   349         65
   350          6
   351         67
   352          3
   353         24