##TITLE=Library Entry 38468
##JCAMP-DX=Revision 4.10 
##DATA TYPE=MASS SPECTRUM
##SAMPLE DESCRIPTION=Chemical Concepts
##NAMES=HP
##CAS NAME=7-Octene-2,6-diol, 2,6-dimethyl-
##MOLFORM=C10H20O2
##CAS REGISTRY NO=29210-77-3
##MP= -300
##BP= -300
##MW= 172
##$RETENTION INDEX=1237
##$CONDENSED SPECTRUM=NO
##NPOINTS= 95
##XYDATA=(XY..XY) 1 
    23          0
    25          1
    26          8
    27         95
    28         10
    29         65
    30          1
    31         88
    33          0
    34          0
    37          1
    38          3
    39         66
    40         18
    41        215
    42         33
    43        579
    44         16
    45         26
    48          1
    49          1
    50          3
    51         12
    52          4
    53         52
    54         13
    55        123
    56        370
    57         55
    58         49
    59        379
    60         11
    61          3
    62          1
    63          1
    64          1
    65         10
    66          5
    67        104
    68        445
    69        237
    70         29
    71        999
    72         58
    73          5
    74          1
    77         10
    78          1
    79         55
    80         13
    81        349
    82         43
    83         74
    84         74
    85         28
    86          6
    87          1
    89         20
    90          1
    91          8
    92          4
    93         69
    94         10
    95         37
    96         54
    97         31
    98         19
    99          5
   101          3
   103          0
   105          3
   106          1
   107          9
   108         27
   109         44
   110          8
   111         26
   112          3
   113          1
   116          0
   119          0
   121        100
   122         14
   123          2
   125          2
   126         24
   127         12
   128          1
   129          1
   136          9
   137          6
   138          0
   139         57
   140          5
   154          3