##TITLE=Library Entry 10787
##JCAMP-DX=Revision 4.10 
##DATA TYPE=MASS SPECTRUM
##SAMPLE DESCRIPTION=Japan AIST/NIMC Database- Spectrum MS-NW-3503
##NAMES=HP
##CAS NAME=n-Hexylacetoacetic acid ethyl ester
##MOLFORM=C12H22O3
##CAS REGISTRY NO=29214-60-6
##MP= -300
##BP= -300
##MW= 214
##$RETENTION INDEX=0
##$CONDENSED SPECTRUM=NO
##NPOINTS= 141
##XYDATA=(XY..XY) 1 
    14          3
    15         35
    16          2
    17          2
    18          7
    25          1
    26         16
    27        159
    28         32
    29        233
    30          7
    31         68
    32          8
    37          1
    38          5
    39         72
    40         15
    41        182
    42         50
    43        999
    44         29
    45         59
    46         12
    47          2
    50          4
    51          8
    52          4
    53         24
    54         13
    55        224
    56         37
    57         62
    58         70
    59         19
    60         36
    61         23
    62          1
    63          3
    65          5
    66          4
    67         35
    68         16
    69         59
    70         41
    71         88
    72          9
    73        454
    74         30
    75          6
    77          6
    78          2
    79         10
    80          5
    81         19
    82         51
    83         63
    84        140
    85        105
    86         30
    87         41
    88        105
    89         13
    90          2
    91          4
    92          1
    93          8
    94          2
    95         14
    96          5
    97        106
    98         65
    99         16
   100          6
   101        849
   102        165
   103         37
   104          4
   105          2
   106          1
   107         10
   108          6
   109          7
   110          3
   111         27
   112          7
   113         13
   114          5
   115        110
   116         13
   117          3
   118          1
   119          1
   120          1
   121          3
   122          3
   123          5
   124          4
   125         60
   126         75
   127         65
   128          9
   129        157
   130        573
   131         73
   132          8
   133          1
   135          4
   137          2
   138          1
   139          8
   140          7
   141          3
   142          4
   143        172
   144         22
   145          9
   146          1
   149          2
   150          3
   151          1
   152          1
   153          9
   154          2
   155          1
   157         21
   158          3
   165          1
   167          3
   168          4
   169         92
   170         12
   171         19
   172        328
   173         40
   174          4
   185         26
   186          5
   196          1
   199          4
   214          8
   215          2