##TITLE=Library Entry 26648
##JCAMP-DX=Revision 4.10 
##DATA TYPE=MASS SPECTRUM
##SAMPLE DESCRIPTION=V.Zaikin,Inst.Petrochem.Synth.,RAS,Moscow
##NAMES=HP
##CAS NAME=Octanoic acid, 2-bromo-4-fluorophenyl ester
##MOLFORM=C14H18BrFO2
##CAS REGISTRY NO=2923-78-6
##MP= -300
##BP= -300
##MW= 316
##$RETENTION INDEX=0
##$CONDENSED SPECTRUM=NO
##NPOINTS= 120
##XYDATA=(XY..XY) 1 
    25          2
    26         17
    27        147
    28         30
    29        198
    30          5
    39         98
    40         24
    41        311
    42        115
    43        444
    44         11
    50         16
    51         23
    52          9
    53         27
    54         15
    55        325
    56         61
    57        999
    58         43
    59         10
    60         96
    61         14
    62          4
    63         22
    64          8
    65         10
    66          5
    67         32
    68         10
    69         49
    70         22
    71         22
    72          2
    73         62
    74         10
    75          6
    76          4
    77         20
    78          5
    79         32
    80         11
    81         37
    82         69
    83         61
    84         34
    85         26
    86          3
    87          9
    89          2
    90          2
    91          6
    92          6
    93          6
    94         44
    95         13
    96          5
    97         24
    98         47
    99          6
   101         16
   102          5
   103          3
   104          2
   105         10
   106          3
   107          2
   108         22
   109         39
   110         29
   111         18
   112          3
   113          5
   115          9
   116          2
   117          3
   119          5
   121          3
   122          4
   123          3
   124          5
   125          8
   126          9
   127        578
   128         69
   129          5
   130         11
   131          2
   133          6
   134          3
   135          6
   137          6
   139          3
   141          3
   144          3
   147          2
   150          5
   151         18
   152         10
   153         13
   161         22
   163         19
   164         13
   165          3
   173          5
   175          6
   178          2
   183          2
   186          2
   189          9
   190         54
   191          9
   192         48
   193         13
   220          3
   232          2
   234          5
   316          5
   318          5