##TITLE=Library Entry 34732
##JCAMP-DX=Revision 4.10 
##DATA TYPE=MASS SPECTRUM
##SAMPLE DESCRIPTION=V.G.Zaikin, TIPS, Russian Acad. Sci.
##NAMES=HP
##CAS NAME=4-(2,4-Dimethylcyclohexyl)butan-2-one
##MOLFORM=C12H22O
##CAS REGISTRY NO=29230-18-0
##MP= -300
##BP= -300
##MW= 182
##$RETENTION INDEX=0
##$CONDENSED SPECTRUM=NO
##NPOINTS= 66
##XYDATA=(XY..XY) 1 
    41        830
    42        140
    43        970
    44         60
    45         50
    51         10
    52          5
    53        170
    54        100
    55        950
    56        130
    57        180
    58        500
    59        130
    65         45
    66         20
    67        480
    68        340
    69        999
    70        125
    71        450
    72        150
    78         10
    79        120
    80         45
    81        560
    82        670
    83        265
    84         40
    85         30
    91         55
    92         20
    93        175
    94        125
    95        550
    96        215
    97         65
    98         30
    99         20
   106         25
   107        190
   108        220
   109        690
   110        120
   111        230
   112         30
   122        270
   123        130
   124        710
   125        360
   126         30
   134         75
   135         20
   136         30
   137         10
   149        470
   150         60
   151         20
   163         40
   164        370
   165         60
   166         20
   167         65
   182        330
   183         44
   184          3