##TITLE=Library Entry 14987
##JCAMP-DX=Revision 4.10 
##DATA TYPE=MASS SPECTRUM
##SAMPLE DESCRIPTION=Div. of Experiment Therapeutics WRAIR, WRAMC, Washingto
n DC 20307
##NAMES=HP
##CAS NAME=Quinoline, 6,8-dichloro-4-bromoacetyl-2-(3-acetoxyphenyl)-
##MOLFORM=C19H12BrCl2NO3
##CAS REGISTRY NO=29240-72-0
##MP= -300
##BP= -300
##MW= 451
##$RETENTION INDEX=0
##$CONDENSED SPECTRUM=NO
##NPOINTS= 231
##XYDATA=(XY..XY) 1 
    41          8
    43        999
    44         16
    45          5
    47          8
    48          3
    49          4
    50         13
    51          2
    52          4
    53          5
    55          6
    57          2
    62         15
    63         58
    64         29
    65         25
    67          1
    73          9
    74         26
    75         18
    76          7
    77          6
    79         22
    80         40
    81         14
    82         43
    84          3
    85          5
    86         27
    87         19
    88         12
    89          5
    90          4
    91          6
    92          4
    93         12
    94          5
    95          9
    97          5
    98         36
    99         36
   100          5
   101         11
   102          1
   105          2
   106          2
   107          1
   108          8
   109         10
   110          5
   111         11
   112         12
   113         16
   114          5
   118          4
   119         16
   120          2
   121          8
   123         10
   124          8
   125          1
   126          6
   127          3
   129          3
   131          3
   133         37
   134         18
   135         16
   136          7
   137          5
   138          5
   139          4
   144          1
   145          2
   147          9
   148         14
   149          7
   150          8
   151          5
   152          3
   158          2
   159          4
   160          3
   161          8
   162         11
   163         11
   164          7
   169          5
   171          5
   173          3
   174         11
   175          9
   176         11
   177          6
   184          2
   185          4
   186          4
   187          7
   188         53
   189         36
   190         37
   191          5
   196          7
   197          7
   198         11
   199          7
   200          7
   201         17
   202         17
   203         20
   204         12
   205          3
   208          1
   212          4
   214          6
   217         12
   218          5
   222          3
   223          9
   224         81
   225         33
   226         29
   227          9
   230          6
   231          7
   232         13
   233          3
   234          1
   235          5
   236          6
   237         10
   238         18
   239          9
   240          3
   241          7
   250          1
   252          9
   253         77
   254         15
   255         25
   256          5
   258          8
   259         28
   260         14
   261         17
   262          5
   263          2
   266         10
   267         19
   268          4
   269          9
   271          5
   272         13
   273          7
   274         13
   275          5
   276          4
   285          4
   287         13
   288         98
   289         33
   290         68
   291         18
   292         11
   294          6
   295         25
   296          9
   297          9
   300          2
   301         11
   302         27
   303         33
   304         22
   305         20
   306          6
   307          4
   315          1
   316        202
   317         33
   318        141
   319         23
   320         24
   321          4
   329          5
   330         26
   331         49
   332         20
   333         29
   334          7
   335          6
   346          2
   347          6
   349          2
   358          1
   365         17
   367         20
   368          2
   369          6
   373          8
   374          2
   375          6
   380          4
   381         15
   382          7
   383         21
   384          6
   385         10
   389         15
   390          3
   391         11
   392          1
   407          4
   408          7
   409        166
   410         40
   411        278
   412         49
   413        116
   414         15
   415         16
   416          1
   431          4
   433          1
   451         27
   452         12
   453         46
   454         16
   455         21
   456          7
   457          2