##TITLE=Library Entry 89317
##JCAMP-DX=Revision 4.10 
##DATA TYPE=MASS SPECTRUM
##SAMPLE DESCRIPTION=DR. C. C. VAN DE SANDE, STATE UNIVERSITY OF GENT, BELGI
UM
##NAMES=HP
##CAS NAME=Ethanol, 2-(4-fluorophenoxy)-
##MOLFORM=C8H9FO2
##CAS REGISTRY NO=2924-66-5
##MP= -300
##BP= -300
##MW= 156
##$RETENTION INDEX=0
##$CONDENSED SPECTRUM=NO
##NPOINTS= 71
##XYDATA=(XY..XY) 1 
    31         80
    37         24
    38         32
    39         90
    40         28
    41         78
    42         67
    43        100
    44        425
    45        175
    48          7
    49         18
    50         75
    51         45
    52         15
    53         18
    54          7
    55         41
    56         41
    57         90
    58         26
    59          9
    60          6
    61         19
    62         17
    63         42
    64         50
    65         23
    66          9
    67         12
    68         17
    69         60
    70         30
    71          6
    72          8
    73         15
    74         30
    75         90
    76         16
    77         28
    78         12
    79         11
    81         27
    82         20
    83        170
    84        105
    85         11
    89         38
    91         22
    94         35
    95        180
    96         40
    97         36
    98          7
   100          8
   105         11
   107          9
   109         26
   110         10
   111         30
   112        999
   113        102
   114          6
   119          9
   123         14
   125         52
   137          7
   138          6
   156        225
   157         30
   158          5