##TITLE=Library Entry 23755
##JCAMP-DX=Revision 4.10 
##DATA TYPE=MASS SPECTRUM
##SAMPLE DESCRIPTION=V.A.Korolev, Moscow, Russia
##NAMES=HP
##CAS NAME=Tert-butyl 3-[(carbamothioylamino)imino]butanoate
##MOLFORM=C9H17N3O2S
##CAS REGISTRY NO=29247-02-7
##MP= -300
##BP= -300
##MW= 231
##$RETENTION INDEX=0
##$CONDENSED SPECTRUM=NO
##NPOINTS= 76
##XYDATA=(XY..XY) 1 
    33         19
    34          4
    37          4
    39        387
    40         80
    41        820
    42        214
    43        459
    44         46
    45         36
    46          9
    47         15
    48         23
    50          2
    51          5
    52          5
    53         18
    54         45
    55         64
    56         75
    57        999
    58         68
    59        266
    60        501
    61         18
    62         24
    67          8
    68          6
    69         17
    70         63
    71        164
    72         41
    73          6
    74         16
    75         28
    76          3
    78          4
    83          4
    84         13
    87         19
    88          4
    89         25
    90          4
    91         15
    96          4
    97         12
    98         83
    99         62
   100          6
   101          3
   102          6
   112         15
   114         11
   115         36
   116        739
   117         40
   118         32
   126          2
   129         23
   130         28
   131          3
   133          9
   142          4
   158         83
   159          5
   160         65
   161          2
   175         71
   176          8
   177          2
   209          2
   218          1
   227          1
   231        150
   232         17
   233          5