##TITLE=Library Entry 99582
##JCAMP-DX=Revision 4.10 
##DATA TYPE=MASS SPECTRUM
##SAMPLE DESCRIPTION=V.Zaikin,Inst.Petrochem.Synth.,RAS,Moscow
##NAMES=HP
##CAS NAME=Benzoic acid, 4-methyl-, 2-methylpropyl ester
##MOLFORM=C12H16O2
##CAS REGISTRY NO=29240-30-0
##MP= -300
##BP= -300
##MW= 192
##$RETENTION INDEX=0
##$CONDENSED SPECTRUM=NO
##NPOINTS= 78
##XYDATA=(XY..XY) 1 
    26         14
    27         80
    28         16
    29         96
    30          8
    38          5
    39        179
    40         40
    41        179
    42         16
    43         49
    44          2
    50         36
    51         65
    52         27
    53         17
    54          5
    55         25
    56        216
    57         42
    58          5
    59          5
    61          9
    62         37
    63         94
    64         32
    65        260
    66         17
    67          2
    68          3
    69         12
    70          5
    71          4
    72          3
    73         15
    74          9
    75         11
    76          9
    77         27
    78          9
    79         21
    80          4
    85          5
    86          5
    87          5
    88          9
    89         84
    90         60
    91        704
    92         79
    93         41
    94          5
    98          2
   104          5
   105         13
   106          3
   107         12
   108          4
   109          2
   111          2
   115          4
   116          3
   117         10
   118         18
   119        999
   120        169
   121         15
   133          3
   134          4
   135         22
   136        446
   137        670
   138         58
   139          6
   149          8
   150          2
   177          3
   192          3