##TITLE=Library Entry 36000
##JCAMP-DX=Revision 4.10 
##DATA TYPE=MASS SPECTRUM
##SAMPLE DESCRIPTION=Exported from NIST MS Search
##NAMES=HP
##CAS NAME=1H-Tetrazole, 5-(trifluoromethyl)-
##MOLFORM=C2HF3N4
##CAS REGISTRY NO=2925-21-5
##MP= -300
##BP= -300
##MW= 138
##$RETENTION INDEX=0
##$CONDENSED SPECTRUM=NO
##NPOINTS= 25
##XYDATA=(XY..XY) 1 
    39         20
    40        100
    41         70
    42        100
    43        110
    44         80
    45         10
    50         90
    51         80
    57        300
    58         10
    60         20
    62         50
    63         50
    66         30
    69        999
    70         20
    77         50
    78         10
    91        250
    92         20
    97         40
   110        650
   111         20
   138         10