##TITLE=Library Entry 88531
##JCAMP-DX=Revision 4.10 
##DATA TYPE=MASS SPECTRUM
##SAMPLE DESCRIPTION=A.A.Kutin, Moscow, Russia
##NAMES=HP
##CAS NAME=Thiophene-2-carbohydrazide, N2-(4-chlorobenzylideno)-
##MOLFORM=C12H9ClN2OS
##CAS REGISTRY NO=292611-84-8
##MP= -300
##BP= -300
##MW= 264
##$RETENTION INDEX=0
##$CONDENSED SPECTRUM=NO
##NPOINTS= 132
##XYDATA=(XY..XY) 1 
    33          0
    34          1
    35          0
    36          3
    37          5
    38         18
    39        188
    40         15
    41          2
    42          1
    43          2
    44          4
    45         21
    46          1
    47          0
    49          4
    50         21
    51         13
    52          5
    53          6
    54          4
    55          1
    57         27
    58          8
    59          1
    60          1
    61          5
    62         18
    63         51
    64          8
    65          3
    66          1
    67          1
    69          6
    70          2
    71          2
    72          2
    73         11
    74          9
    75         29
    76          6
    77          5
    78          0
    79          0
    80          1
    81          9
    82         17
    83         90
    84         10
    85          9
    86          5
    87          7
    89        105
    90         31
    91          9
    92          1
    93          0
    94          0
    95          0
    96          1
    97          3
    98          2
    99         18
   100          3
   101          6
   102          5
   103          0
   105          2
   106          0
   107          0
   108          1
   111        999
   112         56
   113         49
   114          3
   115          1
   116          0
   117          6
   118         15
   119          1
   120          0
   121          0
   122          0
   123          3
   124          8
   125          6
   127        360
   128         25
   129         16
   130          1
   131          0
   135          0
   136          0
   137          2
   138          2
   139          1
   140          1
   141          0
   142          0
   143          0
   144          0
   145          0
   146          0
   147          0
   149          0
   151          0
   152          1
   153          3
   154          0
   155          1
   156          0
   164          0
   167          0
   168          0
   170          0
   171          1
   172          0
   173          0
   174          0
   179          0
   182          0
   184          0
   185          0
   196          0
   200          0
   207          0
   209          0
   263          0
   264         10
   265          1
   266          4
   267          0