##TITLE=Library Entry 21720
##JCAMP-DX=Revision 4.10 
##DATA TYPE=MASS SPECTRUM
##SAMPLE DESCRIPTION=BAY 0364
##NAMES=HP
##CAS NAME=Heptadecanedioic acid, 9-oxo-, dimethyl ester
##MOLFORM=C19H34O5
##CAS REGISTRY NO=29263-73-8
##MP= -300
##BP= -300
##MW= 342
##$RETENTION INDEX=0
##$CONDENSED SPECTRUM=NO
##NPOINTS= 103
##XYDATA=(XY..XY) 1 
    40         14
    41        355
    42        111
    43        311
    44         15
    45         42
    53         33
    54         27
    55        999
    56         75
    57         74
    58        102
    59        247
    63         11
    67        137
    68         43
    69        207
    70         39
    71         95
    72         23
    73         49
    74        139
    75         10
    77         10
    79         53
    80         26
    81        149
    82         70
    83        498
    84        133
    85         43
    87        118
    88         11
    91         11
    93         45
    94         10
    95         48
    96         34
    97        399
    98        152
    99         23
   100         17
   101         36
   107         89
   108         41
   109         60
   110        158
   111        291
   112         39
   113         16
   114         16
   115         25
   121         16
   122         12
   123         23
   124         16
   125        465
   126        105
   127        112
   128         12
   130        161
   131         15
   132         11
   135         60
   136         12
   139         10
   140        180
   141         21
   142        205
   143        367
   144         81
   145         10
   150         35
   151         15
   152         10
   153        146
   154         18
   155         13
   157         67
   158        152
   159         16
   168        231
   169         46
   171         26
   181         60
   182         31
   185        384
   186         43
   200        502
   201         71
   213         32
   237         19
   250         10
   251         11
   261         10
   269         21
   279        101
   280         19
   282         15
   311        136
   312         27
   342          7
   343          5