##TITLE=Library Entry 87805
##JCAMP-DX=Revision 4.10 
##DATA TYPE=MASS SPECTRUM
##SAMPLE DESCRIPTION=A.A.Kutin, Moscow, Russia
##NAMES=HP
##CAS NAME=Thiophene-2-carbohydrazide, N2-(3-phenyl-2-propenylideno)-
##MOLFORM=C14H12N2OS
##CAS REGISTRY NO=292611-74-6
##MP= -300
##BP= -300
##MW= 256
##$RETENTION INDEX=0
##$CONDENSED SPECTRUM=NO
##NPOINTS= 129
##XYDATA=(XY..XY) 1 
    33          0
    34          0
    35          0
    37         10
    39        251
    41         13
    42          9
    43         10
    45         35
    46          0
    47          1
    49          2
    50         35
    51         53
    52         12
    53         10
    54          4
    55          1
    57         41
    58          9
    59          2
    61          3
    62         20
    63         46
    64         12
    65         33
    66          3
    67          1
    69         10
    70          2
    71          2
    72          1
    73          2
    74         12
    75         14
    76         18
    77         80
    78         13
    79          2
    81         17
    82         24
    83         82
    84         11
    85          6
    86          4
    87          7
    88          9
    89         43
    91         63
    92          5
    93          0
    94          0
    95          0
    96          0
    97          1
    98          2
    99          3
   100          2
   101          6
   102         18
   103         14
   104         15
   105          2
   106          0
   107          0
   111        999
   112         57
   113         45
   115        186
   116         29
   117         16
   118         20
   119          2
   120          0
   121          0
   122          0
   123          0
   125          2
   127        196
   129        222
   130        181
   131         17
   133          0
   134          0
   139          0
   140          0
   141          0
   143          2
   144         11
   145         45
   146          5
   148          0
   149          0
   151          0
   152          0
   153          0
   165          1
   166          0
   167          0
   170          0
   171          1
   172          0
   173          0
   174          0
   179          5
   180          0
   181          0
   184          0
   197          0
   198          0
   199          0
   201          0
   210          0
   212          1
   213          0
   216          0
   223          0
   224          0
   229          0
   233          0
   239          0
   240          0
   245          0
   253          0
   255         14
   256         21
   257          4
   258          1
   259          0