##TITLE=Library Entry 23868
##JCAMP-DX=Revision 4.10 
##DATA TYPE=MASS SPECTRUM
##SAMPLE DESCRIPTION=S. MARKEY UNIV. OF COLO. MED. CTR., DENVER, COLORADO, U
SA
##NAMES=HP
##CAS NAME=L-Aspartic acid, N-(trifluoroacetyl)-, dibutyl ester
##MOLFORM=C14H22F3NO5
##CAS REGISTRY NO=2926-77-4
##MP= -300
##BP= -300
##MW= 341
##$RETENTION INDEX=1676
##$CONDENSED SPECTRUM=NO
##NPOINTS= 108
##XYDATA=(XY..XY) 1 
    38          3
    39         99
    40         19
    41        740
    42         79
    43        148
    44         39
    45         18
    47          4
    50          5
    51          5
    53         21
    54         15
    55        136
    56        141
    57        999
    58         52
    59          2
    60         15
    61          1
    66          3
    68          4
    69        107
    70        143
    71         71
    72         12
    73          7
    74          1
    78          3
    81          2
    82          9
    86          5
    87          4
    88         17
    89          1
    90          3
    92          4
    93          1
    94          2
    96         34
    97          7
    98          2
    99         66
   100         10
   101          3
   110          2
   113          2
   114         43
   115         14
   116         29
   118          4
   124          5
   126          3
   127         15
   128          1
   132          6
   137          2
   138         25
   139        433
   140        278
   141         40
   142        103
   143          5
   144          9
   147          3
   150         11
   151         20
   153          3
   155          2
   159          9
   160         18
   162          3
   163         25
   165         14
   166        181
   167        189
   168         28
   169          1
   170          5
   172          1
   182          3
   183         35
   184        382
   185         87
   186          8
   188          5
   190          2
   192          2
   193          1
   198         79
   199          8
   200          1
   210         10
   211         39
   212        241
   213         21
   214          2
   224          2
   230          8
   239          5
   240        448
   241        127
   242         14
   244          2
   267          4
   268         15
   286          6
   342         11