##TITLE=Library Entry 43998
##JCAMP-DX=Revision 4.10 
##DATA TYPE=MASS SPECTRUM
##SAMPLE DESCRIPTION=Exported from NIST MS Search
##NAMES=HP
##CAS NAME=Allo-Inositol, 6TMS derivative
##MOLFORM=C24H60O6Si6
##CAS REGISTRY NO=29267-02-5
##MP= -300
##BP= -300
##MW= 612
##$RETENTION INDEX=0
##$CONDENSED SPECTRUM=NO
##NPOINTS= 39
##XYDATA=(XY..XY) 1 
    73        999
    74         31
   103         58
   104          4
   129         84
   130          9
   133         67
   134          4
   147        373
   148         36
   189         13
   191        227
   192         27
   204         84
   205          9
   217        351
   218         40
   221         34
   265        151
   266         18
   291         36
   293         21
   305        258
   306         31
   318        444
   319         53
   320          9
   343         13
   367         53
   368          9
   393         27
   417          6
   419          5
   432         25
   433         36
   434          4
   507         29
   597          1
   612          1