##TITLE=Library Entry 30437
##JCAMP-DX=Revision 4.10 
##DATA TYPE=MASS SPECTRUM
##SAMPLE DESCRIPTION=NIST Mass Spectrometry Data Center, 1994
##NAMES=HP
##CAS NAME=1-(4-Fluorophenyl)-2-methyl-2-propanol
##MOLFORM=C10H13FO
##CAS REGISTRY NO=2928-17-8
##MP= -300
##BP= -300
##MW= 168
##$RETENTION INDEX=0
##$CONDENSED SPECTRUM=NO
##NPOINTS= 89
##XYDATA=(XY..XY) 1 
    13          1
    14          2
    15         59
    16          1
    17          0
    18          4
    19          3
    20          2
    26          1
    27         27
    29         28
    31        234
    33          6
    37          3
    38         11
    39         77
    40          7
    41         95
    42         16
    43        332
    44         11
    50         20
    51         32
    52          5
    53          6
    55         11
    57        106
    59        999
    60         32
    61          7
    62         18
    63         45
    64          6
    65          7
    67          8
    68          3
    69          7
    70          9
    71          1
    75         21
    77         12
    78          2
    79          1
    80          2
    81         18
    82          1
    83        137
    84          7
    85          1
    86          3
    87          3
    88          2
    89         19
    90          4
    91         29
    92          2
    94          3
    95          8
    96         13
    97          5
   100          1
   101          6
   102          1
   103          4
   105          3
   107         35
   109        333
   110        564
   111         41
   112          1
   115         12
   116          1
   120          3
   121          2
   122          2
   123          4
   125          1
   127          0
   133         20
   134          9
   135         32
   136          4
   149          1
   150          2
   151          6
   152          1
   153         76
   154          5
   168          1