##TITLE=Library Entry 5441
##JCAMP-DX=Revision 4.10 
##DATA TYPE=MASS SPECTRUM
##SAMPLE DESCRIPTION=A.A.Kutin, Moscow, Russia
##NAMES=HP
##CAS NAME=Pyrazole-3-carboxamide, N-(2-methoxyphenyl)-1-methyl-4-nitro-
##MOLFORM=C12H12N4O4
##CAS REGISTRY NO=292826-88-1
##MP= -300
##BP= -300
##MW= 276
##$RETENTION INDEX=0
##$CONDENSED SPECTRUM=NO
##NPOINTS= 165
##XYDATA=(XY..XY) 1 
    37         10
    39         54
    42        999
    43         83
    45          6
    46          1
    49          0
    51        139
    52        178
    53         49
    54         17
    55          7
    56          2
    57          1
    58          1
    59          0
    61          1
    63         46
    65        250
    66         31
    67         29
    68         46
    69          9
    70          2
    71          0
    74          2
    75          5
    77        136
    78         75
    79         70
    80         53
    81         12
    82          5
    83          3
    84          0
    85          0
    87          0
    88          1
    90         23
    92        226
    94        259
    95         36
    96          2
    97          0
    98          0
   100          0
   101          2
   102          5
   104         22
   106         73
   108        229
   109         44
   110         16
   111          2
   112          1
   114          0
   115          3
   116          3
   117          4
   120        192
   121         47
   122         51
   124         60
   125          3
   127          1
   128          5
   129          4
   130          3
   131          4
   132          5
   134         41
   135         28
   136          4
   138        140
   139         27
   140          7
   141          2
   142          2
   143          4
   144         27
   145         14
   146         13
   149         37
   150         10
   151          1
   152          3
   154        328
   155         25
   156          8
   157          6
   158          8
   159          5
   160          3
   161          4
   162          1
   163          0
   168          1
   169          0
   170          4
   171          8
   172         20
   173         19
   174          3
   175          1
   176          0
   177          0
   182          3
   184          5
   185          4
   186          7
   187         19
   188          4
   189          4
   190          0
   197          2
   199         46
   200         14
   201         12
   202          2
   203          2
   204          0
   205          0
   211          4
   212          1
   213          8
   214          5
   215          6
   216          1
   217          1
   218          0
   224          0
   225          1
   226          0
   227          4
   228         17
   229         78
   230         11
   231          2
   232          0
   233          0
   240          1
   241         12
   242          3
   243         11
   245        127
   246         20
   247          3
   248          0
   256          1
   257          2
   259          8
   260          2
   261          5
   262          0
   267          0
   268          0
   269          0
   270          0
   271          1
   272          1
   273          6
   276        609
   277         84
   278         10
   279          1