##TITLE=Library Entry 87476
##JCAMP-DX=Revision 4.10 
##DATA TYPE=MASS SPECTRUM
##SAMPLE DESCRIPTION=A.A.Kutin, Moscow, Russia
##NAMES=HP
##CAS NAME=Cyclohexanecarboxamide, 1,2,2,3,3,4,4,5,5,6,6-undecafluoro-N-(4-f
luorophenyl)-
##MOLFORM=C13H5F12NO
##CAS REGISTRY NO=292870-15-6
##MP= -300
##BP= -300
##MW= 419
##$RETENTION INDEX=0
##$CONDENSED SPECTRUM=NO
##NPOINTS= 171
##XYDATA=(XY..XY) 1 
    33          8
    34          0
    36          0
    37          2
    38          5
    39         20
    40         16
    41          2
    42          2
    43          5
    44          4
    45          4
    47          1
    50         19
    51         13
    52         17
    53          2
    54          2
    55          8
    57        140
    58          6
    59          1
    61         10
    62         26
    63         40
    64         16
    65          8
    67          2
    69        150
    71          3
    72          1
    74         19
    75         62
    77          9
    78          2
    81         50
    83        377
    84         19
    86          1
    87          2
    89         24
    90         12
    91         11
    93         63
    95        143
    96          7
    97          1
    98          1
   100         42
   101          1
   103          0
   105          5
   106          2
   110        999
   111         69
   112         74
   113          6
   114          2
   115          1
   116          0
   117          3
   119         19
   120          2
   121          6
   122          2
   124          8
   125          7
   126          1
   127          1
   129          0
   131        122
   133          1
   134          0
   136          4
   138        421
   139         27
   141          1
   143         25
   144          3
   145          4
   146          1
   149          0
   150          2
   151          0
   152          0
   153          0
   155          6
   156          0
   157          0
   159          4
   160          2
   162         34
   163          1
   164          0
   165          0
   168          1
   169          2
   171         11
   172          2
   174          2
   176          1
   179          0
   181         30
   182          2
   183          0
   184          0
   186          0
   187          0
   188          0
   189          0
   190          3
   191          0
   193         14
   194          1
   195          0
   199          1
   200          1
   201          0
   202          2
   207          0
   211          0
   212          4
   217          0
   218          3
   219          4
   220          0
   221          1
   225          0
   229          1
   231         17
   232          1
   233          0
   237          0
   241          0
   243          3
   244          0
   249          0
   250          0
   251          0
   260          0
   261          0
   262          1
   268          0
   269          0
   279          0
   281          3
   282          1
   283          0
   309         12
   310          1
   312          0
   331          2
   332          3
   352          0
   353          0
   360          1
   371          2
   372          6
   373          0
   380          2
   381          1
   397          0
   400         60
   401          9
   402          0
   412          0
   416          0
   417          1
   419        368
   420         52
   421          4