##TITLE=Library Entry 27897
##JCAMP-DX=Revision 4.10 
##DATA TYPE=MASS SPECTRUM
##SAMPLE DESCRIPTION=A.A.Kutin, Moscow, Russia
##NAMES=HP
##CAS NAME=1,5-Diazatricyclo[3.3.2.1(3,7)]undecan-11-one, 3-phenyl-, oxime
##MOLFORM=C15H19N3O
##CAS REGISTRY NO=292870-13-4
##MP= -300
##BP= -300
##MW= 257
##$RETENTION INDEX=0
##$CONDENSED SPECTRUM=NO
##NPOINTS= 152
##XYDATA=(XY..XY) 1 
    33          7
    36          1
    39         73
    42        758
    43         75
    44         85
    45          2
    46          0
    49          0
    50          7
    51         47
    52         16
    54         69
    56        122
    58        999
    59         16
    60          0
    63         22
    65         36
    66          8
    68         70
    70         46
    71         24
    72        152
    74         11
    75         10
    77        109
    78         22
    79         12
    80         11
    81         10
    82         22
    83         35
    84         29
    85         28
    86          3
    87          2
    88          2
    89         19
    91        129
    92         11
    93          7
    95         20
    96         15
    97         12
    98          8
    99          4
   101         10
   102         27
   103        105
   104         23
   105         17
   106          8
   107         10
   108          5
   109          8
   110          6
   111         14
   112          3
   113          7
   115        121
   116         38
   117         38
   118         16
   119          8
   120          7
   121          5
   122          3
   123          6
   124          3
   125          3
   128         99
   129         47
   130         36
   131         10
   132          5
   134         21
   135          3
   136          4
   137          2
   138          0
   139          3
   140          7
   141         34
   142         22
   143         22
   144         47
   145          7
   146         15
   147          2
   148          2
   150         22
   151          4
   153         16
   154         26
   155         45
   156         45
   158         52
   159          7
   160          2
   162         12
   164          3
   165          6
   168        104
   169         44
   170         84
   171         54
   172         15
   173          4
   174          1
   176          0
   177         18
   178          2
   180          9
   181         18
   182         35
   183         37
   184         23
   185          8
   186          4
   187          6
   192          0
   193          2
   195         32
   197        341
   198         45
   199         58
   200          8
   201          1
   207          2
   209         23
   211        165
   212         60
   213         16
   215          7
   216          0
   222          0
   223          0
   224          3
   225          4
   226          2
   227          2
   228          1
   236          1
   237         28
   240        751
   241        115
   242         23
   243          1
   257        587
   258         79
   259          6