##TITLE=Library Entry 13103
##JCAMP-DX=Revision 4.10 
##DATA TYPE=MASS SPECTRUM
##SAMPLE DESCRIPTION=Chemical Concepts
##NAMES=HP
##CAS NAME=3-(4-Acetamidophenyl)-5-aminopyrazole
##MOLFORM=C11H12N4O
##CAS REGISTRY NO=292825-30-0
##MP= -300
##BP= -300
##MW= 216
##$RETENTION INDEX=0
##$CONDENSED SPECTRUM=NO
##NPOINTS= 48
##XYDATA=(XY..XY) 1 
    38         15
    39         35
    40         20
    41         30
    43        999
    44         20
    50         26
    51         37
    52         53
    53         16
    54          9
    61         10
    62         37
    63         78
    64         26
    65         47
    66         11
    74         11
    75         16
    76         19
    77         23
    78         15
    87         10
    88         17
    89         80
    90         47
    91         46
    92         16
   102         12
   104         11
   114          9
   115          9
   116         27
   117         64
   118         26
   119         13
   128          7
   130         20
   131          9
   132          8
   143         11
   144          9
   145         67
   146         18
   173         29
   174        106
   175         13
   216         46