##TITLE=Library Entry 4782
##JCAMP-DX=Revision 4.10 
##DATA TYPE=MASS SPECTRUM
##SAMPLE DESCRIPTION=A.A.Kutin, Moscow, Russia
##NAMES=HP
##CAS NAME=1,5-Diazatricyclo[3.3.2.1(3.7)]undecan-11-one, 3-methyl-, hydrazo
ne
##MOLFORM=C10H18N4
##CAS REGISTRY NO=292870-14-5
##MP= -300
##BP= -300
##MW= 194
##$RETENTION INDEX=0
##$CONDENSED SPECTRUM=NO
##NPOINTS= 64
##XYDATA=(XY..XY) 1 
    33         13
    39        392
    40        101
    41        575
    42        999
    43        285
    44        120
    45         11
    49          1
    50         28
    51         69
    52         74
    53        101
    54        130
    55        140
    56        134
    58        577
    59          8
    63          4
    65         16
    66         27
    67         55
    68         54
    69         43
    70         33
    72        483
    77         29
    79         43
    80         29
    81         33
    82         39
    83         24
    84         20
    85         10
    91          9
    93         30
    94         32
    95         31
    96         16
    97          5
   105          4
   106         12
   107         31
   108         36
   109         37
   110          3
   120          5
   121         50
   122         25
   123         13
   125          1
   133          2
   135         67
   136         31
   137         12
   149         30
   150          8
   164          3
   177          1
   178         68
   179          6
   192          3
   194        293
   195         31