##TITLE=Library Entry 5431
##JCAMP-DX=Revision 4.10 
##DATA TYPE=MASS SPECTRUM
##SAMPLE DESCRIPTION=A.A.Kutin, Moscow, Russia
##NAMES=HP
##CAS NAME=1,3,5-Triazaadamantane, 7-(4-nitrobenzlidenamino)-
##MOLFORM=C14H17N5O2
##CAS REGISTRY NO=292870-06-5
##MP= -300
##BP= -300
##MW= 287
##$RETENTION INDEX=0
##$CONDENSED SPECTRUM=NO
##NPOINTS= 194
##XYDATA=(XY..XY) 1 
    33         50
    34          8
    36          1
    37          3
    39         86
    40        211
    41        281
    42        999
    43        249
    44         61
    45         18
    46          1
    48          1
    49          1
    50         23
    51         51
    52         17
    53         10
    54         20
    55         28
    56         15
    57         21
    58          5
    59          1
    60          7
    61          1
    62          9
    63         25
    64         15
    65         15
    66         11
    67         23
    68         70
    69         77
    70         12
    71         13
    73          2
    74          5
    75         12
    76         30
    77         44
    78         79
    79         12
    80         12
    81         22
    82         16
    83         14
    84          6
    85          4
    86          0
    87          2
    88          7
    89         32
    90         23
    91         19
    92         16
    93          5
    94          5
    95         16
    96         19
    97          8
    98          3
    99          0
   101         14
   102         48
   103         47
   104         22
   105         18
   106        101
   108         13
   109         13
   110         27
   111         14
   112          5
   113          2
   114          9
   115         39
   116         22
   117         20
   118         16
   119          8
   120          6
   122         75
   123          9
   124         15
   125          7
   126          2
   127          5
   128         25
   129         47
   130         16
   131          7
   132         10
   133          7
   134          2
   135          3
   136          7
   138         72
   139          8
   140          5
   141         10
   142         24
   143         95
   144         41
   145          7
   146          5
   148        131
   149         88
   150         22
   151         12
   152          4
   153          1
   154          0
   155          3
   156          8
   157          7
   158          6
   159          3
   160          1
   161          0
   163         21
   164          3
   165          0
   166          1
   168          7
   169         19
   170         35
   171         21
   172         18
   173         23
   174          9
   175          7
   176          4
   177          6
   178          5
   179          2
   183          2
   184          3
   185          4
   186          7
   188        177
   189         59
   190        151
   191         20
   192          2
   193          3
   194          4
   195          0
   198          0
   199          3
   200         10
   201          5
   202          9
   203          3
   204          1
   212          1
   213          4
   214          7
   216         77
   217        124
   218         28
   219          3
   225          1
   226          1
   228          3
   229         10
   230         25
   231         62
   232         18
   233          1
   240          1
   241          5
   242          2
   243          9
   244          8
   245         18
   246          7
   255          3
   256          7
   257         17
   259        356
   260         49
   261          6
   269          0
   270          2
   271          1
   282          0
   283          6
   284         11
   287        332
   288         49
   289          5
   291          1
   292          0