##TITLE=Library Entry 59037
##JCAMP-DX=Revision 4.10 
##DATA TYPE=MASS SPECTRUM
##SAMPLE DESCRIPTION=A.A.Kutin, Moscow, Russia
##NAMES=HP
##CAS NAME=5,7-Dibenzyl-1,3-diazaadamantan-6-one
##MOLFORM=C22H24N2O
##CAS REGISTRY NO=292870-11-2
##MP= -300
##BP= -300
##MW= 332
##$RETENTION INDEX=0
##$CONDENSED SPECTRUM=NO
##NPOINTS= 131
##XYDATA=(XY..XY) 1 
    34          1
    36          0
    39        218
    40        128
    41        270
    42        939
    43        146
    44        135
    45          2
    50         25
    51         93
    52         22
    53         41
    54         43
    55         43
    56         34
    57         38
    58        137
    59          1
    63         52
    65        264
    67         41
    68         74
    69         65
    70         17
    71         17
    73          2
    74          2
    75          7
    77         97
    78         46
    79         22
    80         26
    81          8
    82         34
    83          5
    84          4
    85          0
    89         49
    91        999
    92         56
    93          8
    94         12
    95          8
    96         29
    97          2
   101          1
   102         20
   103         38
   104         28
   105         38
   106         13
   107          4
   108          8
   109          3
   110          1
   113          2
   115        503
   116        147
   117        311
   118         33
   119          2
   120          2
   121          3
   122         10
   123          0
   127         25
   128         67
   129        130
   130         36
   131         70
   132          6
   133          0
   136          2
   141         17
   142          6
   143         23
   144         39
   145         38
   146          5
   149          1
   150          4
   152          3
   153          7
   154          3
   155         13
   156          8
   157          4
   158         21
   159          4
   160          5
   165          1
   166          0
   167          2
   168          3
   169          6
   170         20
   171          9
   172         11
   173          1
   174          0
   181          1
   182          3
   183          9
   184         13
   185          5
   186          4
   187          7
   196          2
   197          7
   198         30
   199          5
   200          1
   212        254
   213         55
   214          7
   215          0
   241         88
   242         10
   261          6
   262          1
   274          3
   275          8
   276          0
   288          3
   289         60
   290         59
   291          7
   303          0
   332         91
   333         19