##TITLE=Library Entry 8945
##JCAMP-DX=Revision 4.10 
##DATA TYPE=MASS SPECTRUM
##SAMPLE DESCRIPTION=Exported from NIST MS Search
##NAMES=HP
##CAS NAME=Butane, 2-(ethenyloxy)-2-methyl-
##MOLFORM=C7H14O
##CAS REGISTRY NO=29281-39-8
##MP= -300
##BP= -300
##MW= 114
##$RETENTION INDEX=0
##$CONDENSED SPECTRUM=NO
##NPOINTS= 61
##XYDATA=(XY..XY) 1 
    13          1
    14          4
    15         21
    16          1
    18          1
    26          8
    27         97
    28         20
    29        133
    30          3
    31         29
    32          3
    37          1
    38          4
    39         77
    40         10
    41        186
    42         55
    43        999
    44         52
    45         23
    46          1
    50          3
    51          6
    52          2
    53         22
    54          6
    55        242
    56         14
    57         29
    58          3
    59        137
    60          5
    61          1
    62          1
    63          1
    65          2
    66          1
    67          5
    68          1
    69         14
    70        248
    71        266
    72         33
    73         47
    74          2
    77          1
    79          1
    81          7
    82          1
    83          1
    85        158
    86          9
    87          2
    91          1
    95          1
    99         40
   100          2
   114        109
   115         10
   116          1