##TITLE=Library Entry 1718
##JCAMP-DX=Revision 4.10 
##DATA TYPE=MASS SPECTRUM
##SAMPLE DESCRIPTION=Chemical Concepts
##NAMES=HP
##CAS NAME=3-Methyl-4-nitro-5-(1-pyrazolyl)pyrazole
##MOLFORM=C7H7N5O2
##CAS REGISTRY NO=292855-42-6
##MP= -300
##BP= -300
##MW= 193
##$RETENTION INDEX=0
##$CONDENSED SPECTRUM=NO
##NPOINTS= 109
##XYDATA=(XY..XY) 1 
    34         35
    36         90
    37        355
    38        656
    39        999
    40        630
    41        524
    42        727
    43        260
    44        156
    46         99
    48          8
    50        210
    51        307
    52        530
    53        401
    54        220
    55        145
    56         66
    57         45
    58         76
    59         45
    61         31
    62         72
    63        183
    64        399
    65        526
    66        429
    67        286
    68        272
    69        226
    70        134
    71         29
    72          9
    73          3
    75         10
    76         48
    77         51
    78         65
    79        164
    80        104
    81         47
    82         58
    83         34
    84         59
    85         23
    86          6
    87          9
    88         13
    89         34
    90        151
    91        193
    92         91
    93         83
    94        157
    95         43
    96         17
    97         10
    98          4
    99          2
   102          4
   103          8
   104         19
   105         23
   106         30
   107         24
   108         21
   109         18
   110         24
   111         53
   112          7
   115         11
   117        141
   118         80
   119         21
   120         18
   121         13
   122          9
   123         15
   124          5
   125          7
   131          6
   132          7
   133          9
   134         21
   135         32
   136         20
   137         15
   138          2
   146          5
   148         26
   149          6
   151          3
   152          3
   159          5
   162          3
   163          5
   164          4
   165          2
   173          8
   174         22
   175         97
   176         27
   177          9
   190         12
   191         28
   193        520
   194         39
   195          3