##TITLE=Library Entry 53240
##JCAMP-DX=Revision 4.10 
##DATA TYPE=MASS SPECTRUM
##SAMPLE DESCRIPTION=Japan AIST/NIMC Database- Spectrum MS-NW-6468
##NAMES=HP
##CAS NAME=Phosphorous acid, tris(decyl) ester
##MOLFORM=C30H63O3P
##CAS REGISTRY NO=2929-86-4
##MP= -300
##BP= -300
##MW= 502
##$RETENTION INDEX=0
##$CONDENSED SPECTRUM=NO
##NPOINTS= 140
##XYDATA=(XY..XY) 1 
    15          4
    17          3
    18         11
    26          4
    27         65
    28         15
    29        151
    30          4
    31         19
    32          1
    37          1
    38          3
    39         53
    40         13
    41        343
    42         69
    43        455
    44         14
    45          8
    47          3
    50          2
    51          4
    52          2
    53         25
    54         18
    55        434
    56        175
    57        655
    58         30
    59          2
    62          1
    63          2
    65         11
    66         11
    67         49
    68         32
    69        390
    70        236
    71        733
    72         43
    73          2
    77          5
    78          1
    79          9
    80          2
    81         35
    82         44
    83        999
    84        167
    85        638
    86         43
    87          6
    89          2
    91          2
    93          3
    94         25
    95         21
    96         30
    97        154
    98         83
    99        189
   100         14
   101          5
   105          1
   106          1
   107          1
   109         13
   110         15
   111        120
   112         95
   113         10
   115          3
   119          1
   120          1
   121          1
   122          1
   123         13
   124          3
   125         36
   126          9
   127         13
   128          1
   129          1
   133          1
   134          1
   135          2
   136          2
   137         22
   138          5
   139         22
   140        195
   141        780
   142         84
   143          5
   148          1
   149          2
   150          1
   151         19
   152          2
   153         25
   154          9
   155         21
   156          3
   159          2
   163          1
   165         13
   166          1
   167         18
   168          1
   175          2
   179          8
   181          5
   193          3
   195          2
   207          2
   209          4
   221          2
   222          1
   223        290
   224         32
   225          4
   234          1
   235          2
   236          1
   237         10
   238          1
   239          4
   251          1
   263          1
   277          3
   291          4
   292          1
   305          4
   306          1
   319          4
   320          1
   333          3
   347          3
   363          7
   364          1