##TITLE=Library Entry 12557
##JCAMP-DX=Revision 4.10 
##DATA TYPE=MASS SPECTRUM
##SAMPLE DESCRIPTION=Japan AIST/NIMC Database- Spectrum MS-NW-6337
##NAMES=HP
##CAS NAME=Methanediol, (4-nitrophenyl)-, diacetate
##MOLFORM=C11H11NO6
##CAS REGISTRY NO=2929-91-1
##MP= -300
##BP= -300
##MW= 253
##$RETENTION INDEX=0
##$CONDENSED SPECTRUM=NO
##NPOINTS= 72
##XYDATA=(XY..XY) 1 
    14          6
    15         31
    16          1
    17          6
    18         27
    27          5
    28         11
    29          6
    30          6
    32          1
    37          2
    38          3
    39          9
    41          2
    42         18
    43        999
    44         23
    45          6
    49          1
    50         25
    51         46
    52          3
    53          1
    60          4
    61          7
    62          2
    63          7
    64          3
    65          8
    66          3
    67          1
    73          1
    74          8
    75         10
    76         22
    77         45
    78          9
    86          3
    87          1
    89          1
    91          1
    92          9
    93          2
    94          4
   103         34
   104         24
   105         28
   106          9
   107          1
   120          7
   121          6
   122          3
   123          3
   124          2
   134         20
   135          9
   136          2
   140          2
   147          1
   150        100
   151        133
   152         19
   153          3
   166          1
   169          7
   170          1
   193          8
   194         22
   195          2
   210         25
   211         16
   212          1