##TITLE=Library Entry 61222
##JCAMP-DX=Revision 4.10 
##DATA TYPE=MASS SPECTRUM
##SAMPLE DESCRIPTION=Chemical Concepts
##NAMES=HP
##CAS NAME=Oxirane, [(phenylmethoxy)methyl]-
##MOLFORM=C10H12O2
##CAS REGISTRY NO=2930-05-4
##MP= -300
##BP= -300
##MW= 164
##$RETENTION INDEX=0
##$CONDENSED SPECTRUM=NO
##NPOINTS= 76
##XYDATA=(XY..XY) 1 
    26          6
    27         45
    28          0
    29         55
    30         11
    31         55
    37          2
    38          7
    39         60
    40          9
    41         33
    42          6
    43         22
    44          2
    45         15
    46          1
    50         18
    51         59
    52         16
    53          7
    55          4
    56          2
    57         78
    58         35
    59          6
    61          2
    62          8
    63         31
    64         10
    65        156
    66          9
    70          2
    73          4
    74          4
    75          6
    76          5
    77        117
    78         40
    79        298
    80         19
    81          2
    86          1
    87          2
    88          1
    89         39
    90         30
    91        999
    92        116
    93          6
   103          5
   104         23
   105        385
   106         83
   107        729
   108         67
   109          5
   115          2
   116          1
   117          3
   118          3
   119          6
   120          4
   121          1
   122          2
   123          0
   131          1
   132          1
   133          9
   134          2
   135          1
   146          1
   147          1
   149          7
   163         18
   164        100
   165         11