##TITLE=Library Entry 79789
##JCAMP-DX=Revision 4.10 
##DATA TYPE=MASS SPECTRUM
##SAMPLE DESCRIPTION=Chemical Concepts
##NAMES=HP
##CAS NAME=Isoxazole, 3-(4-methylphenyl)-5-phenyl-
##MOLFORM=C16H13NO
##CAS REGISTRY NO=29329-38-2
##MP= -300
##BP= -300
##MW= 235
##$RETENTION INDEX=0
##$CONDENSED SPECTRUM=NO
##NPOINTS= 103
##XYDATA=(XY..XY) 1 
    26          3
    27         27
    28         10
    37          3
    38         12
    39        101
    40         11
    41         21
    43          3
    50         47
    51        164
    52         27
    53         11
    57          2
    61          4
    62         22
    63         81
    64         24
    65        134
    66          8
    68          2
    74         16
    75         23
    76         41
    77        535
    78         53
    79          6
    86          5
    87          8
    88         14
    89         93
    90         39
    91        183
    92         16
    98          2
    99          2
   100          3
   101         18
   102         40
   103         40
   104          9
   105        999
   106         80
   107          5
   113          2
   114          2
   115         11
   116         23
   117          9
   118         11
   119        397
   120         34
   121          2
   126          2
   127          2
   128          5
   129          4
   130         41
   131          5
   132          3
   133         30
   134          3
   139          4
   144         16
   150          2
   151          3
   152          4
   157          2
   158        147
   159         17
   163          3
   164          1
   165         23
   166          3
   176          4
   177          2
   178          9
   179          7
   180          3
   189          4
   190          3
   191          4
   192          4
   193          1
   194         12
   195          2
   200          2
   201          1
   202          7
   203          3
   204          6
   205          5
   206         16
   207         48
   208          7
   219          3
   220         55
   221          9
   233          4
   234         59
   235        529
   236         96
   237          8