##TITLE=Library Entry 32519
##JCAMP-DX=Revision 4.10 
##DATA TYPE=MASS SPECTRUM
##SAMPLE DESCRIPTION=Chemical Concepts
##NAMES=HP
##CAS NAME=4-(3,4-Dichloro-.alpha/-methylbenzylidenehydrazino)-2-methyl-6-mo
rpholinopyrimidine
##MOLFORM=C17H19Cl2N5O
##CAS REGISTRY NO=293323-56-5
##MP= -300
##BP= -300
##MW= 379
##$RETENTION INDEX=0
##$CONDENSED SPECTRUM=NO
##NPOINTS= 109
##XYDATA=(XY..XY) 1 
    33         65
    36        114
    39        400
    42        888
    43        138
    44        121
    45         74
    50         61
    52        266
    53        154
    54        155
    56        382
    57         43
    58         20
    63         25
    67        999
    68        125
    69         41
    70         18
    71         20
    74        117
    75        110
    79        179
    80        173
    81         64
    82         41
    85        148
    86         79
    93         78
    94         40
    95         46
    97         17
    99         22
   100         25
   101         56
   102         52
   108        373
   110         73
   111         71
   112         20
   121        104
   122        115
   123         45
   124         19
   125         32
   133         20
   135        108
   136        116
   137        123
   138         42
   145        237
   147        192
   148         47
   149         81
   150         33
   151         45
   152         47
   161         48
   162         66
   163         86
   164         24
   171         89
   172         68
   173         48
   174         44
   175         25
   176         29
   177         50
   179         17
   186        117
   187         39
   188         67
   189         19
   190         19
   192         45
   193        107
   194         21
   207         32
   208         40
   234        185
   235         18
   279         18
   293         17
   294         26
   307         19
   320         21
   321         62
   322        143
   323         81
   324         87
   325         39
   334         80
   335         22
   336         51
   337         17
   348        150
   349         80
   350         99
   351         48
   352         21
   364         96
   365         22
   366         48
   378        160
   379        239
   380        123
   381        141
   382         32
   383         20