##TITLE=Library Entry 78713
##JCAMP-DX=Revision 4.10 
##DATA TYPE=MASS SPECTRUM
##SAMPLE DESCRIPTION=NIST Mass Spectrometry Data Center, 1994
##NAMES=HP
##CAS NAME=Benzhydrol, 4-bromo-
##MOLFORM=C13H11BrO
##CAS REGISTRY NO=29334-16-5
##MP= -300
##BP= -300
##MW= 262
##$RETENTION INDEX=0
##$CONDENSED SPECTRUM=NO
##NPOINTS= 92
##XYDATA=(XY..XY) 1 
     4          1
    26         13
    27         65
    28          0
    29         81
    30          3
    37          8
    38         36
    39         95
    40          7
    50        244
    51        378
    52         73
    53         33
    54          2
    55          7
    61          9
    62         40
    63         74
    64         19
    65          9
    68          2
    70         14
    73         13
    74         99
    75        135
    76        190
    77        702
    78        311
    79        225
    80         18
    81          2
    82         39
    85          5
    86         14
    87         17
    88         12
    89         24
    90          8
    98          8
    99          6
   100          3
   101          7
   102          9
   105        999
   106        109
   107         59
   108          4
   110          3
   111          5
   113         11
   114          6
   115         22
   117          3
   122          3
   125          3
   126         10
   127         10
   128         10
   129          5
   131          4
   137          5
   139         19
   140          3
   150          6
   151         15
   152         42
   153         30
   154         41
   155         65
   156         46
   157         79
   158         39
   159         26
   163         28
   164         32
   165        106
   166         38
   167          7
   181         15
   183        195
   185        165
   186         25
   187         29
   245          5
   246          2
   247          6
   261         29
   262         52
   263         32
   264         55
   265          7