##TITLE=Library Entry 53373
##JCAMP-DX=Revision 4.10 
##DATA TYPE=MASS SPECTRUM
##SAMPLE DESCRIPTION=Chemical Concepts
##NAMES=HP
##CAS NAME=2-[.alpha.-(2-Hydroxy-4,4-dimethyl-6-oxo-1-cyclohexen-1-yl)benzyl
]-5,5-dimethyl-1,3-cyclohexanedione
##MOLFORM=C23H28O4
##CAS REGISTRY NO=293325-89-0
##MP= -300
##BP= -300
##MW= 368
##$RETENTION INDEX=0
##$CONDENSED SPECTRUM=NO
##NPOINTS= 200
##XYDATA=(XY..XY) 1 
    32         10
    34          2
    35         13
    36          4
    37         15
    39        493
    40        123
    41        608
    42        258
    43        276
    44         30
    45          5
    47         27
    48         12
    49         10
    50         86
    51        153
    52         84
    53        160
    55        790
    56        603
    57         74
    58         13
    59         12
    60          2
    61          5
    62         21
    63         83
    64         21
    65         40
    66         17
    67         37
    69        210
    70        154
    71         19
    72          7
    74         54
    75         76
    76        169
    77        155
    78         37
    79         30
    80          7
    81         19
    83        999
    84        335
    85         69
    86         17
    87         18
    89         46
    90         12
    91         82
    92         13
    93          9
    94          9
    95         13
    97         78
    98         13
    99         19
   102        649
   103        123
   104        206
   105         63
   106         15
   107          9
   108          3
   109          6
   112        160
   113         16
   115        284
   116        347
   117         62
   118         10
   119          5
   120          3
   121          5
   122          5
   123          6
   124          4
   125         34
   126         10
   127         35
   128         63
   129        129
   130        159
   131         68
   132          9
   133          3
   134          3
   135          8
   137          3
   139         16
   140        150
   141         49
   142         17
   143         45
   144        137
   145         90
   146         11
   147          3
   149          1
   150          2
   151          6
   152         19
   153         18
   154          8
   155         14
   157         39
   158         21
   159          7
   160          3
   161          3
   163          2
   164          2
   165         18
   166          8
   167         16
   168          8
   169          9
   171        186
   172         31
   173         23
   174          4
   178          5
   179          6
   181         13
   182          6
   183         15
   185         80
   186         10
   187          4
   189          1
   190          1
   191          3
   192          1
   193          4
   194          2
   195          9
   196          4
   197          4
   199         78
   200         39
   201         21
   202          3
   207          3
   208          2
   209          3
   210          4
   211          8
   213         30
   214          4
   215          1
   216          1
   217          3
   221          1
   223          6
   224          2
   225          4
   227        860
   228        515
   229        110
   230         14
   231          2
   237          1
   238          7
   239          3
   241         87
   242         15
   243          8
   244          1
   249          2
   251          5
   253         11
   254          3
   255          5
   256         28
   257          4
   265          5
   266          9
   267         10
   268          2
   269          5
   273         13
   274          2
   275          4
   280          1
   283          8
   284          4
   293          1
   294          2
   307          2
   322          2
   333          1
   335          1
   350          9
   351          1
   353          2
   368        104
   369         24
   370          3