##TITLE=Library Entry 32522
##JCAMP-DX=Revision 4.10 
##DATA TYPE=MASS SPECTRUM
##SAMPLE DESCRIPTION=Chemical Concepts
##NAMES=HP
##CAS NAME=2-Methyl-4-(.alpha.-methyl-3-nitrobenzylidenehydrazino)-6-morphol
inopyrimidine
##MOLFORM=C17H20N6O3
##CAS REGISTRY NO=293323-55-4
##MP= -300
##BP= -300
##MW= 356
##$RETENTION INDEX=0
##$CONDENSED SPECTRUM=NO
##NPOINTS= 110
##XYDATA=(XY..XY) 1 
    33         16
    39        215
    40        153
    42        848
    43        150
    44        131
    45         85
    50        202
    51        107
    52        172
    53        141
    54        137
    56        380
    57         54
    58         24
    63         88
    64         52
    67        999
    68        133
    69         35
    70         22
    71         18
    75        597
    77        143
    79        183
    80        180
    81         67
    82         38
    83         16
    85         96
    86         86
    89         52
    90         48
    91         41
    92         43
    93         61
    94         47
    95         42
   102         95
   103         67
   104         34
   105         27
   106         25
   107         61
   108         78
   109         68
   110         29
   111         20
   117        290
   118         42
   119         22
   121        114
   122        111
   123         26
   125         25
   131         17
   133         28
   134         33
   135         83
   136         58
   137         68
   138         19
   147         22
   149        144
   150         50
   151         29
   152         35
   161         40
   163        208
   164         33
   165         28
   169         22
   176         38
   177         49
   179         18
   182         17
   183         18
   192         49
   193        119
   194         23
   204         18
   207         21
   208         25
   224         18
   234        214
   235         26
   242         18
   252         16
   256         29
   270         25
   271         38
   283         32
   284         41
   296         17
   298        150
   299        277
   300        101
   309         24
   311        155
   312         32
   313         19
   314         16
   325        322
   326        125
   327         33
   341        140
   342         18
   355        217
   356        401
   357         71