##TITLE=Library Entry 28339
##JCAMP-DX=Revision 4.10 
##DATA TYPE=MASS SPECTRUM
##SAMPLE DESCRIPTION=A.A.Kutin, Moscow, Russia
##NAMES=HP
##CAS NAME=2-Methyl-4-(4-methyl-1-piperazinyl)-4-oxo-2-butenoic acid
##MOLFORM=C10H16N2O3
##CAS REGISTRY NO=293324-64-8
##MP= -300
##BP= -300
##MW= 212
##$RETENTION INDEX=0
##$CONDENSED SPECTRUM=NO
##NPOINTS= 137
##XYDATA=(XY..XY) 1 
    33          7
    34         10
    36         20
    37         50
    38         88
    39        442
    40        287
    41        243
    42        662
    43        659
    44        302
    45         64
    46          2
    47          0
    48          3
    49         11
    50          6
    51          9
    52         11
    53         31
    54         59
    55         99
    56        587
    57        305
    58        999
    59         40
    60          6
    61          1
    62          1
    63         10
    64          3
    65          5
    66          8
    67         36
    68        169
    69         79
    70        892
    71        146
    72         43
    73         12
    74          2
    75          2
    76          4
    77          8
    78          4
    79          6
    80          9
    81         13
    82         37
    83        230
    84         48
    85         94
    86         14
    87          2
    88          0
    89          1
    90          0
    91          4
    92          4
    93          3
    94          6
    95         14
    96         84
    97         51
    98         81
    99        316
   100        163
   101         12
   102          0
   103          0
   104          1
   105          3
   106          7
   107          7
   108          3
   109          3
   110         15
   111          9
   112         20
   113        165
   114         13
   115          3
   117          0
   118          1
   119          1
   120          5
   121          3
   122          5
   123          7
   124        114
   125         13
   126          6
   127          8
   128          3
   129          4
   130          0
   132          1
   133          1
   134          1
   135         14
   136          4
   137          5
   138          7
   139         13
   140          6
   141          7
   142          1
   149          4
   150          2
   151          2
   152          2
   153          3
   154          4
   155         14
   156          4
   157          0
   162          0
   163          0
   164          0
   165          1
   166          5
   167         16
   168          5
   169          2
   170         10
   171          3
   178          1
   179          0
   183         49
   184          5
   193          1
   194          5
   195          3
   197          2
   211          1
   212         44
   213          5