##TITLE=Library Entry 36561
##JCAMP-DX=Revision 4.10 
##DATA TYPE=MASS SPECTRUM
##SAMPLE DESCRIPTION=A.A.Kutin, Moscow, Russia
##NAMES=HP
##CAS NAME=Propanamide, 2,2,3,3-tetrafluoro-3-trifluoromethoxy-N-(2-benzothi
azolyl)-
##MOLFORM=C11H5F7N2O2S
##CAS REGISTRY NO=293326-55-3
##MP= -300
##BP= -300
##MW= 362
##$RETENTION INDEX=0
##$CONDENSED SPECTRUM=NO
##NPOINTS= 74
##XYDATA=(XY..XY) 1 
    37          4
    38         26
    39         65
    40         13
    41          4
    45        126
    47         42
    49          2
    50         86
    51         71
    52         24
    53         25
    54          2
    57         23
    58         30
    59          5
    61          9
    62         44
    63        109
    64         23
    65         10
    66          4
    67          5
    69        999
    70         64
    71         22
    74         19
    75         22
    76         25
    77         25
    78        125
    81         44
    82         47
    83         13
    89         13
    90         61
    91         18
    94         30
    95         73
    96         32
    97         22
   100        119
   103         10
   105        256
   106         36
   108        178
   109         38
   110          5
   118          8
   119        224
   120         15
   121         58
   122        123
   123         45
   134         16
   135         18
   148         64
   149        417
   150        306
   151         53
   152         17
   153          6
   172          3
   177        932
   178         85
   179         44
   180          3
   185          3
   198          4
   277         25
   343          8
   362        521
   363         66
   364         28