##TITLE=Library Entry 15325
##JCAMP-DX=Revision 4.10 
##DATA TYPE=MASS SPECTRUM
##SAMPLE DESCRIPTION=R.T. LOEFFLER,LONG ASHTON RES. STN.,LONG ASHTON,BRISTOL
,U.K.
##NAMES=HP
##CAS NAME=Ethyl N'-isopropylureidoacetate
##MOLFORM=C8H16N2O3
##CAS REGISTRY NO=29346-49-4
##MP= -300
##BP= -300
##MW= 188
##$RETENTION INDEX=0
##$CONDENSED SPECTRUM=NO
##NPOINTS= 99
##XYDATA=(XY..XY) 1 
    33          0
    34          1
    36          0
    37          0
    38          2
    39         43
    40         39
    41        158
    42        138
    43        300
    44        999
    45         51
    46          8
    47          1
    48          0
    49          0
    50          7
    52          0
    53          0
    54          2
    55          8
    56         91
    57         29
    58        134
    59          9
    60         20
    61          2
    62          0
    63          0
    65          0
    67          0
    68          0
    69          1
    70         22
    71          3
    72          3
    73         25
    74         53
    75          2
    76          4
    77          0
    81          0
    82          0
    83          1
    84          5
    85         17
    86         15
    87          3
    88          1
    89          0
    90          1
    91          0
    95          0
    96          0
    97          0
    98          0
    99          8
   100         13
   101          8
   102         25
   103         14
   104         13
   105          1
   106          0
   109          0
   110          0
   111          0
   112          0
   113          1
   114          3
   115         50
   116          3
   117          0
   124          0
   125          0
   127          1
   128          0
   129          2
   130          3
   131          0
   137          0
   139          0
   141          0
   142         14
   143         27
   144          2
   145          0
   149          0
   159          1
   165          0
   172          0
   173         97
   174          8
   175          0
   183          0
   185          0
   188         23
   189          4
   190          0