##TITLE=Library Entry 35087
##JCAMP-DX=Revision 4.10 
##DATA TYPE=MASS SPECTRUM
##SAMPLE DESCRIPTION=NIST Mass Spectrometry Data Center, 1990.
##NAMES=HP
##CAS NAME=Hexane, 2-chloro-2,5-dimethyl-
##MOLFORM=C8H17Cl
##CAS REGISTRY NO=29342-44-7
##MP= -300
##BP= -300
##MW= 148
##$RETENTION INDEX=0
##$CONDENSED SPECTRUM=NO
##NPOINTS= 46
##XYDATA=(XY..XY) 1 
    15         22
    26         21
    27        186
    28         20
    29        120
    35         27
    36         61
    37         19
    38         53
    39        375
    40         96
    41        931
    42        126
    43        322
    44         13
    49         12
    50         23
    51         51
    52         23
    53        144
    54         12
    55        649
    56        944
    57        802
    58         41
    62          9
    63         26
    65         31
    66         10
    67        102
    68        167
    69        999
    70        250
    71        177
    75          8
    76         62
    77        179
    78         31
    79         77
    81         21
    83         20
    84         30
    91         16
    97        120
   112        228
   113         62