##TITLE=Library Entry 33447
##JCAMP-DX=Revision 4.10 
##DATA TYPE=MASS SPECTRUM
##SAMPLE DESCRIPTION=D.HENNEBERG, MAX-PLANCK INSTITUTE, MULHEIM, WEST GERMAN
Y
##NAMES=HP
##CAS NAME=Bicyclo[2.2.1]heptane, 2-chloro-
##MOLFORM=C7H11Cl
##CAS REGISTRY NO=29342-53-8
##MP= -300
##BP= -300
##MW= 130
##$RETENTION INDEX=0
##$CONDENSED SPECTRUM=NO
##NPOINTS= 67
##XYDATA=(XY..XY) 1 
    25          1
    26         13
    27        108
    28         25
    29         34
    35          4
    36         19
    37          9
    38         26
    39        191
    40         42
    41        146
    42         33
    43         15
    44          1
    45         10
    46          3
    47          2
    49          7
    50         12
    51         35
    52         13
    53         96
    54         87
    55         65
    56          6
    57         11
    58          1
    59          2
    61          3
    62         13
    63         21
    64          8
    65         63
    66        232
    67        984
    68        999
    69         47
    70          3
    73          2
    75         17
    76          1
    77         55
    78         12
    79        143
    80          9
    81         55
    82          3
    85         19
    87          1
    88         43
    89         18
    90         11
    91         28
    92          2
    93         23
    94         47
    95        202
    96         16
   101          7
   102          8
   104          2
   113         11
   114          1
   130         84
   131          4
   132         26