##TITLE=Library Entry 67931
##JCAMP-DX=Revision 4.10 
##DATA TYPE=MASS SPECTRUM
##SAMPLE DESCRIPTION=Chemical Concepts
##NAMES=HP
##CAS NAME=2-Norbornyl bromide
##MOLFORM=C7H11Br
##CAS REGISTRY NO=29342-65-2
##MP= -300
##BP= -300
##MW= 174
##$RETENTION INDEX=1009
##$CONDENSED SPECTRUM=NO
##NPOINTS= 64
##XYDATA=(XY..XY) 1 
    26          8
    27         54
    28         14
    29         10
    37          2
    38          9
    39        124
    40         28
    41         79
    42          5
    43          7
    44          2
    45          5
    46          6
    50         11
    51         23
    52         13
    53         51
    54         41
    55         53
    56          3
    57          5
    61          2
    62          6
    63         10
    64          4
    65         47
    67        293
    68         54
    69          5
    70          2
    71          1
    72          1
    73          1
    74          1
    75          2
    76          1
    77         41
    78         10
    79         60
    80         13
    81          7
    82          3
    83          1
    84          0
    85          1
    91         21
    92          3
    93         34
    94         12
    95        999
    96         82
    97          3
    98          0
   104          0
   105          1
   106          1
   119          2
   120          1
   121          2
   132          3
   133          1
   134          2
   135          1