##TITLE=Library Entry 17020
##JCAMP-DX=Revision 4.10 
##DATA TYPE=MASS SPECTRUM
##SAMPLE DESCRIPTION=Exported from NIST MS Search
##NAMES=HP
##CAS NAME=2,5-Hexanediol
##MOLFORM=C6H14O2
##CAS REGISTRY NO=2935-44-6
##MP= -300
##BP= -300
##MW= 118
##$RETENTION INDEX=925
##$CONDENSED SPECTRUM=NO
##NPOINTS= 76
##XYDATA=(XY..XY) 1 
    14          1
    15         13
    16          1
    17         13
    18         61
    19         15
    26          3
    27         38
    28         28
    29         72
    30          3
    31         22
    32          1
    36          1
    37          1
    38          2
    39         22
    40         10
    41        223
    42         17
    43        188
    44         26
    45        999
    46          9
    47          8
    49          1
    50          1
    51          4
    52          1
    53          6
    54          4
    55         61
    56        507
    57         98
    58         98
    59         12
    60          1
    61          1
    62          1
    63          7
    65          2
    66          1
    67         53
    68          3
    69          3
    70          1
    71          9
    72          2
    73          1
    74          2
    75          1
    76          1
    77          1
    79          1
    81          1
    82          1
    83         10
    84          1
    85        236
    86         14
    87          2
    88          1
    89          1
    97          1
    98          1
    99          7
   100          2
   101          2
   102          1
   103          5
   104          1
   114          1
   115          1
   117          1
   118          1
   119          1