##TITLE=Library Entry 8845
##JCAMP-DX=Revision 4.10 
##DATA TYPE=MASS SPECTRUM
##SAMPLE DESCRIPTION=NIST Mass Spectrometry Data Center
##NAMES=HP
##CAS NAME=(3S,8S,9S,10R,13R,14S,17R)-17-((2R,5R)-5,6-Dimethylheptan-2-yl)-3
-methoxy-10,13-dimethyl-2,3,4,7,8,9,10,11,12,13,14,15,16,17-tetradecahydro-1
H-cyclopenta[a]phenanthrene
##MOLFORM=C29H50O
##CAS REGISTRY NO=29365-29-5
##MP= -300
##BP= -300
##MW= 414
##$RETENTION INDEX=3185
##$CONDENSED SPECTRUM=NO
##NPOINTS= 191
##XYDATA=(XY..XY) 1 
    29         96
    31         15
    41        476
    42        100
    43        999
    44         44
    45         67
    49         10
    50         14
    51         20
    53         68
    54         23
    55        567
    56         42
    57        400
    58         29
    59         24
    64         10
    65         71
    66         18
    67        363
    68         44
    69        273
    71        664
    72         26
    74         25
    77        125
    79        419
    80         16
    81        426
    82         26
    83        207
    85        153
    88          7
    91        415
    92         84
    93        316
    94         86
    95        372
    97        176
    99         23
   102         14
   104         23
   105        412
   106        137
   107        427
   108        104
   109        223
   110         49
   111         98
   112         42
   113         15
   115         70
   116         33
   117        166
   118         32
   119        381
   120        274
   121        289
   122         75
   123        108
   124         23
   125         40
   127         19
   128         48
   129         76
   130         35
   131        248
   132        117
   133        353
   134         77
   135        215
   136         40
   137         68
   138         47
   139         73
   141         35
   142         28
   143        131
   144         83
   145        436
   146        106
   147        204
   148         57
   149         76
   151         24
   152         29
   155         17
   157         74
   158         47
   159        265
   160        157
   161        223
   162         52
   163        127
   164         27
   165         38
   166         14
   167         14
   171         70
   172         25
   173        115
   174         38
   175         67
   176         19
   177         39
   178         25
   179         21
   180         12
   183         15
   185         47
   186         35
   187         59
   189         33
   191         35
   192         58
   193         22
   194         25
   197         26
   199         60
   200         35
   201         37
   203         40
   206         13
   209         43
   211         21
   212          8
   213        224
   214         60
   215         59
   216         19
   217         29
   219         30
   222         27
   224         11
   227         39
   228         63
   229         44
   233         29
   240         11
   241         41
   245         37
   247         16
   250         10
   255        178
   256         41
   257         11
   259         22
   260         33
   261        118
   262         24
   273         31
   274         14
   275         15
   285         15
   286         20
   287         52
   288         82
   289        184
   290         56
   297          7
   299          9
   301         18
   314         23
   315        175
   316         38
   327         41
   330         10
   332         16
   333         12
   339         20
   340         61
   341         38
   343         87
   344         26
   345         15
   355         28
   357         30
   358          7
   367        297
   368         96
   369         19
   382        444
   383        115
   384         42
   385         14
   399        109
   400         36
   401         21
   414        192
   415         78