##TITLE=Library Entry 76379
##JCAMP-DX=Revision 4.10 
##DATA TYPE=MASS SPECTRUM
##SAMPLE DESCRIPTION=Exported from NIST MS Search
##NAMES=HP
##CAS NAME=Urea, 1,3-bis(4,6-diphenyl-s-triazin-2-yl)-
##MOLFORM=C31H22N8O
##CAS REGISTRY NO=29366-70-9
##MP= -300
##BP= -300
##MW= 522
##$RETENTION INDEX=0
##$CONDENSED SPECTRUM=NO
##NPOINTS= 21
##XYDATA=(XY..XY) 1 
    50        140
    51        140
    55        170
    56         10
    57        810
    58         30
    76        310
    77        280
    78         20
    81        140
    82         10
   103        999
   104        330
   105        110
   106         10
   220        110
   221         10
   248        330
   249         40
   274        280
   275         60