##TITLE=Library Entry 23760
##JCAMP-DX=Revision 4.10 
##DATA TYPE=MASS SPECTRUM
##SAMPLE DESCRIPTION=NIST Mass Spectrometry Data Center
##NAMES=HP
##CAS NAME=2,2-di-n-Propylacetyl chloride
##MOLFORM=C8H15ClO
##CAS REGISTRY NO=2936-08-5
##MP= -300
##BP= -300
##MW= 162
##$RETENTION INDEX=0
##$CONDENSED SPECTRUM=NO
##NPOINTS= 65
##XYDATA=(XY..XY) 1 
    15         14
    26         18
    27        224
    28         30
    29        183
    30          4
    35          1
    36          2
    37          2
    38         10
    39        140
    40         24
    41        380
    42         93
    43        275
    44          9
    49          2
    50          6
    51         13
    52          5
    53         32
    54         14
    55        240
    56         71
    57        999
    58         39
    62          2
    63         18
    65         11
    66          2
    67         10
    68          5
    69         31
    70         20
    71          9
    72          1
    75          2
    77          4
    78          6
    79          3
    80          2
    81          2
    82          1
    83         10
    84         65
    85         41
    86          2
    91        113
    92          8
    93         37
    94          3
    97          9
    98         15
    99         96
   100          7
   105          6
   107          2
   120        285
   121         18
   122         93
   123          5
   127         48
   128          3
   133          3
   135          1