##TITLE=Library Entry 70734
##JCAMP-DX=Revision 4.10 
##DATA TYPE=MASS SPECTRUM
##SAMPLE DESCRIPTION=A.A.Kutin, Moscow, Russia
##NAMES=HP
##CAS NAME=Acetamide, 2-(1-piperidyl)-N-(2-acetylbenzofuran-3-yl)-
##MOLFORM=C17H20N2O3
##CAS REGISTRY NO=293758-92-6
##MP= -300
##BP= -300
##MW= 300
##$RETENTION INDEX=0
##$CONDENSED SPECTRUM=NO
##NPOINTS= 161
##XYDATA=(XY..XY) 1 
    33          0
    35         24
    36        127
    37          8
    38         43
    39         29
    40         18
    41        173
    42        168
    43        116
    44         75
    45          8
    46          1
    47          0
    48          0
    50          7
    51         18
    52          7
    53          9
    54         12
    55        108
    56         28
    57          9
    58          4
    59          2
    60          0
    61          0
    62          2
    63          4
    64          2
    65          5
    66          1
    67          8
    68         17
    69         46
    70         59
    71          5
    72          0
    73          1
    74          4
    75          8
    76         22
    77         29
    78          4
    79          2
    80          2
    81          2
    82          5
    83          7
    84         80
    85          5
    86          1
    87          1
    88          1
    89          4
    90          2
    91          7
    92          1
    93          0
    94          1
    95          2
    96         29
    98        999
    99         82
   100          3
   101          2
   102          9
   103         17
   104         13
   105          4
   106          0
   107          0
   108          0
   109          0
   110          0
   111          0
   112          0
   113          0
   114          1
   115          1
   116          2
   117          2
   118          1
   119          2
   120          2
   121          0
   122          0
   123          1
   124          6
   125         67
   126          5
   127          0
   128          1
   129          0
   130          3
   131          2
   132          8
   133          1
   134          0
   135          0
   138          0
   139          0
   140          0
   141          0
   142          0
   143          0
   144          1
   145          2
   146         12
   147          1
   149          0
   151          0
   153          0
   155          0
   156          2
   157          0
   158          0
   159          1
   160          6
   161          0
   162          0
   165          0
   166          0
   167          1
   168          0
   169          0
   170          0
   171          0
   172          1
   173          0
   175          7
   176          1
   182          0
   183          0
   184          1
   186          2
   187          0
   188          0
   193          0
   195          0
   197          0
   199          0
   200          0
   201          0
   202          1
   203          0
   211          0
   212          0
   213          0
   214          0
   215          0
   217          0
   227          0
   229          0
   257          0
   258          0
   271          0
   298          0
   300          7
   301          1
   302          0