##TITLE=Library Entry 8904
##JCAMP-DX=Revision 4.10 
##DATA TYPE=MASS SPECTRUM
##SAMPLE DESCRIPTION=CARL DJERASSI DEPT OF CHEM STANFORD UNIV STANFORD CALIF
 94305
##NAMES=HP
##CAS NAME=4-Decanone, 9-methyl-
##MOLFORM=C11H22O
##CAS REGISTRY NO=29379-11-1
##MP= -300
##BP= -300
##MW= 170
##$RETENTION INDEX=0
##$CONDENSED SPECTRUM=NO
##NPOINTS= 21
##XYDATA=(XY..XY) 1 
    41        404
    42         60
    43        999
    44         30
    55        121
    57        505
    58        848
    59         50
    67         90
    69         50
    71        979
    72         50
    82        313
    83        101
    86        636
    87        151
    99        171
   109        686
   110         60
   127        161
   170         80