##TITLE=Library Entry 7858
##JCAMP-DX=Revision 4.10 
##DATA TYPE=MASS SPECTRUM
##SAMPLE DESCRIPTION=L.N.Kulikova, V.G. Zaikin, Peoples' Friendship Universi
ty of Russia, Moscow
##NAMES=HP
##CAS NAME=Ether, dodecyl isopropyl
##MOLFORM=C15H32O
##CAS REGISTRY NO=29379-42-8
##MP= -300
##BP= -300
##MW= 228
##$RETENTION INDEX=0
##$CONDENSED SPECTRUM=NO
##NPOINTS= 70
##XYDATA=(XY..XY) 1 
    26          8
    27         67
    29        106
    31         11
    38          3
    39         50
    40         11
    41        307
    42        107
    43        999
    44         25
    45         42
    51          1
    53         13
    54         20
    55        298
    56        130
    57        744
    58         35
    59         40
    61         83
    65          1
    66          1
    67         32
    68         51
    69        195
    70        105
    71        493
    72         28
    73        397
    74         16
    77          1
    79          3
    81         15
    82         56
    83        145
    84         62
    85        359
    86         22
    91          1
    95          7
    96         17
    97        109
    98         39
    99        143
   100          9
   109          3
   110          7
   111         65
   112         24
   113         98
   114          6
   124          1
   125         16
   126          8
   127         41
   128          2
   139          3
   140         21
   141          2
   153          1
   166          3
   167          5
   168         36
   169         97
   170         15
   171          1
   213        120
   214         19
   215          1