##TITLE=Library Entry 18972
##JCAMP-DX=Revision 4.10 
##DATA TYPE=MASS SPECTRUM
##SAMPLE DESCRIPTION=Chemical Concepts
##NAMES=HP
##CAS NAME=2,2'-(1,4-Piperazinediyl)bis[N-(m-tolyl)succinimide]
##MOLFORM=C26H28N4O4
##CAS REGISTRY NO=293766-03-7
##MP= -300
##BP= -300
##MW= 460
##$RETENTION INDEX=0
##$CONDENSED SPECTRUM=NO
##NPOINTS= 169
##XYDATA=(XY..XY) 1 
    34         47
    35          7
    36         41
    37         20
    38         40
    40        793
    41        249
    42        320
    43        201
    44        314
    45        353
    46        156
    47          7
    48          5
    49          6
    50         35
    51         66
    52        106
    54        395
    55        999
    56        494
    57         93
    58         71
    59          9
    60          8
    61          9
    62         17
    63         46
    64         72
    65         38
    67         47
    68        131
    69        142
    70        109
    71         79
    72         36
    73         16
    74          9
    75         38
    77        110
    78         90
    79         41
    80         31
    81         38
    82        226
    83        171
    84        642
    85         94
    86         11
    87          9
    89         28
    90         38
    91        118
    92         34
    93         13
    95         32
    96         53
    97         34
    98         18
    99         11
   100          5
   101          4
   102          9
   104        137
   105         46
   106         35
   107         84
   108         23
   109         22
   110         79
   111         95
   112         30
   113          9
   115          7
   116         13
   117         52
   118         37
   119         10
   120         13
   121          8
   122          6
   123         12
   124          7
   125         12
   126          9
   127         27
   128          9
   129         16
   130         54
   132        115
   133        150
   134         45
   135          9
   136          9
   137         37
   138         24
   139          9
   141          2
   142         12
   143         28
   144         11
   145          9
   146         41
   147          7
   149         14
   150          2
   151          3
   153          8
   155          5
   157          3
   158         16
   159         25
   160         23
   161         24
   162          7
   163          4
   164          3
   165          9
   169         18
   170          5
   171         17
   172         15
   173          5
   174          2
   175          6
   184          2
   185         13
   187        319
   188         60
   189        103
   190         17
   191          3
   199          4
   200          9
   201         11
   202          6
   203          2
   207          9
   208          2
   209          8
   214          3
   215          9
   216         44
   217         60
   218         10
   228         11
   229         31
   230         33
   231         83
   232         11
   241          5
   243        101
   244         47
   245         35
   246          7
   269          8
   270         11
   271         34
   272        220
   273         49
   274          5
   283          2
   284          6
   298          4
   299         16
   300          2
   326          4
   460         49
   461         13