##TITLE=Library Entry 64390
##JCAMP-DX=Revision 4.10 
##DATA TYPE=MASS SPECTRUM
##SAMPLE DESCRIPTION=A.A.Kutin, Moscow, Russia
##NAMES=HP
##CAS NAME=Quinolin-4-ol, perhydro-1-benzyl-4-phenyl-
##MOLFORM=C22H27NO
##CAS REGISTRY NO=293727-66-9
##MP= -300
##BP= -300
##MW= 321
##$RETENTION INDEX=0
##$CONDENSED SPECTRUM=NO
##NPOINTS= 202
##XYDATA=(XY..XY) 1 
    33          4
    34          4
    39         18
    40         37
    41         55
    42         58
    43         33
    44         21
    45          2
    46          0
    50          1
    51         10
    52          3
    53         15
    54         24
    55         61
    56         17
    57         12
    58         11
    59          2
    60          1
    62          0
    63          4
    65         46
    67         33
    68         40
    69         13
    70          7
    71          3
    72          0
    74          0
    75          2
    77         67
    78         20
    79         25
    80         16
    81         47
    82         29
    83          8
    84          4
    85          1
    86          1
    88         17
    89         13
    91        999
    92         75
    93          6
    94          4
    95          4
    96         10
    97          3
    98          3
    99          1
   100          0
   102          2
   103         13
   104         20
   105        147
   106         28
   107          7
   108         10
   109         10
   110         57
   111          6
   112          1
   113          1
   114          0
   115         14
   116          5
   117         20
   118         26
   119         47
   120         51
   121          5
   122          1
   123          0
   124          6
   125          1
   126          0
   127          3
   128         11
   129         12
   130          7
   131         13
   132         21
   133         20
   134          8
   135          0
   139          1
   140          2
   141          6
   142          4
   143         16
   144          9
   145          6
   146         11
   147          0
   148         11
   149          1
   150          0
   151          0
   152          2
   153          1
   154          2
   155          3
   156          9
   157          7
   158         33
   159          8
   160          5
   161          1
   162          0
   165          0
   167          3
   168          2
   169          2
   170          5
   171          5
   172          6
   173          2
   174          9
   175          0
   181          0
   182          0
   183          0
   184          2
   185          2
   186          6
   188         27
   189          4
   193          0
   194          0
   196          0
   197          0
   198          2
   199          2
   200         36
   201         12
   202          7
   203          1
   207          0
   208          0
   210          0
   211          0
   212          4
   213          1
   214          2
   216          2
   226          2
   227          0
   228          4
   230         33
   231          6
   232          0
   235          0
   236          2
   237          0
   238          0
   239          2
   240          0
   241          2
   242          4
   244        100
   245         18
   246          4
   248         50
   249          8
   250          2
   257          0
   260          1
   261          1
   262          1
   264         29
   265          6
   266          0
   271          0
   273          0
   274          8
   275         12
   278        909
   279        172
   280         18
   281          1
   285          0
   292          0
   296          0
   299          0
   300          1
   301          1
   302          6
   304         91
   305         17
   306          1
   312          0
   314          0
   316          0
   317          2
   318          6
   321        533
   322        110
   323         13
   324          0