##TITLE=Library Entry 47799
##JCAMP-DX=Revision 4.10 
##DATA TYPE=MASS SPECTRUM
##SAMPLE DESCRIPTION=A.A.Kutin, Moscow, Russia
##NAMES=HP
##CAS NAME=Quinolin-4-one, perhydro-1-phenylsulfonyl-
##MOLFORM=C15H19NO3S
##CAS REGISTRY NO=293727-82-9
##MP= -300
##BP= -300
##MW= 293
##$RETENTION INDEX=0
##$CONDENSED SPECTRUM=NO
##NPOINTS= 103
##XYDATA=(XY..XY) 1 
    33         53
    34          3
    36         11
    38          2
    39         88
    41        279
    42        105
    43         62
    44         23
    45          3
    48          2
    50         34
    51        118
    52         14
    53         59
    54         95
    55        279
    56         40
    57          6
    63          1
    64          2
    65         27
    67        101
    68         85
    69         57
    70         19
    71          3
    74          5
    75          7
    77        999
    78         84
    79         65
    80         49
    81        130
    82         67
    83         27
    84          5
    86          1
    91         14
    92         16
    93         16
    94         29
    95         29
    96         49
    97         33
    98         10
   104          2
   105         12
   106          3
   107          9
   108         36
   110        590
   111         28
   118         11
   119          4
   122         22
   123         28
   124         46
   125         43
   126          2
   133          2
   134         16
   135          2
   136         15
   138          6
   141        657
   143         84
   144          1
   145          1
   148          2
   149          7
   150         68
   151        644
   152        667
   153         56
   154          4
   157          3
   164          6
   165          1
   166          2
   170         16
   171          2
   188          2
   205          1
   222          4
   236          3
   237          6
   238         19
   250        973
   251        271
   252         73
   253         13
   264        307
   265         43
   266         13
   274          1
   276         44
   278         28
   279          2
   292          1
   293        460
   294         73
   295         25