##TITLE=Library Entry 7853
##JCAMP-DX=Revision 4.10 
##DATA TYPE=MASS SPECTRUM
##SAMPLE DESCRIPTION=Exported from NIST MS Search
##NAMES=HP
##CAS NAME=Octane, 1-propoxy-
##MOLFORM=C11H24O
##CAS REGISTRY NO=29379-41-7
##MP= -300
##BP= -300
##MW= 172
##$RETENTION INDEX=0
##$CONDENSED SPECTRUM=NO
##NPOINTS= 72
##XYDATA=(XY..XY) 1 
    14          2
    15          7
    17          9
    18         44
    19          2
    26          7
    27        148
    28         73
    29        156
    30          6
    31         43
    32         14
    33          3
    38          2
    39         66
    40         15
    41        342
    42        157
    43        999
    44         46
    45         23
    46          1
    47          2
    50          1
    51          2
    52          2
    53         15
    54         18
    55        235
    56        266
    57        508
    58         29
    59         26
    60          4
    61        239
    62          8
    63          1
    65          2
    66          2
    67         18
    68         84
    69        212
    70        195
    71        385
    72         24
    73        240
    74         11
    75          3
    77          1
    79          2
    81          6
    82         60
    83        165
    84         27
    85         23
    86          2
    95          2
    96          1
    97         17
    98          2
    99          2
   110          2
   111         57
   112        105
   113         22
   114          2
   115          5
   129          4
   143         11
   144          1
   172          2
   173          1