##TITLE=Library Entry 2159
##JCAMP-DX=Revision 4.10 
##DATA TYPE=MASS SPECTRUM
##SAMPLE DESCRIPTION=NIST Mass Spectrometry Data Center, 1990.
##NAMES=HP
##CAS NAME=Allyl chloroformate
##MOLFORM=C4H5ClO2
##CAS REGISTRY NO=2937-50-0
##MP= -300
##BP= -300
##MW= 120
##$RETENTION INDEX=730
##$CONDENSED SPECTRUM=NO
##NPOINTS= 51
##XYDATA=(XY..XY) 1 
    12          7
    13          7
    14         20
    15         44
    16          0
    17          3
    18          1
    24          6
    25         22
    26        108
    27        197
    28        146
    29        235
    30         16
    31         18
    34          4
    35         51
    36         16
    37         77
    38        117
    39        620
    40        261
    41        999
    42         42
    43         16
    44         78
    45         13
    47          3
    51          3
    53          3
    55         34
    56         41
    57        128
    58          4
    63        378
    64         17
    65        117
    66          3
    76        128
    77          8
    78         48
    79          2
    80          3
    81          6
    84          8
    85         18
    91          6
    92          7
    93          4
    94          2
   120          3