##TITLE=Library Entry 28377
##JCAMP-DX=Revision 4.10 
##DATA TYPE=MASS SPECTRUM
##SAMPLE DESCRIPTION=A.A.Kutin, Moscow, Russia
##NAMES=HP
##CAS NAME=cis-Pyrido[4,3-b]indole, 1,2,3,4,4a,9b-hexahydro-5-hexanoyl-2,8-d
imethyl-
##MOLFORM=C19H28N2O
##CAS REGISTRY NO=293727-63-6
##MP= -300
##BP= -300
##MW= 300
##$RETENTION INDEX=0
##$CONDENSED SPECTRUM=NO
##NPOINTS= 141
##XYDATA=(XY..XY) 1 
    33          1
    34          1
    39          3
    40         16
    41         18
    42         55
    43        308
    44         20
    45          0
    50          0
    51          1
    52          0
    53          1
    55          9
    56          6
    58        999
    59         32
    60          0
    63          0
    64          0
    65          1
    67          0
    68          1
    70        108
    71        319
    72         15
    73          0
    75          0
    77          3
    78          2
    79          0
    80          0
    82          4
    83          1
    84          1
    85          0
    87          0
    89          0
    90          0
    91          3
    93          0
    94          3
    95          3
    96          2
    97          1
    99          3
   100          0
   101          0
   102          1
   103          2
   104          1
   105          0
   107          0
   110          0
   112          0
   113          0
   114          0
   115          4
   116          2
   117          2
   118          1
   120          1
   121          0
   126          0
   127          1
   128          3
   129          4
   130         19
   131         30
   132         19
   133         10
   134          1
   139          0
   140          0
   141          1
   142          4
   143         10
   144         14
   145          9
   146          3
   147          1
   153          0
   154          0
   156         10
   157          9
   158         33
   159          9
   160          3
   161          0
   167          0
   168          1
   169          0
   170          3
   171          5
   172          3
   173          2
   174          0
   175          0
   181          0
   182          0
   183          1
   184          1
   185          7
   186          5
   187          3
   188          0
   197          0
   199          7
   200          9
   201         61
   202         16
   203          2
   211          0
   212          0
   213          0
   214          0
   216          0
   227          0
   228          0
   229          3
   230          1
   231          0
   232          0
   243          0
   244          0
   255          0
   256          0
   257          3
   258          0
   271          0
   272          0
   283          0
   284          0
   285          0
   286          0
   296          0
   297          0
   298          1
   300         68
   301         11
   302          1