##TITLE=Library Entry 67680
##JCAMP-DX=Revision 4.10 
##DATA TYPE=MASS SPECTRUM
##SAMPLE DESCRIPTION=Chemical Concepts
##NAMES=HP
##CAS NAME=Bis[2-(2-furoyloxy)-1-naphthyl]methane
##MOLFORM=C31H20O6
##CAS REGISTRY NO=293761-82-7
##MP= -300
##BP= -300
##MW= 488
##$RETENTION INDEX=0
##$CONDENSED SPECTRUM=NO
##NPOINTS= 170
##XYDATA=(XY..XY) 1 
    33          7
    37          6
    39        308
    41          9
    43         13
    44         14
    45          2
    51         23
    53          9
    55          9
    57          9
    60          1
    62          2
    63          7
    64          5
    66          6
    67         42
    68          3
    69          3
    70          2
    71          3
    73          2
    75          5
    76          4
    77          9
    78          1
    79          1
    81          2
    82          2
    84          2
    85          2
    86          3
    87          3
    88          4
    89          4
    91          2
    95        999
    98          1
    99          1
   100          1
   101          2
   102          5
   103          2
   105          1
   109          1
   111          1
   112          3
   113          6
   114          4
   115         14
   119          2
   120          1
   125          6
   127          9
   128          8
   129          3
   131          2
   137          1
   139          9
   140          2
   141          2
   142          1
   144          8
   149          3
   150          2
   151          2
   152          3
   155          1
   156          1
   157          2
   161          1
   163          4
   164          1
   165          3
   170          2
   171          3
   176          1
   181          9
   182          2
   183          5
   187          3
   188          1
   189          3
   197          1
   200          2
   201          1
   202          2
   211          2
   212          1
   213          7
   214          2
   215          5
   221          4
   222          2
   223          2
   224          3
   225          3
   226          9
   227          2
   228          2
   233          1
   234          1
   235          1
   236          3
   237         10
   238         16
   239         36
   240          9
   241          5
   242          1
   248          2
   249          6
   250         14
   251          9
   252         27
   253          9
   254          2
   255          2
   263          2
   264          3
   265          7
   266          2
   268          9
   269          5
   270          1
   276          2
   278          7
   279          9
   281        298
   282         59
   283          8
   284          2
   295          2
   297          5
   298          2
   299         12
   300          3
   305          1
   319          2
   325          2
   337          2
   346          1
   347          7
   348          2
   365          2
   373          1
   375          8
   376         20
   377          6
   390          1
   391          4
   392          4
   393         24
   394         10
   395          2
   465          1
   466          1
   467          2
   468          2
   470         45
   471         12
   472          3
   483          1
   484          1
   485          2
   486          3
   487          5
   488         45
   489         13
   490          3