##TITLE=Library Entry 58987
##JCAMP-DX=Revision 4.10 
##DATA TYPE=MASS SPECTRUM
##SAMPLE DESCRIPTION=A.A.Kutin, Moscow, Russia
##NAMES=HP
##CAS NAME=Cyclopropanecarboxamide, 2,2-dimethyl-N-benzyl-
##MOLFORM=C13H17NO
##CAS REGISTRY NO=293761-39-4
##MP= -300
##BP= -300
##MW= 203
##$RETENTION INDEX=0
##$CONDENSED SPECTRUM=NO
##NPOINTS= 121
##XYDATA=(XY..XY) 1 
    36          0
    37          1
    38         10
    39        173
    40         35
    41        369
    42         39
    43         41
    44         19
    45          3
    46          0
    50         28
    51         81
    52         27
    53         76
    54         53
    55        104
    56         19
    57          8
    58          6
    59         23
    60          1
    61          1
    62          6
    63         30
    65        201
    67         91
    68         29
    69        207
    70        114
    71         11
    72          9
    73          3
    74          5
    75          6
    76          9
    77        101
    78         48
    79         55
    81         30
    82         12
    83         13
    84         48
    85          4
    86          1
    87          1
    89         29
    91        999
    92        122
    94         22
    95         34
    96         46
    97         73
    98          8
    99          3
   101          0
   102          1
   103          5
   104         49
   105         20
   106         96
   107         22
   108          2
   109          0
   110          5
   112         33
   113          2
   114          0
   115          7
   116          3
   117         33
   118         63
   119         32
   120          3
   121          0
   123          3
   124          0
   127          1
   128          3
   129          4
   130          3
   131          9
   132        114
   133         12
   134          4
   135          3
   136          0
   141          0
   142          1
   143          3
   144         18
   145         17
   146         17
   147         30
   148          9
   149          2
   150          0
   157          0
   158          1
   159          3
   160         94
   161         11
   162         34
   163          3
   171          0
   172          0
   174          7
   175          1
   176          0
   185          0
   186          1
   187          0
   188         11
   189          1
   190          0
   200          0
   202         79
   203        170
   204         29
   205          1
   206          0