##TITLE=Library Entry 37159
##JCAMP-DX=Revision 4.10 
##DATA TYPE=MASS SPECTRUM
##SAMPLE DESCRIPTION=A.A.Kutin, Moscow, Russia
##NAMES=HP
##CAS NAME=Oxane-2,4-dione, 6-(4-bromophenyl)-5-ethyl-3,3-diimethyl-, trans-
##MOLFORM=C15H17BrO3
##CAS REGISTRY NO=293751-51-6
##MP= -300
##BP= -300
##MW= 324
##$RETENTION INDEX=0
##$CONDENSED SPECTRUM=NO
##NPOINTS= 63
##XYDATA=(XY..XY) 1 
    33         62
    37          1
    39         77
    40         96
    41        182
    42        255
    44         32
    45          2
    50         21
    51         34
    53         17
    55         45
    57          2
    58          0
    59          4
    62          1
    63         12
    64          6
    65          5
    67          5
    70        999
    71         28
    74          3
    75         21
    76         16
    77         30
    78          5
    81          2
    84         74
    85          1
    89         15
    91         28
   102         12
   103          1
   105          5
   110          1
   112         42
   113          1
   115         28
   116        106
   117          2
   128          7
   129         20
   130         28
   131         68
   132          4
   140        187
   155          2
   157          8
   171          2
   183          6
   185          7
   195          6
   197          3
   210         26
   211          0
   212         26
   213          1
   237         10
   239         14
   324         13
   326         15
   327          0