##TITLE=Library Entry 58770
##JCAMP-DX=Revision 4.10 
##DATA TYPE=MASS SPECTRUM
##SAMPLE DESCRIPTION=Chemical Concepts
##NAMES=HP
##CAS NAME=4,4'-Bis(4-azidophenoxy)benzophenone
##MOLFORM=C25H16N6O3
##CAS REGISTRY NO=293761-69-0
##MP= -300
##BP= -300
##MW= 448
##$RETENTION INDEX=0
##$CONDENSED SPECTRUM=NO
##NPOINTS= 168
##XYDATA=(XY..XY) 1 
    33         75
    34         15
    36          7
    37         29
    38         52
    39        337
    40        182
    41         91
    43         92
    44        117
    45         12
    50        156
    51        125
    52        152
    53         43
    54         21
    55         62
    56         19
    57         45
    58          6
    60         18
    61         20
    63        582
    64        181
    65         54
    66          9
    67         16
    69         61
    70         21
    71         25
    73         17
    74         33
    75         59
    76        209
    77         67
    78        108
    80        175
    81         22
    83         23
    84         12
    85         10
    86          9
    88         27
    90        999
    91         70
    92         78
    93         28
    94          7
    95         10
    97          9
    98          9
    99          9
   100          6
   101         21
   102         85
   103         29
   104         95
   105         29
   106         76
   108         27
   109          8
   111          8
   112          9
   113         10
   114         10
   115         13
   117          7
   118          8
   120         71
   121         70
   122          6
   125         10
   126         28
   127        110
   128         54
   129         23
   130         22
   131          8
   139         80
   140         24
   141         11
   142          6
   149         17
   150         11
   151         19
   152         57
   153         37
   154         39
   155         27
   156         26
   157         14
   165         19
   166         16
   167         12
   168         20
   169          9
   170          8
   171          9
   176          7
   177          6
   178          7
   179          9
   180         29
   181        111
   182        179
   183         32
   184         14
   185          7
   189          7
   190          7
   191          5
   193          5
   195         39
   196        123
   197         44
   198         39
   199          5
   202          8
   203          7
   209          7
   210         85
   211         12
   212         12
   213          9
   214          5
   215         25
   216         11
   217          5
   222         24
   228          6
   231          5
   242          7
   243          9
   244         12
   245         10
   246          6
   256          7
   260          5
   271         12
   272         16
   273          9
   274          8
   277          6
   278          6
   279         11
   284          5
   285         11
   286          7
   289          9
   299          5
   301          7
   302         25
   303          9
   307          9
   308          6
   336          9
   363          9
   364         11
   391          6
   392         40
   393          9
   416          5
   417         12
   418         22
   420        175
   421         41
   422         11
   448         18