##TITLE=Library Entry 97619
##JCAMP-DX=Revision 4.10 
##DATA TYPE=MASS SPECTRUM
##SAMPLE DESCRIPTION=NIST Mass Spectrometry Data Center, 1994
##NAMES=HP
##CAS NAME=1,1-Diethyl-1,2,3,4-tetrahydronaphthalene
##MOLFORM=C14H20
##CAS REGISTRY NO=2938-66-1
##MP= -300
##BP= -300
##MW= 188
##$RETENTION INDEX=1439
##$CONDENSED SPECTRUM=NO
##NPOINTS= 73
##XYDATA=(XY..XY) 1 
    14          1
    15         26
    27        258
    29        375
    30          8
    39         84
    40          8
    41         71
    42          9
    43         52
    50         15
    51         46
    52         13
    53         27
    54          3
    55         19
    56          2
    57          4
    62          8
    63         37
    64         11
    65         44
    66          5
    67          5
    69          2
    71          4
    74          6
    75         13
    76         13
    77         58
    78         23
    79         14
    80          1
    81          5
    86          1
    87          5
    89         26
    91        161
    92         13
   101          7
   102         23
   103         25
   104          5
   105         13
   106          2
   113          5
   115        229
   117        999
   118         97
   119          8
   127         65
   128        179
   129        177
   130         50
   131         48
   132          6
   139          7
   141         30
   142         13
   143         17
   144         23
   145          7
   151          2
   152          6
   153          5
   154          1
   155          2
   156          1
   159        615
   160         78
   161          4
   188         40
   189          5