##TITLE=Library Entry 48755
##JCAMP-DX=Revision 4.10 
##DATA TYPE=MASS SPECTRUM
##SAMPLE DESCRIPTION=J. SHAW, BORRISTON RESEARCH, ROCKVILLE, MD, USA
##NAMES=HP
##CAS NAME=cis-Captafol
##MOLFORM=C10H9Cl4NO2S
##CAS REGISTRY NO=2939-80-2
##MP= -300
##BP= -300
##MW= 347
##$RETENTION INDEX=0
##$CONDENSED SPECTRUM=NO
##NPOINTS= 200
##XYDATA=(XY..XY) 1 
    12          5
    13          2
    14          3
    15         16
    16          7
    17         38
    18        121
    19          1
    24          2
    25          9
    26         49
    27        249
    28         92
    29         26
    30          8
    31          1
    32         11
    33          2
    34          2
    35         26
    36         65
    37         13
    38         45
    39        267
    40         50
    41         93
    42         16
    43         14
    44         42
    45         40
    46         43
    47         24
    48         27
    49         11
    50         49
    51        143
    52        115
    53        138
    54         74
    55         34
    56         28
    57         56
    58          6
    59         10
    60         44
    61          4
    62         15
    63         19
    64          9
    65         66
    66         31
    67         46
    68         11
    69          8
    70        125
    71          8
    72         50
    73          5
    74         34
    75          8
    76         39
    77        462
    78        301
    79        999
    80        416
    81         68
    82         33
    83         58
    84          6
    85         40
    86          7
    87          7
    88          4
    89          2
    90          5
    91         28
    92         60
    93         19
    94         35
    95         38
    96         10
    97         24
    98          6
    99          9
   100          3
   101          4
   102          1
   103          2
   104         11
   105         65
   106         53
   107        150
   108         19
   109          7
   110          3
   111         24
   112          4
   113          4
   114         62
   115         14
   116         21
   117         10
   118          1
   119          4
   120          2
   121         37
   122         29
   123          7
   124          3
   125          7
   126         11
   127         20
   128          9
   129         20
   130         41
   131         12
   132         38
   133          5
   134         36
   135          5
   136          9
   137          3
   138          3
   139          1
   140          3
   141          2
   142         18
   143          2
   144          6
   145          1
   146          2
   147          1
   148         25
   149         76
   150         47
   151          9
   152          2
   153          1
   154         15
   155          4
   156         16
   157          1
   158          9
   159          1
   160          2
   161         10
   162         19
   163         11
   164         19
   165         42
   166          9
   167         48
   168          4
   169         33
   170          3
   171         13
   172          3
   173          2
   174          1
   178          1
   180          4
   181          2
   182         42
   183         63
   184          9
   185          3
   186          1
   199          1
   202          1
   204          4
   206          3
   208          1
   217          1
   236          5
   238          4
   240          1
   242          1
   248          1
   250          1
   264         11
   265          1
   266          8
   267          1
   268          1
   276          6
   277          2
   278          5
   279          1
   280          1
   311         11
   312          9
   313         12
   314          9
   315          5
   316          3
   347          4
   348          1
   349          6
   350          1
   351          3