##TITLE=Library Entry 16799
##JCAMP-DX=Revision 4.10 
##DATA TYPE=MASS SPECTRUM
##SAMPLE DESCRIPTION=NIST Mass Spectrometry Data Center, 1990.
##NAMES=HP
##CAS NAME=12-Crown-4
##MOLFORM=C8H16O4
##CAS REGISTRY NO=294-93-9
##MP= -300
##BP= -300
##MW= 176
##$RETENTION INDEX=0
##$CONDENSED SPECTRUM=NO
##NPOINTS= 67
##XYDATA=(XY..XY) 1 
    14         12
    15        124
    16          7
    17          0
    18          2
    19         34
    25          1
    26         40
    27        162
    28        383
    29        298
    30         57
    31        155
    32          3
    33          2
    35          0
    39          4
    41         50
    42        149
    43        575
    44        371
    45        999
    46         21
    47          2
    51          1
    53          0
    54          1
    55          4
    56         15
    57         95
    58        149
    59        101
    60          9
    61         25
    62          2
    63          0
    69          5
    70         37
    71         41
    72         87
    73        164
    74         24
    75         34
    76          2
    83          2
    86         37
    87        130
    88         94
    89        231
    90         10
    91          1
    99          4
   100          4
   101         39
   102         17
   103         12
   104          9
   105          4
   113          0
   114          0
   115          1
   117          9
   118          0
   119          1
   131          1
   133         35
   134          2