##TITLE=Library Entry 20176
##JCAMP-DX=Revision 4.10 
##DATA TYPE=MASS SPECTRUM
##SAMPLE DESCRIPTION=Japan AIST/NIMC Database- Spectrum MS-NW-3626
##NAMES=HP
##CAS NAME=Cyclododecane
##MOLFORM=C12H24
##CAS REGISTRY NO=294-62-2
##MP= -300
##BP= -300
##MW= 168
##$RETENTION INDEX=1328
##$CONDENSED SPECTRUM=NO
##NPOINTS= 76
##XYDATA=(XY..XY) 1 
    15          8
    26          8
    27        173
    28         39
    29        289
    30          8
    31          1
    36          1
    37          1
    38          3
    39        176
    40         34
    41        752
    42        276
    43        547
    44         19
    50          3
    51          9
    52          6
    53         60
    54        110
    55        999
    56        759
    57        472
    58         22
    63          2
    64          1
    65          9
    66         11
    67        137
    68        298
    69        819
    70        650
    71        158
    72          9
    74          1
    77          6
    78          2
    79          9
    80          3
    81         53
    82        326
    83        743
    84        410
    85         98
    86          7
    91          2
    93          1
    94          1
    95         14
    96        127
    97        486
    98        242
    99         26
   100          2
   109          5
   110         49
   111        262
   112        137
   113         14
   114          1
   115          1
   123          1
   124         17
   125        109
   126         64
   127          8
   137          1
   138          7
   139         33
   140        121
   141         14
   153          1
   168        154
   169         20
   170          1