##TITLE=Library Entry 56182
##JCAMP-DX=Revision 4.10 
##DATA TYPE=MASS SPECTRUM
##SAMPLE DESCRIPTION=VERIFINN
##NAMES=HP
##CAS NAME=1,7-Dioxa-4,10-dithiacyclododecane
##MOLFORM=C8H16O2S2
##CAS REGISTRY NO=294-95-1
##MP= -300
##BP= -300
##MW= 208
##$RETENTION INDEX=1750
##$CONDENSED SPECTRUM=NO
##NPOINTS= 54
##XYDATA=(XY..XY) 1 
    27        277
    28        120
    29        157
    35         82
    41        102
    43        125
    44         76
    45        597
    46        390
    47        179
    58         74
    59        405
    60        613
    61        937
    62         52
    63         54
    72         39
    73         73
    74        162
    75        167
    76         54
    85        140
    86        999
    87        464
    88         72
    89        271
    91         65
   102         65
   103        195
   104        316
   105        749
   106         59
   107         57
   112         24
   113         12
   115          9
   117         38
   119          9
   130         15
   131         39
   135          5
   136         17
   137         95
   138         16
   148         17
   149         24
   157         18
   163          9
   164         15
   165         40
   176          8
   208        268
   209         25
   210         20