##TITLE=Library Entry 73219
##JCAMP-DX=Revision 4.10 
##DATA TYPE=MASS SPECTRUM
##SAMPLE DESCRIPTION=FDA, Los Angeles District Laboratory
##NAMES=HP
##CAS NAME=Ethiolate
##MOLFORM=C7H15NOS
##CAS REGISTRY NO=2941-55-1
##MP= -300
##BP= -300
##MW= 161
##$RETENTION INDEX=1207
##$CONDENSED SPECTRUM=NO
##NPOINTS= 18
##XYDATA=(XY..XY) 1 
    41         25
    42         40
    43         55
    44         95
    56         35
    71         75
    72        440
    73         30
    99         95
   100        999
   101         80
   118         45
   132         20
   160         50
   161        355
   162         85
   163         25
   164         20