##TITLE=Library Entry 47159
##JCAMP-DX=Revision 4.10 
##DATA TYPE=MASS SPECTRUM
##SAMPLE DESCRIPTION=A.A.Kutin, Moscow, Russia
##NAMES=HP
##CAS NAME=Acetamide, 2-phenoxy-N-[4-(2,2,2-trifluoro-1-hydroxy-1-methoxycar
bonyl)ethyl-N-methyl-
##MOLFORM=C19H18F3NO5
##CAS REGISTRY NO=294196-87-5
##MP= -300
##BP= -300
##MW= 397
##$RETENTION INDEX=0
##$CONDENSED SPECTRUM=NO
##NPOINTS= 221
##XYDATA=(XY..XY) 1 
    33          8
    35          0
    36          0
    38         30
    39        132
    40         24
    42         63
    43         26
    44          9
    45          5
    50         41
    51        152
    52         20
    53         10
    54          0
    55         16
    56          7
    57          6
    59        323
    60         17
    61          2
    62          8
    63         49
    65        162
    66         17
    67          9
    69         31
    70          2
    71          0
    72         20
    73          4
    74          7
    75         11
    77        999
    79        273
    80         15
    81          6
    82          0
    83          3
    84          0
    85          1
    87          2
    89          0
    90         29
    91         50
    92         27
    93         25
    94         34
    95         13
    97          4
    99          2
   101          2
   102          4
   104        125
   105        200
   107        724
   108         46
   109          6
   110          3
   111          3
   113          3
   114          0
   115          4
   117          9
   118        103
   119        109
   120         43
   121         29
   122          4
   123         12
   124          3
   125          2
   126          2
   127          8
   129          4
   130          1
   132        229
   133         86
   134        104
   135         26
   136          5
   137          2
   138          1
   139          3
   140          0
   141          6
   142          1
   143          1
   144          5
   145         11
   146         56
   147        193
   148        155
   149         18
   150          2
   151          3
   152          7
   153          2
   154          5
   155          4
   156          1
   157          3
   158          0
   159          3
   160          2
   161          3
   162          6
   163          2
   164          3
   165          3
   166          4
   167          2
   169         20
   170          0
   172          6
   173         20
   174         67
   175         15
   176         36
   177          6
   178          3
   179          0
   180          3
   181          0
   182          1
   183          9
   184          7
   185          2
   187          4
   188          8
   190          3
   191          1
   192         16
   194         16
   195          4
   196          0
   197          7
   198          7
   200          9
   202        205
   203        105
   204         99
   205         10
   206          3
   207          0
   208          2
   211          3
   212          3
   213          0
   214          5
   216        219
   217        107
   218         11
   222          2
   223          1
   224          2
   227          2
   228         12
   229          4
   230         27
   231          6
   232          6
   233          3
   234          3
   236          0
   237          0
   238          0
   239          0
   240          1
   242          4
   243         10
   244         79
   245         11
   246          2
   252          1
   255          1
   258         18
   259          3
   260          3
   261          5
   262         59
   263         21
   264          1
   266          0
   268         56
   269          9
   270          0
   271         11
   272          2
   274          1
   276        341
   277         42
   278          4
   284          1
   286        512
   287         68
   288         11
   290        631
   291         88
   292         13
   302          2
   304         15
   305          3
   309          0
   316          0
   328         38
   329          6
   336          1
   337         10
   338        140
   339         31
   340          4
   350          1
   368          0
   378          6
   379          1
   395          0
   397        714
   398        150
   399         20
   400          1