##TITLE=Library Entry 28922
##JCAMP-DX=Revision 4.10 
##DATA TYPE=MASS SPECTRUM
##SAMPLE DESCRIPTION=A.A.Kutin, Moscow, Russia
##NAMES=HP
##CAS NAME=Acetamide, 2-[2-(3-methyl-1,2,4-oxadiazol-5-yl)methoxy]phenoxy-
##MOLFORM=C12H13N3O4
##CAS REGISTRY NO=294193-47-8
##MP= -300
##BP= -300
##MW= 263
##$RETENTION INDEX=0
##$CONDENSED SPECTRUM=NO
##NPOINTS= 176
##XYDATA=(XY..XY) 1 
    33          0
    34          0
    36          0
    37          6
    38         44
    39        111
    40         70
    41        164
    42        294
    43         48
    44        236
    45          4
    46          1
    47          0
    48          0
    50         82
    51        129
    52        234
    53         59
    54         26
    55         33
    56         92
    58        999
    59         60
    61          7
    62         21
    63        138
    64        122
    65        152
    66         78
    67        183
    68         13
    69         39
    70          7
    71         10
    72          1
    73          2
    74         11
    75         14
    76         29
    77        126
    78         35
    79         32
    80        128
    81         56
    83         35
    84          5
    85         69
    86          6
    87          1
    88          1
    89          7
    90         23
    91         12
    92         66
    93         42
    94         20
    95         50
    97        129
    98        280
    99         20
   100          2
   101          2
   102          4
   103          3
   104          8
   105         23
   106         11
   107         39
   108        627
   109        108
   110         70
   111         27
   112          5
   113          5
   114          4
   115          1
   116          1
   117          1
   118         15
   119         15
   120         47
   121        519
   122        394
   123        126
   124         49
   125          6
   126          1
   128          0
   129          0
   130          0
   131          2
   132          8
   133         18
   134         19
   135         69
   136         30
   137          6
   138         12
   139          2
   141         51
   142          5
   143          1
   144          0
   145          3
   146          8
   147          8
   148         31
   149         50
   150        144
   151         17
   152          2
   153          0
   155         33
   156          2
   157          0
   158          7
   159          8
   160          3
   161         25
   162          9
   163          5
   164          2
   165          2
   166        112
   167         13
   168          1
   170          0
   171          1
   172          1
   173          1
   174          3
   175          6
   176          3
   177          4
   178         21
   179          3
   180          1
   181          0
   183          0
   185          0
   187          1
   189         46
   190          6
   191         11
   192          1
   193         15
   194          1
   195          0
   197          0
   200          0
   201          4
   202          0
   203          0
   205         19
   206         15
   207          2
   208          0
   216          0
   217          2
   219        284
   220         41
   221          5
   222          0
   224          1
   225          0
   232          5
   233          1
   234          4
   235          0
   259          0
   261          0
   263        250
   264         37
   265          5
   266          0