##TITLE=Library Entry 3549
##JCAMP-DX=Revision 4.10 
##DATA TYPE=MASS SPECTRUM
##SAMPLE DESCRIPTION=Exported from NIST MS Search
##NAMES=HP
##CAS NAME=1,5,7-Octatrien-3-ol, 2,6-dimethyl-
##MOLFORM=C10H16O
##CAS REGISTRY NO=29414-56-0
##MP= -300
##BP= -300
##MW= 152
##$RETENTION INDEX=0
##$CONDENSED SPECTRUM=NO
##NPOINTS= 66
##XYDATA=(XY..XY) 1 
    39        734
    40        170
    41        999
    42        128
    43        829
    44         50
    45         64
    50         86
    51        167
    52        120
    53        491
    54        159
    55        363
    56        106
    57        187
    62         22
    63         53
    65        315
    66        117
    67        921
    68        661
    69        798
    70        162
    71        932
    72        203
    77        234
    78         72
    79        653
    80        156
    81        424
    82        176
    83        234
    84        648
    85         58
    89        357
    90        131
    91        382
    92        106
    93        159
    94        195
    95        189
    96         47
   103         27
   104         14
   105        374
   106        145
   107         55
   108         67
   109        251
   110        100
   111         47
   115         25
   117         47
   119        307
   120         44
   121         72
   123        259
   124        125
   133         36
   134        156
   135         22
   136         14
   137        162
   138         36
   152         19
   153          5