##TITLE=Library Entry 84725
##JCAMP-DX=Revision 4.10 
##DATA TYPE=MASS SPECTRUM
##SAMPLE DESCRIPTION=Japan AIST/NIMC Database- Spectrum MS-IW-4028
##NAMES=HP
##CAS NAME=Diethyl cyanophosphonate
##MOLFORM=C5H10NO3P
##CAS REGISTRY NO=2942-58-7
##MP= -300
##BP= -300
##MW= 163
##$RETENTION INDEX=1046
##$CONDENSED SPECTRUM=NO
##NPOINTS= 78
##XYDATA=(XY..XY) 1 
    14          1
    15          9
    17          1
    18          4
    26         18
    27        121
    28        123
    29        223
    30          9
    31        169
    32          2
    39          1
    41         13
    42          6
    43         41
    44         14
    45        164
    46          4
    47         40
    48          4
    49          1
    54         41
    55        400
    56         25
    57          5
    59          2
    62          3
    63          7
    64          4
    65         54
    66          2
    69          1
    70          5
    72          6
    74          4
    76          1
    77          4
    79          1
    81        102
    82         63
    83         33
    90         21
    91         53
    92         13
    93          8
    94          2
    95          1
    99         41
   101          1
   103          1
   104          1
   107          6
   108        999
   109         66
   110         18
   111         12
   113          1
   118         19
   119          7
   120        353
   121          9
   122         14
   125          7
   126          3
   127         24
   134         95
   135         18
   136        233
   137         15
   138          6
   145          1
   148         17
   149          1
   161         18
   162         12
   163          2
   164         13
   165          1