##TITLE=Library Entry 17933
##JCAMP-DX=Revision 4.10 
##DATA TYPE=MASS SPECTRUM
##SAMPLE DESCRIPTION=Chemical Concepts
##NAMES=HP
##CAS NAME=2,4(1H,3H)-Pyrimidinedione, dihydro-5,6-dihydroxy-5-methyl-
##MOLFORM=C5H8N2O4
##CAS REGISTRY NO=2943-56-8
##MP= -300
##BP= -300
##MW= 160
##$RETENTION INDEX=0
##$CONDENSED SPECTRUM=NO
##NPOINTS= 86
##XYDATA=(XY..XY) 1 
    25          1
    26         24
    27         69
    28        220
    29        109
    30         37
    31         23
    35         10
    37          4
    38          0
    39          5
    40         30
    41          6
    42         49
    43        608
    44        463
    45         82
    46        999
    47         20
    48          1
    51          1
    52          6
    53          7
    54          9
    55         65
    56         38
    57         10
    58          2
    59         27
    60         11
    61         57
    62          1
    65          0
    66          0
    67          0
    68          0
    69          2
    70         40
    71         42
    72        142
    73         26
    74         62
    75          3
    76          0
    77          1
    79          0
    80          0
    81          1
    82          1
    83          3
    84          0
    85          0
    86          0
    87         16
    88          7
    89        852
    90         22
    91          4
    93          0
    97          0
    98          2
    99         13
   100         30
   101         19
   102          4
   104          0
   105          1
   108          0
   114          1
   115        407
   116         21
   117          3
   118          0
   119          1
   126          5
   127          2
   128          0
   132          3
   134          0
   135          1
   142          1
   143         17
   144          1
   147          0
   161          6
   162          0