##TITLE=Library Entry 1801
##JCAMP-DX=Revision 4.10 
##DATA TYPE=MASS SPECTRUM
##SAMPLE DESCRIPTION=Exported from NIST MS Search
##NAMES=HP
##CAS NAME=2H-Thiopyran-3(6H)-one
##MOLFORM=C5H6OS
##CAS REGISTRY NO=29431-30-9
##MP= -300
##BP= -300
##MW= 114
##$RETENTION INDEX=0
##$CONDENSED SPECTRUM=NO
##NPOINTS= 45
##XYDATA=(XY..XY) 1 
    18         92
    25         32
    26        144
    27        268
    28        172
    29         40
    32         52
    33         28
    34         40
    36         24
    37        148
    38        252
    39        999
    40        695
    41        128
    42        400
    43         52
    44         60
    45        859
    46        256
    47         96
    48         20
    49         20
    50         68
    51         52
    52         16
    53        100
    57         40
    58         80
    59         68
    60         32
    61         28
    68        959
    69        140
    70         24
    71        280
    72        260
    73         32
    74         24
    85        344
    86        160
    87         32
   114        380
   115         32
   116         32