##TITLE=Library Entry 84610
##JCAMP-DX=Revision 4.10 
##DATA TYPE=MASS SPECTRUM
##SAMPLE DESCRIPTION=Philip Morris R&D
##NAMES=HP
##CAS NAME=Pyrazine, 2-methyl-6-propyl-
##MOLFORM=C8H12N2
##CAS REGISTRY NO=29444-46-0
##MP= -300
##BP= -300
##MW= 136
##$RETENTION INDEX=1090
##$CONDENSED SPECTRUM=NO
##NPOINTS= 74
##XYDATA=(XY..XY) 1 
    36          2
    37         10
    38         34
    39        242
    40         87
    41         72
    42         91
    43         29
    44          1
    45          0
    46          0
    47          0
    49          0
    50          7
    51         13
    52         24
    53         45
    54         22
    55          5
    56          3
    57          0
    60          2
    61          0
    62          2
    63          4
    64          9
    65         14
    66         95
    67         42
    68         11
    69          2
    70         15
    71          0
    75          0
    76          0
    77          1
    78          3
    79          2
    80         14
    81         10
    82          9
    83          0
    86          0
    88          0
    89          0
    90          0
    91          0
    92          1
    93         23
    94         29
    95         15
    96          1
   104          0
   105          1
   106          1
   107         52
   108        999
   109         77
   110          1
   117          0
   118          1
   119          3
   120          5
   121        239
   122         19
   123          0
   131          1
   132          0
   133         10
   134          1
   135         95
   136        213
   137         18
   138          1