##TITLE=Library Entry 18435
##JCAMP-DX=Revision 4.10 
##DATA TYPE=MASS SPECTRUM
##SAMPLE DESCRIPTION=A.A.Kutin, Moscow, Russia
##NAMES=HP
##CAS NAME=Benzene, 2-methoxy-5-methyl-1,3-dinitro-
##MOLFORM=C8H8N2O5
##CAS REGISTRY NO=29455-11-6
##MP= -300
##BP= -300
##MW= 212
##$RETENTION INDEX=0
##$CONDENSED SPECTRUM=NO
##NPOINTS= 101
##XYDATA=(XY..XY) 1 
    33          0
    36          0
    37         60
    38         89
    39        740
    40         79
    41        102
    42         14
    43        196
    44         10
    45         40
    46        141
    48          0
    49         19
    50        405
    51        779
    52        319
    53        999
    54         76
    55         31
    56          8
    57          6
    58          0
    59         32
    60          2
    61         51
    62        151
    63        413
    64        208
    65        545
    66        178
    67         59
    68         27
    69         36
    70          0
    71          3
    73         29
    74        123
    75        100
    76        127
    77        707
    78        617
    79        102
    80         35
    81         15
    82          3
    83         15
    84          7
    85         16
    86         37
    87         33
    88         13
    89        455
    90         97
    91        369
    92         47
    93         41
    94         79
    95         13
    96          9
    97          2
    99          0
   103          0
   104         23
   105        236
   106         88
   107        201
   108        104
   109         67
   110          1
   112         25
   113          0
   118          0
   119         10
   120          6
   121        278
   122         31
   123         19
   124          3
   134          2
   135        281
   136         22
   137         18
   138         12
   139          0
   149          5
   152          2
   154          0
   164          1
   165        119
   166          5
   179          1
   180          0
   181          1
   182        706
   183         60
   184          6
   210          0
   212        317
   213         35
   214          2