##TITLE=Library Entry 80166
##JCAMP-DX=Revision 4.10 
##DATA TYPE=MASS SPECTRUM
##SAMPLE DESCRIPTION=Chemical Concepts
##NAMES=HP
##CAS NAME=4'-Benzamido-2'-chloro-5'-methoxy-2-(2-methylphenoxy)acetanilide
##MOLFORM=C23H21ClN2O4
##CAS REGISTRY NO=294650-24-1
##MP= -300
##BP= -300
##MW= 424
##$RETENTION INDEX=0
##$CONDENSED SPECTRUM=NO
##NPOINTS= 163
##XYDATA=(XY..XY) 1 
    33          4
    35          4
    36         10
    38         17
    39         35
    40         11
    41         16
    42         13
    43         13
    44         23
    50         73
    51         33
    53         16
    54          3
    55          4
    56          2
    57          3
    61          2
    62          4
    63         10
    65         66
    67          6
    68          5
    69          2
    70          2
    71          1
    73          2
    74          7
    77        485
    79          9
    80          6
    81          1
    82          1
    83          2
    84          1
    85          1
    86          1
    87          2
    89         15
    91        193
    93         15
    94          8
    95          1
    96          1
    97          2
    98          5
    99          6
   100          2
   101          3
   105        999
   108         16
   110          1
   111          1
   112          4
   113          3
   114          3
   115          2
   116          1
   117          2
   119          8
   121         46
   122          7
   123          1
   124          1
   125          1
   127          5
   128          2
   129          3
   130          1
   131          2
   132          1
   133          1
   134          2
   135          2
   139          2
   140          5
   141          4
   142          6
   143          4
   144          3
   145          1
   148          1
   149          4
   150          1
   151          1
   152          1
   153          3
   154          3
   155          4
   156          3
   157          2
   158          1
   162          1
   166          1
   167          2
   169         15
   171         17
   172          3
   173          5
   175          1
   177         26
   178          5
   179          2
   180          1
   181          3
   183         23
   184          7
   185          6
   186          2
   195          2
   196          4
   197          1
   198          1
   209          1
   210          3
   211          4
   212          1
   213          1
   223          1
   224          2
   225          2
   226          1
   239         30
   240         19
   241         27
   250          1
   251          5
   253         10
   254          1
   258          1
   267          8
   268          1
   271          1
   275          9
   276         13
   277          4
   278          4
   279          2
   281         13
   282          9
   283          9
   284          2
   287          3
   289         24
   290          4
   291          7
   292          1
   303          1
   317          5
   318          6
   319          4
   320          2
   321          1
   385          1
   389        232
   390         36
   391          7
   392          1
   393          1
   424        204
   425         45
   426         59
   427         16