##TITLE=Library Entry 51965
##JCAMP-DX=Revision 4.10 
##DATA TYPE=MASS SPECTRUM
##SAMPLE DESCRIPTION=A.A.Kutin, Moscow, Russia
##NAMES=HP
##CAS NAME=Furazan, 3-(dimethylaminomethylenamino)-4-(1,2,4-triazol-3-yl)-
##MOLFORM=C7H9N7O
##CAS REGISTRY NO=294667-75-7
##MP= -300
##BP= -300
##MW= 207
##$RETENTION INDEX=0
##$CONDENSED SPECTRUM=NO
##NPOINTS= 107
##XYDATA=(XY..XY) 1 
    33          5
    34          3
    35          0
    36          3
    38         48
    39         54
    40        115
    41        111
    42        647
    43         88
    44        163
    45          9
    46          8
    49          0
    50          7
    51         26
    52         25
    53         47
    54         26
    55         40
    56         71
    57         43
    58          2
    60          0
    62          0
    63          2
    64          5
    65         11
    66         13
    67         58
    68         16
    69         35
    70         11
    71         68
    72          5
    73          0
    74          0
    76          4
    77         42
    78          5
    79          6
    80          5
    81         15
    83        999
    84         46
    85          0
    91          1
    92          1
    93          4
    94         16
    95         35
    96          5
    97          7
    98         13
    99         11
   100          0
   104          0
   105          1
   106          5
   107         12
   108          6
   109          3
   110          2
   111          6
   112          1
   113          7
   114          0
   117          0
   119          0
   120          2
   121          3
   122          2
   123          1
   132          1
   133          1
   134          2
   135         11
   136          3
   137         11
   138          5
   146          0
   147          0
   148          2
   149          2
   150         18
   151          2
   152          3
   161          2
   162          1
   163          2
   164          0
   165          2
   166          5
   177         13
   178          3
   180         83
   181          6
   188          0
   190         38
   191          4
   192          4
   197          0
   204          0
   205          2
   207         71
   208          7
   209          0