##TITLE=Library Entry 77909
##JCAMP-DX=Revision 4.10 
##DATA TYPE=MASS SPECTRUM
##SAMPLE DESCRIPTION=A.A.Kutin, Moscow, Russia
##NAMES=HP
##CAS NAME=Benzhydrazide, 4-nitro-N2-(1-phenylhexylidene)-
##MOLFORM=C19H21N3O3
##CAS REGISTRY NO=294656-79-4
##MP= -300
##BP= -300
##MW= 339
##$RETENTION INDEX=0
##$CONDENSED SPECTRUM=NO
##NPOINTS= 156
##XYDATA=(XY..XY) 1 
    33         25
    34          1
    36         10
    39        321
    41        558
    43        515
    46         16
    47          4
    50        365
    51        180
    52         51
    53         52
    55        157
    57         26
    58          7
    59          1
    60          3
    62         42
    63         85
    64         72
    65         87
    67         24
    68          7
    69         19
    72         81
    74        107
    75        228
    76        463
    77        352
    79         65
    81         45
    83          2
    84          0
    85          1
    86          5
    87          7
    88         11
    89         55
    91        421
    92        238
    94          4
    95          0
    96          4
    98         20
   103        749
   104        999
   107         13
   108          1
   109          0
   111          3
   115        264
   117        376
   119        413
   120        104
   121         20
   122         12
   123          1
   125          1
   127         43
   128         36
   130        187
   131         76
   133        272
   134        119
   135        103
   136         11
   137          9
   139          2
   140          1
   141          6
   142          8
   144        124
   145         68
   146         15
   150        671
   152          7
   154          6
   155          7
   159        499
   163        404
   165          5
   167         17
   169          0
   170          2
   171         12
   172         24
   173         33
   174         59
   175         11
   179        584
   180        138
   182          3
   183          1
   184          2
   186          0
   187          4
   189         46
   190          5
   191          3
   192          4
   193         12
   194          5
   196         18
   198         16
   199          1
   205          3
   206         25
   207          7
   208          3
   210          3
   215          0
   216          1
   217          0
   219          5
   220          5
   221          9
   222         43
   223          6
   225          3
   235          2
   236          4
   238          5
   239          3
   241          0
   243          0
   249          0
   250          4
   251          3
   253         32
   254         27
   255          4
   256          0
   262          6
   263          2
   264          5
   268        521
   277          0
   278          3
   283        801
   284         96
   286          1
   293          2
   294          6
   296         89
   297         13
   298          2
   308          0
   310         21
   311          6
   312          1
   324          1
   335          0
   338         59
   339         71
   340         15
   341          3