##TITLE=Library Entry 94350
##JCAMP-DX=Revision 4.10 
##DATA TYPE=MASS SPECTRUM
##SAMPLE DESCRIPTION=A.A.Kutin, Moscow, Russia
##NAMES=HP
##CAS NAME=Methyl 3'-chloro-2'-methylsuccinanilate
##MOLFORM=C12H14ClNO3
##CAS REGISTRY NO=294652-96-3
##MP= -300
##BP= -300
##MW= 255
##$RETENTION INDEX=0
##$CONDENSED SPECTRUM=NO
##NPOINTS= 160
##XYDATA=(XY..XY) 1 
    33          2
    34          3
    35          1
    36         10
    37          3
    38         11
    39         39
    40         77
    41         48
    42         21
    43         36
    44         36
    45         51
    46          1
    47          0
    49          1
    50         25
    51         88
    52         51
    53         17
    54         18
    55        564
    56         43
    57         45
    59        296
    60         11
    61          5
    62         12
    63         40
    64         13
    65         19
    66         13
    67          6
    68          3
    69         11
    70         14
    71         20
    72          4
    73         17
    74          8
    75         25
    76         28
    77        191
    78         60
    79         39
    80         21
    81          8
    82          5
    83         21
    84         13
    85         10
    87        186
    88         16
    89         76
    90         23
    91         12
    92          3
    93          3
    95          8
    96          0
    97         20
    99         28
   100          5
   101         11
   102         17
   103         12
   104         63
   105         20
   106        200
   107         27
   108          2
   109          1
   111          7
   112         38
   113         21
   115        999
   116         55
   117         15
   118          7
   119          1
   120          1
   121          1
   123          4
   124          7
   125         59
   126          9
   127         22
   128          3
   129          4
   130          4
   131          4
   132         16
   133          8
   134          1
   135          1
   137          0
   138         18
   139         13
   140        116
   141        883
   142        111
   143        279
   144         26
   145          3
   146          9
   147          1
   149          2
   150          1
   151          4
   152         10
   153          4
   154          9
   155          4
   156          1
   157          2
   159          2
   160          7
   161          4
   162          1
   163          0
   164         16
   165          1
   166         11
   167         15
   168         52
   169         10
   170         15
   171         16
   172          1
   177          1
   178         11
   179          8
   180         10
   181          3
   182          2
   184          0
   188          6
   194          4
   195          0
   196         12
   197          3
   198          6
   199          0
   205          1
   208          0
   222          3
   224        133
   225         17
   226         42
   227          5
   228          0
   237         14
   238          1
   239          6
   240          2
   254          0
   255        167
   256         22
   257         52
   258          7