##TITLE=Library Entry 94540
##JCAMP-DX=Revision 4.10 
##DATA TYPE=MASS SPECTRUM
##SAMPLE DESCRIPTION=A.A.Kutin, Moscow, Russia
##NAMES=HP
##CAS NAME=Propanamide, 3,3,3-trifluoro-2-trifluoromethyl-N-(1-naphthyl)-
##MOLFORM=C14H9F6NO
##CAS REGISTRY NO=294649-41-5
##MP= -300
##BP= -300
##MW= 321
##$RETENTION INDEX=0
##$CONDENSED SPECTRUM=NO
##NPOINTS= 114
##XYDATA=(XY..XY) 1 
    33          7
    34          6
    36          3
    37          6
    38         24
    39         77
    40        100
    41         13
    42          4
    44          7
    45          5
    46          4
    47         15
    50         45
    51         50
    52         17
    53          4
    55          9
    56          8
    57         25
    58         22
    60          0
    61         11
    62         47
    63        101
    64         25
    65         38
    66          3
    67          0
    69        228
    71         68
    72          0
    74         34
    75         35
    76         23
    77         28
    78          4
    82         20
    83          3
    84          4
    85         14
    86         19
    87         29
    88         42
    89         71
    91        109
    92          2
    93          4
    97          0
    98          6
    99          7
   100         15
   101         13
   102          5
   103          2
   104          1
   105          2
   109          0
   110          4
   111          5
   113        106
   115        999
   116        158
   117         15
   118          0
   119          1
   126         33
   127         82
   128         11
   129          1
   132          3
   133          1
   138          3
   140         94
   141         61
   142        298
   143        428
   144        584
   145         61
   146          5
   150          1
   151          1
   152          2
   153          1
   154          2
   155          0
   159         10
   160          1
   167          0
   169         55
   170        123
   171         14
   172          1
   178         10
   179         38
   182          1
   184          2
   191          1
   192          3
   202          0
   204          2
   231         10
   232          2
   233          0
   250          0
   252          0
   278          0
   301          6
   302          1
   317          3
   318          5
   321        479
   322         63
   323          5