##TITLE=Library Entry 2246
##JCAMP-DX=Revision 4.10 
##DATA TYPE=MASS SPECTRUM
##SAMPLE DESCRIPTION=A.A.Kutin, Moscow, Russia
##NAMES=HP
##CAS NAME=Difurazano[3,4-b:3'4'-E]pyrazine, 4,8-diallyl-
##MOLFORM=C10H10N6O2
##CAS REGISTRY NO=294667-84-8
##MP= -300
##BP= -300
##MW= 246
##$RETENTION INDEX=0
##$CONDENSED SPECTRUM=NO
##NPOINTS= 136
##XYDATA=(XY..XY) 1 
    33          9
    34          6
    36          4
    37         18
    38         61
    39        481
    40        147
    41        999
    42         55
    43         26
    44         27
    45          3
    49          0
    50         10
    51         25
    52         49
    53         98
    54         50
    55         44
    56         19
    57          6
    58          1
    59          0
    61          1
    62          4
    63         13
    64         16
    65         50
    66         42
    67         37
    68         24
    69         15
    70          5
    71          3
    73          0
    74          0
    75          3
    76          5
    77         18
    78         16
    79         25
    80         30
    81         27
    82          6
    83          2
    84          1
    85          0
    89          0
    90          4
    91          9
    92         16
    93         22
    94         12
    95          5
    96          3
    97          6
   102          1
   103          2
   104          4
   105         11
   106         20
   107         14
   108         19
   109         12
   110          1
   111          1
   113          0
   116          1
   117          3
   118          9
   119         12
   120          6
   121          5
   122          2
   123          2
   124          1
   129          1
   131          8
   132          6
   133         15
   134         13
   135        193
   136         17
   137          1
   142          0
   143          1
   144          7
   145         10
   146          7
   147          3
   148          6
   149          6
   150          0
   154          0
   156          0
   157          1
   158          6
   159          6
   160          6
   161          5
   162         15
   163          2
   169          1
   170          0
   171          5
   172          2
   173          1
   174          2
   175         10
   176          4
   185         12
   186          4
   187          0
   189          2
   190          3
   191          3
   192         27
   193          3
   196          2
   197          0
   198         10
   199          6
   200          0
   202          0
   205          2
   211          0
   216          2
   219          1
   224          1
   227          1
   228          2
   229         25
   230          3
   244          1
   246         62
   247          7