##TITLE=Library Entry 24063
##JCAMP-DX=Revision 4.10 
##DATA TYPE=MASS SPECTRUM
##SAMPLE DESCRIPTION=Chemical Concepts
##NAMES=HP
##CAS NAME=1-(3-Acetamidophenyl)-3-(2,2,2-trichloro-1-isovaleramidoethyl)-2-
thiourea
##MOLFORM=C16H21Cl3N4O2S
##CAS REGISTRY NO=294658-29-0
##MP= -300
##BP= -300
##MW= 438
##$RETENTION INDEX=0
##$CONDENSED SPECTRUM=NO
##NPOINTS= 166
##XYDATA=(XY..XY) 1 
    35         91
    36        482
    38        251
    39        343
    41        818
    43        838
    45        249
    47         30
    48         20
    49         19
    50         33
    51         44
    52         56
    53         72
    55        129
    57        999
    59        147
    60         35
    61         10
    62         21
    63         40
    64         49
    65         52
    66         14
    67         18
    69         67
    70         24
    71         20
    72          9
    73         11
    74         16
    75         23
    76         22
    77         15
    78         20
    79         18
    80         88
    81         66
    83         71
    84         31
    85        716
    87         57
    88          7
    90         22
    91         21
    92         45
    93         10
    94          5
    95          9
    96          8
    97          9
    98          4
    99          3
   100          4
   101          4
   102          4
   103          3
   104          4
   105         12
   106         10
   108        247
   109         20
   110         14
   111         35
   112         21
   113         22
   114          5
   115          5
   116          3
   117         12
   118         18
   119         16
   120          5
   121          8
   122         10
   123          6
   124          9
   126         24
   127         24
   128         15
   129         30
   130          6
   131          5
   132          6
   133         10
   134         18
   135          6
   136          2
   137          4
   138          3
   139          5
   140          3
   141          1
   142          1
   143          2
   144          1
   145          3
   146         21
   148         24
   149         11
   150        187
   151         23
   152          9
   153         19
   154          6
   155         11
   156          3
   157          3
   159          3
   160          1
   161         10
   162          1
   163          2
   164          1
   165          2
   166          4
   168          8
   170          7
   171          9
   172          7
   173          1
   174          2
   175         11
   176          9
   177          3
   178          1
   182          1
   187          4
   188          6
   189          4
   190          7
   191          3
   192         44
   193          9
   194          5
   195          3
   196          1
   197          2
   207          1
   210          2
   211          4
   212          1
   213          2
   217          3
   218          1
   219          1
   226          2
   227          1
   228          1
   230         29
   231          4
   232         25
   233          2
   234          9
   235          1
   236          1
   247          1
   261          1
   281          1
   282          3
   283          7
   284          2
   285          3
   286          1
   366          1
   367          2