##TITLE=Library Entry 38945
##JCAMP-DX=Revision 4.10 
##DATA TYPE=MASS SPECTRUM
##SAMPLE DESCRIPTION=CARL DJERASSI DEPT OF CHEM STANFORD UNIV STANFORD CALIF
 94305
##NAMES=HP
##CAS NAME=Dichotine, 2-deoxy-2,21-epoxy-, (21.alpha.)-
##MOLFORM=C22H24N2O6
##CAS REGISTRY NO=29474-91-7
##MP= -300
##BP= -300
##MW= 412
##$RETENTION INDEX=0
##$CONDENSED SPECTRUM=NO
##NPOINTS= 140
##XYDATA=(XY..XY) 1 
    41         60
    42        160
    43         50
    44         70
    45         10
    51         10
    53         20
    54         10
    55         60
    56         30
    57         80
    58         30
    59         10
    63         10
    65         10
    67         20
    68         10
    69         40
    70        570
    71        999
    72         50
    77         20
    79         10
    81         10
    82         50
    83        390
    84         40
    85         40
    89         10
    91         10
    94         10
    95         10
    96         10
   101         10
   102         10
   103         20
   104         10
   108         10
   110         10
   112         10
   114         10
   115         20
   116         10
   117         10
   118         10
   124         10
   125         10
   126         10
   127         10
   128         20
   129         10
   130         10
   131         10
   132         10
   140         10
   144         10
   146         10
   150         10
   154         10
   156         10
   158         20
   160         10
   166         10
   167         10
   168         10
   169         10
   170         10
   174         10
   178         10
   183         10
   184         10
   185         10
   186         20
   192         40
   193         10
   196         10
   198         10
   199         20
   200         20
   201         20
   202         10
   213         30
   214         20
   215         20
   216         40
   217         30
   218         20
   226         10
   227         10
   228         20
   229         20
   230         30
   231         20
   241         20
   242         20
   243         20
   244         20
   245         70
   246         30
   254         20
   257         20
   258         20
   259         20
   266         20
   269         20
   270         20
   271         20
   273         20
   280         20
   287         50
   288         20
   301         50
   302        430
   303         90
   304         20
   309         20
   311         40
   312         40
   313         20
   314         20
   327         20
   340         40
   341         20
   352         20
   353         30
   354         30
   355         80
   356         30
   357         30
   369         30
   381         60
   382         30
   383         30
   384         70
   385         40
   397         80
   398         40
   412        360
   413        110
   414         30