##TITLE=Library Entry 14646
##JCAMP-DX=Revision 4.10 
##DATA TYPE=MASS SPECTRUM
##SAMPLE DESCRIPTION=A.A.Kutin, Moscow, Russia
##NAMES=HP
##CAS NAME=Acetic acid, [2-(2-chloro-5-nitrophenyl)-4-oxo-4H-3,1-benzoxazin-
6-yl] ester
##MOLFORM=C16H9ClN2O6
##CAS REGISTRY NO=294892-26-5
##MP= -300
##BP= -300
##MW= 360
##$RETENTION INDEX=0
##$CONDENSED SPECTRUM=NO
##NPOINTS= 186
##XYDATA=(XY..XY) 1 
    33          0
    35          0
    36          2
    37          3
    38          7
    39          4
    40          5
    41          6
    43        999
    44         15
    45          3
    46          1
    49          0
    50         24
    51         26
    52         18
    53         31
    54         11
    55          1
    57          1
    61          6
    62         42
    63        113
    64         20
    65          5
    66          3
    69          2
    70          0
    71          3
    73          6
    74         52
    75        114
    76         18
    77         33
    78          6
    79          6
    80         18
    81          1
    84         12
    85          2
    86          7
    87          7
    88          5
    89          6
    90          2
    92        110
    93          6
    94          1
    95          1
    96          0
    97          2
    98          6
    99          7
   100          9
   101          5
   102          3
   103          6
   104          2
   105          5
   106        117
   107          9
   108          3
   109         28
   110        194
   112         78
   113          6
   114          1
   116          0
   117          3
   118          1
   119          2
   120          2
   121          0
   122          1
   123          2
   124          4
   125          5
   126         34
   127          5
   128          8
   129          0
   133         12
   134          1
   135          1
   136          3
   138        266
   140        101
   141          6
   146          2
   147          0
   149          1
   150          1
   151          4
   152         11
   153         12
   154          6
   155          1
   156          2
   160          0
   162        139
   163         12
   164          8
   165          2
   166          0
   167          0
   168          5
   169          3
   170          1
   171          1
   173          0
   174          0
   178          0
   180          7
   181          7
   182          1
   184        203
   185         16
   186         66
   187          5
   188          3
   189          3
   190          1
   191          0
   193          2
   194          1
   195          0
   196          0
   197          2
   198          0
   199          0
   200          0
   201          0
   202          0
   208          2
   209          7
   210          0
   215          0
   216         14
   217          4
   218          4
   219          2
   220          1
   221          0
   222          0
   225          1
   226          0
   227          2
   228         45
   229          7
   230         14
   231          2
   236          0
   237          2
   243          0
   244          4
   245          1
   246          1
   254          3
   255          7
   256          1
   257          0
   272         13
   273         10
   274        133
   275         19
   276         40
   277          5
   278          0
   283          0
   284          0
   288          1
   290          1
   302          6
   303          0
   304          1
   316          1
   318        636
   319        104
   320        203
   321         32
   322          3
   330          0
   360         23
   361          3
   362          7
   363          1