##TITLE=Library Entry 81645
##JCAMP-DX=Revision 4.10 
##DATA TYPE=MASS SPECTRUM
##SAMPLE DESCRIPTION=Chemical Concepts
##NAMES=HP
##CAS NAME=N2-Benzoylisoleucine N'-[4-(diethylamino)benzylidene]hydrazide
##MOLFORM=C24H32N4O2
##CAS REGISTRY NO=294842-31-2
##MP= -300
##BP= -300
##MW= 408
##$RETENTION INDEX=0
##$CONDENSED SPECTRUM=NO
##NPOINTS= 160
##XYDATA=(XY..XY) 1 
    33          7
    34          1
    36          2
    37          2
    39         40
    41        102
    42         20
    43         25
    44         27
    45          3
    48          1
    51        109
    52         12
    53          8
    54         12
    55         22
    56         20
    57         29
    59         29
    60          2
    63         20
    65         29
    66          4
    67          7
    69         19
    70          9
    72         22
    73          4
    77        480
    78         39
    79         15
    80          7
    81          4
    82          4
    84         15
    86          9
    89         74
    90         22
    91         39
    92         11
    93          8
    94          3
    95          3
    96          2
    97          4
    98          2
    99          1
   100          2
   102         18
   105        999
   106         60
   107          9
   108          3
   109          1
   110          1
   111          1
   112          2
   113          2
   114          2
   115          4
   117         38
   118         54
   119         24
   120         11
   121          6
   122          9
   123          1
   124          1
   125          1
   126          1
   129         12
   131         60
   132         37
   133         67
   134         18
   135          6
   136          2
   137          1
   140          1
   142          2
   143          4
   144          9
   146         79
   147         28
   148         16
   149          8
   150          3
   152          1
   154          1
   155          1
   159        118
   161        166
   162         53
   163          9
   164          2
   165          1
   166          1
   168          1
   169          1
   170          1
   171          3
   174         78
   176        422
   177         51
   178          5
   179          1
   184          1
   185          1
   186          2
   188         32
   190        297
   191        617
   192        100
   193          7
   194          1
   202          5
   203          3
   204          2
   205          1
   215          8
   218        318
   219         31
   220          2
   229          2
   231         21
   232          3
   244          1
   245          1
   247          3
   256          1
   258         11
   259          2
   265          1
   272          1
   279          1
   280          1
   281          1
   286          1
   287          7
   288          2
   294          1
   295          1
   302          1
   303          4
   304          1
   307          1
   308          1
   335          1
   349          1
   350          3
   351          3
   352          1
   379          2
   380          1
   393          7
   394          2
   408        168
   409         39
   410          6
   411          1