##TITLE=Library Entry 54533
##JCAMP-DX=Revision 4.10 
##DATA TYPE=MASS SPECTRUM
##SAMPLE DESCRIPTION=A.A.Kutin, Moscow, Russia
##NAMES=HP
##CAS NAME=1H-Indole-3-carboxylic acid, 5-hydroxy-1-phenyl-2-(1-piperidinyl)
methyl-, ethyl ester
##MOLFORM=C23H26N2O3
##CAS REGISTRY NO=294877-70-6
##MP= -300
##BP= -300
##MW= 378
##$RETENTION INDEX=0
##$CONDENSED SPECTRUM=NO
##NPOINTS= 234
##XYDATA=(XY..XY) 1 
    29        264
    30         25
    31          3
    32         63
    33          0
    40          3
    41         52
    42         47
    43         23
    44         24
    45          6
    51          2
    52          0
    53          1
    54          1
    55         53
    56         35
    58          0
    60          5
    67          7
    68          5
    69         20
    70         13
    72          1
    73          6
    77          7
    78          0
    79          0
    80          0
    81          1
    82         21
    83         32
    84        999
    85         49
    86          7
    87          0
    89          0
    90          0
    91         11
    92          2
    93          1
    96         10
    97         10
    98         34
    99          3
   101          0
   102          1
   103          0
   104          1
   105          2
   106          0
   107          2
   109          0
   112          1
   115          2
   116          2
   117          2
   118          0
   122          0
   123          0
   124          1
   126          0
   128          2
   129          1
   130          1
   131          2
   132          7
   133          1
   134          0
   138          0
   139          0
   142          1
   143          2
   144          5
   145          7
   146          2
   147          0
   151          0
   152          6
   153          6
   154          2
   157          0
   158          0
   159          0
   160          3
   161          1
   162          0
   164          0
   165         10
   166         15
   167         13
   168          1
   170          0
   171          0
   172          5
   173          3
   174          0
   175         13
   176          0
   177          1
   178          4
   179          3
   180          5
   181          5
   182          5
   183          3
   184          0
   187          0
   188          1
   189          0
   190          3
   191         29
   192         45
   193         24
   194         23
   195          2
   196          0
   198          1
   199          0
   201          0
   202          1
   203          6
   204         64
   205         16
   206          1
   207          8
   208          4
   209          4
   210          0
   213          0
   214          0
   217          0
   218          6
   219         17
   220        230
   221        126
   222        181
   223         48
   224          6
   225          0
   227          0
   230          0
   232          3
   233          4
   234         10
   235         28
   236         27
   237         11
   238          2
   243          0
   244          0
   245          0
   246          2
   247         38
   248        107
   249         84
   250         96
   251         38
   252          4
   253          1
   254          0
   256          0
   260          5
   261         33
   262         17
   263         18
   264         50
   265         25
   266         43
   267          6
   268          1
   270          0
   273          1
   274          7
   275         27
   276        222
   277         68
   278          7
   279         14
   280          2
   282          0
   284          1
   285          0
   286          1
   287         31
   288         47
   289        112
   290        314
   291         61
   292         13
   293         14
   294         86
   295        134
   296         14
   302          6
   303        144
   304         59
   305         55
   306          5
   307          1
   309          0
   313          0
   314          3
   315         21
   316          0
   317         34
   318          5
   319          0
   321         14
   322         28
   323          3
   328          1
   329          0
   330          0
   331        161
   332        145
   333         68
   334         16
   335         65
   336         14
   345          1
   348          0
   349        126
   350         29
   365          0
   374          2
   375         10
   376          3
   377         26
   378        821
   379        307
   380         43
   381          0
   385          0