##TITLE=Library Entry 99240
##JCAMP-DX=Revision 4.10 
##DATA TYPE=MASS SPECTRUM
##SAMPLE DESCRIPTION=A.A.Kutin, Moscow, Russia
##NAMES=HP
##CAS NAME=Benzamide, 3-methyl-N-(4,5-diphenylthiazol-2-yl)-
##MOLFORM=C23H18N2OS
##CAS REGISTRY NO=294876-81-6
##MP= -300
##BP= -300
##MW= 370
##$RETENTION INDEX=0
##$CONDENSED SPECTRUM=NO
##NPOINTS= 221
##XYDATA=(XY..XY) 1 
    33          1
    34          1
    35          0
    36          1
    37          2
    39         71
    40          6
    41         20
    43          3
    44          6
    45          9
    47          0
    50         15
    51         54
    52          7
    53          3
    54          0
    55          0
    56          0
    57          0
    58          1
    59          0
    60          0
    61          1
    62          9
    63         39
    65        198
    66          8
    67          1
    69         11
    70          2
    71          2
    72          0
    74          4
    75          8
    76         19
    77         93
    78          5
    79          1
    81          1
    82          3
    83          1
    84          0
    85          1
    86          2
    87          3
    89         55
    91        611
    92         29
    93          4
    94          2
    95         12
    98          1
    99          1
   100          1
   101          1
   102          4
   103         12
   104         11
   105          4
   106          1
   107          0
   108          1
   109          1
   110          0
   112          3
   113          2
   114          3
   115          6
   116          3
   119        999
   120         84
   121         59
   122          7
   123          3
   124          0
   125          1
   126          4
   127          2
   128          1
   129          3
   130          0
   131          0
   132          1
   133          1
   134          2
   135          4
   136          0
   137          1
   138          1
   139          5
   140          2
   141          1
   142          0
   144          0
   145          1
   146          4
   147          1
   148          2
   149          1
   150          3
   151          5
   152          6
   153          1
   154          0
   155          0
   156          0
   157          0
   158          0
   159          0
   160          0
   161          0
   162          1
   163          7
   164          8
   165         49
   166          8
   167          1
   168          0
   169          0
   170          0
   171          1
   172          0
   173          1
   174          1
   175          1
   176          6
   177          5
   178         19
   179          3
   180          0
   182          0
   183          0
   184          2
   185          0
   186          0
   187          0
   188          1
   190         14
   191          3
   192          0
   193          0
   194          0
   195          1
   196          1
   197          2
   198          0
   199          0
   200          0
   201          0
   202          0
   203          0
   204          0
   205          0
   206          0
   207          2
   208         14
   209         16
   210         81
   211         13
   212          4
   213          0
   215          0
   216          0
   217          0
   218          1
   219          0
   220          0
   222          4
   223          5
   224          1
   225          0
   226          0
   233          3
   234          4
   235          1
   236          0
   237          1
   238          0
   247          0
   248          0
   249          0
   250          3
   251         10
   252         11
   253          2
   254          0
   255          0
   265          0
   268          0
   278          0
   279          0
   283          0
   289          0
   309          3
   310          0
   317          0
   318          0
   319          0
   326          0
   327          0
   328          0
   337          4
   338          1
   339          0
   341          0
   342          1
   343          0
   346          1
   347          0
   352          0
   353          1
   354          0
   355          0
   356          0
   366          0
   367          0
   370         75
   371         18
   372          5
   373          0