##TITLE=Library Entry 10001
##JCAMP-DX=Revision 4.10 
##DATA TYPE=MASS SPECTRUM
##SAMPLE DESCRIPTION=A.A.Kutin, Moscow, Russia
##NAMES=HP
##CAS NAME=Phenol, 2,6-dibromo-4-(4-morpholylthiocarbonyl)-
##MOLFORM=C11H11Br2NO2S
##CAS REGISTRY NO=294876-42-9
##MP= -300
##BP= -300
##MW= 379
##$RETENTION INDEX=0
##$CONDENSED SPECTRUM=NO
##NPOINTS= 229
##XYDATA=(XY..XY) 1 
    33         12
    34          5
    37         14
    38         18
    39         27
    40         36
    41        113
    43        999
    45        282
    47         28
    49          7
    50         20
    51         26
    53        125
    54         36
    55         41
    56         93
    57         41
    58         50
    59         32
    60         42
    61         67
    62         86
    63        104
    64         16
    65         12
    66          8
    67          8
    69         88
    71        228
    72         33
    73         14
    74         30
    75         30
    76         23
    77         18
    78          8
    79         16
    80         21
    81         43
    82         39
    83          8
    84         19
    86        365
    87         28
    88         42
    89         16
    90         22
    91         22
    92         12
    93         29
    94         21
    96         71
    98          4
   100         10
   101          8
   102         16
   103         16
   104         12
   105         31
   106        148
   107         60
   108         53
   109         13
   110          9
   111          9
   113          8
   114          7
   115          7
   116         11
   117         24
   118         15
   119         11
   120         13
   121         15
   122         12
   123         13
   125          4
   128          7
   129          6
   130         11
   131          9
   132          8
   133          9
   134         16
   135         65
   136         23
   137          8
   140          6
   141         15
   142          9
   143         17
   144          7
   145          6
   146          4
   147          7
   148          9
   149         11
   150         68
   151         27
   152          5
   155          6
   157          5
   158          4
   159          8
   160          7
   162          9
   163          6
   164          8
   168          7
   169          7
   170         19
   171          9
   172         14
   173          8
   174          4
   175          6
   183          7
   184          5
   185         26
   186         24
   187         24
   188         25
   189          6
   190          9
   191          9
   192          7
   193          5
   195          7
   196          4
   197         10
   198         10
   199         15
   200          9
   201          8
   202          5
   210          5
   211         11
   212          8
   213         27
   214         43
   215         48
   216         44
   217         30
   218          6
   220          5
   221         12
   222          4
   223          6
   224          4
   226          7
   228          8
   237          6
   239          9
   240          5
   241          8
   242          7
   243          6
   244          5
   249          8
   250          6
   251          7
   252          6
   256          4
   258          7
   260          5
   263          9
   264          5
   265         18
   266         13
   267         15
   268         14
   269         11
   270          6
   271          6
   272          4
   275          8
   276         26
   277         19
   278         48
   279         15
   280         23
   281          5
   289          6
   290          6
   291         12
   293        139
   294         49
   295        226
   296         70
   297        120
   298         32
   299         14
   300         20
   301         19
   302         29
   303         15
   304         24
   305          5
   306         15
   309          5
   311          7
   313          4
   318          8
   320         14
   322          8
   335          4
   336         20
   337         10
   338         32
   339         12
   340         15
   341          5
   346         20
   347         10
   348         44
   349         11
   350         38
   351          7
   352         15
   353          5
   378         58
   379        105
   380        103
   381        189
   382         66
   383         94
   384         13
   385          5