##TITLE=Library Entry 5687
##JCAMP-DX=Revision 4.10 
##DATA TYPE=MASS SPECTRUM
##SAMPLE DESCRIPTION=A.A.Kutin, Moscow, Russia
##NAMES=HP
##CAS NAME=Acetic acid, 2,6-dibromo-4-(4-morpholinylthiocarbonyl)phenyl este
r
##MOLFORM=C13H13Br2NO3S
##CAS REGISTRY NO=294876-43-0
##MP= -300
##BP= -300
##MW= 421
##$RETENTION INDEX=0
##$CONDENSED SPECTRUM=NO
##NPOINTS= 218
##XYDATA=(XY..XY) 1 
    33         35
    34         26
    36          3
    37          6
    38         12
    39         34
    40        234
    41         76
    43        999
    44        127
    45        110
    47         18
    48          3
    50         16
    51         18
    52          9
    53         25
    54         29
    55         41
    56         65
    57         43
    58         29
    59         20
    60         25
    61         26
    62         38
    63         40
    64         14
    65          8
    66          6
    67          6
    69         58
    71        102
    72         15
    73          7
    74         17
    75         16
    76         14
    77         13
    78          4
    79         12
    80         15
    81         26
    82         26
    83          7
    84         13
    86        191
    87         20
    88         14
    89          8
    90          8
    91         10
    92          4
    93         13
    94          6
    95          9
    96         10
    97          4
    98          1
   100          6
   101          2
   102          7
   103          6
   104          5
   105         17
   106         57
   107         22
   108         17
   109          5
   111          4
   112          1
   113          3
   114          4
   115          6
   117         12
   118          6
   119          7
   120          4
   121          5
   122          4
   123          8
   124          1
   125          2
   127          1
   128          4
   129          1
   130          8
   131          3
   133          4
   134          8
   135         16
   136          6
   137          4
   140          5
   141          7
   142          1
   143          7
   144          0
   147          1
   148          2
   149          5
   150         26
   151          4
   152          2
   155          1
   156          1
   157          1
   158          2
   159          7
   160          3
   161          1
   162          7
   163          1
   168          1
   170          3
   171          3
   172          1
   173          1
   175          1
   176          1
   178          1
   182          2
   183          2
   185         11
   186          7
   187          9
   188          8
   189          1
   190          1
   191          0
   192          5
   193          1
   195          1
   197          2
   198          4
   199          4
   200          1
   201          2
   213         13
   214         10
   215         20
   216          8
   217          8
   220          2
   221          4
   222          2
   223          1
   224          0
   226          0
   237          0
   238          2
   239          1
   240          1
   241          2
   242          1
   243          1
   247          0
   248          1
   249          6
   250          2
   251          2
   253          1
   258          0
   263          1
   264          3
   265          4
   266         12
   267          4
   268          7
   269          2
   275          1
   276          3
   277          3
   278          7
   279          2
   280          3
   292          5
   293         18
   294         14
   295         35
   296         15
   297         16
   298          6
   299          6
   300          5
   301          7
   302          7
   303          2
   304          4
   306          0
   320          2
   336          4
   337          4
   338          9
   339          2
   340          3
   342          0
   344          0
   346          5
   347          0
   348          8
   349          2
   350          5
   351          0
   352          1
   353          1
   378         11
   379         20
   380         22
   381         31
   382         14
   383         13
   384          2
   421         10
   422          4
   423         24
   424          2
   425         10