##TITLE=Library Entry 46453
##JCAMP-DX=Revision 4.10 
##DATA TYPE=MASS SPECTRUM
##SAMPLE DESCRIPTION=A.A.Kutin, Moscow, Russia
##NAMES=HP
##CAS NAME=Carbonic acid, 2-oxo-benzo[1,3]oxathiol-5-yl ester, phenyl ester
##MOLFORM=C14H8O5S
##CAS REGISTRY NO=294874-35-4
##MP= -300
##BP= -300
##MW= 288
##$RETENTION INDEX=0
##$CONDENSED SPECTRUM=NO
##NPOINTS= 181
##XYDATA=(XY..XY) 1 
    33          4
    34          5
    35          4
    36         18
    37         26
    38         77
    39        327
    40         72
    41         13
    42          9
    43          8
    44         31
    45         62
    46          3
    47         13
    49         13
    50        104
    51        315
    52         24
    53        119
    54         73
    55         17
    56         14
    57         78
    58         16
    59          4
    60          9
    61         15
    62         39
    63         96
    64         30
    65        170
    66         19
    67          3
    69         70
    70          6
    71          6
    72          2
    73          4
    74         14
    75         14
    77        999
    78         74
    79        104
    80          7
    81         10
    82         50
    83         45
    84         11
    85         59
    86         33
    87          5
    88          0
    89          3
    91         47
    92         11
    93         47
    94         48
    95         95
    96          7
    97          6
    98          1
    99          0
   100          2
   101          6
   102         10
   103         35
   104         11
   105         23
   106          7
   107         47
   108          4
   109          2
   111         52
   112         23
   113          5
   114          2
   115         25
   116         12
   117          7
   118          3
   119          2
   120          2
   121         42
   122          5
   123          7
   124          3
   125          1
   126          1
   127          7
   128         21
   129          7
   131         61
   132          6
   133          2
   134         25
   135          2
   136          1
   137          1
   139         57
   140         15
   141         11
   142          5
   143          1
   144         12
   145          2
   146          0
   147          3
   148          0
   149          0
   150          1
   151         14
   152          2
   153          2
   155         60
   156         10
   157          1
   158          2
   159         16
   160         53
   161          7
   162          5
   163          0
   164          0
   165          2
   167         42
   168         30
   169          7
   170          6
   171         18
   172          4
   173          0
   176          0
   178          1
   179          1
   180          0
   181          0
   182          0
   183          1
   184          1
   185          3
   187        161
   188        323
   189         44
   190         16
   191          2
   192          1
   193          5
   194          1
   195          1
   196          0
   199          1
   200          1
   201          0
   202          0
   203          0
   204          0
   205          1
   206          1
   207          1
   208          0
   209          0
   210          0
   214          6
   215          2
   216          7
   217          1
   218          0
   219          0
   224          0
   232          0
   244          4
   245          0
   257          0
   284          2
   285          4
   286          6
   288        238
   289         35
   290         14
   291          1