##TITLE=Library Entry 13213
##JCAMP-DX=Revision 4.10 
##DATA TYPE=MASS SPECTRUM
##SAMPLE DESCRIPTION=NIST Mass Spectrometry Data Center, 1994
##NAMES=HP
##CAS NAME=.alpha.,.alpha.,.alpha.',.alpha.'-Tetramethyl-1,4-benzenedimethan
ol
##MOLFORM=C12H18O2
##CAS REGISTRY NO=2948-46-1
##MP= -300
##BP= -300
##MW= 194
##$RETENTION INDEX=0
##$CONDENSED SPECTRUM=NO
##NPOINTS= 116
##XYDATA=(XY..XY) 1 
    12          1
    13          0
    15         64
    16          1
    17          2
    18          7
    19          5
    27         21
    28          6
    29         26
    30          0
    31         51
    32          0
    37          0
    38          4
    39         46
    40          5
    41         49
    42          0
    43        999
    44         22
    45          2
    46          3
    50         16
    51         43
    52          9
    53          9
    54          1
    55          6
    57         11
    59        303
    60         15
    61          3
    62          4
    63         17
    64          5
    65         24
    66          4
    67         13
    69          1
    70          1
    71          0
    72          2
    73          5
    74          7
    75         10
    76         11
    77         60
    78         13
    79         14
    80          3
    81          0
    82         51
    85          0
    86          1
    87          3
    88          1
    89         10
    90          0
    91         97
    92          8
    93          8
    94          1
    95          4
    98          0
   101          2
   102          6
   103         12
   104          4
   105         28
   106          3
   107          3
   108          0
   109          0
   113          0
   115         26
   116          6
   117         14
   118          0
   119        154
   120         26
   121         60
   122          5
   127          3
   128          6
   129          2
   130          0
   131          2
   133         17
   134          3
   135          3
   137          6
   138          0
   139          0
   141          1
   142          1
   143          5
   144          0
   145          2
   147          4
   148          1
   149          1
   158          8
   159          1
   161         47
   162         10
   163         17
   164         29
   165          2
   176          3
   177          7
   179        422
   180         48
   181          4
   194         17
   195          2