##TITLE=Library Entry 14393
##JCAMP-DX=Revision 4.10 
##DATA TYPE=MASS SPECTRUM
##SAMPLE DESCRIPTION=A.A.Kutin, Moscow, Russia
##NAMES=HP
##CAS NAME=Ethanone, 1-[3-(2-hydroxy-3-nitrobenzylidenamino)phenyl]-
##MOLFORM=C15H12N2O4
##CAS REGISTRY NO=294876-66-7
##MP= -300
##BP= -300
##MW= 284
##$RETENTION INDEX=0
##$CONDENSED SPECTRUM=NO
##NPOINTS= 113
##XYDATA=(XY..XY) 1 
    33          4
    38         37
    39        108
    40         13
    41         37
    43        999
    44         17
    45         11
    46          7
    50        136
    51        121
    52         30
    53         51
    54          7
    55         13
    57         13
    61          1
    62         47
    63        175
    64         89
    65        101
    66         11
    69          9
    71          6
    74         46
    75         86
    76        208
    77        150
    78         24
    79          3
    83         14
    85          2
    86          2
    87          6
    88         10
    89         53
    90         62
    91        164
    92         36
    93          9
    97         10
   102         60
   103         16
   104         17
   105         12
   106          1
   111          4
   112          3
   113         21
   114          3
   115         24
   116         11
   117         23
   118         27
   119         42
   120         12
   126         18
   127          6
   128         13
   129          6
   130         19
   135          6
   138          2
   139        109
   140         64
   141         11
   142          6
   146         28
   147          8
   152          9
   153          6
   154         19
   155          7
   156          2
   164         13
   165         21
   166         89
   167         63
   168         18
   169          2
   170          2
   179          7
   180         10
   183          2
   184          5
   193         20
   194         48
   195         58
   196          5
   207          3
   208          4
   209         13
   211          2
   212          2
   221          6
   222          1
   223          4
   224         16
   226         24
   228          2
   235          2
   236         50
   237         42
   238          8
   241         14
   254         11
   266         72
   267         12
   269         79
   270          9
   284        242
   285         30
   287          2