##TITLE=Library Entry 38661
##JCAMP-DX=Revision 4.10 
##DATA TYPE=MASS SPECTRUM
##SAMPLE DESCRIPTION=A.A.Kutin, Moscow, Russia
##NAMES=HP
##CAS NAME=2H-Isoindole-5-carboxamide, 2-(2-tetrahydrofurfuryl)-N-(3,4-methy
lenedioxyphenyl)-1,3-dioxo-
##MOLFORM=C21H18N2O6
##CAS REGISTRY NO=294892-21-0
##MP= -300
##BP= -300
##MW= 394
##$RETENTION INDEX=0
##$CONDENSED SPECTRUM=NO
##NPOINTS= 126
##XYDATA=(XY..XY) 1 
    33          5
    36          2
    38          5
    39         37
    40         27
    41        137
    42         34
    43        311
    44         21
    45          1
    50         11
    51         23
    52         20
    53         23
    54          6
    55         14
    56          9
    57          5
    62          4
    63         11
    64          3
    65          6
    66          0
    67          1
    68          3
    69          5
    71        999
    72         39
    74         18
    75         83
    76         77
    77         25
    78         22
    79         17
    80         40
    81          3
    82          0
    83          5
    84         16
    85          1
    88          1
    89          6
    90          5
    91          4
    92          2
    93          0
   101          6
   102         10
   103        125
   104         63
   105         10
   106         32
   107          6
   108          1
   109          8
   112          1
   115          3
   116          1
   117          4
   119          3
   121          1
   125          5
   126          1
   127         12
   128          5
   129         10
   130          4
   131         23
   132         13
   133          5
   136         90
   137         44
   138         16
   139          3
   140          0
   143          0
   144          0
   145          1
   146         14
   147          2
   148          1
   149         12
   150          8
   153          8
   154          7
   155          2
   158          4
   159        185
   160         31
   161          7
   162          9
   163          1
   171          2
   172          0
   174         48
   175          4
   181          1
   182          1
   183          0
   185          7
   186          1
   188         59
   189          3
   200          1
   210          1
   211          0
   214          7
   216          7
   228          3
   230          1
   238          1
   239          3
   241         18
   242          0
   258         18
   259          1
   278          0
   310         15
   311          1
   323         31
   324        116
   325         19
   326          1
   394        120
   395         23
   396          2