##TITLE=Library Entry 40101
##JCAMP-DX=Revision 4.10 
##DATA TYPE=MASS SPECTRUM
##SAMPLE DESCRIPTION=A.A.Kutin, Moscow, Russia
##NAMES=HP
##CAS NAME=Acetamide, 2-[[3-cyano-6-methyl-4-(2-thienyl)-2-pyridinyl]thio]-N
,N-diethyl-
##MOLFORM=C17H19N3OS2
##CAS REGISTRY NO=294878-04-9
##MP= -300
##BP= -300
##MW= 345
##$RETENTION INDEX=0
##$CONDENSED SPECTRUM=NO
##NPOINTS= 191
##XYDATA=(XY..XY) 1 
    33          5
    34          4
    36          0
    37          3
    38         13
    39         58
    40         34
    41         47
    42        182
    43         81
    44        319
    45        117
    46         17
    47         13
    48          0
    50         10
    51         17
    52          7
    53          5
    54          9
    55         11
    56        111
    57         49
    58        132
    59         10
    60          3
    61          6
    62         12
    63         26
    64         15
    65         13
    66          5
    67          1
    68          7
    69         45
    70         54
    71        144
    72        999
    73         49
    74         21
    75         15
    76         14
    77         14
    78          4
    79          2
    80          2
    81          8
    82         18
    83          8
    84         19
    85        123
    86         62
    87         13
    88         21
    89         18
    90         12
    91         21
    93         15
    94         12
    95          9
    96         30
    97          9
    98         11
   100        735
   101         49
   102         19
   103          5
   104          4
   105          4
   106          5
   107          8
   108         19
   109         11
   110          7
   111          0
   112         12
   113         79
   114        149
   115         24
   116          7
   117          3
   118          6
   119         14
   120          8
   121         11
   122         11
   123          4
   124          1
   127         16
   128         17
   129         22
   130          3
   131          1
   132          8
   133         15
   134         32
   135          6
   136          1
   138          1
   139          4
   140         11
   141          4
   142          2
   143          4
   144          5
   145         31
   146         44
   147         12
   148          3
   150         15
   151          1
   152          1
   153          3
   154          3
   155         17
   156          4
   157          4
   158          6
   159         15
   160          9
   161          2
   162          0
   164          1
   165          4
   166          3
   167          2
   168          2
   170          6
   172         75
   173         16
   174          7
   175          1
   176          1
   177          3
   178          1
   183          1
   184         18
   185          7
   186          6
   187         19
   188         27
   189          6
   190          2
   191          0
   197          7
   198         20
   199         26
   200         21
   201         13
   202          4
   203          1
   204          3
   205          2
   206          1
   211          1
   212          1
   213          0
   214          0
   215          0
   216          1
   217          6
   218          2
   220          0
   228         69
   229         20
   230         17
   231         34
   232        167
   233         34
   234         17
   235          3
   240          0
   241         19
   243         20
   244         49
   245         97
   246         21
   247         10
   248          1
   270          1
   271          7
   272         29
   273         59
   274         12
   275          5
   312          5
   313          0
   344         11
   345         28
   346          6
   347          2