##TITLE=Library Entry 72043
##JCAMP-DX=Revision 4.10 
##DATA TYPE=MASS SPECTRUM
##SAMPLE DESCRIPTION=A.A.Kutin, Moscow, Russia
##NAMES=HP
##CAS NAME=Oxamide, N-methyl-N'-[2-(4-piperazinyl)ethyl]-
##MOLFORM=C9H18N4O2
##CAS REGISTRY NO=294877-47-7
##MP= -300
##BP= -300
##MW= 214
##$RETENTION INDEX=0
##$CONDENSED SPECTRUM=NO
##NPOINTS= 123
##XYDATA=(XY..XY) 1 
    34          0
    36          1
    38          2
    39          5
    40         12
    41         32
    42        105
    43         51
    44         91
    45          8
    48          1
    50          8
    51          5
    52          3
    54         30
    55         47
    56        265
    57         57
    58        235
    59         12
    60          2
    61          0
    62          1
    63          5
    64          4
    65          3
    66          0
    68         18
    69         23
    70        176
    71         26
    72         26
    73          7
    74          5
    75          9
    76          8
    77          9
    78          2
    79          1
    80          2
    82         13
    83         19
    84         48
    85         29
    86          3
    87          1
    89          1
    90          2
    91          8
    92          1
    93          1
    94          0
    95          4
    97         31
    99        999
   100         55
   101          2
   102          2
   103          4
   104          4
   105          5
   106          0
   108          0
   109          2
   111         14
   112         10
   113         26
   114          3
   115          5
   116          1
   117          1
   118          1
   119          6
   120          1
   121          0
   123          1
   125          6
   126          2
   127         11
   128          9
   129         36
   130          3
   131          1
   132          0
   133          2
   134          1
   135          0
   137          0
   139          1
   141          1
   143          1
   145          1
   146          1
   147          6
   148          1
   149          1
   150          0
   152          0
   153          1
   154          2
   155          4
   156         20
   157          2
   158          6
   162          0
   166          0
   167          0
   171          1
   172          3
   173          6
   174          0
   175         13
   176          0
   177          3
   180          0
   181          0
   182          4
   184         92
   185         10
   197          0
   202          0
   213          0
   214          8