##TITLE=Library Entry 6381
##JCAMP-DX=Revision 4.10 
##DATA TYPE=MASS SPECTRUM
##SAMPLE DESCRIPTION=A.A.Kutin, Moscow, Russia
##NAMES=HP
##CAS NAME=Butanamide, 3-(2-methylpropionylhydrazono)-N-allyl-
##MOLFORM=C11H19N3O2
##CAS REGISTRY NO=294873-32-8
##MP= -300
##BP= -300
##MW= 225
##$RETENTION INDEX=0
##$CONDENSED SPECTRUM=NO
##NPOINTS= 158
##XYDATA=(XY..XY) 1 
    33          4
    34          0
    36          0
    37          1
    39        143
    41        600
    43        999
    45          3
    46          0
    48          0
    50          1
    51          1
    52          4
    54         39
    55         57
    56        121
    57        111
    58        224
    59          7
    60          1
    62          0
    63          0
    64          0
    65          2
    67         14
    68         15
    69         34
    71        309
    72        347
    73         34
    75          0
    76          0
    77          3
    79          3
    80          3
    81          5
    82         14
    84         55
    86         32
    88          4
    89          0
    90          0
    91          0
    92          1
    93          1
    94          3
    96         34
    98        211
    99        207
   101         37
   103          0
   104          2
   105          3
   106          1
   107          1
   108          2
   109          4
   110          6
   111          9
   112          7
   113          7
   114          1
   115          0
   116          0
   117          0
   118          0
   119          0
   120          1
   121          2
   122          3
   124         43
   125         31
   127        436
   128        340
   129          2
   130          0
   131          0
   132          0
   133          2
   135         11
   136          9
   137         34
   138         41
   139         30
   140          6
   141          9
   142         14
   143          1
   145          0
   147          0
   148          2
   150          4
   151          3
   152          2
   153          3
   154          5
   155         30
   156          7
   157          0
   159          0
   160          0
   161          1
   162          1
   164          6
   165          1
   166          0
   167          1
   168         30
   169         14
   170          1
   171          0
   172          0
   174          0
   175          0
   176          2
   177         18
   178          7
   179          1
   180          1
   182        100
   183         10
   184          1
   187          0
   188          0
   189          0
   190          0
   191          0
   192          0
   193          1
   194          1
   195          2
   196         10
   197         33
   198          3
   199          0
   202          0
   203          0
   204          0
   205          0
   206          0
   207          0
   208          1
   210         37
   211          4
   212          0
   215          0
   216          1
   217          0
   218          0
   219          0
   220          0
   221          0
   223          0
   225         50
   226          8
   227          1
   228          1
   229          0