##TITLE=Library Entry 98696
##JCAMP-DX=Revision 4.10 
##DATA TYPE=MASS SPECTRUM
##SAMPLE DESCRIPTION=A.A.Kutin, Moscow, Russia
##NAMES=HP
##CAS NAME=Benzenamine, 4-(2-methylimidazolo[2,1-b]1,3,4-thiadiazol-6-yl)-
##MOLFORM=C11H10N4S
##CAS REGISTRY NO=294889-34-2
##MP= -300
##BP= -300
##MW= 230
##$RETENTION INDEX=0
##$CONDENSED SPECTRUM=NO
##NPOINTS= 144
##XYDATA=(XY..XY) 1 
    33         24
    34          4
    36          1
    37         10
    38         24
    39         60
    40         82
    41         64
    42         40
    44        111
    45         13
    46          5
    47          1
    48          1
    50         31
    51         38
    52         45
    53         13
    54         13
    55          4
    57         10
    58         16
    59         37
    61         12
    62         22
    63         54
    64         57
    65         40
    66         11
    67         15
    70         35
    71         27
    72          5
    73          4
    74         12
    75         25
    76         35
    77         22
    78         13
    79          6
    81        156
    83          5
    84          3
    85          2
    86          3
    87          5
    88          8
    89         23
    90         67
    91         97
    92         16
    94          6
    95          3
    96          1
    97          2
    98          1
    99          3
   100          3
   101          5
   102         18
   103         14
   104          9
   105          2
   106          1
   107          3
   108          3
   109          2
   110          1
   111          1
   112          1
   115         55
   118        999
   119         71
   120          5
   121          2
   122          0
   123          0
   124          0
   125          0
   126          0
   127          0
   129         26
   131        121
   132          9
   133          3
   134          6
   135          2
   136          5
   137          0
   138          0
   139          0
   140          0
   141          0
   142          1
   143          1
   144          2
   145          1
   146          0
   147          0
   148          0
   149          0
   152          0
   153          0
   154          1
   155          0
   156          1
   157          1
   158          0
   162        427
   163         36
   164         17
   165          1
   166          0
   168          0
   169          0
   170          0
   171          1
   172          0
   173          0
   174          0
   184          0
   186          0
   188         22
   189         23
   190          3
   191          1
   193          0
   196          5
   198          5
   199          0
   201          0
   202          0
   203          0
   207          0
   208          0
   209          0
   211          0
   224          0
   225          0
   230        702
   231         85
   232         31
   233          3
   234          0