##TITLE=Library Entry 69088
##JCAMP-DX=Revision 4.10 
##DATA TYPE=MASS SPECTRUM
##SAMPLE DESCRIPTION=A.A.Kutin, Moscow, Russia
##NAMES=HP
##CAS NAME=Furane-2-carboxamide, N-(2,3-dihydro-1,3-dioxo-2-phenyl-5-isoindo
lyl)-
##MOLFORM=C19H12N2O4
##CAS REGISTRY NO=294892-41-4
##MP= -300
##BP= -300
##MW= 332
##$RETENTION INDEX=0
##$CONDENSED SPECTRUM=NO
##NPOINTS= 166
##XYDATA=(XY..XY) 1 
    33          0
    34          1
    36          1
    37          4
    38         17
    39        115
    40         36
    41          8
    42          2
    43          7
    44         15
    45         12
    46          5
    48          0
    50          5
    51         19
    52          4
    53          5
    55          7
    56          3
    57          5
    58          1
    59          0
    60          0
    61          1
    62         14
    63         72
    64         15
    65          8
    66          3
    67         24
    68          2
    69          2
    70          1
    71          2
    73          1
    74          5
    75         13
    76          5
    77         30
    78          3
    79          1
    80          0
    81          1
    82          0
    83          1
    84          0
    85          0
    86          0
    87          1
    88          3
    89          9
    90         17
    91         11
    92          2
    95        999
    96         49
    97          5
    98          0
    99          0
   100          1
   101          3
   102          2
   103          6
   104          1
   105          1
   106          0
   107          0
   108          0
   109          0
   110          0
   112          1
   113          1
   114          0
   115          1
   116          1
   117          6
   118          2
   119          5
   120          1
   121          0
   122          0
   123          0
   124          0
   126          1
   127          3
   128          5
   129          2
   130          0
   131          0
   135          1
   137          0
   138          0
   139          1
   140          1
   141          0
   142          0
   143          0
   144          1
   145          1
   146          0
   149          2
   150          0
   151          0
   152          1
   153          1
   154          2
   155          0
   156          2
   157          1
   158          0
   159          0
   164          0
   165          1
   166          3
   167          2
   168          0
   171          1
   177          0
   178          0
   179          1
   180          0
   181          3
   182          2
   183          1
   184          2
   185          2
   186          0
   191          1
   192          4
   193          4
   194          1
   195          0
   197          0
   205          0
   208          0
   209          0
   210          0
   211          0
   212          6
   213          2
   214          0
   220          0
   231          0
   232          0
   236          0
   237          4
   238          1
   239          0
   254          0
   259          0
   260          0
   264          0
   265          0
   275          0
   288          3
   289          0
   303          0
   304          0
   328          0
   329          1
   330          2
   332        153
   333         31
   334          4
   335          0