##TITLE=Library Entry 99538
##JCAMP-DX=Revision 4.10 
##DATA TYPE=MASS SPECTRUM
##SAMPLE DESCRIPTION=A.A.Kutin, Moscow, Russia
##NAMES=HP
##CAS NAME=2-Pyrazolin-5-ol, 5-(4-ethylphenyl)-3-trifluoromethyl-1-(4-methyl
benzoyl)-
##MOLFORM=C20H19F3N2O2
##CAS REGISTRY NO=294877-07-9
##MP= -300
##BP= -300
##MW= 376
##$RETENTION INDEX=0
##$CONDENSED SPECTRUM=NO
##NPOINTS= 133
##XYDATA=(XY..XY) 1 
    39          3
    40          0
    41          0
    50          2
    51          4
    52          0
    53          0
    55          0
    57          0
    61          0
    63         13
    65         60
    66          2
    67          0
    69          4
    70          0
    74          2
    77         36
    79         30
    80          0
    86          0
    87          0
    89         39
    91        322
    92         11
    93          0
    95          3
   103         32
   104         13
   105         33
   106          3
   107          0
   109          0
   112          0
   114          0
   115          8
   119        999
   120         47
   121          4
   123          3
   124          0
   125          0
   127          3
   128          3
   129          1
   130          3
   131         11
   133        257
   134         17
   135          2
   136          0
   137          0
   138          0
   139          0
   140          0
   141          0
   142          0
   144          3
   145          4
   146          3
   147          3
   148          4
   149          1
   151          5
   152          1
   153          0
   157          0
   158          0
   159          1
   160          0
   161          0
   162          0
   163          0
   164          1
   165          2
   166          2
   167          0
   171          0
   173          0
   175          0
   176          0
   177          0
   178          0
   179          3
   180          2
   181          1
   182          0
   183          0
   193          1
   194          1
   195          0
   196          0
   197          0
   199          1
   200          0
   207          0
   208          0
   209          0
   211          0
   212          0
   213          1
   214          0
   215          0
   222          0
   223          0
   225          1
   226          3
   227          1
   228          2
   229          0
   240         15
   241         10
   242          2
   243          2
   244          0
   263          0
   264          0
   280          0
   289          0
   307         46
   308          9
   309          0
   347          5
   348          0
   357         10
   358         19
   359          4
   360          0
   361          0
   376        126
   377         23
   378          2
   379          0