##TITLE=Library Entry 63784
##JCAMP-DX=Revision 4.10 
##DATA TYPE=MASS SPECTRUM
##SAMPLE DESCRIPTION=A.A.Kutin, Moscow, Russia
##NAMES=HP
##CAS NAME=Acetamide, 2-(1-benzyl-2-indolyl)-N-(4-methoxyphenyl)-
##MOLFORM=C24H22N2O2
##CAS REGISTRY NO=294878-12-9
##MP= -300
##BP= -300
##MW= 370
##$RETENTION INDEX=0
##$CONDENSED SPECTRUM=NO
##NPOINTS= 230
##XYDATA=(XY..XY) 1 
    33          3
    34          2
    35          0
    36          3
    37          3
    38         12
    39         65
    40         30
    41         51
    42          8
    43         10
    44         17
    45          9
    46          1
    47          1
    48          0
    50         22
    51         51
    52         51
    53         30
    54          7
    55          8
    56          2
    57          5
    58          1
    59          0
    60          2
    61          3
    62         11
    63         51
    64         37
    65        186
    66         13
    67          8
    68          3
    69          3
    70          1
    71          3
    72          0
    73          1
    74          5
    75         14
    76         20
    77         69
    78         40
    79         21
    80         26
    81          8
    82          2
    83          2
    84          1
    85          0
    86          2
    87          2
    88          6
    89         40
    91        999
    92         87
    93          8
    94          5
    95         32
    97          4
    98          1
    99          1
   100          3
   101         18
   102         48
   103         59
   104         16
   105          6
   106         23
   107         12
   108         31
   109          4
   110          1
   111          1
   112          1
   113          4
   114          4
   115         32
   116         10
   117         43
   118          7
   119          2
   120          2
   121          8
   122         58
   123         20
   124          3
   125          1
   126          2
   127          6
   128         40
   129         62
   130        353
   131         48
   132          5
   133          2
   134         26
   135          3
   136          2
   137          0
   138          1
   139          3
   140          3
   141          3
   142         14
   143         11
   144         47
   145          7
   146          1
   147          0
   148          1
   149         23
   150          3
   151          3
   152          3
   153          2
   154          2
   155          1
   156          5
   157          2
   158          1
   159          0
   161          0
   162          6
   163          1
   164          1
   165          7
   166          2
   167          3
   168          1
   169          0
   170          1
   171          1
   172          0
   173          0
   174          1
   175          0
   176          2
   177          2
   178         11
   179          5
   180          4
   181          1
   182          2
   183          0
   184          0
   185          7
   186          1
   187          1
   188          1
   189          4
   190          2
   191          4
   192          3
   193          5
   194          2
   195          0
   196          0
   197          1
   198          0
   199          0
   200          0
   201          2
   202          4
   203          9
   204         27
   205         22
   206         58
   207         10
   208          1
   209          1
   210          0
   211          0
   212          1
   213          0
   214          1
   215          2
   216          9
   217         30
   218         65
   219         31
   220        320
   221        424
   222         72
   223          7
   224         14
   225          3
   226          0
   227          0
   228          0
   229          0
   230          1
   231          0
   234          1
   235          0
   236          0
   237          0
   238          0
   239          0
   242          0
   243          0
   244          0
   245          0
   246          0
   247          2
   248          4
   249          1
   250          0
   251          0
   256          0
   257          0
   258          0
   279          0
   280          1
   281          0
   293          0
   296          0
   297          0
   301          0
   340          0
   365          0
   367          0
   369          3
   370         58
   371         13
   372          2
   373          0
   374          0