##TITLE=Library Entry 67656
##JCAMP-DX=Revision 4.10 
##DATA TYPE=MASS SPECTRUM
##SAMPLE DESCRIPTION=V.Zaikin,Inst.Petrochem.Synth.,RAS,Moscow
##NAMES=HP
##CAS NAME=2-Furancarboxylic acid, phenyl ester
##MOLFORM=C11H8O3
##CAS REGISTRY NO=2948-14-3
##MP= -300
##BP= -300
##MW= 188
##$RETENTION INDEX=0
##$CONDENSED SPECTRUM=NO
##NPOINTS= 37
##XYDATA=(XY..XY) 1 
    25          4
    26         16
    27         14
    28          3
    29         20
    39        564
    40         34
    41         17
    42          4
    50         42
    51         81
    52         27
    53         29
    55          9
    61          9
    62         19
    63         42
    64         18
    65         99
    66         27
    67         31
    68          5
    69          4
    74          8
    75          5
    76          3
    77         43
    78          9
    79         31
    93         18
    94         34
    95        999
    96        165
    97         17
   188        361
   189         45
   190          5