##TITLE=Library Entry 14356
##JCAMP-DX=Revision 4.10 
##DATA TYPE=MASS SPECTRUM
##SAMPLE DESCRIPTION=A.A.Kutin, Moscow, Russia
##NAMES=HP
##CAS NAME=Acetic acid, [2-(4-tretbutylphenyl)-4-oxo-4H-3,1-benzoxazin-6-yl]
 ester
##MOLFORM=C20H19NO4
##CAS REGISTRY NO=294892-59-4
##MP= -300
##BP= -300
##MW= 337
##$RETENTION INDEX=0
##$CONDENSED SPECTRUM=NO
##NPOINTS= 114
##XYDATA=(XY..XY) 1 
    34          9
    36         21
    37          5
    38         17
    39        100
    40        188
    41        180
    43        999
    44        144
    45         15
    50         31
    51         86
    52         28
    53         42
    54          2
    55         58
    56         14
    57        115
    58          2
    60          2
    62         30
    63        116
    64         28
    65         62
    66          5
    69         12
    70          5
    71          6
    73          2
    74          6
    75         25
    76         52
    77        136
    78         44
    79         39
    80         19
    81          4
    83          2
    88          1
    89         42
    90         98
    91        235
    92         52
    93         20
    94          1
   101          8
   102         34
   103         83
   104         34
   105         83
   106         95
   107         11
   109          2
   112          2
   115        185
   116         90
   117        174
   118        332
   119         78
   120          8
   121         17
   122          1
   124          2
   125          1
   126         16
   127         15
   128         18
   129         14
   131         66
   133         35
   135          9
   139          3
   140          3
   143          2
   145        385
   146        185
   147         15
   149          3
   153         11
   154          3
   159         25
   161        169
   162        215
   163         17
   165          1
   171         16
   176          5
   180         13
   182          5
   195          1
   208          5
   222          1
   224          2
   236          8
   239          1
   251         14
   252        102
   253         15
   255         12
   264          4
   278         12
   279         42
   280        951
   281        175
   282         18
   293         13
   294         49
   295        909
   296        179
   297         22
   322          9
   337        150
   338         29
   339          1