##TITLE=Library Entry 79771
##JCAMP-DX=Revision 4.10 
##DATA TYPE=MASS SPECTRUM
##SAMPLE DESCRIPTION=A.A.Kutin, Moscow, Russia
##NAMES=HP
##CAS NAME=5H-Pyrrolo[3,4-b]pyridin-5,7(6H)-dione, 6-(2-thiazolyl)-
##MOLFORM=C10H5N3O2S
##CAS REGISTRY NO=294892-45-8
##MP= -300
##BP= -300
##MW= 231
##$RETENTION INDEX=0
##$CONDENSED SPECTRUM=NO
##NPOINTS= 132
##XYDATA=(XY..XY) 1 
    33          5
    34          8
    36          6
    37         27
    38         50
    39         62
    40        136
    41          8
    42          6
    43         10
    44         60
    45        194
    46         22
    47          9
    48          8
    49         55
    50        454
    51        135
    52         45
    53         61
    54         21
    55         12
    56          7
    57         81
    58        331
    60         32
    61          4
    62          5
    63         12
    64         31
    65         33
    66         29
    67          2
    69         14
    70         22
    71         15
    72          7
    73          8
    75         84
    76        280
    77        862
    78         73
    79         24
    80         15
    82          7
    83         11
    84          9
    85          6
    86         17
    87          5
    88         10
    89          1
    90         14
    91         22
    92          6
    93         18
    94          3
    95          2
    96          2
    97          3
    98          2
    99          0
   100          2
   102          6
   103         51
   105        999
   106         60
   108         15
   109          4
   110          2
   111          3
   112          0
   116         12
   117         30
   118         14
   119          2
   121         26
   122          6
   123          5
   124          2
   126          9
   127          3
   128          1
   130         30
   131         32
   132          2
   133          5
   135        130
   136         10
   137          5
   138          0
   142          0
   143          5
   145         30
   146         13
   147          7
   148         44
   149         11
   150          7
   151          3
   152          2
   158          3
   159          4
   160          1
   161         11
   162          1
   163         10
   164          0
   171         14
   172          2
   173         11
   175        165
   176         20
   178          0
   180          4
   186          2
   187          7
   189        308
   190         32
   191         15
   192          1
   203         78
   204          7
   205          3
   206          1
   220          0
   228         13
   230        127
   231        852
   232        107
   233         46
   234          3