##TITLE=Library Entry 89753
##JCAMP-DX=Revision 4.10 
##DATA TYPE=MASS SPECTRUM
##SAMPLE DESCRIPTION=A.A.Kutin, Moscow, Russia
##NAMES=HP
##CAS NAME=Benzene-1,3-dicarboxamide, 5-nitro-N,N'-dicyclohexyl-N,N'-dimethy
l-
##MOLFORM=C22H31N3O4
##CAS REGISTRY NO=294874-76-3
##MP= -300
##BP= -300
##MW= 401
##$RETENTION INDEX=0
##$CONDENSED SPECTRUM=NO
##NPOINTS= 230
##XYDATA=(XY..XY) 1 
    38          5
    39        113
    40         29
    41        453
    42        537
    43         93
    44         49
    50         12
    51         15
    52         10
    53         70
    54        121
    55        521
    56         80
    57         81
    58         56
    60          4
    62          4
    63         23
    64         13
    65         22
    66         17
    67        189
    68        107
    69         25
    70        177
    71         18
    72         10
    74         26
    75        450
    76         81
    77         45
    78         18
    79         56
    80         18
    81        121
    82        150
    83        151
    84         30
    85          4
    86          7
    89         20
    90         15
    91         22
    92         26
    93         15
    94          9
    95         38
    96         28
    97          7
    98         11
    99          5
   100         15
   102         34
   103        181
   104        127
   105         33
   106         21
   107          8
   108          6
   109          4
   110        101
   111        137
   112        999
   113        134
   114        247
   115         56
   116         37
   117         21
   118         21
   119         20
   120         20
   121         11
   122         14
   123         50
   127          5
   128         16
   130         82
   131         69
   132         74
   133         64
   134         69
   135         18
   136          6
   140         17
   141          6
   142         12
   143         27
   144         61
   145         25
   146         14
   147         12
   148         25
   149        170
   150         68
   151         23
   152          4
   155          4
   156          6
   158        144
   159         50
   160         19
   161         70
   162         46
   163         47
   164         15
   165          6
   170          5
   171         18
   172         34
   173         12
   174         12
   175         11
   176         14
   178        951
   179        110
   180         72
   181         12
   184          5
   185         10
   186         24
   187         12
   188         25
   189         10
   190         28
   191         31
   192         30
   193         17
   194         21
   199          4
   200         12
   201          9
   202         12
   203          8
   204         18
   205         39
   206         13
   207        382
   208         44
   209         10
   210         10
   214         18
   215         15
   216         26
   217         17
   218         28
   219         19
   220         19
   221          8
   222         17
   224          5
   225          8
   228          5
   229         12
   230          8
   231         21
   232         25
   233         31
   234          7
   236         13
   238        530
   239         66
   240          9
   241          4
   242          8
   243         14
   244         12
   245         13
   246          9
   247          7
   248          8
   249          5
   250          8
   256          7
   259          7
   260        139
   261         41
   262        320
   263         56
   264          8
   271         13
   272          8
   273         14
   274         17
   275          6
   276         50
   277          9
   278          4
   286          7
   287         27
   288         34
   289        217
   290         53
   291         11
   292         31
   293          5
   302         26
   303         26
   304         35
   305          7
   308          5
   313          6
   318        190
   319         47
   320        253
   321         48
   322          6
   330         43
   331         10
   342         66
   343         24
   344         87
   345         19
   355          7
   356         23
   357          5
   358         33
   359          8
   370          8
   371          7
   372         58
   373         15
   384         44
   385         12
   386         33
   387          8
   400         52
   401        253
   402         66
   403         10