##TITLE=Library Entry 49436
##JCAMP-DX=Revision 4.10 
##DATA TYPE=MASS SPECTRUM
##SAMPLE DESCRIPTION=A.A.Kutin, Moscow, Russia
##NAMES=HP
##CAS NAME=Pyridine, 3-aminosulfonyl-2-chloro-4,6-dimethyl-
##MOLFORM=C7H9ClN2O2S
##CAS REGISTRY NO=294876-56-5
##MP= -300
##BP= -300
##MW= 220
##$RETENTION INDEX=0
##$CONDENSED SPECTRUM=NO
##NPOINTS= 104
##XYDATA=(XY..XY) 1 
    33         11
    35          9
    36         23
    37         69
    38        178
    39        613
    40        105
    41        142
    42        117
    43         41
    44          8
    46        187
    47         83
    48        320
    49         80
    50        214
    51        459
    52        257
    53        218
    54         38
    55         19
    57         13
    58          4
    60          8
    61         91
    62        233
    63        428
    64        870
    65        472
    66        200
    67         83
    69         58
    70         55
    71         26
    72         47
    73        179
    74         70
    75        146
    76         98
    77        836
    78        210
    79        226
    80        999
    81         69
    82         39
    83         11
    84         41
    85         36
    86         28
    87         35
    88         22
    89         12
    90         27
    91         46
    92        120
    93        114
    94         30
    97         32
    98         25
    99         78
   100         32
   101         40
   102         30
   104        264
   105         78
   106         27
   108         50
   109         87
   110          5
   111          3
   112         19
   113        101
   114          3
   115         30
   119        123
   120         93
   121        170
   122          4
   126         25
   128        108
   129         13
   130         10
   136        104
   137          6
   138         14
   140        240
   141         25
   142         57
   143          4
   155        124
   156         69
   157         88
   158         18
   160         11
   168         10
   185         86
   186         27
   187         17
   203         27
   204          3
   205          1
   220        240
   221         10
   222         81