##TITLE=Library Entry 7315
##JCAMP-DX=Revision 4.10 
##DATA TYPE=MASS SPECTRUM
##SAMPLE DESCRIPTION=A.A.Kutin, Moscow, Russia
##NAMES=HP
##CAS NAME=Propanedihydrazide, 2-[2-hydroxy-3-(3-methylbutoxy)propyl]-
##MOLFORM=C11H24N4O4
##CAS REGISTRY NO=294874-09-2
##MP= -300
##BP= -300
##MW= 276
##$RETENTION INDEX=0
##$CONDENSED SPECTRUM=NO
##NPOINTS= 172
##XYDATA=(XY..XY) 1 
    33        106
    34         10
    36          3
    37          5
    39        209
    40        212
    41        398
    43        999
    44        131
    45         60
    46          3
    47          1
    48          1
    50          8
    51         14
    53         85
    55        419
    56         42
    57        111
    58         23
    59         47
    60          7
    61          5
    62          1
    63          2
    64          3
    65          5
    66          4
    67         11
    68         28
    69         93
    71        403
    72         31
    73         13
    74          4
    75          1
    76          1
    77          3
    78          3
    79          3
    81         32
    82         19
    83         43
    84         27
    85         48
    86         36
    87         81
    89          4
    90          1
    91          4
    92          1
    93          1
    95         12
    96         30
    97         60
    98         24
    99         61
   100         77
   101         99
   102          9
   103          7
   104          1
   105          1
   106          1
   107          1
   108          5
   109         15
   111        141
   112         39
   113        105
   114         17
   115         11
   116          5
   118         33
   119          2
   120          1
   121          1
   122          5
   123          6
   125         88
   126         12
   127         53
   128         29
   129         12
   130          7
   131          6
   132          5
   133          0
   134          0
   135          1
   136          1
   138         17
   139         42
   140         37
   141         11
   142         34
   143         66
   144          8
   145         11
   146          2
   147          0
   148          0
   149          0
   151          0
   152          1
   153          1
   154          5
   155         12
   156         45
   157        145
   158         16
   159          4
   160          4
   161          0
   164          0
   165          0
   167          1
   168          0
   169          2
   170          3
   171          3
   172          2
   173          5
   174         46
   175         47
   176          3
   177          0
   178          0
   182          0
   183          0
   184          1
   185          0
   187          4
   188          2
   189          2
   190          0
   191          0
   197          0
   198          0
   199          1
   200          0
   201          0
   203          0
   209          0
   211          0
   213         13
   214          1
   215          0
   217          0
   219          1
   224          0
   226          4
   227          8
   228          1
   229          1
   230          1
   231          0
   241          0
   242          1
   243          3
   244         20
   245         57
   246          6
   247          0
   254          0
   257          0
   258          8
   259          0
   261          0
   263          0
   276          2
   277          0