##TITLE=Library Entry 48008
##JCAMP-DX=Revision 4.10 
##DATA TYPE=MASS SPECTRUM
##SAMPLE DESCRIPTION=Chemical Concepts
##NAMES=HP
##CAS NAME=2-Chloro-4-(diphenylamino)-6-morpholino-1,3,5-triazine
##MOLFORM=C19H18ClN5O
##CAS REGISTRY NO=294875-84-6
##MP= -300
##BP= -300
##MW= 367
##$RETENTION INDEX=0
##$CONDENSED SPECTRUM=NO
##NPOINTS= 207
##XYDATA=(XY..XY) 1 
    35         27
    36         43
    37          9
    38         16
    39        159
    40         24
    41        111
    42        134
    43         65
    44         11
    45         53
    47         27
    48          9
    51        520
    53         42
    55        263
    56        173
    57         23
    58         15
    59          4
    62         68
    63         45
    65        176
    66         38
    68         69
    69         47
    70         14
    71         11
    72          8
    74         19
    77        999
    80         41
    81         26
    82         26
    83         49
    84         26
    85         32
    86         87
    87         70
    88         36
    90         71
    91         52
    92         62
    94         46
    95          7
    96         11
    98          7
    99          5
   100          4
   101          9
   103         98
   104         70
   105         11
   106          9
   107          7
   108         15
   109         11
   111         39
   112          8
   113         27
   115         27
   117        225
   118         74
   119         33
   121         13
   123         26
   125          5
   126          7
   127          7
   128         17
   129         28
   131        221
   132         21
   133          3
   134          2
   135          3
   138        217
   139         49
   140         74
   141         17
   143         57
   144        126
   145         21
   146          2
   149         14
   151         21
   152         21
   153         15
   154         20
   155         15
   156          9
   157          8
   158          9
   159         31
   160          6
   161          9
   162         12
   163          9
   164         10
   166        118
   167        189
   168        114
   169         72
   170         16
   171          9
   172          9
   173          5
   174         18
   175         27
   176         10
   177          9
   178         33
   179         31
   180         12
   181          3
   182          4
   183         12
   184         17
   185          5
   188          3
   189         14
   191         17
   192         38
   193         51
   194         40
   195         93
   196         11
   197          2
   198          2
   199          9
   203          3
   204          5
   205         13
   206          8
   207          8
   208          3
   214          2
   215          2
   216          2
   218         41
   219         63
   220         92
   221         14
   222          5
   231          2
   232          9
   233         10
   234         16
   235         14
   236          3
   241          4
   243          3
   245         38
   246         32
   247         33
   248          9
   249          2
   250          3
   252          3
   254         47
   255          8
   256         13
   257          3
   258          2
   259          5
   260         11
   261          9
   262          6
   272          2
   273          7
   274         18
   275          8
   276          3
   279          7
   281        101
   282         21
   283         29
   284          6
   286          1
   302         28
   303          6
   304          1
   308        166
   309         89
   310        212
   311         62
   312         59
   313         11
   319          2
   322        168
   323         42
   324         70
   325         15
   326          8
   332        311
   333         61
   334          7
   336        206
   337         98
   338         93
   339         33
   366        864
   367        771
   368        384
   369        261
   370         49
   371          6