##TITLE=Library Entry 12676
##JCAMP-DX=Revision 4.10 
##DATA TYPE=MASS SPECTRUM
##SAMPLE DESCRIPTION=A.A.Kutin, Moscow, Russia
##NAMES=HP
##CAS NAME=Spiro[4,4]non-2-ene, 1-oxa-3,4-diaza-2-(1-naphtyl)-4-acetyl-
##MOLFORM=C18H18N2O2
##CAS REGISTRY NO=294874-01-4
##MP= -300
##BP= -300
##MW= 294
##$RETENTION INDEX=0
##$CONDENSED SPECTRUM=NO
##NPOINTS= 89
##XYDATA=(XY..XY) 1 
    37          8
    38         19
    39        170
    40         49
    41         93
    43        999
    44         20
    45          5
    50         28
    51         45
    52         14
    53         29
    54         35
    55         50
    56         13
    57          8
    61          4
    62         14
    63         43
    64         22
    74         17
    75         49
    76         24
    77         68
    78          7
    79          2
    81          5
    82          9
    83          5
    84          2
    86          7
    87         16
    88          6
    89         15
    90          3
    94          2
    95         27
    96          3
    97          3
    99         13
   100         10
   101         33
   102          7
   125         27
   126        106
   127        346
   128         45
   129          3
   138          8
   139         32
   140         30
   141         13
   142          4
   143          1
   153         22
   154         89
   155        588
   156         62
   157          4
   158          0
   167          6
   168         14
   169         10
   170          2
   171          1
   172          1
   178          1
   179          2
   180          4
   181          3
   182          0
   194          1
   195          4
   196          1
   197          0
   223        103
   224         24
   225          2
   234          1
   235          4
   236          0
   250          3
   251          9
   252         52
   253          8
   254          0
   294         57
   295          9
   296          1