##TITLE=Library Entry 100652
##JCAMP-DX=Revision 4.10 
##DATA TYPE=MASS SPECTRUM
##SAMPLE DESCRIPTION=A.A.Kutin, Moscow, Russia
##NAMES=HP
##CAS NAME=1,3,4-Oxadiazole, 2-(3-fluorophenyl)-5-(4-methylphenyl)-
##MOLFORM=C15H11FN2O
##CAS REGISTRY NO=294892-25-4
##MP= -300
##BP= -300
##MW= 254
##$RETENTION INDEX=0
##$CONDENSED SPECTRUM=NO
##NPOINTS= 100
##XYDATA=(XY..XY) 1 
    33          2
    37          5
    38         18
    39         79
    40         23
    41         15
    42          0
    43          3
    44          7
    45          4
    49          0
    50         64
    51         98
    52         26
    53         16
    55          2
    57         71
    58          1
    61         14
    62         48
    63        109
    64         30
    65        141
    66          7
    68         11
    69         19
    70          6
    71          4
    74         44
    75        154
    76         59
    77        144
    78         16
    80          7
    81         48
    82         13
    83          0
    85          4
    86         15
    87         20
    88         11
    89         90
    90         54
    91        365
    92         24
    93          8
    95        472
    96         24
    98          2
    99          2
   100          4
   101          7
   102         53
   103         84
   104         19
   105         13
   107         81
   108         20
   109          5
   114          1
   116         32
   117         19
   119        999
   120         77
   121         35
   123        459
   124         28
   125          3
   127         42
   128          3
   131          1
   132          5
   133          3
   136          0
   151          3
   157          4
   163          2
   165          1
   170          9
   171          4
   175          2
   176         14
   177         15
   178         10
   179          6
   183        865
   184        119
   185          3
   194          3
   195          5
   196         74
   197        179
   198         48
   199          5
   211          7
   225          2
   250          0
   254        809
   255        131
   256         10