##TITLE=Library Entry 14413
##JCAMP-DX=Revision 4.10 
##DATA TYPE=MASS SPECTRUM
##SAMPLE DESCRIPTION=A.A.Kutin, Moscow, Russia
##NAMES=HP
##CAS NAME=Pyridine-3-carbonitrile, 5-acetyl-2-dicyanomethyl-6-methyl-4-phen
yl-
##MOLFORM=C18H12N4O
##CAS REGISTRY NO=294874-44-5
##MP= -300
##BP= -300
##MW= 300
##$RETENTION INDEX=0
##$CONDENSED SPECTRUM=NO
##NPOINTS= 230
##XYDATA=(XY..XY) 1 
    33          0
    34          2
    35         10
    36         58
    37          6
    38         36
    39         81
    40         45
    41         38
    42         49
    43        999
    44         34
    45          9
    46          1
    49          2
    50         42
    51         96
    52         29
    53         12
    54          6
    55         29
    56         12
    57         24
    58          2
    59          2
    60         18
    61         13
    62         29
    63         60
    64         20
    65         23
    66         10
    67         13
    68          9
    69         25
    70          9
    71         13
    72          3
    73         23
    74         31
    75         53
    76         43
    77         61
    78         13
    79          6
    80          7
    81         12
    82         19
    83         16
    84          6
    85         11
    86         15
    87         33
    88         45
    89         31
    90          9
    91         18
    92          3
    93          2
    94          8
    95         12
    96         12
    97          8
    98         12
    99         24
   100         24
   101         30
   102         39
   103          9
   104          4
   105          8
   106          1
   107          3
   108          7
   109          9
   110         10
   111         15
   112         19
   113         24
   114         22
   115         37
   116         12
   117          3
   118          2
   119          1
   120          1
   121          3
   122          8
   123         23
   124         16
   125         13
   126         16
   127         26
   128         18
   129         21
   130          5
   131          1
   132          0
   133          0
   134          2
   135          6
   136         12
   137         18
   138         38
   139         48
   140         42
   141          8
   142          4
   143          2
   144          1
   145          0
   146          0
   147          1
   148          2
   149         13
   150         27
   151         59
   152         25
   153          9
   154          3
   155          1
   157          3
   158          0
   160          0
   161          2
   162         13
   163         27
   164         98
   165         49
   166         15
   167          4
   168          1
   169          0
   170          0
   171          3
   172          0
   173          0
   174          3
   175         14
   176         70
   177         40
   178         20
   179          6
   180          4
   181          1
   182          0
   183          1
   185          2
   186          1
   187          2
   188         16
   189         38
   190         21
   191         35
   192         34
   193         14
   194          5
   195          1
   196          0
   199          1
   200          3
   201          8
   202         27
   203         58
   204         17
   205         10
   206          5
   207          2
   208          1
   209          0
   212          0
   213          2
   214          6
   215         11
   216          8
   217          4
   218          3
   219          4
   220          3
   221          1
   222          0
   223          0
   226          0
   227          2
   228          7
   229          7
   230         42
   231        108
   232         39
   233          7
   234          2
   235          2
   236          1
   240          1
   241          2
   242          4
   243          4
   244          5
   245          5
   246          2
   247          0
   254          1
   255          3
   256         10
   257          7
   258         67
   259         19
   260          4
   261          0
   269          1
   270          1
   271          3
   272          8
   273         82
   274         36
   275          6
   276          0
   281          0
   282          6
   283         14
   285        645
   286        128
   287         15
   288          1
   298          1
   299         40
   300        209
   301         47
   302          5
   303          0