##TITLE=Library Entry 4972
##JCAMP-DX=Revision 4.10 
##DATA TYPE=MASS SPECTRUM
##SAMPLE DESCRIPTION=A.A.Kutin, Moscow, Russia
##NAMES=HP
##CAS NAME=Ethenamine, N,N-dimethyl-2-[(4-nitrophenyl)thio]-
##MOLFORM=C10H12N2O2S
##CAS REGISTRY NO=294876-70-3
##MP= -300
##BP= -300
##MW= 224
##$RETENTION INDEX=0
##$CONDENSED SPECTRUM=NO
##NPOINTS= 146
##XYDATA=(XY..XY) 1 
    33         10
    34         17
    35          3
    36          2
    37          8
    38         26
    39         66
    40        288
    41         96
    42        999
    43        102
    44        409
    45        129
    46         77
    47         13
    48          2
    50        134
    51         38
    52         18
    53         14
    54         39
    55         70
    56         79
    57        140
    58        235
    59         89
    60          7
    61         39
    62         23
    63         76
    64         19
    65         40
    66          7
    67          6
    68         84
    69        113
    70        124
    71         29
    72          7
    73         24
    74         39
    75         45
    76         79
    77         36
    78         19
    79          7
    80          5
    81         17
    82         47
    83          9
    84         13
    85          5
    86         50
    87         88
    88        531
    89         83
    90         47
    91         50
    92          9
    93          9
    94         10
    95          8
    96         14
    97         16
    98          5
   100         90
   101         21
   102         99
   103         18
   104         14
   105          7
   106          9
   107          8
   108         45
   109         23
   110          6
   111          1
   112          8
   115          3
   116          3
   117          9
   118          8
   119          4
   120          7
   121         52
   122         21
   123          6
   124          8
   125         18
   126          1
   127          1
   128          2
   129          3
   130         13
   131         10
   132         15
   133         67
   134        100
   135         25
   136         10
   137          4
   138          7
   139          3
   140          2
   143          8
   144        142
   145         61
   146         12
   147          6
   148         12
   149         12
   150          6
   151          3
   152          1
   155         24
   160          5
   161          3
   162         16
   163         28
   164          2
   165          2
   166          3
   167          1
   168          4
   171          2
   173          0
   174          3
   175          4
   176         13
   177         13
   178         23
   179         18
   180         13
   181          0
   189          2
   191        109
   192         16
   193          1
   194          2
   208          2
   209          1
   223          7
   224        348
   225         41
   226         15
   227          0