##TITLE=Library Entry 64200
##JCAMP-DX=Revision 4.10 
##DATA TYPE=MASS SPECTRUM
##SAMPLE DESCRIPTION=A.A.Kutin, Moscow, Russia
##NAMES=HP
##CAS NAME=Pyridine, 2,6-bis[2-(3-methylphenoxy)-1-oxoethylamino]-
##MOLFORM=C23H23N3O4
##CAS REGISTRY NO=294892-61-8
##MP= -300
##BP= -300
##MW= 405
##$RETENTION INDEX=0
##$CONDENSED SPECTRUM=NO
##NPOINTS= 204
##XYDATA=(XY..XY) 1 
    33          0
    34          0
    36          2
    37          3
    38         20
    39        118
    40         30
    41         45
    42         31
    43         36
    44         12
    45          2
    50         19
    51         54
    52         40
    53         50
    54         13
    55         13
    56          3
    57          5
    58          1
    59          0
    60          1
    61          1
    62          9
    63         39
    65        315
    66         48
    67         28
    68          6
    69          5
    70          1
    71          3
    73          1
    74          3
    75          3
    77        127
    78         56
    79         80
    80         31
    81         34
    82         17
    83          2
    84          1
    85          1
    86          0
    87          1
    89         50
    91        999
    92        134
    93        189
    94        199
    95         17
    96          1
    97          1
    98          0
    99          0
   103          8
   105         93
   106         18
   107        111
   108        107
   109        235
   110         26
   111          2
   112          0
   113          0
   115          1
   116          1
   117          3
   118          5
   119         54
   121        319
   122        123
   123         10
   124          1
   125          0
   126          0
   127          1
   128          2
   129          2
   130          0
   131          1
   132          6
   134        125
   135         59
   136         68
   137          7
   138          1
   139          0
   140          0
   141          1
   142          2
   143          0
   144          1
   145          2
   146          5
   147          8
   148         81
   149        197
   150        425
   151         50
   152          5
   153          2
   154          1
   155          1
   156          1
   157          1
   158          0
   159          1
   160          9
   162        321
   163         40
   164          5
   165          5
   166         17
   167          2
   168          1
   169          1
   170          1
   171          6
   173          2
   174          2
   176        134
   177         15
   178         16
   179          2
   180          2
   181          1
   182          2
   183          2
   184          2
   185          1
   186          0
   188          0
   190         25
   191         41
   192          8
   193          1
   194          0
   195          1
   196          1
   197          1
   198          4
   199          4
   200          1
   203         13
   204          0
   206         14
   207          1
   208          0
   209          0
   210          1
   211          4
   212          1
   213          1
   214          1
   215          0
   221          0
   222          0
   223          0
   224          1
   225          0
   226          1
   227          0
   228          1
   238          1
   239          4
   240          3
   241          1
   242          0
   251          0
   252          4
   254          9
   255          9
   257        737
   258        116
   259         10
   260          0
   266          2
   267          0
   268          2
   270          4
   271          0
   280          2
   281          0
   282          0
   284         39
   285          6
   286          0
   289          0
   293          0
   295          5
   296          7
   298        330
   299         56
   300          7
   301          0
   314         14
   315          2
   405        146
   406         35
   407          5
   408          0