##TITLE=Library Entry 62809
##JCAMP-DX=Revision 4.10 
##DATA TYPE=MASS SPECTRUM
##SAMPLE DESCRIPTION=A.A.Kutin, Moscow, Russia
##NAMES=HP
##CAS NAME=Benzaldehyde, 4-benzyloxy-, (5-trifluoromethyl-2-pyridyl)hydrazon
e
##MOLFORM=C20H16F3N3O
##CAS REGISTRY NO=294878-11-8
##MP= -300
##BP= -300
##MW= 371
##$RETENTION INDEX=0
##$CONDENSED SPECTRUM=NO
##NPOINTS= 189
##XYDATA=(XY..XY) 1 
    33          1
    34          0
    35          0
    37          4
    38         15
    39         53
    40         16
    41         19
    42          2
    43          3
    44          3
    45          1
    46          1
    47          0
    48          0
    50         20
    51         55
    52         15
    53          6
    54          2
    55          3
    57         10
    58          0
    60          0
    61          1
    62         10
    63         45
    64         40
    65        133
    66         10
    67          2
    68          1
    69         12
    70          2
    71          1
    74          3
    75         10
    76         12
    77         38
    78         15
    79          8
    80          2
    81          0
    82          1
    83          1
    84          1
    85          3
    86          1
    87          2
    88          8
    89         25
    91        999
    92         74
    93          5
    94          1
    95          1
    96          2
    97          1
    98          0
    99          1
   100          1
   101          2
   102          1
   103          1
   105         10
   106          3
   107          6
   108          1
   109          0
   110          0
   111          0
   112          1
   113          1
   114          4
   115          4
   116          9
   117          1
   118          1
   119          3
   120          3
   121          1
   123          2
   124          0
   126          9
   127          7
   128          3
   129          1
   131          0
   132          0
   133          1
   135         81
   136          4
   137          0
   139          0
   140          1
   141         11
   143          7
   144          0
   146         11
   147          7
   148         29
   149          2
   150          0
   151          0
   152          2
   153          3
   154          2
   155          1
   156          1
   157          1
   158          0
   159          0
   162        386
   163         26
   164          1
   165          1
   166          0
   167          0
   168          0
   169          0
   170          0
   171          1
   172          0
   173          0
   174          0
   175          0
   176          0
   177          0
   178          0
   179          0
   180          1
   181          1
   182          1
   183          0
   184          0
   185          0
   186          0
   188         12
   189          1
   190          0
   194          0
   195          0
   196          0
   197          0
   198          0
   199          0
   200          0
   201          2
   202          0
   203          0
   205          0
   206          0
   208          0
   209          1
   210          2
   211          1
   212          0
   214          5
   215          0
   222          2
   223          1
   224          0
   225          0
   228          0
   230          0
   234          0
   235          0
   237          0
   238          0
   239          0
   250          0
   251          1
   252          0
   253          0
   256          0
   257          0
   260          0
   261          1
   262          0
   279          2
   280         14
   281          2
   352          4
   353          0
   354          0
   370          2
   371         21
   372          4
   373          0