##TITLE=Library Entry 81854
##JCAMP-DX=Revision 4.10 
##DATA TYPE=MASS SPECTRUM
##SAMPLE DESCRIPTION=Chemical Concepts
##NAMES=HP
##CAS NAME=Adamantan-2-ol, 2-phenyl-
##MOLFORM=C16H20O
##CAS REGISTRY NO=29480-18-0
##MP= -300
##BP= -300
##MW= 228
##$RETENTION INDEX=0
##$CONDENSED SPECTRUM=NO
##NPOINTS= 159
##XYDATA=(XY..XY) 1 
    20          1
    26          1
    27         45
    28         13
    29         23
    30          0
    31          4
    32          1
    38          1
    39         45
    40          7
    41         94
    42          9
    43         22
    44          1
    45          1
    47          0
    50          5
    51         39
    52         11
    53         40
    54         11
    55        139
    56          9
    57          8
    58          1
    59          2
    60          2
    61          4
    62          1
    63          7
    64          3
    65         27
    66         17
    67         84
    68         11
    69         14
    70          1
    71          2
    72          5
    73          0
    74          2
    75          4
    76         12
    77        223
    78         62
    79        229
    80        148
    81        133
    82         10
    83          5
    84          3
    85          1
    86          3
    87          1
    88          0
    89          7
    90          3
    91        134
    92         58
    93         65
    94         17
    95         24
    96          4
    97          1
    99          0
   100          5
   101          1
   102          6
   103         16
   104         15
   105        999
   106        144
   107        354
   108         50
   109          9
   110          1
   113          0
   114          1
   115         42
   116         13
   117         36
   118         11
   119         19
   120         41
   121         40
   122         56
   123         31
   124          2
   126          1
   127         10
   128         23
   129         29
   130          9
   131         19
   132         26
   133         69
   134         10
   135          1
   137          1
   139          2
   140          0
   141         15
   142          9
   143          9
   144          4
   145         16
   146         10
   147         13
   148          2
   149          1
   150         93
   151         94
   152         24
   153         17
   154         31
   155         30
   156         17
   157          6
   158          2
   159          3
   160          0
   163          0
   165          8
   166          3
   167         21
   168         17
   169         11
   170          2
   171          3
   172          1
   173          0
   178          1
   179          1
   180          0
   181         10
   182          4
   183          3
   184          1
   185         42
   186          6
   187          0
   195          3
   196          0
   197          0
   199          2
   200          1
   209          2
   210        403
   211        103
   212         16
   213          1
   226          0
   227          8
   228        409
   229         71
   230          6
   231          0
   238          0