##TITLE=Library Entry 70431
##JCAMP-DX=Revision 4.10 
##DATA TYPE=MASS SPECTRUM
##SAMPLE DESCRIPTION=A.A.Kutin, Moscow, Russia
##NAMES=HP
##CAS NAME=Benzoic acid, 5-bromo-2-(2-thienylacetylamino)-
##MOLFORM=C13H10BrNO3S
##CAS REGISTRY NO=294892-60-7
##MP= -300
##BP= -300
##MW= 339
##$RETENTION INDEX=0
##$CONDENSED SPECTRUM=NO
##NPOINTS= 164
##XYDATA=(XY..XY) 1 
    33          0
    34          2
    36          4
    37         15
    38         46
    39        124
    40         38
    41         17
    42         10
    43         34
    44         44
    45        251
    47         19
    48          4
    50         33
    51         54
    52         52
    53        191
    54         12
    55         10
    56          4
    57         19
    58         33
    59          6
    60          3
    61         15
    62         48
    63        130
    64         42
    65         32
    66         10
    67          4
    69         48
    70         31
    71         27
    72          2
    73          6
    74         15
    75         22
    76          9
    77         16
    78         12
    79         24
    80         19
    81         13
    82         22
    83          7
    84          5
    85          6
    86          0
    87          6
    88         23
    89         27
    90         61
    91         87
    92         15
    93         11
    94          5
    95         21
    97        999
    98        523
    99         63
   100         24
   101          1
   102          1
   103          1
   104          1
   105          4
   106          3
   107         18
   108         19
   109         10
   110          2
   111          2
   112          2
   113          2
   115          1
   117         32
   118         11
   119         16
   120          7
   121          7
   122          7
   124        561
   125         40
   126         28
   127          3
   128          2
   129          1
   131          1
   133          2
   134          2
   135          4
   136          4
   137          6
   141          2
   142          3
   143         18
   144          4
   145         38
   146         30
   147          3
   148          2
   149          4
   150          5
   151          3
   152          1
   153          7
   154          2
   155          2
   156          1
   158          1
   159          1
   160          0
   162          3
   163          2
   164          2
   165          0
   166          0
   168         79
   169         15
   170         85
   171         29
   172         20
   173          6
   175          0
   176          1
   180          5
   181          0
   182          2
   185          0
   186          1
   196          0
   197         33
   198          9
   199         32
   200          7
   210          2
   212          2
   213          1
   215        126
   217        125
   218          7
   221          1
   224        298
   226        302
   227         22
   228          1
   242         34
   243          4
   244         29
   245          1
   257          3
   261          3
   289          2
   295          0
   298          0
   321          2
   323          2
   339         46
   340          6
   341         42
   342          6
   343          1