##TITLE=Library Entry 30556
##JCAMP-DX=Revision 4.10 
##DATA TYPE=MASS SPECTRUM
##SAMPLE DESCRIPTION=A.A.Kutin, Moscow, Russia
##NAMES=HP
##CAS NAME=3-(1-Hydroxy-1-methyl-ethyl)-5-(4-methoxy-phenyl)-isoxazolidin-3-
ol
##MOLFORM=C13H19NO4
##CAS REGISTRY NO=294875-35-7
##MP= -300
##BP= -300
##MW= 253
##$RETENTION INDEX=0
##$CONDENSED SPECTRUM=NO
##NPOINTS= 176
##XYDATA=(XY..XY) 1 
    33         17
    34          4
    35          0
    36          1
    37          4
    38         19
    39        105
    40         57
    41        172
    42         79
    43        301
    44         34
    45         20
    46          1
    47          0
    48          0
    50         28
    51         55
    52         24
    53         28
    54          7
    55         24
    56         10
    57         18
    59        999
    60         33
    61          7
    62         11
    63         51
    64         49
    65         97
    66         20
    67         34
    68          8
    69         47
    70         10
    71          4
    72          1
    73          7
    74         11
    75         10
    76         23
    77        126
    78         48
    79         35
    80         18
    81         10
    82          2
    83          2
    84          4
    85          7
    86          2
    87          6
    88          5
    89         23
    90         30
    91        118
    92         48
    93         22
    94         21
    95         12
    96          3
    97          1
    98          0
    99          1
   100          1
   101          5
   102         20
   103         26
   104         18
   105         26
   106         14
   107         52
   108         97
   109         32
   110          3
   111          0
   112          0
   113          1
   115          6
   116          6
   117         19
   118         23
   119         80
   120         35
   121         52
   122         12
   123          6
   124          3
   125          1
   127          2
   128          4
   129          3
   130          3
   131         10
   132         21
   133         99
   134        496
   135        526
   136        139
   137         20
   138          1
   139          0
   141          0
   142          0
   143          1
   144          2
   145          6
   146         10
   147         19
   148         72
   149         68
   150        147
   151        146
   152        167
   153         15
   154          1
   155          0
   156          0
   158          2
   159          4
   160         12
   161         64
   162         26
   163         10
   164          7
   165          5
   166          1
   167          0
   168          0
   169          0
   170          0
   171          1
   172          2
   173          5
   175        156
   176         34
   177          5
   178          2
   179          2
   180          0
   183          0
   185          0
   186          0
   187          1
   188          2
   189          2
   190          9
   191          2
   192         14
   193          3
   194         23
   195          2
   196          0
   201          0
   202          2
   203          8
   204          2
   205          2
   206          0
   211          0
   216          0
   218          9
   219         13
   221        388
   222         46
   223          5
   233          0
   234          0
   235          3
   236          3
   237          0
   251          5
   253         78
   254         10
   255          1