##TITLE=Library Entry 70236
##JCAMP-DX=Revision 4.10 
##DATA TYPE=MASS SPECTRUM
##SAMPLE DESCRIPTION=John Halket,Royal Holloway, University of London, UK
##NAMES=HP
##CAS NAME=1-Methyl-4-piperidinyl 3-ethylphenylcarbamate
##MOLFORM=C15H22N2O2
##CAS REGISTRY NO=294851-47-1
##MP= -300
##BP= -300
##MW= 262
##$RETENTION INDEX=0
##$CONDENSED SPECTRUM=NO
##NPOINTS= 107
##XYDATA=(XY..XY) 1 
    15         10
    26          5
    27         40
    28         25
    29         67
    30         20
    31          4
    37          3
    38          9
    39         70
    40         11
    41         68
    42        292
    43        143
    44        204
    45          8
    48          1
    50         14
    51         38
    52         24
    53         45
    54         40
    55        331
    56         46
    57         63
    58         29
    59         14
    61          2
    62          7
    63         27
    64         17
    65         43
    66         12
    67         21
    68         53
    69         39
    70        182
    71         40
    72          9
    73          1
    74          3
    75          5
    76         12
    77        146
    78         66
    79         45
    80         22
    82        434
    83         39
    84          5
    85          2
    86          5
    87          4
    88          2
    89         15
    90         12
    91         81
    92         21
    93         21
    94         36
    96        897
    97        999
    98        529
    99         36
   100          3
   101          1
   102          7
   103         27
   104         24
   105         30
   106         38
   107          4
   108          1
   112          4
   114         91
   115         32
   116          6
   117          8
   118         18
   119         21
   120         41
   121         43
   122          4
   123          3
   128         10
   129          1
   132        181
   133         18
   134          4
   135          1
   142         10
   143          1
   144          1
   145          1
   146          6
   147         84
   148         19
   149          2
   150          4
   160          1
   164          1
   165          5
   166          1
   205          1
   262        187
   263         33
   264          4