##TITLE=Library Entry 79993
##JCAMP-DX=Revision 4.10 
##DATA TYPE=MASS SPECTRUM
##SAMPLE DESCRIPTION=A.A.Kutin, Moscow, Russia
##NAMES=HP
##CAS NAME=Furan-2(3H)-one, 3-(3-methoxy-4-methylbenzylideno)-5-phenyl-
##MOLFORM=C19H16O3
##CAS REGISTRY NO=294878-20-9
##MP= -300
##BP= -300
##MW= 292
##$RETENTION INDEX=0
##$CONDENSED SPECTRUM=NO
##NPOINTS= 184
##XYDATA=(XY..XY) 1 
    33          0
    36          0
    38          5
    39         18
    40          5
    41          3
    42          0
    43          2
    44          1
    45          0
    50         35
    51         87
    52         10
    53          7
    54          1
    55          2
    56          0
    57          2
    62         12
    63         31
    64          6
    65         15
    66          3
    67          1
    68          0
    69          2
    71          0
    73          1
    74         15
    75         28
    77        485
    78         37
    79          4
    80          0
    82          3
    83          2
    84          0
    85          1
    86          4
    87          8
    88          8
    89         24
    90          6
    91          9
    92          2
    93          3
    94          4
    95          3
    96          1
    97          1
    98          2
    99          2
   100          3
   101         15
   102         18
   105        999
   106         67
   107          7
   108          2
   109          2
   110          3
   111          2
   113          7
   115        122
   116         29
   117          3
   118          1
   119          2
   120          2
   121          1
   122          2
   123          1
   124          2
   125          2
   126         14
   127         27
   128         29
   129          8
   130          2
   131          2
   132          0
   133          0
   134          1
   135          7
   136          4
   137          1
   138          2
   139          5
   140          1
   142          1
   143          3
   144         23
   145          3
   146         10
   147          0
   149          1
   150          3
   151          4
   152          3
   153          1
   154          0
   155          0
   156          1
   157          1
   158          6
   159         47
   160          6
   161          1
   162          4
   163          2
   164          3
   165          7
   166          3
   167          2
   168          0
   170          1
   171          2
   172          1
   175          0
   176          2
   177          2
   178          4
   179          1
   181          0
   182          0
   185          1
   187         39
   188          4
   189          5
   190          3
   191          3
   192          2
   193          3
   194          2
   195          0
   199          0
   200          0
   201          1
   202          5
   203          3
   204          0
   205          2
   206          0
   209          0
   211          0
   213          0
   215          5
   216          0
   217          0
   218          1
   219          1
   221         14
   222          3
   223          0
   231          0
   232          1
   233          1
   234          1
   235          2
   236         14
   237          3
   238          0
   247          0
   248          0
   249          7
   250          1
   259          0
   260          1
   261          1
   262          0
   263          3
   264         13
   265          2
   266          0
   275          4
   276          1
   277          3
   278          0
   288          0
   290          7
   292        223
   293         39
   294          5
   295          0