##TITLE=Library Entry 69936
##JCAMP-DX=Revision 4.10 
##DATA TYPE=MASS SPECTRUM
##SAMPLE DESCRIPTION=A.A.Kutin, Moscow, Russia
##NAMES=HP
##CAS NAME=3-(1-Methyl-cyclohexyl)-5-phenyl-isoxazolidin-3-ol
##MOLFORM=C16H23NO2
##CAS REGISTRY NO=294875-34-6
##MP= -300
##BP= -300
##MW= 261
##$RETENTION INDEX=0
##$CONDENSED SPECTRUM=NO
##NPOINTS= 110
##XYDATA=(XY..XY) 1 
    33          5
    39        132
    40         57
    41        283
    42         47
    43        257
    44         25
    45         10
    50         20
    51         76
    52         26
    53         58
    55        802
    56         41
    57         17
    58          7
    59         14
    62          3
    63         13
    64          5
    65         36
    66         21
    67         55
    68         20
    69         67
    70          9
    71          8
    72          8
    74          6
    75          6
    76         15
    77        215
    78         72
    79         55
    80          9
    81         64
    82         11
    83         11
    84          6
    85         16
    86          2
    89         12
    90          8
    91        103
    92         18
    93         26
    94         14
    95         30
    97        999
    98         74
    99          5
   102         13
   103         91
   104        320
   105         86
   106        168
   107         23
   108          6
   109         10
   111          3
   115          8
   116          5
   117         27
   118         40
   119        166
   120        146
   121         53
   122        635
   123         54
   124          5
   125         21
   126          3
   128          6
   129         11
   131         91
   132         12
   133         15
   134          5
   135          3
   140          3
   141          8
   143          7
   144          7
   146        146
   147         31
   148         29
   149          4
   155          7
   161         18
   162         22
   163          4
   164         12
   166          9
   169          4
   171          3
   183          2
   185          9
   200          3
   211         26
   212          4
   226          3
   229        267
   230         41
   231          3
   242          6
   243          8
   244         62
   245         20
   261         36
   262          6