##TITLE=Library Entry 16791
##JCAMP-DX=Revision 4.10 
##DATA TYPE=MASS SPECTRUM
##SAMPLE DESCRIPTION=A.A.Kutin, Moscow, Russia
##NAMES=HP
##CAS NAME=Acetic acide, [(pyrimido[5,4-b]benzofuran-4-yl)thio]-, ethyl este
r
##MOLFORM=C14H12N2O3S
##CAS REGISTRY NO=294875-06-2
##MP= -300
##BP= -300
##MW= 288
##$RETENTION INDEX=0
##$CONDENSED SPECTRUM=NO
##NPOINTS= 126
##XYDATA=(XY..XY) 1 
    33          8
    37         19
    38         52
    39        203
    40         24
    41         71
    42        926
    43        399
    45        999
    46        835
    47         72
    48         49
    49          9
    50         85
    51         88
    52         36
    53         21
    54         13
    55          8
    57         16
    58         52
    59         26
    60         14
    61         56
    62        116
    63        116
    64         53
    65         61
    66          7
    68          8
    69         36
    70         46
    71         49
    72         66
    73         22
    74         84
    75        134
    76        111
    77         30
    78          7
    82         10
    83         15
    84          4
    85         24
    86         58
    87        135
    88        254
    89         56
    90         17
    91        136
    92         13
    93         35
    94         12
    95          3
    97          2
    99         16
   100         14
   101         12
   102        121
   103         23
   108          5
   111          9
   112         24
   113         33
   114        605
   115        141
   116         29
   117          7
   118          6
   119         13
   120         32
   121         18
   126          8
   128         11
   129         16
   130          7
   132         14
   139          3
   140         14
   141        110
   142         42
   143         89
   144         40
   146        202
   147         20
   148          1
   149          8
   156         19
   157          1
   158          5
   160          5
   161          4
   169        418
   170        144
   171         59
   172          9
   173         10
   174        129
   175        210
   176         25
   177          8
   186         72
   187         27
   188         53
   189          4
   197         11
   198         82
   199          9
   201         10
   202         49
   203         19
   204          5
   211         14
   212          3
   214        266
   215        921
   216        246
   217         66
   218         11
   242         57
   243         62
   244          7
   259         11
   288         85
   289         22
   292         10