##TITLE=Library Entry 78595
##JCAMP-DX=Revision 4.10 
##DATA TYPE=MASS SPECTRUM
##SAMPLE DESCRIPTION=A.A.Kutin, Moscow, Russia
##NAMES=HP
##CAS NAME=(1,2,3)-Triazolo[4,5-b]-furazano[3,4-E]pyrazine, 6-benzoyl-5,7-di
hydro-
##MOLFORM=C11H7N7O2
##CAS REGISTRY NO=294874-14-9
##MP= -300
##BP= -300
##MW= 269
##$RETENTION INDEX=0
##$CONDENSED SPECTRUM=NO
##NPOINTS= 75
##XYDATA=(XY..XY) 1 
    34          1
    37         13
    38         48
    39         56
    40         95
    41         41
    42         34
    43         59
    44         68
    45         29
    50        152
    51        331
    52         48
    53        200
    54         35
    55         16
    56          3
    57         10
    58          0
    59          5
    61          0
    62          1
    63          5
    64          3
    65          7
    66          4
    67          6
    68         32
    69         23
    70          3
    71          2
    73          6
    74         33
    75         19
    77        828
    78         55
    79          4
    80          4
    81          0
    83          3
    84          3
    89          1
    91          0
    93          2
    94          0
    95          0
   103         24
   105        999
   106         65
   107          4
   108          0
   121         11
   122         57
   123          4
   129          2
   130          7
   131          0
   132          2
   135         11
   141          0
   149          0
   157          3
   159          1
   165         10
   169         10
   170          2
   184          9
   191          0
   209          0
   210          1
   211         26
   212          0
   240          5
   241          3
   269          4