##TITLE=Library Entry 17989
##JCAMP-DX=Revision 4.10 
##DATA TYPE=MASS SPECTRUM
##SAMPLE DESCRIPTION=Japan AIST/NIMC Database- Spectrum MS-NW-6027
##NAMES=HP
##CAS NAME=S-Methyl methanethiosulphonate
##MOLFORM=C2H6O2S2
##CAS REGISTRY NO=2949-92-0
##MP= -300
##BP= -300
##MW= 126
##$RETENTION INDEX=1081
##$CONDENSED SPECTRUM=NO
##NPOINTS= 77
##XYDATA=(XY..XY) 1 
    12          3
    13          6
    14         27
    15        452
    16          7
    17          3
    18         15
    26          1
    27         31
    28         48
    29         32
    30          4
    31         25
    32         26
    33         18
    34         16
    35         32
    36          1
    37          1
    39          3
    41          6
    42          1
    43          6
    44         50
    45        582
    46        342
    47        999
    48        133
    49         54
    50          9
    51          2
    52          1
    53          1
    55          6
    56          2
    57          7
    58          2
    59          6
    60          3
    61         56
    62         31
    63        727
    64        380
    65        115
    66         20
    67          5
    69          1
    71          2
    74          1
    75          1
    76         15
    77          3
    78          8
    79        683
    80         46
    81        867
    82         20
    83         45
    85          1
    87          1
    93          1
    94         63
    95         52
    96          8
    97          5
   101          1
   105          2
   110          2
   111         56
   112          2
   113          7
   125          2
   126        659
   127         29
   128         66
   129          2
   130          1