##TITLE=Library Entry 22798
##JCAMP-DX=Revision 4.10 
##DATA TYPE=MASS SPECTRUM
##SAMPLE DESCRIPTION=NIST Mass Spectrometry Data Center
##NAMES=HP
##CAS NAME=1,3,4-Thiadiazole-2(3H)-thione, 5-methyl-
##MOLFORM=C3H4N2S2
##CAS REGISTRY NO=29490-19-5
##MP= -300
##BP= -300
##MW= 132
##$RETENTION INDEX=0
##$CONDENSED SPECTRUM=NO
##NPOINTS= 45
##XYDATA=(XY..XY) 1 
    26         23
    27         50
    29         21
    32         43
    33          7
    34          3
    38          7
    39         10
    40         24
    41         26
    42         74
    44         31
    45         72
    46         30
    47         32
    53          5
    54          3
    55         60
    56        999
    57         55
    58         85
    59        250
    60         13
    61         11
    64        164
    65          5
    66         33
    69          3
    70          6
    71          3
    72         31
    73         21
    74          6
    76         71
    77         18
    78          7
    88          4
    90          7
    91         24
    99         15
   100          7
   132        797
   133         45
   134         73
   135          3