##TITLE=Library Entry 20739
##JCAMP-DX=Revision 4.10 
##DATA TYPE=MASS SPECTRUM
##SAMPLE DESCRIPTION=D.HENNEBERG, MAX-PLANCK INSTITUTE, MULHEIM, WEST GERMAN
Y
##NAMES=HP
##CAS NAME=Cyclohexadecane
##MOLFORM=C16H32
##CAS REGISTRY NO=295-65-8
##MP= -300
##BP= -300
##MW= 224
##$RETENTION INDEX=1881
##$CONDENSED SPECTRUM=NO
##NPOINTS= 98
##XYDATA=(XY..XY) 1 
    23          0
    24          1
    25          1
    26          0
    27        117
    28         23
    29        337
    30          7
    32          0
    33          0
    34          0
    36          1
    39        104
    40         22
    41        820
    42        206
    43        725
    44          6
    45          1
    46          0
    50          3
    51          3
    52          3
    53         44
    54         97
    55        999
    56        597
    57        687
    58         28
    59          1
    60          0
    62          1
    65          7
    66         16
    67        147
    68        282
    69        772
    70        469
    71        298
    72         14
    73          1
    74          0
    75          0
    77          3
    78          0
    79          6
    80          5
    81         68
    82        373
    83        845
    84        292
    85        149
    86          9
    88          0
    89          0
    91          0
    92          0
    94          1
    95         25
    96        149
    97        601
    98        167
    99         36
   100          1
   109          8
   110         58
   111        301
   112        108
   113         16
   122          0
   123          3
   124         35
   125        137
   126         68
   127          8
   128          0
   137          3
   138         21
   139         58
   140         43
   141          7
   152         13
   153         30
   154         26
   155          3
   166          6
   167         18
   168         14
   169          0
   180          2
   181          8
   182          6
   194          1
   195          4
   196         32
   197          3
   224         61
   225         10