##TITLE=Library Entry 52289
##JCAMP-DX=Revision 4.10 
##DATA TYPE=MASS SPECTRUM
##SAMPLE DESCRIPTION=Japan AIST/NIMC Database- Spectrum MS-IW-2161
##NAMES=HP
##CAS NAME=Cyclopentadecane
##MOLFORM=C15H30
##CAS REGISTRY NO=295-48-7
##MP= -300
##BP= -300
##MW= 210
##$RETENTION INDEX=1536
##$CONDENSED SPECTRUM=NO
##NPOINTS= 101
##XYDATA=(XY..XY) 1 
    15          1
    26          5
    27         87
    28         26
    29        211
    30          5
    36          1
    38          1
    39         98
    40         20
    41        667
    42        185
    43        569
    44         18
    45          1
    50          1
    51          5
    52          4
    53         50
    54        106
    55        906
    56        582
    57        612
    58         28
    59          1
    63          1
    65          8
    66         12
    67        152
    68        335
    69        855
    70        571
    71        303
    72         16
    73          1
    77          7
    78          2
    79         10
    80          6
    81         77
    82        495
    83        999
    84        405
    85        178
    86         10
    87          1
    91          3
    92          1
    93          2
    94          2
    95         35
    96        213
    97        762
    98        267
    99         44
   100          3
   105          1
   107          1
   108          1
   109         13
   110         87
   111        419
   112        195
   113         29
   114          2
   115          1
   122          1
   123          6
   124         53
   125        214
   126        134
   127         21
   128          2
   133          1
   137          5
   138         36
   139        102
   140         92
   141         16
   142          1
   151          1
   152         20
   153         61
   154         58
   155          9
   156          1
   158          1
   166         11
   167         32
   168         33
   169          6
   180          7
   181         16
   182        127
   183         19
   184          1
   195          1
   208          2
   210        722
   211        120
   212          9