##TITLE=Library Entry 15634
##JCAMP-DX=Revision 4.10 
##DATA TYPE=MASS SPECTRUM
##SAMPLE DESCRIPTION=Leung Pu, NIH, Bethesda, Maryland, U.S.
##NAMES=HP
##CAS NAME=1,4,8,11-Tetraazacyclotetradecane
##MOLFORM=C10H24N4
##CAS REGISTRY NO=295-37-4
##MP= -300
##BP= -300
##MW= 200
##$RETENTION INDEX=0
##$CONDENSED SPECTRUM=NO
##NPOINTS= 90
##XYDATA=(XY..XY) 1 
    41         14
    42        599
    43        422
    44        999
    45         27
    46          4
    47          8
    48          3
    49         36
    50          3
    51         11
    53          3
    54         36
    55         33
    56        388
    57        205
    58        906
    59         37
    67          5
    68         69
    69         88
    70        500
    71        253
    72         97
    73         11
    75          8
    80          4
    81          4
    82         60
    83         92
    84        162
    85        160
    86         38
    87        109
    88          9
    89         67
    90          3
    91         10
    95         26
    96         14
    97         42
    98         48
    99        493
   100        111
   101        658
   102         57
   103          7
   106          2
   109         11
   110          5
   111         36
   112         39
   113        455
   114        137
   115         34
   116          5
   118        159
   119          9
   123          3
   124          5
   125         40
   126        170
   127         56
   128         30
   129          5
   130         14
   132         39
   133          2
   141         19
   142         32
   143          5
   144         11
   146         10
   155         13
   156         34
   157         11
   158          2
   166          6
   168         28
   169         17
   170         64
   171         15
   182         13
   183         15
   185          1
   197          6
   198          7
   199         49
   200         90
   201         11