##TITLE=Library Entry 2821
##JCAMP-DX=Revision 4.10 
##DATA TYPE=MASS SPECTRUM
##SAMPLE DESCRIPTION=NIST Mass Spectrometry Data Center, 1990.
##NAMES=HP
##CAS NAME=Cyclotridecane
##MOLFORM=C13H26
##CAS REGISTRY NO=295-02-3
##MP= -300
##BP= -300
##MW= 182
##$RETENTION INDEX=1406
##$CONDENSED SPECTRUM=NO
##NPOINTS= 40
##XYDATA=(XY..XY) 1 
    27        228
    28        101
    29        349
    39        272
    41        999
    42        273
    43        399
    44         23
    53         98
    54        120
    55        934
    56        476
    57        365
    66         22
    67        164
    68        224
    69        646
    70        431
    71        143
    79         17
    81         73
    82        301
    83        590
    84        238
    85         65
    95         23
    96        149
    97        402
    98        140
    99         19
   110         73
   111        244
   112         90
   124         33
   125        128
   126         55
   139         31
   140         19
   154         53
   182         78