##TITLE=Library Entry 21843
##JCAMP-DX=Revision 4.10 
##DATA TYPE=MASS SPECTRUM
##SAMPLE DESCRIPTION=R. I. REED UNIVERSITY OF GLASGOW
##NAMES=HP
##CAS NAME=20.xi.-Lanosta-7,9(11)-dien-21-oic acid, 16.alpha.-hydroxy-24-met
hylene-3-oxo-, methyl ester
##MOLFORM=C32H48O4
##CAS REGISTRY NO=29505-27-9
##MP= -300
##BP= -300
##MW= 496
##$RETENTION INDEX=0
##$CONDENSED SPECTRUM=NO
##NPOINTS= 181
##XYDATA=(XY..XY) 1 
    53        110
    54         20
    55        999
    56         70
    57        150
    58         30
    59         70
    65         40
    67        250
    68         30
    69        470
    70         40
    71         70
    77        100
    78         30
    79        170
    80         30
    81        260
    82         40
    83        230
    84        140
    85         50
    87         40
    91        200
    92         50
    93        190
    94         40
    95        220
    96        120
    97        340
    98         30
   103         20
   104         20
   105        240
   106         40
   107        200
   108         30
   109        150
   110         20
   111         40
   115         50
   116         40
   117         70
   118         30
   119        240
   120         40
   121        120
   122         20
   123        130
   125        100
   126         20
   127         30
   128         70
   129        110
   130         50
   131        150
   132        180
   133        160
   134         30
   135         60
   137         50
   139         20
   141         70
   142         80
   143        180
   144         60
   145        200
   146         50
   147         90
   148         20
   149         40
   151         20
   152         20
   153         40
   154         30
   155        130
   156        100
   157        250
   158        100
   159        150
   160         30
   161         60
   165         60
   166         40
   167         60
   168         40
   169        190
   170        110
   171        230
   172         80
   173         80
   175         40
   177         20
   178         30
   179         50
   180         30
   181        110
   182         50
   183        150
   184         60
   185        120
   186         30
   187         50
   193         60
   194         30
   195        110
   196         50
   197        100
   198         30
   199         60
   201         40
   203         30
   205         20
   207         60
   208         40
   209        100
   210         30
   211         70
   212         30
   213         60
   215         20
   221         40
   222         30
   223         90
   224         30
   225         50
   226         20
   227         70
   229         30
   231         20
   235         30
   237         50
   238         20
   239         30
   241         40
   242         30
   243         40
   244         20
   245         30
   251         40
   252         20
   253         50
   254         20
   255        200
   256         50
   257         40
   265         40
   267         30
   268        230
   269        390
   270        210
   271        100
   272        100
   273         20
   279         20
   281         30
   283         40
   284         20
   293        750
   294        200
   295        320
   296         70
   307         50
   308        200
   309        660
   310        200
   311        100
   312         30
   317         20
   319         30
   322         20
   463        220
   464         60
   478         80
   479         40
   480         40
   481         70
   482         20
   496         70
   497         20
   498         20