##TITLE=Library Entry 20320
##JCAMP-DX=Revision 4.10 
##DATA TYPE=MASS SPECTRUM
##SAMPLE DESCRIPTION=R. I. REED UNIVERSITY OF GLASGOW
##NAMES=HP
##CAS NAME=Lanosta-7,9(11)-dien-21-oic acid, 3,16-dihydroxy-24-methylene-, m
ethyl ester, (3.beta.,16.alpha.)-
##MOLFORM=C32H50O4
##CAS REGISTRY NO=29505-28-0
##MP= -300
##BP= -300
##MW= 498
##$RETENTION INDEX=0
##$CONDENSED SPECTRUM=NO
##NPOINTS= 172
##XYDATA=(XY..XY) 1 
    50         70
    51        100
    52         30
    53        130
    54         50
    55        999
    56        130
    57        250
    59         60
    65         50
    66         30
    67        360
    68         80
    69        680
    70        100
    71        140
    73         20
    74         30
    77        240
    78         40
    79        220
    80         50
    81        480
    82        110
    83        330
    84         60
    85         70
    86         20
    87         50
    91        210
    92         40
    93        270
    94         60
    95        460
    96        140
    97        260
    98         30
    99         20
   105        340
   106         50
   107        240
   108         60
   109        310
   110         60
   111        140
   112         20
   115         40
   116         30
   117         80
   118         30
   119        230
   120         50
   121        190
   122        150
   123        160
   124         40
   125         60
   128         50
   129         80
   130         40
   131        130
   132        180
   133        160
   134         30
   135        120
   136         30
   137         70
   138         30
   139         30
   141         50
   142         60
   143        140
   144         50
   145        190
   146         40
   147         90
   148         30
   149         90
   150         40
   151         40
   153         30
   154         20
   155         80
   156         60
   157        170
   158         80
   159        180
   160         40
   161         70
   162         20
   163         60
   167         40
   168         30
   169        120
   170         70
   171        190
   172         60
   173         80
   174         20
   175         40
   177         40
   179         40
   181         50
   182         30
   183        110
   184         60
   185        130
   186         40
   187         70
   189         40
   191         40
   193         30
   194         20
   195         60
   196         80
   197         30
   198         60
   201         40
   202         20
   203         30
   207         30
   209         70
   210         30
   211         70
   212         20
   213         40
   217         30
   221         30
   222         20
   223         40
   224         20
   225         50
   227         40
   229         20
   231         20
   235         30
   236         20
   237         40
   238         20
   239         40
   251         20
   253         60
   254         20
   255         30
   257         30
   259         30
   270         60
   271         80
   272        110
   273         50
   274         40
   277        130
   278         30
   293         40
   295        610
   296        150
   297         70
   310         90
   311        290
   312         80
   313         30
   463         30
   464         20
   465        100
   466         30
   480        100
   481         30
   483         50
   484         20
   498         50
   499         20
   500         20