##TITLE=Library Entry 51964
##JCAMP-DX=Revision 4.10 
##DATA TYPE=MASS SPECTRUM
##SAMPLE DESCRIPTION=NIST Mass Spectrometry Data Center, 1994
##NAMES=HP
##CAS NAME=Propanenitrile, 3-(octylamino)-
##MOLFORM=C11H22N2
##CAS REGISTRY NO=29504-89-0
##MP= -300
##BP= -300
##MW= 182
##$RETENTION INDEX=0
##$CONDENSED SPECTRUM=NO
##NPOINTS= 58
##XYDATA=(XY..XY) 1 
    14          0
    15          5
    18          2
    26          5
    27         55
    28         57
    29         82
    30        101
    31          1
    32          1
    39         32
    40         10
    41        118
    42        223
    43        100
    44        173
    45          9
    51          2
    52          3
    53         10
    54         91
    55         48
    56         48
    57         33
    58          2
    65          1
    66          0
    67          5
    68          8
    69         25
    70         19
    71         14
    72          2
    79          1
    80          1
    81          6
    82          0
    83        999
    84         59
    85          2
    86          1
    96          3
    97         13
    98          6
   109          1
   111          1
   112          1
   125          1
   126          1
   128          4
   139          3
   140          2
   142         64
   143          7
   153          1
   181          1
   182         11
   183          2