##TITLE=Library Entry 9966
##JCAMP-DX=Revision 4.10 
##DATA TYPE=MASS SPECTRUM
##SAMPLE DESCRIPTION=Japan AIST/NIMC Database- Spectrum MS-NW-6949
##NAMES=HP
##CAS NAME=1,2-O-Isopropylidene-beta-l-idofuranurono-6,3-lactone
##MOLFORM=C9H12O6
##CAS REGISTRY NO=29514-28-1
##MP= -300
##BP= -300
##MW= 216
##$RETENTION INDEX=0
##$CONDENSED SPECTRUM=NO
##NPOINTS= 104
##XYDATA=(XY..XY) 1 
    14          9
    15         76
    16          1
    17          5
    18         20
    25          1
    26         17
    27         71
    28         29
    29        133
    30         32
    31        114
    32          2
    35          7
    37          1
    38          6
    39         71
    40         16
    41        105
    42         42
    43        999
    44         42
    45         24
    46          1
    47          6
    49         13
    50          1
    51          3
    52          1
    53          4
    54         17
    55         57
    56         25
    57         78
    58         57
    59        535
    60         39
    61         24
    67          2
    68         31
    69         39
    70          5
    71         99
    72         70
    73        164
    74          7
    75          6
    76          1
    78          1
    80          1
    81          9
    82          2
    83         39
    84         29
    85        863
    86         57
    87          7
    88          3
    89          4
    95          6
    96          5
    97         18
    98          3
    99         13
   100         33
   101         31
   102          7
   103          1
   109          1
   111          2
   112          3
   113         35
   114         14
   115          9
   116          1
   117          2
   118          1
   123         19
   124          2
   125          1
   126          1
   127         67
   128          5
   129         12
   130          7
   131          3
   140          1
   141        284
   142         21
   143          5
   155          1
   157          1
   158        128
   159         55
   160          5
   161          1
   183         41
   184          4
   201        848
   202         77
   203         13
   204          1
   216          8
   217          2