##TITLE=Library Entry 77510
##JCAMP-DX=Revision 4.10 
##DATA TYPE=MASS SPECTRUM
##SAMPLE DESCRIPTION=D.HENNEBERG, MAX-PLANCK INSTITUTE, MULHEIM, WEST GERMAN
Y
##NAMES=HP
##CAS NAME=Benzene, 1-octenyl-
##MOLFORM=C14H20
##CAS REGISTRY NO=29518-72-7
##MP= -300
##BP= -300
##MW= 188
##$RETENTION INDEX=0
##$CONDENSED SPECTRUM=NO
##NPOINTS= 109
##XYDATA=(XY..XY) 1 
    25          0
    26          2
    27         51
    28          1
    29         56
    30          1
    33          0
    34          0
    35          0
    36          0
    37          1
    38          1
    39         60
    40          5
    41         67
    42          5
    43         38
    44          1
    46          0
    49          0
    50          7
    51         34
    52          7
    53         16
    54         11
    55         74
    56          4
    57          3
    58          4
    59          1
    60          0
    62          3
    63         19
    64          5
    65         37
    66          3
    67         13
    68          7
    69          8
    70          1
    71          1
    72          2
    73          1
    74          3
    75          4
    76          8
    77         41
    78         30
    79          6
    80          0
    81         12
    82          3
    85          0
    86          0
    87          2
    88          2
    89         15
    90          3
    91        277
    92         65
    93          5
    94          1
    95          4
    96          6
    97         13
   100          0
   101          2
   102         21
   103         26
   104        999
   105        102
   106          7
   107          0
   108          0
   110          3
   111          1
   112          3
   113         18
   114          8
   115        210
   116         74
   117        965
   118        131
   119         10
   120          0
   125          0
   126          1
   127         11
   128         23
   129         28
   130         14
   131         74
   132         18
   133          3
   141          3
   142          1
   143          1
   144          1
   145          9
   146          1
   153          0
   155          0
   159          3
   160          1
   173          0
   186          0
   188        171
   189         29
   190          2