##TITLE=Library Entry 39135
##JCAMP-DX=Revision 4.10 
##DATA TYPE=MASS SPECTRUM
##SAMPLE DESCRIPTION=SHELL RESEARCH LIMITED THORNTON RESEARCH CENTRE
##NAMES=HP
##CAS NAME=1-Butene, 1-methoxy-
##MOLFORM=C5H10O
##CAS REGISTRY NO=29512-02-5
##MP= -300
##BP= -300
##MW= 86
##$RETENTION INDEX=0
##$CONDENSED SPECTRUM=NO
##NPOINTS= 22
##XYDATA=(XY..XY) 1 
    26         28
    27        126
    29        106
    31         44
    38         20
    39        130
    41        480
    42         36
    43         48
    45         76
    50         16
    51         20
    53         78
    54         32
    55        134
    56         46
    69         18
    71        999
    72         48
    85         90
    86        520
    87         30