##TITLE=Library Entry 68600
##JCAMP-DX=Revision 4.10 
##DATA TYPE=MASS SPECTRUM
##SAMPLE DESCRIPTION=V.A.KOPTYUG, ATLAS OF MASS SPECTRA OF ORGANIC COMPOUNDS
##NAMES=HP
##CAS NAME=1-Hydroxy-2,2,5-trimethyl-4,5-tetramethylene-3-imidazoline-3-oxid
e
##MOLFORM=C10H18N2O2
##CAS REGISTRY NO=29522-49-4
##MP= -300
##BP= -300
##MW= 198
##$RETENTION INDEX=0
##$CONDENSED SPECTRUM=NO
##NPOINTS= 100
##XYDATA=(XY..XY) 1 
    32          4
    36          4
    38          4
    39         49
    40         11
    41        108
    42         88
    43         28
    50          5
    51         10
    52          8
    53         61
    54         34
    55        144
    56         64
    57         17
    58         36
    59         19
    60          8
    65         23
    66         16
    67        213
    68         35
    69         34
    70          9
    71          6
    72          3
    73         56
    74        414
    75         16
    77         38
    78          8
    79         42
    80         33
    81         39
    82         42
    83         67
    84         15
    85          5
    86          7
    91         23
    92          7
    93         95
    94         30
    95        999
    96        110
    97         15
    98         37
    99          4
   100          9
   103          6
   104          9
   105          4
   106         12
   107         13
   108         56
   109         32
   110         21
   111         11
   112          6
   120          4
   121          4
   122         12
   123         28
   124         16
   125        429
   126        161
   127         19
   128          2
   131          3
   132          1
   133          2
   134          4
   135          4
   136          7
   137         31
   138          1
   139          3
   140          3
   145          3
   146          3
   147          3
   148          4
   149          7
   150          9
   151         93
   152         11
   153          3
   163          5
   164          4
   165         13
   166          3
   167          3
   168          2
   181         39
   182          9
   183          5
   198        158
   199         26
   200          3