##TITLE=Library Entry 4693
##JCAMP-DX=Revision 4.10 
##DATA TYPE=MASS SPECTRUM
##SAMPLE DESCRIPTION=Chemical Concepts
##NAMES=HP
##CAS NAME=4-Chlorobutyl 4-(3,4-dichlorophenyl)-3,4-dihydro-6-methyl-2(1H)-o
xopyrimidine-5-carboxylate
##MOLFORM=C16H17Cl3N2O3
##CAS REGISTRY NO=295344-33-1
##MP= -300
##BP= -300
##MW= 390
##$RETENTION INDEX=0
##$CONDENSED SPECTRUM=NO
##NPOINTS= 109
##XYDATA=(XY..XY) 1 
    36        290
    39        554
    41        646
    42        999
    43        128
    44        102
    45         18
    49        109
    50         61
    51         88
    52         96
    53        135
    55        793
    57         24
    60         17
    61         21
    62         42
    63         86
    65         70
    66        103
    67        122
    68         61
    69         48
    70         56
    71         32
    73         42
    74         84
    75         93
    76         21
    77         22
    81         29
    82         39
    83         27
    84         51
    85         26
    86         22
    87         21
    88         17
    89         31
    91        190
    93         85
    94         54
    95         22
    96         50
    98         17
    99         44
   100         17
   103         37
   109        139
   110        170
   111         76
   112         27
   113         22
   114         17
   115         28
   119         17
   123         23
   135         47
   136         68
   137        201
   138         36
   140         16
   145         59
   146         17
   147         32
   149         31
   150         17
   151         19
   155        529
   156         32
   169         66
   170         36
   171         26
   172         49
   173         25
   174         29
   175         18
   177         27
   185         24
   198         19
   199         38
   200         36
   201         22
   202         21
   209         30
   220         20
   240         21
   242         21
   243         29
   245        523
   247        201
   248         18
   253         53
   254         58
   255        172
   256         51
   257         95
   258         18
   281         16
   282         22
   283         34
   285         18
   299        348
   301        221
   302         26
   303         26
   390         36
   392         25
   394          6