##TITLE=Library Entry 78813
##JCAMP-DX=Revision 4.10 
##DATA TYPE=MASS SPECTRUM
##SAMPLE DESCRIPTION=Chemical Concepts
##NAMES=HP
##CAS NAME=Phenacyl 3-(2,5-dichlorophenylsulfonyl)propionate
##MOLFORM=C17H14Cl2O5S
##CAS REGISTRY NO=295347-13-6
##MP= -300
##BP= -300
##MW= 400
##$RETENTION INDEX=0
##$CONDENSED SPECTRUM=NO
##NPOINTS= 124
##XYDATA=(XY..XY) 1 
    34          3
    35          4
    36         13
    37          4
    38         10
    39         23
    40         34
    41          9
    42          7
    43          9
    44         17
    45          9
    47          2
    48          6
    50         51
    51        116
    52          8
    55        267
    56         29
    57          4
    58          1
    59          1
    60          2
    61          3
    62          6
    63         12
    64          7
    65         31
    66          2
    67          1
    69          5
    70          2
    71          2
    72          2
    73          9
    74         35
    75         37
    77        296
    78         20
    79          4
    81          2
    82          1
    83          1
    84          9
    85          6
    86          3
    87          2
    89          6
    91         86
    92          6
    93          1
    94          1
    95          3
    97          2
    98          1
    99          1
   100          1
   101          2
   102          5
   105        999
   106         83
   107          8
   109         40
   110         10
   111         13
   112          4
   113          2
   115          1
   118        187
   119         23
   120          4
   121          1
   122          1
   123          1
   127          1
   129          1
   130          1
   131          1
   132          1
   133          2
   134          1
   135          2
   136          9
   137          2
   138          1
   142          2
   143          1
   145         44
   146          8
   147         24
   148          4
   149          5
   150          1
   151          1
   152          1
   159          1
   161          1
   162          1
   163          1
   164          1
   165          3
   166          1
   167          3
   168          1
   169          1
   171          2
   173          2
   175          1
   177          1
   178          1
   190          1
   191          2
   193         27
   194          4
   195         16
   196          2
   197          3
   209          2
   210          1
   211          1
   265          5
   266          1
   267          3
   269          1