##TITLE=Library Entry 99264
##JCAMP-DX=Revision 4.10 
##DATA TYPE=MASS SPECTRUM
##SAMPLE DESCRIPTION=Chemical Concepts
##NAMES=HP
##CAS NAME=N-[2,2-Bis(4-chlorophenylthio)-1-cyanovinyl]-p-toluamide
##MOLFORM=C23H16Cl2N2OS2
##CAS REGISTRY NO=295346-89-3
##MP= -300
##BP= -300
##MW= 470
##$RETENTION INDEX=0
##$CONDENSED SPECTRUM=NO
##NPOINTS= 109
##XYDATA=(XY..XY) 1 
    33          8
    34          5
    36         29
    37         19
    39        108
    40         32
    41         46
    43         17
    44         20
    45         38
    47          3
    48          4
    50         58
    51         43
    52         18
    53          6
    55          9
    56          7
    57         14
    58          6
    60          6
    61          7
    62         11
    63         72
    65        270
    66          9
    67          4
    69         31
    70          8
    71          7
    73         18
    75         93
    76         13
    77         19
    79          8
    80          4
    81         11
    82          7
    84          7
    85         10
    86          6
    87          4
    89         47
    91        620
    92         18
    95          3
    96          2
    97          4
    99         18
   100          5
   101          6
   102          5
   103          6
   105          6
   108         70
   109         16
   111         62
   112          9
   113         17
   114          6
   115          5
   117         10
   119        999
   120         72
   121          7
   129          3
   130          2
   135          3
   139          3
   142          4
   143         26
   144         21
   145         11
   146         13
   149          3
   153          3
   154          4
   155         30
   156          5
   157          9
   158          3
   161          3
   163         17
   165          6
   171          4
   173         25
   174          4
   175          3
   176          3
   180          3
   182          3
   183          9
   184          4
   185          6
   187          9
   189          4
   207          6
   208          6
   209          3
   219         14
   220          3
   221          4
   323          5
   324          6
   327        218
   328         44
   329         66
   330         11
   331          3