##TITLE=Library Entry 26183
##JCAMP-DX=Revision 4.10 
##DATA TYPE=MASS SPECTRUM
##SAMPLE DESCRIPTION=Exported from NIST MS Search
##NAMES=HP
##CAS NAME=Cyclohexanol, 4-chloro-, trans-
##MOLFORM=C6H11ClO
##CAS REGISTRY NO=29538-77-0
##MP= -300
##BP= -300
##MW= 134
##$RETENTION INDEX=1636
##$CONDENSED SPECTRUM=NO
##NPOINTS= 94
##XYDATA=(XY..XY) 1 
    14          1
    15          6
    16          1
    17          1
    18          4
    19          1
    26          5
    27         51
    28         27
    29         61
    30          3
    31         21
    32          5
    34          1
    35          2
    36          1
    37          2
    38          6
    39         61
    40          9
    41         88
    42         42
    43         71
    44         98
    45          6
    46          1
    47          2
    48          2
    49          7
    50          6
    51         13
    52          4
    53         29
    54        112
    55         90
    56         21
    57        999
    58         46
    59          4
    60          1
    61          3
    62          5
    63          5
    64          2
    65         11
    66          2
    67         17
    68          4
    69          9
    70         49
    71          5
    72          1
    73          2
    74          1
    75         10
    76          4
    77         15
    78         10
    79         28
    80        115
    81         97
    82          6
    83         39
    84          3
    85          3
    88          5
    89          2
    90          5
    91          5
    92          2
    93          1
    95          1
    96          1
    97         16
    98        141
    99         11
   100          1
   101          1
   103          1
   104          1
   105          2
   106          1
   107          1
   108          1
   115          1
   116         16
   117          2
   118          5
   119          1
   133          5
   134         14
   135          3
   136          5
   137          1