##TITLE=Library Entry 71340
##JCAMP-DX=Revision 4.10 
##DATA TYPE=MASS SPECTRUM
##SAMPLE DESCRIPTION=A.A.Kutin, Moscow, Russia
##NAMES=HP
##CAS NAME=Benzoic acid, 4-[(1-piperidyl)acetylamino]-, methyl ester
##MOLFORM=C15H20N2O3
##CAS REGISTRY NO=295345-04-9
##MP= -300
##BP= -300
##MW= 276
##$RETENTION INDEX=0
##$CONDENSED SPECTRUM=NO
##NPOINTS= 99
##XYDATA=(XY..XY) 1 
    33          0
    34          0
    36          0
    38          1
    39          8
    40          5
    41         56
    42         55
    43         15
    44         25
    45          0
    50          1
    51          1
    52          1
    53          2
    54          3
    55         39
    56         10
    57          3
    58          0
    59          2
    62          0
    63          3
    64          4
    65          3
    67          3
    68          6
    69         15
    70         18
    71          1
    74          0
    75          1
    76          1
    77          2
    78          1
    79          0
    80          1
    81          0
    82          2
    84         48
    85          3
    86          0
    88          0
    90          3
    91          5
    92          3
    93          0
    94          0
    95          1
    96         16
    98        999
    99         65
   100          1
   102          0
   103          1
   104          1
   105          1
   106          0
   108          0
   109          0
   110          0
   112          0
   113          0
   117          0
   118          1
   119          5
   120          4
   122          5
   124          0
   125          0
   130          0
   132          1
   133          0
   134          0
   135          1
   136          0
   137          0
   144          0
   146          1
   147          0
   149          0
   150          1
   151          1
   160          0
   162          0
   164          2
   165          0
   178          0
   190          0
   192          0
   193          0
   227          0
   235          0
   236          0
   245          8
   246          1
   275          0
   276          5
   277          0