##TITLE=Library Entry 4708
##JCAMP-DX=Revision 4.10 
##DATA TYPE=MASS SPECTRUM
##SAMPLE DESCRIPTION=Chemical Concepts
##NAMES=HP
##CAS NAME=4-Chlorobutyl 4-(2-bromo-4,5-methylenedioxyphenyl)-3,4-dihydro-6-
methyl-2(1H)-oxopyrimidine-5-carboxylate
##MOLFORM=C17H18BrClN2O5
##CAS REGISTRY NO=295344-38-6
##MP= -300
##BP= -300
##MW= 444
##$RETENTION INDEX=0
##$CONDENSED SPECTRUM=NO
##NPOINTS= 170
##XYDATA=(XY..XY) 1 
    35         33
    36         77
    38        125
    39        253
    40        140
    42        999
    43        143
    44        285
    45         86
    46         36
    49         70
    50         56
    51         73
    52         76
    53        118
    55        556
    57         17
    58         21
    59          9
    61         69
    62        127
    63        122
    64         33
    65         59
    66         67
    67         67
    68         36
    69         25
    70         35
    71         25
    73        193
    74         26
    75         42
    76         28
    77         32
    78         17
    79         26
    80         29
    81         21
    82         41
    83         14
    84         18
    85         15
    86         38
    87         62
    88         43
    89         59
    91        399
    93        134
    94         45
    95         12
    96         33
    99         10
   100         19
   101         23
   102         30
   103         22
   104         11
   105          8
   107         15
   108         22
   109         43
   110         76
   111         16
   112         16
   113         13
   114         18
   115         16
   116         22
   117         21
   118         17
   119         24
   120         10
   121          8
   122          8
   126          7
   127         10
   128         25
   129         27
   130         21
   131         12
   132         11
   133         17
   134          8
   135         10
   137        159
   138         15
   140          7
   141         18
   143         56
   144         15
   145         32
   146         31
   147         10
   148         11
   155        314
   156         26
   157         10
   158         11
   159         11
   160          9
   161          8
   166          8
   168         18
   169         51
   170         15
   171         29
   172         27
   173         33
   174         24
   175         11
   185         11
   186         21
   187         30
   188         19
   189          8
   197          8
   199         63
   200         73
   201         41
   202         63
   203          7
   209         16
   212          7
   213          9
   214         20
   215         20
   216          9
   223          9
   225          9
   226         15
   227         18
   228         25
   229         63
   230         19
   231         23
   232         68
   233          8
   245        234
   246         39
   247         53
   253          9
   254         22
   255         17
   256         35
   257         37
   258         13
   273         71
   274         13
   275         33
   289         26
   299         10
   301          8
   307         12
   309         89
   310         20
   311         61
   312          8
   322         15
   337         15
   339         10
   353         14
   355         10
   362          8
   365        265
   366         45
   367         65
   368         11
   444          7
   446         10