##TITLE=Library Entry 77110
##JCAMP-DX=Revision 4.10 
##DATA TYPE=MASS SPECTRUM
##SAMPLE DESCRIPTION=Chemical Concepts
##NAMES=HP
##CAS NAME=3-(.beta.-Chlorophenethylsulfonyl)-N-(3-nitrophenyl)benzamide
##MOLFORM=C21H17ClN2O5S
##CAS REGISTRY NO=295346-97-3
##MP= -300
##BP= -300
##MW= 444
##$RETENTION INDEX=0
##$CONDENSED SPECTRUM=NO
##NPOINTS= 156
##XYDATA=(XY..XY) 1 
    39        263
    40        254
    41         63
    42         84
    44        204
    45         27
    46          7
    48         23
    50        294
    51        408
    52        124
    53         34
    54         58
    55         38
    57         71
    58         11
    59          3
    60         16
    61         25
    62         51
    63        104
    64         54
    65         56
    67         12
    68         40
    69         30
    70         27
    71         21
    72          3
    73         19
    74         84
    76        609
    77        395
    78        408
    79         47
    80          5
    81         11
    82         18
    83         21
    84         23
    85         14
    86         18
    87          7
    88         16
    89         32
    91        100
    92         25
    93          9
    94          5
    95         14
    96         23
    97         12
    98          5
    99         16
   101         19
   102         76
   103        726
   104        999
   105        109
   106         12
   107          9
   108         16
   109         18
   110          3
   111         19
   112         16
   113          7
   115          5
   116          5
   117          7
   118         14
   119         16
   120         30
   121          7
   123         11
   124         21
   125         25
   126          7
   127          9
   128          7
   129          3
   130          1
   133          5
   135         16
   137         36
   138        199
   139        155
   140         78
   141         56
   142          5
   147          1
   148          1
   149         12
   150          3
   152         49
   153         18
   154          9
   157          5
   165         14
   166         19
   167         32
   169         74
   170          5
   171         18
   175          3
   176          7
   177         16
   178         67
   179         18
   180          7
   181          1
   182          3
   183          7
   184          3
   185          5
   187         16
   189          7
   194          7
   195          5
   197          5
   201          3
   203        131
   204         14
   205         43
   206          7
   207          9
   209          1
   210         14
   211          5
   212          1
   215         12
   217          1
   224          1
   240          9
   241         12
   242        118
   243         21
   244          1
   268          1
   269          3
   270         25
   271        217
   272         36
   273         16
   304          7
   305         12
   306         23
   307         51
   308         11
   309         18
   350          1
   377         14
   378          5
   408         21
   409          7
   444          5