##TITLE=Library Entry 14915
##JCAMP-DX=Revision 4.10 
##DATA TYPE=MASS SPECTRUM
##SAMPLE DESCRIPTION=LAC, NIDDK, NIH, Bethesda, MD 20892
##NAMES=HP
##CAS NAME=5.alpha.,6.alpha.-Epoxycholesterol acetate
##MOLFORM=C29H48O3
##CAS REGISTRY NO=2953-35-7
##MP= -300
##BP= -300
##MW= 444
##$RETENTION INDEX=0
##$CONDENSED SPECTRUM=NO
##NPOINTS= 193
##XYDATA=(XY..XY) 1 
    41        242
    43        999
    44         22
    45          3
    49          5
    53         37
    55        349
    57        242
    58          8
    61          7
    65         14
    67        164
    68         13
    69        188
    71        123
    72          4
    77         52
    79        162
    81        295
    82         43
    83         83
    84          3
    85         23
    91        134
    93        226
    94         75
    95        250
    96        335
    97         67
    98          6
    99          5
   103          3
   105        141
   107        200
   108        109
   109        173
   110        148
   111         34
   112          1
   113          4
   115         10
   117         41
   118         41
   119         79
   120        115
   121        115
   122        138
   123        185
   124         23
   125         12
   127          4
   128          2
   129         19
   131         61
   133        129
   134         77
   135        173
   136        107
   137         31
   138          7
   139          7
   141         12
   143         70
   144         23
   145         99
   146         27
   147         53
   149        111
   150         24
   151         23
   152          4
   153          3
   155          9
   157         59
   158         39
   159         50
   161         90
   162          7
   163         97
   164         17
   165         10
   169         15
   170          2
   171         29
   172          4
   173         32
   175         55
   176         25
   177         27
   178          5
   179         12
   181          2
   183         19
   185         30
   187         27
   189         32
   190          2
   191         17
   193         24
   194          1
   195          2
   197         22
   199         35
   200          2
   201         24
   202          3
   203         15
   204          3
   205         11
   206         17
   207          7
   211         54
   212         16
   213         16
   214          4
   215         17
   216          9
   217          7
   218          3
   219         16
   220          3
   221          2
   225         11
   226         14
   227         23
   229         43
   230         11
   231          9
   233         12
   239          6
   241          1
   243         15
   244          7
   245         12
   246         12
   247         35
   248          9
   249         11
   253         66
   254          9
   257          5
   259         19
   260         11
   261         18
   262         20
   263          3
   264          1
   271         39
   272          8
   273         11
   274         19
   275         21
   276          7
   277          3
   281          6
   288         42
   289         16
   290         11
   291         10
   299          7
   303          8
   304         25
   305          3
   313          7
   317          1
   324          1
   325          4
   326          2
   327          2
   329          1
   340         28
   341         13
   342          4
   351         47
   352         11
   355         13
   356         73
   357         20
   365          8
   366        111
   367         51
   368          5
   369         67
   370         15
   383         13
   384        458
   385        153
   386         26
   411          3
   426          9
   427          6
   444         12
   445          3