##TITLE=Library Entry 38140
##JCAMP-DX=Revision 4.10 
##DATA TYPE=MASS SPECTRUM
##SAMPLE DESCRIPTION=CARL DJERASSI DEPT OF CHEM STANFORD UNIV STANFORD CALIF
 94305
##NAMES=HP
##CAS NAME=Dichotine, 11-methoxy-
##MOLFORM=C23H28N2O7
##CAS REGISTRY NO=29537-51-7
##MP= -300
##BP= -300
##MW= 444
##$RETENTION INDEX=0
##$CONDENSED SPECTRUM=NO
##NPOINTS= 133
##XYDATA=(XY..XY) 1 
    40         10
    41         90
    42        202
    43        222
    44        353
    45         10
    51         10
    52         10
    53         30
    54         10
    55        111
    56         10
    57        404
    58        373
    59         20
    63         10
    65         20
    66         10
    67         10
    68         10
    69        161
    70        999
    71        222
    72         50
    73         10
    74         50
    76         10
    77         30
    78         10
    79         20
    80         10
    81         30
    82         40
    83         60
    84         30
    85         10
    86         10
    88         10
    89         20
    90         10
    91         10
    92         10
    93         10
    94         20
    95         20
    96        111
    97         10
    98         30
    99         10
   100         40
   101         10
   102         10
   103         20
   104         10
   105         10
   106         10
   107         10
   108         10
   109         10
   110         40
   111         50
   112         70
   113         10
   114        161
   115         10
   116         10
   117         10
   120         10
   122         20
   124         30
   126         30
   127         10
   128        131
   129         10
   130         20
   134         10
   140         20
   141         10
   144         20
   146         10
   149         10
   150         10
   154        101
   158         10
   162         10
   168         20
   169         10
   170         10
   174         20
   176         20
   178         10
   182         60
   188         20
   206         80
   216         10
   222         10
   228         20
   230         20
   231         20
   232         10
   243         80
   244        101
   245         10
   246         20
   247         40
   274         10
   275        171
   276         20
   315         60
   316         10
   317         10
   318         10
   319         30
   341         10
   343         10
   344        181
   345         40
   375         40
   383         20
   385         20
   387        424
   388         90
   389         10
   398         40
   399         20
   401         10
   411         30
   413         30
   427         20
   429         30
   444        474
   445        121
   446         10