##TITLE=Library Entry 34082
##JCAMP-DX=Revision 4.10 
##DATA TYPE=MASS SPECTRUM
##SAMPLE DESCRIPTION=A.A.Kutin, Moscow, Russia
##NAMES=HP
##CAS NAME=Benzene, 1,3-bis(2-methyl-1-oxo-2-propenylamino)-4-(1,1,2,2-tetra
fluoroethoxy)-
##MOLFORM=C16H16F4N2O3
##CAS REGISTRY NO=295347-09-0
##MP= -300
##BP= -300
##MW= 360
##$RETENTION INDEX=0
##$CONDENSED SPECTRUM=NO
##NPOINTS= 230
##XYDATA=(XY..XY) 1 
    33          0
    34          0
    36          0
    37          1
    39        156
    41        980
    42         30
    43         11
    44          3
    45          0
    47          0
    49          0
    50          4
    51         27
    52         13
    53         12
    54          4
    55          5
    56          0
    57          1
    58          0
    59          0
    60          0
    62          1
    63          4
    64          2
    65          5
    66         11
    67         15
    69        999
    70         39
    71          5
    72          0
    73          0
    74          0
    75          1
    76          4
    77         13
    78         13
    79         13
    80          8
    81          5
    82          3
    83          2
    84          0
    85          0
    86          0
    87          0
    88          0
    89          2
    90          1
    91          3
    92          3
    93          4
    94          4
    95          6
    96          2
    97          0
    98          0
    99          0
   101          9
   102          1
   103          2
   104          4
   105          9
   106          7
   107          3
   108          3
   109          5
   110         10
   111          1
   112          0
   114          0
   115          1
   116          1
   117          2
   118          3
   119          1
   120          1
   121          3
   122          1
   123          2
   124          0
   125          0
   126          0
   127          0
   128          1
   129          0
   130          1
   131          2
   132          1
   133          2
   134          1
   135          0
   136          0
   137          1
   139          0
   141          0
   142          0
   143          0
   144          0
   145          4
   146          4
   147          2
   148          0
   149          2
   150          0
   151          0
   152          0
   155          0
   156          0
   157          0
   158          1
   159          1
   160          0
   161          1
   162          1
   163          0
   164          0
   165          0
   168          0
   169          0
   170          0
   171          0
   172          1
   173          5
   174          9
   175          4
   176          1
   177          0
   178          0
   179          0
   183          0
   184          0
   185          0
   186          0
   187          1
   188          0
   189          4
   190          0
   191          2
   192          0
   193          0
   195          0
   196          0
   197          0
   199          1
   200          0
   201          1
   202          0
   204          2
   205          0
   207          4
   208          0
   209          0
   210          0
   211          0
   213          1
   214          1
   215          3
   216          0
   217          0
   219          0
   221          0
   222          0
   223          0
   224          0
   225          0
   226          0
   227          5
   228          1
   229          0
   231          1
   235          0
   236          0
   237          1
   238          0
   239          0
   240          0
   241          4
   242          6
   243         90
   244         14
   245          1
   246          0
   247          0
   248          0
   249          0
   250          0
   251          3
   252          0
   253          2
   254          0
   259          2
   260          0
   262          0
   263          0
   264          0
   271          0
   272          0
   275         13
   276          2
   277          0
   278          0
   279          1
   281          0
   285          0
   289          0
   290          2
   291          2
   292          1
   299          0
   303          1
   304          0
   305          0
   309          0
   311          0
   317          0
   319          0
   321          0
   331          0
   339          0
   341          1
   342          0
   345          0
   357          0
   359          3
   360         14
   361          2
   362          0