##TITLE=Library Entry 66506
##JCAMP-DX=Revision 4.10 
##DATA TYPE=MASS SPECTRUM
##SAMPLE DESCRIPTION=D.HENNEBERG, MAX-PLANCK INSTITUTE, MULHEIM, WEST GERMAN
Y
##NAMES=HP
##CAS NAME=1,3,6-Heptatriene, 2,5,5-trimethyl-
##MOLFORM=C10H16
##CAS REGISTRY NO=29548-02-5
##MP= -300
##BP= -300
##MW= 136
##$RETENTION INDEX=926
##$CONDENSED SPECTRUM=NO
##NPOINTS= 68
##XYDATA=(XY..XY) 1 
    26         18
    27        211
    28         11
    29        218
    33          3
    35          5
    37         13
    38         17
    39        306
    40         48
    41        391
    42         18
    43        212
    44          5
    47          5
    50         26
    51         91
    52         41
    53        188
    54         18
    55        217
    56          9
    57         19
    59          1
    61          5
    62          7
    63         35
    65        108
    66         42
    67        197
    68         16
    72          5
    73          4
    74          6
    75         24
    76         10
    77        443
    78        108
    79        520
    80        147
    81         66
    82          7
    84          4
    89         31
    90         12
    91        498
    92        114
    93        999
    94        169
    95          9
   101          6
   102          6
   103         48
   104         12
   105        295
   106         80
   107        325
   108        103
   109         10
   115          5
   117         10
   119         58
   120         10
   121        563
   122         52
   135          9
   136        107
   137         12