##TITLE=Library Entry 114901
##JCAMP-DX=Revision 4.10 
##DATA TYPE=MASS SPECTRUM
##SAMPLE DESCRIPTION=Chemical Concepts
##NAMES=HP
##CAS NAME=1,2,3,4-Tetrahydro-2-naphthylamine
##MOLFORM=C10H13N
##CAS REGISTRY NO=2954-50-9
##MP= -300
##BP= -300
##MW= 147
##$RETENTION INDEX=0
##$CONDENSED SPECTRUM=NO
##NPOINTS= 75
##XYDATA=(XY..XY) 1 
    27         17
    28         31
    29          5
    30         73
    38          6
    39         48
    40          5
    41         14
    42         25
    43         25
    44         14
    50         19
    51         48
    52         19
    53         12
    54         10
    55          8
    56         44
    57          2
    59          5
    61          2
    62         11
    63         39
    64         11
    65         41
    66         14
    67          2
    70          2
    72          3
    73          3
    74         10
    75         12
    76         13
    77         82
    78        133
    79         18
    80          3
    86          3
    87          5
    88          2
    89         26
    90         11
    91         75
    92         14
    93          5
   101          6
   102         31
   103        152
   104        681
   105        100
   106         10
   113          2
   114          5
   115        176
   116         33
   117         68
   118         44
   119         15
   120         13
   126          6
   127         40
   128         88
   129        225
   130        999
   131        128
   132        179
   133         17
   142          2
   143         13
   144         24
   145         10
   146        102
   147        499
   148         50
   149          3