##TITLE=Library Entry 7415
##JCAMP-DX=Revision 4.10 
##DATA TYPE=MASS SPECTRUM
##SAMPLE DESCRIPTION=J. Klune, Insect Chem. Ecol. Lab., USDA, Beltsville, MD
 20705
##NAMES=HP
##CAS NAME=9-Acetoxynonanal
##MOLFORM=C11H20O3
##CAS REGISTRY NO=29541-97-7
##MP= -300
##BP= -300
##MW= 200
##$RETENTION INDEX=0
##$CONDENSED SPECTRUM=NO
##NPOINTS= 112
##XYDATA=(XY..XY) 1 
    41        286
    42        112
    43        999
    44        134
    45         20
    46          2
    49          2
    50          2
    51          9
    52          3
    53         32
    54        123
    55        561
    56        150
    57        145
    58         48
    59         13
    61        283
    62          7
    63          2
    64          3
    65          9
    66         17
    67        166
    68        149
    69        179
    70        128
    71         71
    72         17
    73         31
    74          2
    75          2
    76          1
    77         14
    78          6
    79         73
    80         48
    81        135
    82         48
    83        137
    84        124
    85         30
    86         14
    87          6
    88          1
    89          0
    91         11
    92          5
    93         64
    94         50
    95         47
    96         69
    97        504
    98         91
    99         13
   100          1
   101          7
   104         10
   105          8
   106          4
   107         24
   108          6
   109         21
   110          9
   111         43
   112         56
   113          9
   114          1
   115         17
   116          3
   117          3
   119          5
   120          2
   121         12
   122         17
   123         10
   124          5
   125          8
   126          3
   127          4
   128          3
   129          3
   131          5
   133          3
   135          5
   136          1
   137          5
   138          3
   139         10
   140          6
   141          8
   143          2
   144          0
   145          3
   147          3
   152          1
   153          3
   154          1
   155          3
   157         35
   158          6
   159          1
   161          1
   171          2
   172         11
   173          1
   184          3
   185          8
   186          2
   199          1
   200          8
   201          3