##TITLE=Library Entry 67121
##JCAMP-DX=Revision 4.10 
##DATA TYPE=MASS SPECTRUM
##SAMPLE DESCRIPTION=Exported from NIST MS Search
##NAMES=HP
##CAS NAME=3-Cyclohexene-1-acetaldehyde, .alpha.,4-dimethyl-
##MOLFORM=C10H16O
##CAS REGISTRY NO=29548-14-9
##MP= -300
##BP= -300
##MW= 152
##$RETENTION INDEX=1229
##$CONDENSED SPECTRUM=NO
##NPOINTS= 70
##XYDATA=(XY..XY) 1 
    15          5
    26          7
    27        166
    29        130
    31         23
    38          6
    39        154
    40         34
    41        218
    42         18
    43         46
    45         11
    50         12
    51         36
    52         16
    53        120
    54         22
    55        163
    56         12
    57         18
    58         26
    59         14
    63         13
    65         48
    66         37
    67        198
    68        182
    69         59
    71         10
    74          7
    75          6
    77        114
    78         33
    79        552
    80         62
    81        100
    82         34
    83          8
    84         16
    89          7
    91        105
    92         62
    93        166
    94        999
    95        200
    96         15
   103          7
   105         24
   106          7
   107         25
   108          6
   109         30
   115         10
   117         12
   118          5
   119         22
   120          6
   121         18
   122         26
   123         10
   132          5
   133          7
   137         50
   138          8
   139          5
   145          5
   148          6
   150         29
   151          7
   152         23