##TITLE=Library Entry 49058
##JCAMP-DX=Revision 4.10 
##DATA TYPE=MASS SPECTRUM
##SAMPLE DESCRIPTION=Exported from NIST MS Search
##NAMES=HP
##CAS NAME=p-Mentha-1(7),8(10)-dien-9-ol
##MOLFORM=C10H16O
##CAS REGISTRY NO=29548-13-8
##MP= -300
##BP= -300
##MW= 152
##$RETENTION INDEX=1287
##$CONDENSED SPECTRUM=NO
##NPOINTS= 83
##XYDATA=(XY..XY) 1 
    15          8
    26         20
    27        277
    28         98
    29        205
    30          8
    31        122
    37          6
    38         19
    39        420
    40        111
    41        683
    42         58
    43        248
    44         15
    45         12
    50         27
    51        103
    52         63
    53        315
    54         92
    55        394
    56         66
    57        152
    58         28
    59          7
    62          7
    63         35
    64         13
    65        145
    66        108
    67        500
    68        166
    69         79
    70         40
    71         21
    75         18
    77        367
    78        169
    79        999
    80        300
    81        200
    82         35
    83         84
    84        216
    85         17
    89         15
    90         20
    91        732
    92        735
    93        999
    94        276
    95        185
    96         53
    97         19
   103         30
   104         19
   105        475
   106        475
   107         82
   108         54
   109         44
   110         20
   111         15
   115         20
   116          9
   117         48
   118         11
   119        632
   120         66
   121        140
   122         21
   123         71
   124         42
   131          6
   132          7
   133         40
   134        272
   135         34
   136          5
   137         15
   152         53
   153          5