##TITLE=Library Entry 33983
##JCAMP-DX=Revision 4.10 
##DATA TYPE=MASS SPECTRUM
##SAMPLE DESCRIPTION=Chemical Concepts
##NAMES=HP
##CAS NAME=Trifluoromethanesulfonyl imidazole
##MOLFORM=C4H3F3N2O2S
##CAS REGISTRY NO=29540-81-6
##MP= -300
##BP= -300
##MW= 200
##$RETENTION INDEX=0
##$CONDENSED SPECTRUM=NO
##NPOINTS= 94
##XYDATA=(XY..XY) 1 
    24          0
    25          2
    26         16
    27         10
    28         89
    29         12
    30          1
    31         10
    33          2
    34          0
    36          0
    37          0
    38         39
    39        104
    40        951
    41         85
    42          1
    43          0
    44          1
    45          7
    46          6
    47          1
    48         48
    49          3
    50         15
    51          3
    52          4
    53          1
    54          0
    55          0
    56          0
    57          0
    58          1
    59         10
    60         32
    61          0
    62          1
    63          1
    64         17
    65          4
    66         27
    67         81
    68          3
    69        999
    70         12
    71         14
    72         23
    73          1
    74          0
    75          1
    76          6
    77          0
    78         28
    79          1
    81          0
    82         24
    83          0
    85          0
    86        108
    87          8
    88          1
    89         19
    90         54
    91          2
    96         22
    97          1
    98          0
    99          1
   101          1
   103          1
   104          0
   108          1
   109         60
   110          3
   115          4
   116         21
   117         69
   118          3
   119          0
   131          1
   133         25
   134          0
   135         22
   136         31
   137          2
   141          0
   144          0
   149          0
   193          0
   199          0
   200        327
   201         20
   202         17
   203          0