##TITLE=Library Entry 66282
##JCAMP-DX=Revision 4.10 
##DATA TYPE=MASS SPECTRUM
##SAMPLE DESCRIPTION=Exported from NIST MS Search
##NAMES=HP
##CAS NAME=p-Menth-1(7)-en-9-ol
##MOLFORM=C10H18O
##CAS REGISTRY NO=29548-16-1
##MP= -300
##BP= -300
##MW= 154
##$RETENTION INDEX=1889
##$CONDENSED SPECTRUM=NO
##NPOINTS= 64
##XYDATA=(XY..XY) 1 
    26          7
    27        120
    28         35
    29        123
    30          5
    31        117
    38          6
    39        183
    40         52
    41        399
    42         42
    43        109
    44          6
    45         10
    50          8
    51         32
    52         20
    53        168
    54         60
    55        323
    56         32
    57         46
    58         38
    59         14
    63          9
    65         60
    66         48
    67        369
    68        177
    69        191
    70         19
    71         15
    75          5
    77        138
    78         35
    79        492
    80        154
    81        430
    82         49
    83         18
    84         12
    85          7
    89          7
    91        124
    92         88
    93        999
    94        615
    95        323
    96         32
    97         32
   105         23
   106          8
   107        353
   108         92
   109         11
   119          8
   121        292
   122         32
   123        137
   124         15
   135          6
   136        192
   137         22
   154         32