##TITLE=Library Entry 23179
##JCAMP-DX=Revision 4.10 
##DATA TYPE=MASS SPECTRUM
##SAMPLE DESCRIPTION=NIST Mass Spectrometry Data Center, 2009
##NAMES=HP
##CAS NAME=N-n-Butylpropionamide
##MOLFORM=C7H15NO
##CAS REGISTRY NO=2955-67-1
##MP= -300
##BP= -300
##MW= 129
##$RETENTION INDEX=1185
##$CONDENSED SPECTRUM=NO
##NPOINTS= 61
##XYDATA=(XY..XY) 1 
    14          1
    15          6
    18          7
    25          1
    26         18
    27        150
    28        114
    29        408
    30        772
    31         16
    32         10
    37          2
    38          5
    39         65
    40         12
    41        199
    42         42
    43         47
    44        448
    45         19
    46          3
    50          2
    51          4
    52          5
    53         12
    54         16
    55         66
    56         93
    57        999
    58        162
    59         19
    60          1
    67          1
    68          3
    69          2
    70          5
    71          9
    72         59
    73         11
    74        141
    75          5
    82          1
    83          1
    84          5
    86        356
    87        373
    88         18
    89          1
    96          1
    98          2
   100        280
   101         30
   102          2
   111          1
   112          1
   114         63
   115          5
   128          6
   129        111
   130         12
   131          1