##TITLE=Library Entry 46802
##JCAMP-DX=Revision 4.10 
##DATA TYPE=MASS SPECTRUM
##SAMPLE DESCRIPTION=Japan AIST/NIMC Database- Spectrum MS-NW-8592
##NAMES=HP
##CAS NAME=Propane, 1,1,2-trichloro-2-methyl-
##MOLFORM=C4H7Cl3
##CAS REGISTRY NO=29559-52-2
##MP= -300
##BP= -300
##MW= 160
##$RETENTION INDEX=869
##$CONDENSED SPECTRUM=NO
##NPOINTS= 69
##XYDATA=(XY..XY) 1 
    14          1
    15          5
    25          1
    26          9
    27         70
    28          7
    29         15
    35          4
    36         10
    37         11
    38         20
    39         97
    40          7
    41        265
    42          9
    43          1
    47          7
    48          6
    49         42
    50         15
    51         33
    52          6
    53        116
    54          9
    55         22
    56          1
    59          3
    60          2
    61         18
    62          7
    63         39
    64          2
    65          9
    72          2
    73         12
    74          2
    75         19
    76          8
    77        999
    78         36
    79        321
    80         10
    82          1
    83         33
    84          1
    85         22
    87          7
    88          1
    89        100
    90          9
    91         32
    92          3
    96          1
    97          5
    99          3
   109         28
   110          4
   111         17
   112          3
   113          3
   124          1
   125         78
   126          4
   127         50
   128          2
   129          8
   145          9
   147          8
   149          2