##TITLE=Library Entry 4116
##JCAMP-DX=Revision 4.10 
##DATA TYPE=MASS SPECTRUM
##SAMPLE DESCRIPTION=Exported from NIST MS Search
##NAMES=HP
##CAS NAME=2H-Azepin-2-one, hexahydro-3-(2-propenyl)-
##MOLFORM=C9H15NO
##CAS REGISTRY NO=29559-34-0
##MP= -300
##BP= -300
##MW= 153
##$RETENTION INDEX=0
##$CONDENSED SPECTRUM=NO
##NPOINTS= 26
##XYDATA=(XY..XY) 1 
    40        410
    41        999
    42        230
    43        230
    53        330
    54        340
    55        450
    56        320
    67        699
    68        400
    69        230
    72        250
    81        420
    82        470
    83        200
    84        200
    96        320
    98        210
    99        230
   110        250
   112        250
   124        200
   138        200
   152        270
   153        959
   154        130