##TITLE=Library Entry 29815
##JCAMP-DX=Revision 4.10 
##DATA TYPE=MASS SPECTRUM
##SAMPLE DESCRIPTION=RADIAN CORP
##NAMES=HP
##CAS NAME=2-Butanol, 3,3,4,4-tetrafluoro-2-methyl-
##MOLFORM=C5H8F4O
##CAS REGISTRY NO=29553-26-2
##MP= -300
##BP= -300
##MW= 160
##$RETENTION INDEX=0
##$CONDENSED SPECTRUM=NO
##NPOINTS= 81
##XYDATA=(XY..XY) 1 
    14          1
    15         19
    26          6
    27         34
    29         38
    30          2
    31        226
    32          5
    33         10
    37          5
    38         12
    39         78
    40          8
    41        164
    42         42
    43        599
    44         29
    45          3
    46         16
    47         48
    48          2
    49         27
    50         13
    51        245
    52          5
    53         18
    54          1
    55         24
    56          5
    57         38
    58         11
    59        999
    60         38
    61         20
    62          3
    63         24
    64         11
    65        179
    66          5
    67         42
    68          3
    69         21
    70          3
    71         17
    72          3
    73         23
    74          3
    75         36
    76          6
    77        130
    78          6
    79          9
    81          3
    82         26
    83          9
    87          1
    88          2
    89          7
    90          3
    91         50
    92          5
    93         19
    94         16
    95         14
    97        106
    98          4
    99          3
   100          4
   101         47
   103          4
   105          8
   106          2
   107          2
   111          3
   123          3
   125         71
   126          3
   143          2
   144          3
   145        268
   146         12