##TITLE=Library Entry 25588
##JCAMP-DX=Revision 4.10 
##DATA TYPE=MASS SPECTRUM
##SAMPLE DESCRIPTION=COC 7216
##NAMES=HP
##CAS NAME=3-Eicosanone
##MOLFORM=C20H40O
##CAS REGISTRY NO=2955-56-8
##MP= -300
##BP= -300
##MW= 296
##$RETENTION INDEX=0
##$CONDENSED SPECTRUM=NO
##NPOINTS= 122
##XYDATA=(XY..XY) 1 
    13          2
    14          9
    15          2
    16          8
    17         26
    26          7
    27        130
    28         55
    29        505
    30         12
    31          6
    38          2
    39         52
    40         14
    41        388
    42         92
    43        642
    44         26
    45          6
    51          2
    52          2
    53         24
    54         31
    55        309
    56         88
    57        999
    58         64
    59         25
    60          3
    65          3
    66          4
    67         52
    68         29
    69        122
    70         43
    71        214
    72        999
    73        558
    74         26
    75          2
    77          4
    79          8
    80          5
    81         45
    82         29
    83         83
    84         26
    85        310
    86         25
    87          2
    88          4
    91          6
    92          1
    93          2
    94          2
    95         40
    96          6
    97         40
    98          6
    99         40
   100          3
   101          1
   102          1
   105          7
   106          1
   107          2
   108          1
   109          2
   110          2
   111          3
   112          3
   113          3
   114          3
   115          2
   117          1
   119          1
   121          2
   123          3
   124          3
   125          3
   126          2
   127          7
   128          3
   131          1
   135          1
   137          6
   138          2
   139          2
   140          1
   141          6
   151          2
   152          1
   153          1
   155          1
   165          1
   166          2
   169          1
   180          3
   183          1
   193          1
   194          2
   207          1
   208          1
   211          2
   222         12
   223          2
   224          5
   225          3
   239          3
   240          1
   242          2
   249          2
   253          3
   265          3
   267        188
   268         37
   269          4
   278          5
   281          1
   295          1
   296         19
   297          4