##TITLE=Library Entry 20918
##JCAMP-DX=Revision 4.10 
##DATA TYPE=MASS SPECTRUM
##SAMPLE DESCRIPTION=NIST Mass Spectrometry Data Center
##NAMES=HP
##CAS NAME=N,N'-Ethylenebis-acrylamide
##MOLFORM=C8H12N2O2
##CAS REGISTRY NO=2956-58-3
##MP= -300
##BP= -300
##MW= 168
##$RETENTION INDEX=0
##$CONDENSED SPECTRUM=NO
##NPOINTS= 45
##XYDATA=(XY..XY) 1 
    12          2
    14         12
    15          9
    16          6
    17          2
    18         10
    25          5
    26         48
    27        304
    28        174
    29         31
    30         93
    31          7
    32         24
    39          7
    40          7
    41         21
    42         36
    43         31
    44         42
    51          2
    52          5
    53         19
    55        999
    56         46
    57         15
    58          4
    59          5
    67          7
    68         38
    69         69
    70          7
    72         45
    82          4
    84        498
    85        221
    86         11
    87         16
    95          5
    97        398
    98         24
   111         11
   112          2
   113          6
   151          2