##TITLE=Library Entry 14930
##JCAMP-DX=Revision 4.10 
##DATA TYPE=MASS SPECTRUM
##SAMPLE DESCRIPTION=Div. of Experiment Therapeutics WRAIR, WRAMC, Washingto
n DC 20307
##NAMES=HP
##CAS NAME=N-[5-Acetyl-3,7-dichloro-5H-dibenzo[b,f]azepine-10-yl]piperidine
##MOLFORM=C21H20Cl2N2O
##CAS REGISTRY NO=29560-45-0
##MP= -300
##BP= -300
##MW= 386
##$RETENTION INDEX=0
##$CONDENSED SPECTRUM=NO
##NPOINTS= 175
##XYDATA=(XY..XY) 1 
    41        294
    43        999
    44         25
    47          7
    49          6
    51          7
    52          3
    53         29
    55        222
    56         30
    57         25
    60         14
    61          4
    62         31
    63         34
    65          6
    67         27
    68         40
    69         97
    70          9
    71         19
    73         28
    74          9
    75         34
    77         53
    78          7
    79          5
    81         39
    82         16
    84         13
    86          5
    87         20
    88         10
    89         32
    94         24
    95          5
    96         25
    97         15
    98         21
    99         28
   100         11
   101          3
   102          7
   105         72
   106          9
   107          3
   109          6
   110          7
   111         15
   112         23
   113         12
   114         17
   115          8
   122         19
   123         17
   124          3
   125         25
   126         21
   127          5
   134          3
   137         11
   138          9
   139         17
   140         11
   149         16
   150         20
   151         18
   152          6
   154          3
   161         15
   162         25
   163         45
   164         23
   165          6
   174         13
   176         18
   177         83
   178         19
   186          7
   188         87
   189         61
   190        152
   191         52
   192         10
   193          7
   197         20
   198         11
   199         17
   200          7
   201         18
   202         13
   203         14
   204         15
   205         15
   211          6
   212         42
   213         45
   214         34
   215          7
   216         14
   217         17
   218          3
   224        133
   225        112
   226         73
   227         49
   228         36
   229         15
   230         11
   233         39
   235         26
   237          3
   238         19
   239         33
   240         35
   241         19
   242          9
   247         48
   248        141
   249         62
   250         77
   251         41
   252         55
   253         22
   254         18
   255          3
   258          7
   259          9
   260        203
   261        488
   262        174
   263        348
   264         74
   265        111
   266          9
   267         31
   272         11
   273          6
   274         10
   275         22
   276         49
   277         22
   278         32
   279         15
   280          6
   287         14
   288         11
   289          6
   291          4
   301          7
   303         72
   304         15
   305         62
   306          4
   307         58
   308         21
   309         28
   310          3
   311          4
   315          7
   341         24
   342         14
   343        208
   344         33
   345        151
   346         32
   347         28
   351          7
   385        643
   386        651
   387        465
   388        439
   389        125
   390         65
   391         15