##TITLE=Library Entry 61592
##JCAMP-DX=Revision 4.10 
##DATA TYPE=MASS SPECTRUM
##SAMPLE DESCRIPTION=NIST Mass Spectrometry Data Center, 1994
##NAMES=HP
##CAS NAME=2-Methoxybenzaldoxime
##MOLFORM=C8H9NO2
##CAS REGISTRY NO=29577-53-5
##MP= -300
##BP= -300
##MW= 151
##$RETENTION INDEX=0
##$CONDENSED SPECTRUM=NO
##NPOINTS= 91
##XYDATA=(XY..XY) 1 
    12          6
    13          9
    14         36
    15        330
    16         15
    17         30
    18         56
    25          4
    26         27
    27         71
    28        104
    29         45
    30         57
    32          4
    33          2
    37         94
    38        179
    39        279
    40         27
    41         27
    42         21
    43          3
    44         18
    46          3
    48          3
    49         28
    50        224
    51        338
    52        107
    53        124
    54         14
    55         21
    56          3
    60          6
    61         49
    62        121
    63        371
    64        289
    65        183
    66         69
    67         20
    68         16
    69          7
    72          2
    73         17
    74         59
    75         97
    76        136
    77        406
    78        212
    79         85
    80         31
    81         55
    82          7
    85          2
    86          9
    87         12
    88         22
    89         84
    90        186
    91        999
    92        211
    93         53
    94         24
    95         13
    96          2
    99          7
   100          4
   102         43
   103         68
   104        230
   105        147
   106         39
   107        130
   108         38
   109         13
   116         45
   117         18
   119        807
   120        125
   121         18
   122          3
   123          1
   132         59
   133        158
   134         86
   135         18
   136         10
   151        340
   152         31
   153          1