##TITLE=Library Entry 97441
##JCAMP-DX=Revision 4.10 
##DATA TYPE=MASS SPECTRUM
##SAMPLE DESCRIPTION=D.HENNEBERG, MAX-PLANCK INSTITUTE, MULHEIM, WEST GERMAN
Y
##NAMES=HP
##CAS NAME=Pentacyclo[8.2.1.1(4,7).0(2,9).0(3,8)]exo-trans-exo-tetradeca-5,1
1-diene
##MOLFORM=C14H16
##CAS REGISTRY NO=2957-68-8
##MP= -300
##BP= -300
##MW= 184
##$RETENTION INDEX=0
##$CONDENSED SPECTRUM=NO
##NPOINTS= 124
##XYDATA=(XY..XY) 1 
    23          0
    24          0
    25          0
    26          3
    27         48
    29          2
    31          0
    33          7
    34          1
    35          1
    36          0
    37          2
    38          8
    39        117
    40         26
    41         52
    42          2
    45          0
    46          0
    47          1
    48          0
    49          1
    50         16
    51         51
    52         48
    53         56
    54          3
    55          2
    56          0
    57          1
    58          1
    59          0
    60          0
    61          1
    62          6
    63         27
    64         15
    65         79
    66        164
    67         33
    68          2
    69          2
    70          3
    71          3
    72          1
    73          0
    74          3
    75          8
    76         12
    77         91
    78         57
    79         93
    80         24
    81          2
    82          2
    83          2
    84          0
    86          1
    87          2
    88          2
    89         15
    90         15
    91        205
    92         55
    93         20
    94          1
    98          0
    99          0
   100          0
   101          2
   102          8
   103         53
   104         27
   105         65
   106         20
   107          1
   108          0
   109          0
   111          2
   114          6
   115         91
   116         90
   117        999
   118        386
   119         47
   120          2
   125          0
   126          1
   127          9
   128         34
   129         22
   130         19
   131          3
   132          0
   138          0
   139          2
   140          1
   141         18
   142         11
   143         27
   144          3
   149          0
   150          0
   151          1
   152          5
   153          6
   154          4
   155         16
   156          8
   157          1
   164          0
   165          4
   166          1
   167          2
   168          1
   169          8
   170          1
   178          0
   181          0
   182          0
   183          2
   184         46
   185          6
   186          0