##TITLE=Library Entry 72842
##JCAMP-DX=Revision 4.10 
##DATA TYPE=MASS SPECTRUM
##SAMPLE DESCRIPTION=Japan AIST/NIMC Database- Spectrum MS-IW-3405
##NAMES=HP
##CAS NAME=dl-2-Formamido-2-methylbutyric acid
##MOLFORM=C6H11NO3
##CAS REGISTRY NO=29588-10-1
##MP= -300
##BP= -300
##MW= 145
##$RETENTION INDEX=0
##$CONDENSED SPECTRUM=NO
##NPOINTS= 81
##XYDATA=(XY..XY) 1 
    14          3
    15         53
    16          2
    17          8
    18         33
    19          2
    25          1
    26         18
    27        129
    28        153
    29        142
    30         56
    31          8
    32          1
    37          3
    38          7
    39         70
    40         22
    41        107
    42        733
    43         73
    44         37
    45         61
    46        446
    47          9
    48          1
    49          1
    50          8
    51         11
    52         10
    53         33
    54         81
    55        413
    56        179
    57         89
    58         43
    59          7
    60         10
    66          1
    67          2
    68          5
    69          9
    70        202
    71         33
    72        415
    73         41
    74          5
    77          1
    81          4
    82        209
    83         26
    84         78
    85         76
    86         31
    87          8
    88        464
    89         18
    90          2
    93          1
    96          1
    97          7
    98        322
    99        323
   100        999
   101        113
   102         13
   103          1
   111          1
   112         49
   113          3
   114          1
   115          4
   116        274
   117         38
   118          3
   127        196
   128         13
   129          1
   130          3
   145         66
   146          7