##TITLE=Library Entry 1144
##JCAMP-DX=Revision 4.10 
##DATA TYPE=MASS SPECTRUM
##SAMPLE DESCRIPTION=CARL DJERASSI DEPT OF CHEM STANFORD UNIV STANFORD CALIF
 94305
##NAMES=HP
##CAS NAME=L-Norvaline, methyl ester
##MOLFORM=C6H13NO2
##CAS REGISTRY NO=29582-96-5
##MP= -300
##BP= -300
##MW= 131
##$RETENTION INDEX=0
##$CONDENSED SPECTRUM=NO
##NPOINTS= 28
##XYDATA=(XY..XY) 1 
    26         20
    27        170
    28        390
    29        170
    30        999
    31         50
    32         10
    33        110
    38         10
    39         80
    40         10
    41        120
    42        120
    43        130
    44         80
    54         20
    55         60
    56         60
    57         10
    59         10
    60         30
    70         20
    72        810
    73         40
    74         10
    88        100
    89         10
   131         10