##TITLE=Library Entry 68163
##JCAMP-DX=Revision 4.10 
##DATA TYPE=MASS SPECTRUM
##SAMPLE DESCRIPTION=Exported from NIST MS Search
##NAMES=HP
##CAS NAME=Naphthalene, decahydro-2-methyl-
##MOLFORM=C11H20
##CAS REGISTRY NO=2958-76-1
##MP= -300
##BP= -300
##MW= 152
##$RETENTION INDEX=1129
##$CONDENSED SPECTRUM=NO
##NPOINTS= 107
##XYDATA=(XY..XY) 1 
    25          1
    26         35
    27        478
    28        139
    29        420
    30          9
    31          5
    37          6
    38         18
    39        493
    40        120
    41        913
    42        165
    43        148
    44          6
    45          1
    46          1
    47          1
    48          1
    49          1
    50         16
    51         62
    52         37
    53        226
    54        222
    55        587
    56         96
    57        116
    58          7
    59          1
    60          1
    61          1
    62          3
    63         15
    64          5
    65         65
    66         58
    67        712
    68        377
    69        219
    70         64
    71         60
    72          5
    74          1
    75          3
    76          1
    77         90
    78         25
    79        126
    80         73
    81        926
    82        356
    83        146
    84         18
    85         18
    86          1
    87          1
    89          2
    90          1
    91         46
    92          8
    93         42
    94         64
    95        999
    96        464
    97        100
    98         10
    99          3
   100          1
   102          1
   103          3
   104          1
   105          6
   106          1
   107         10
   108         19
   109        236
   110        251
   111         29
   112          5
   113          3
   115          2
   116          1
   117          1
   119          1
   121          3
   122          6
   123        168
   124         44
   125          5
   126          3
   127          4
   128          1
   129          1
   133          1
   135          4
   136          4
   137        111
   138         13
   139          1
   141          1
   150          2
   151          8
   152        668
   153         87
   154          6
   155          3