##TITLE=Library Entry 21890
##JCAMP-DX=Revision 4.10 
##DATA TYPE=MASS SPECTRUM
##SAMPLE DESCRIPTION=LAC, NIDDK, NIH, Bethesda, MD 20892
##NAMES=HP
##CAS NAME=Cholan-24-oic acid, 3,12-dioxo-, (5.beta.)-
##MOLFORM=C24H36O4
##CAS REGISTRY NO=2958-05-6
##MP= -300
##BP= -300
##MW= 388
##$RETENTION INDEX=0
##$CONDENSED SPECTRUM=NO
##NPOINTS= 92
##XYDATA=(XY..XY) 1 
    41        478
    42        110
    43        387
    45        110
    51        102
    53        153
    54         88
    55        999
    56        110
    57        343
    59        143
    60        225
    65         63
    66         33
    67        327
    68        113
    69        155
    71         37
    73         69
    77        328
    78         71
    79        365
    80         88
    81        540
    82         76
    83        197
    84         15
    85         14
    91        264
    92         47
    93        250
    94         48
    95        237
    96         62
    97         60
   105        202
   106         36
   107        214
   108         74
   109        198
   110         60
   111         19
   117         40
   119        123
   120         16
   121        264
   122         52
   123        141
   124         84
   125         17
   131         72
   133         83
   134         17
   135        131
   136         15
   137         67
   140         37
   141        124
   142         35
   143         37
   145        105
   147        106
   149        107
   159         84
   161         59
   163         40
   171         19
   173        243
   175         51
   177        110
   185         14
   187         17
   191         22
   199         14
   211         15
   213         15
   227         15
   229         63
   245        102
   247        656
   248        124
   260         25
   269         39
   273         91
   274         14
   287        102
   329         95
   355         30
   370         40
   388        994
   389        252
   390         53