##TITLE=Library Entry 73833
##JCAMP-DX=Revision 4.10 
##DATA TYPE=MASS SPECTRUM
##SAMPLE DESCRIPTION=Exported from NIST MS Search
##NAMES=HP
##CAS NAME=.alpha.-D-Glucofuranose, 1,2:5,6-bis-O-(1-methylethylidene)-, 3,6
'-anhydride with 3-O-methyl-1,2-O-(1-methylethylidene)-.alpha.-D-glucofurano
se
##MOLFORM=C22H36O11
##CAS REGISTRY NO=29587-06-2
##MP= -300
##BP= -300
##MW= 476
##$RETENTION INDEX=0
##$CONDENSED SPECTRUM=NO
##NPOINTS= 75
##XYDATA=(XY..XY) 1 
    41        211
    42        101
    43        923
    45        245
    55         98
    57        101
    58         76
    59        504
    69        211
    71        208
    72        160
    73        211
    75         50
    81        163
    83        104
    85        583
    87        583
    97        104
    99        219
   100        445
   101        999
   109        107
   111        104
   113        636
   114        129
   115        191
   116         56
   117         47
   123         39
   125         22
   126         62
   127        343
   129        107
   131        231
   143        231
   144        107
   145        157
   146         84
   149        329
   155        123
   157         53
   158         53
   159        667
   167         78
   169         50
   173        188
   174         50
   175         19
   185        191
   186        118
   187        160
   200        107
   202        408
   203         45
   204         39
   217        107
   218        332
   219         53
   220         50
   230         53
   243         62
   244         67
   245        194
   246        174
   260        166
   303        225
   304         45
   343         78
   345        109
   402         19
   403        129
   404         25
   461        599
   462        126
   463         42