##TITLE=Library Entry 97677
##JCAMP-DX=Revision 4.10 
##DATA TYPE=MASS SPECTRUM
##SAMPLE DESCRIPTION=Chuck Anderson, Aldrich Chemical Co.
##NAMES=HP
##CAS NAME=Pentacyclo[5.4.0.0(2,6).0(3,10).0(5,9)]undecane-8,11-dione
##MOLFORM=C11H10O2
##CAS REGISTRY NO=2958-72-7
##MP= -300
##BP= -300
##MW= 174
##$RETENTION INDEX=0
##$CONDENSED SPECTRUM=NO
##NPOINTS= 82
##XYDATA=(XY..XY) 1 
    18          0
    26         62
    27        119
    28         18
    29          2
    37          9
    38         37
    39        224
    40         47
    41         22
    42          3
    45         10
    46          3
    50         57
    51        124
    52        106
    53         73
    54         20
    55         79
    57         31
    58        103
    59          4
    61          7
    62         27
    63         83
    64         24
    65        167
    66        575
    67         39
    68         58
    69          3
    72          9
    73          6
    74         14
    75         12
    76         12
    77        103
    78        106
    79         37
    80         91
    81         74
    82         18
    86          3
    87          3
    89         45
    90         22
    91        354
    92         75
    93         13
    94         94
    95         19
    96         21
   102         19
   103         92
   104         53
   105         26
   106          0
   108         43
   109         35
   115        248
   116         83
   117        999
   118        284
   119         49
   120         11
   127         37
   128         58
   129         68
   130          7
   131        202
   132         45
   133          7
   145        283
   146        188
   147         34
   156         14
   157         10
   159          2
   173         40
   174        827
   175         88
   176          7