##TITLE=Library Entry 31328
##JCAMP-DX=Revision 4.10 
##DATA TYPE=MASS SPECTRUM
##SAMPLE DESCRIPTION=VERIFINN
##NAMES=HP
##CAS NAME=1,10-Dioxa-4,7,13,16-tetrathiacyclooctadecane
##MOLFORM=C12H24O2S4
##CAS REGISTRY NO=296-40-2
##MP= -300
##BP= -300
##MW= 328
##$RETENTION INDEX=2833
##$CONDENSED SPECTRUM=NO
##NPOINTS= 78
##XYDATA=(XY..XY) 1 
    27        168
    35         76
    41         92
    43        106
    45        464
    46        255
    47        152
    59        404
    60        582
    61        999
    64        102
    66         52
    73         75
    74        144
    75        169
    76         57
    78         51
    85        155
    86        310
    87        560
    89        254
    91        150
    92        174
    96        125
   102        146
   103        389
   104        329
   105        876
   106        128
   107         91
   112         47
   117         39
   118        211
   119        109
   120        250
   121        113
   130         31
   131        123
   133         38
   136         44
   137        134
   138        183
   139         39
   146         21
   147         14
   149         14
   157         12
   162         45
   163         92
   164        299
   165        100
   166         32
   167         12
   177          7
   178         12
   182        126
   183         10
   190         14
   191         68
   192          8
   193          6
   197         15
   198         34
   208         20
   222        168
   223         17
   224         99
   225         13
   226          8
   242         75
   244          8
   251         17
   268         90
   269         23
   270         16
   328        117
   329         13
   330         22