##TITLE=Library Entry 50164
##JCAMP-DX=Revision 4.10 
##DATA TYPE=MASS SPECTRUM
##SAMPLE DESCRIPTION=Exported from NIST MS Search
##NAMES=HP
##CAS NAME=Cyclohexanone, 5-methyl-2-(1-methylethenyl)-, trans-
##MOLFORM=C10H16O
##CAS REGISTRY NO=29606-79-9
##MP= -300
##BP= -300
##MW= 152
##$RETENTION INDEX=1177
##$CONDENSED SPECTRUM=NO
##NPOINTS= 65
##XYDATA=(XY..XY) 1 
    15         17
    26         19
    27        318
    28         52
    29        182
    31          7
    37          8
    38         25
    39        545
    40        143
    41        760
    42        146
    43        182
    44          7
    45          6
    50         28
    51         91
    52         59
    53        352
    54         85
    55        284
    56         71
    57         17
    59          7
    62          7
    63         28
    64          9
    65         94
    66         93
    67        965
    68        601
    69        455
    70         65
    71         11
    75          5
    77        105
    78         27
    79        160
    80         97
    81        999
    82        408
    83         59
    84         17
    91         66
    92         15
    94         76
    95        307
    96         72
    97         34
   105         17
   106          5
   107         43
   108        204
   109        931
   110        134
   111         18
   119         30
   121         16
   125          6
   137        296
   138         31
   151         24
   152        615
   153         77
   154          6