##TITLE=Library Entry 58256
##JCAMP-DX=Revision 4.10 
##DATA TYPE=MASS SPECTRUM
##SAMPLE DESCRIPTION=Chemical Concepts
##NAMES=HP
##CAS NAME=2,5-Bis(2-thienyl)thiazolo[5,4-d]thiazole
##MOLFORM=C12H6N2S4
##CAS REGISTRY NO=29608-87-5
##MP= -300
##BP= -300
##MW= 306
##$RETENTION INDEX=0
##$CONDENSED SPECTRUM=NO
##NPOINTS= 65
##XYDATA=(XY..XY) 1 
    33         15
    34          3
    37          9
    38         52
    40         39
    41          3
    45        140
    47          7
    50         21
    51         10
    52          3
    55          2
    58         67
    60          3
    61          4
    64         33
    65          4
    69         65
    70         29
    71          5
    72          1
    73          2
    75          6
    76         12
    78         19
    79          2
    82         31
    83         12
    84          2
    88        999
    90        108
    93         13
    94          8
    95          7
    96          2
   100          3
   101          4
   102          5
   106          1
   107          2
   109         78
   111          8
   112          1
   114          1
   115          1
   119          1
   120          4
   121          2
   127         31
   128          4
   129          3
   139          2
   145          1
   149          6
   153         49
   154          9
   184          1
   195          2
   197          2
   199          1
   306        446
   307         76
   308         81
   309         12
   310          6