##TITLE=Library Entry 138
##JCAMP-DX=Revision 4.10 
##DATA TYPE=MASS SPECTRUM
##SAMPLE DESCRIPTION=NIST Mass Spectrometry Data Center, 1994
##NAMES=HP
##CAS NAME=(S)-(-)-2-Chloropropionic acid
##MOLFORM=C3H5ClO2
##CAS REGISTRY NO=29617-66-1
##MP= -300
##BP= -300
##MW= 108
##$RETENTION INDEX=0
##$CONDENSED SPECTRUM=NO
##NPOINTS= 47
##XYDATA=(XY..XY) 1 
    12         13
    13         15
    14         29
    15         32
    16         12
    17         22
    18          6
    24         11
    25         54
    26        382
    27        815
    28        999
    29        434
    30         10
    31         12
    32         59
    35         31
    36         36
    37         16
    38         14
    40         13
    41         10
    42         17
    43         43
    44         99
    45        403
    46         18
    47         15
    48         22
    49         22
    53         21
    55        111
    56         37
    60         13
    61         35
    62         72
    63        419
    64        497
    65        152
    66        152
    73         50
    76          8
    91         10
   108         21
   109          0
   110          7
   111          0