##TITLE=Library Entry 83026
##JCAMP-DX=Revision 4.10 
##DATA TYPE=MASS SPECTRUM
##SAMPLE DESCRIPTION=Exported from NIST MS Search
##NAMES=HP
##CAS NAME=Pyridine, 2-(1-butylpentyl)-
##MOLFORM=C14H23N
##CAS REGISTRY NO=2961-49-1
##MP= -300
##BP= -300
##MW= 205
##$RETENTION INDEX=1452
##$CONDENSED SPECTRUM=NO
##NPOINTS= 55
##XYDATA=(XY..XY) 1 
    26         15
    27        199
    28         60
    29        255
    38          5
    39         82
    40         12
    41        135
    42         14
    43         32
    50         11
    51         45
    52         42
    53         32
    54         10
    55         18
    56          5
    57          9
    63          8
    64          6
    65         44
    66         15
    67          6
    77         25
    78         86
    79         71
    80         23
    91         16
    92         43
    93        235
    94         24
   104         27
   105         15
   106        999
   107        144
   117         78
   118        107
   119         53
   120        125
   121         45
   130         20
   131          6
   132         50
   133          9
   134         13
   135          2
   148        211
   149        369
   150         40
   162        223
   163         29
   176         58
   204         11
   205         24
   206          4