##TITLE=Library Entry 1503
##JCAMP-DX=Revision 4.10 
##DATA TYPE=MASS SPECTRUM
##SAMPLE DESCRIPTION=Exported from NIST MS Search
##NAMES=HP
##CAS NAME=2-Butene-1,4-diol, diformate
##MOLFORM=C6H8O4
##CAS REGISTRY NO=29619-56-5
##MP= -300
##BP= -300
##MW= 144
##$RETENTION INDEX=0
##$CONDENSED SPECTRUM=NO
##NPOINTS= 78
##XYDATA=(XY..XY) 1 
    19         38
    20          1
    24          1
    25          3
    27        315
    28        130
    29        612
    30         33
    31        999
    32         19
    33          4
    34          1
    35          1
    36          1
    37          9
    38         19
    39        194
    40         62
    41        329
    42        598
    43        225
    44        477
    45         69
    46          7
    47        146
    48          2
    49          3
    50          6
    51          7
    52          3
    53         31
    54        758
    55        159
    56         28
    57        148
    58         11
    59         29
    60          8
    61          2
    62          2
    63          1
    65          1
    66          1
    67          2
    68          5
    69          6
    70         10
    71         78
    72        135
    73         13
    74          3
    75          2
    76          1
    77          6
    78          1
    81          2
    82          6
    83          2
    84          1
    85          1
    86          3
    87         65
    88         25
    89          3
    90         31
    91          2
    92          1
    98          2
    99          4
   100         11
   101          4
   102          1
   129          5
   130          1
   141          1
   142          3
   143          1
   144          1