##TITLE=Library Entry 88405
##JCAMP-DX=Revision 4.10 
##DATA TYPE=MASS SPECTRUM
##SAMPLE DESCRIPTION=A.A.Kutin, Moscow, Russia
##NAMES=HP
##CAS NAME=2-Cyano-N-(2-p-tolyloxy-ethyl)-acetamide
##MOLFORM=C12H14N2O2
##CAS REGISTRY NO=296275-20-2
##MP= -300
##BP= -300
##MW= 218
##$RETENTION INDEX=0
##$CONDENSED SPECTRUM=NO
##NPOINTS= 114
##XYDATA=(XY..XY) 1 
    34          1
    36          0
    37          0
    38          5
    39         41
    40         60
    41         32
    42         44
    43         26
    44        318
    45          9
    50         15
    51         39
    52         24
    53         25
    54          4
    55          6
    56          3
    57          2
    58          0
    60          1
    61          0
    62          6
    63         24
    64          9
    65         82
    66          7
    67         11
    68         61
    69          5
    70         20
    71          2
    72          0
    73          0
    74          2
    75          2
    77        112
    78         30
    79         48
    80         28
    81          4
    82          2
    83          1
    84          1
    85          4
    86          1
    87          0
    89         30
    90         37
    91        175
    92         15
    93         23
    94          4
    95          0
    96          0
    97          3
   102          0
   103          2
   104          1
   105         26
   106         12
   107        187
   108        558
   109         50
   111        999
   112         56
   113          3
   115          0
   116          0
   117          1
   118          1
   119         22
   120         11
   121         26
   122          2
   123          0
   124          0
   127          0
   131          0
   132          0
   133          9
   134         31
   135          8
   136          0
   137          1
   138          0
   139          2
   140          0
   141          0
   144          2
   146          0
   147          0
   148          2
   149          2
   150          0
   151          0
   152          0
   158          0
   171          0
   175          0
   176          0
   177          3
   178          2
   179          0
   180          0
   181          0
   182          4
   183          0
   184          1
   188          0
   216          0
   218         97
   219         12
   220          1