##TITLE=Library Entry 100760
##JCAMP-DX=Revision 4.10 
##DATA TYPE=MASS SPECTRUM
##SAMPLE DESCRIPTION=NIST Mass Spectrometry Data Center
##NAMES=HP
##CAS NAME=.alpha.-Cuprenene
##MOLFORM=C15H24
##CAS REGISTRY NO=29621-78-1
##MP= -300
##BP= -300
##MW= 204
##$RETENTION INDEX=1509
##$CONDENSED SPECTRUM=NO
##NPOINTS= 116
##XYDATA=(XY..XY) 1 
    27          8
    28          1
    29         15
    38          1
    39         39
    40          7
    41        114
    42         15
    43         21
    44          1
    50          3
    51         17
    52          7
    53         37
    54          5
    55        103
    56         23
    57          9
    58          2
    62          1
    63          9
    64          5
    65         44
    66          7
    70         14
    71          3
    72          1
    74          1
    75          2
    76          3
    77        121
    78         32
    79        105
    80         15
    81         34
    82         35
    83         20
    84          6
    85          1
    87          1
    89          8
    90          3
    91        335
    92        107
    93        267
    94         40
    95         19
    96          4
    97          6
   101          1
   102          8
   103         43
   104         20
   105        403
   106        111
   107        143
   108         49
   109         48
   110          6
   111          2
   112          1
   114          1
   115         69
   116         26
   117         88
   118         28
   119        999
   120        133
   121        277
   122         65
   123          6
   126          1
   127          7
   128         25
   129         24
   130         11
   131         43
   132         19
   133        271
   134        361
   135         75
   139          1
   141          6
   142          4
   143          5
   144          3
   145         21
   146          8
   147        151
   148        104
   149         17
   150          1
   152          1
   153          1
   155          1
   157          1
   158          1
   159          6
   160          5
   161        157
   162         29
   163          3
   173          2
   174          3
   175          5
   176          4
   187          1
   188          1
   189         66
   190         12
   191          1
   202          1
   203          2
   204        446
   205         74
   206          5