##TITLE=Library Entry 82721
##JCAMP-DX=Revision 4.10 
##DATA TYPE=MASS SPECTRUM
##SAMPLE DESCRIPTION=A.A.Kutin, Moscow, Russia
##NAMES=HP
##CAS NAME=Isoindole-1,3(1H,3H)-dione, 3a,4,7,7a-tetrahydro-2-(2,5-dimethylp
henyl-4,7-(2-methyl-1-propeno)-
##MOLFORM=C20H21NO2
##CAS REGISTRY NO=296245-74-4
##MP= -300
##BP= -300
##MW= 307
##$RETENTION INDEX=0
##$CONDENSED SPECTRUM=NO
##NPOINTS= 134
##XYDATA=(XY..XY) 1 
    33         39
    34         11
    36          4
    37          4
    39         99
    40        111
    41         44
    42         11
    44         57
    45          7
    46          1
    48          0
    50         21
    51         47
    52         22
    53         23
    54         23
    55         15
    56          7
    57          4
    58          3
    59          8
    60          4
    61          5
    62         10
    63         37
    64         23
    65         83
    66         22
    67          5
    68          0
    69          2
    70          1
    71          0
    73          0
    74          6
    75          8
    77        109
    78         46
    79         44
    80          9
    81          4
    82          6
    85          1
    86          9
    87          8
    88         20
    89         34
    91        519
    92         51
    93          9
    99          0
   101          1
   102         15
   103         37
   104         23
   106        999
   107         94
   108          4
   110          0
   113          1
   115         49
   116         28
   117         64
   118         28
   119         17
   120         12
   121          9
   122          2
   124          1
   125          1
   127          6
   128         10
   129         13
   130         26
   131         44
   132         99
   133         14
   134         14
   135          2
   136          2
   139          1
   141          2
   143          5
   144         24
   145         11
   146         11
   147          9
   148          4
   149          7
   150          4
   152          0
   153          0
   154          5
   155          5
   156          9
   157         11
   158         14
   159          5
   160          3
   165          0
   170          2
   171          6
   172         11
   173         14
   174          2
   178          3
   179          1
   180          2
   182         16
   183         24
   184          7
   185          0
   186          1
   199          1
   200         12
   201         30
   202         72
   203         10
   204          0
   206          0
   208          9
   209          2
   210          2
   222          1
   225         16
   227         17
   228          0
   285          1
   287          1
   292          3
   307         86
   308         15
   309          1