##TITLE=Library Entry 48434
##JCAMP-DX=Revision 4.10 
##DATA TYPE=MASS SPECTRUM
##SAMPLE DESCRIPTION=A.A.Kutin, Moscow, Russia
##NAMES=HP
##CAS NAME=Isoindole-1,3(1H,3H)-dione, 3a,4,7,7a-tetrahydro-4,7-ethano-2-(3-
acetoxy-6-methoxyphenyl)-
##MOLFORM=C19H19NO4
##CAS REGISTRY NO=296243-70-4
##MP= -300
##BP= -300
##MW= 325
##$RETENTION INDEX=0
##$CONDENSED SPECTRUM=NO
##NPOINTS= 209
##XYDATA=(XY..XY) 1 
    33          5
    34          1
    39        244
    41        117
    43        494
    45          6
    46          0
    48          0
    50         83
    51        183
    52        139
    53         98
    54         96
    55         51
    56          4
    57          1
    58          0
    59          3
    61          5
    63        105
    65        246
    66         37
    67         18
    68         11
    69         10
    70          7
    71          1
    72          1
    74         13
    77        795
    78        999
    79        647
    80        363
    82         76
    83          2
    84          1
    85          1
    86          1
    87          3
    89         49
    91        362
    92        117
    93         37
    94         11
    95          8
    96          1
    97          1
    98          2
    99          2
   100          1
   101          4
   103        105
   105        279
   106         60
   107         21
   108          2
   109          1
   111          0
   112          0
   113          2
   115         30
   116         60
   117         33
   118         35
   120        202
   121         36
   122          7
   123          2
   124          0
   125          0
   126          1
   127          3
   128          8
   129          5
   130         12
   131         29
   132         19
   133         60
   134         18
   135         11
   136          2
   139          1
   140          3
   141          6
   143         18
   144         17
   145         12
   146         40
   148        105
   149         19
   151          2
   152          1
   153          1
   154          3
   155          1
   156          4
   157          3
   159         38
   160         18
   161         22
   162         32
   163         17
   164          6
   165          5
   166          2
   167          2
   168          2
   169          2
   170          6
   171          9
   172         17
   174         72
   176        525
   177         43
   178          7
   179          1
   180          1
   182          2
   183          2
   184          2
   185          3
   186          8
   187         25
   188         11
   189          7
   191         71
   192         16
   193          2
   194          3
   196          1
   197          0
   198          2
   199          3
   200          8
   202         66
   204         32
   205          3
   206          0
   207          0
   208          0
   209          1
   210          1
   211          3
   212          4
   214         15
   215          6
   216         32
   217         10
   218          2
   219          1
   220          0
   221          0
   222          1
   223          0
   224          2
   226         10
   227         16
   228         18
   230        569
   231         58
   232         12
   233          0
   236          1
   238          3
   239          1
   240          0
   241          1
   242          0
   243          2
   244          5
   245         24
   246         29
   247          7
   248          1
   249          0
   250          4
   252          3
   253          1
   254         15
   255          6
   256          0
   264          1
   265          0
   266          2
   267          1
   268          3
   269          2
   278          1
   279          2
   280         12
   282         27
   283          4
   284          0
   290          1
   291          0
   292          1
   294         10
   296         66
   297         15
   298          1
   310        925
   311        152
   312         19
   313          1
   314          0
   325        608
   326        101
   327         14
   328          1