##TITLE=Library Entry 46246
##JCAMP-DX=Revision 4.10 
##DATA TYPE=MASS SPECTRUM
##SAMPLE DESCRIPTION=Chemical Concepts
##NAMES=HP
##CAS NAME=4-Bromophenyl 3-methoxystyryl ketone
##MOLFORM=C16H13BrO2
##CAS REGISTRY NO=296276-52-3
##MP= -300
##BP= -300
##MW= 316
##$RETENTION INDEX=0
##$CONDENSED SPECTRUM=NO
##NPOINTS= 110
##XYDATA=(XY..XY) 1 
    37         21
    38        124
    39        286
    40         45
    41         17
    43         15
    50        849
    51        371
    52         93
    53         86
    55         28
    61         29
    62        180
    63        529
    64        413
    65         95
    66         22
    69         37
    74        385
    75        833
    76        999
    77        782
    78        106
    79        194
    80         41
    81         35
    82        169
    86         40
    87         62
    88         90
    89        707
    90        619
    91         87
    92        440
    93         30
    97         23
    98         29
    99         15
   100         11
   101        106
   102        392
   103        243
   104        356
   107         39
   108         77
   111         13
   113         21
   114         20
   115         44
   116         20
   117         46
   118        567
   119         59
   126         23
   127         14
   128         16
   129         27
   130         12
   131         46
   132         64
   133        316
   134         54
   137         14
   139         68
   150         20
   151         32
   152         37
   155        728
   156         67
   157        633
   158         62
   159         28
   160         18
   161        583
   162         57
   163         49
   165        493
   166        163
   167         25
   176         42
   177         72
   178        178
   179         35
   180         12
   183        459
   184         38
   185        351
   186         27
   193         37
   194        168
   195         39
   205         29
   206         25
   208        120
   209         44
   222         12
   236         17
   237        371
   238         65
   285        271
   286         48
   287        254
   288         44
   301         27
   303         32
   315        138
   316        180
   317        177
   318        207
   319         31