##TITLE=Library Entry 14293
##JCAMP-DX=Revision 4.10 
##DATA TYPE=MASS SPECTRUM
##SAMPLE DESCRIPTION=A.A.Kutin, Moscow, Russia
##NAMES=HP
##CAS NAME=Pyrazolo[4,3-c]pyrane, 2,3,3a,4,6,7-hexahydro-2-acetyl-6,6-dimeth
yl-3-phenyl-
##MOLFORM=C16H20N2O2
##CAS REGISTRY NO=296247-05-7
##MP= -300
##BP= -300
##MW= 272
##$RETENTION INDEX=0
##$CONDENSED SPECTRUM=NO
##NPOINTS= 155
##XYDATA=(XY..XY) 1 
    33          5
    34          0
    37          0
    39         79
    40         19
    41        105
    43        999
    45          4
    50          7
    51         53
    52         12
    53         38
    54         64
    55         54
    56         22
    57          9
    58          3
    59         27
    60          1
    62          4
    63         21
    65         54
    66         10
    67         11
    68         17
    69         60
    70          7
    72          8
    73          3
    74          2
    75          4
    76          7
    77        105
    78         33
    79         15
    80          9
    81         61
    82         18
    83          4
    84          1
    85          1
    86          0
    87          2
    89         25
    91        251
    93         16
    94         23
    95         90
    96         11
    97          4
    98          4
    99          5
   101          7
   102         23
   103         36
   104        149
   105         23
   106         16
   107          4
   108          3
   109          7
   110         20
   111         21
   112          4
   113          3
   115        141
   116         37
   117         68
   118         22
   119         18
   120          3
   121          3
   123        177
   124         14
   126          8
   127         51
   128        188
   129         75
   130         55
   131         25
   132         11
   133          2
   134          0
   136          0
   137          5
   139         51
   140         30
   141         43
   142        101
   143         75
   144        105
   145         35
   146          9
   147          1
   148          7
   149          1
   151          3
   152          7
   153         37
   154         10
   155         20
   156         17
   157         89
   158         60
   159          8
   160          2
   161          8
   162          0
   165        221
   166         16
   167          5
   168          7
   169          9
   171        334
   172        368
   173         50
   174          4
   181         28
   182          8
   183          6
   185         55
   186         53
   187         36
   188          4
   189          0
   190          7
   191          0
   194          0
   195         46
   196          5
   197          3
   199         77
   200         54
   201          7
   202          0
   211          0
   213         10
   214         14
   215         12
   216          1
   227          6
   229         43
   230         42
   231          5
   232          0
   241          9
   242         79
   243         15
   244          1
   257          1
   258          0
   272        385
   273         66
   274          6
   275          0