##TITLE=Library Entry 18195
##JCAMP-DX=Revision 4.10 
##DATA TYPE=MASS SPECTRUM
##SAMPLE DESCRIPTION=Chemical Concepts
##NAMES=HP
##CAS NAME=3,4-Bis(difluoromethylsulfonyl)toluene
##MOLFORM=C9H8F4O4S2
##CAS REGISTRY NO=296275-66-6
##MP= -300
##BP= -300
##MW= 320
##$RETENTION INDEX=0
##$CONDENSED SPECTRUM=NO
##NPOINTS= 109
##XYDATA=(XY..XY) 1 
    33         15
    34          3
    37         49
    39        246
    40         56
    41          9
    43         37
    45         78
    47          6
    48         43
    51        999
    54          7
    55          5
    56          9
    57         10
    58          9
    59          9
    61         16
    62         87
    63        425
    64        131
    65        109
    66         50
    67          9
    69         78
    70         15
    71         18
    73          6
    74         29
    75         30
    77         90
    78        131
    79         14
    81         10
    82         17
    83         14
    84         26
    86         36
    87         28
    89        579
    90        433
    91         47
    93         27
    94         14
    95         24
    96         15
    97         14
    98          5
    99          6
   101         24
   102          3
   104          7
   105         14
   106         51
   107         30
   109        215
   110         43
   111         11
   112          4
   113          3
   115          2
   117          3
   119          4
   121         37
   122         14
   123          6
   125          9
   127         17
   128          5
   137        277
   138         82
   139         22
   140          8
   141          9
   151          3
   152          5
   154        118
   155         43
   156         13
   157         11
   171          2
   173          5
   184          4
   185          5
   186          4
   189          4
   201          4
   202          6
   203         12
   205        385
   206         34
   207         17
   219          3
   237          7
   251          5
   253         43
   254          5
   255          4
   265          3
   267         14
   269        427
   270         41
   271         38
   272          4
   304          3
   305          2
   320         49
   321          6
   322          4