##TITLE=Library Entry 86463
##JCAMP-DX=Revision 4.10 
##DATA TYPE=MASS SPECTRUM
##SAMPLE DESCRIPTION=A.A.Kutin, Moscow, Russia
##NAMES=HP
##CAS NAME=Phenol, 4-(5-bromo-2,4-dimethoxybenzylidenamino)-
##MOLFORM=C15H14BrNO3
##CAS REGISTRY NO=296243-04-4
##MP= -300
##BP= -300
##MW= 335
##$RETENTION INDEX=0
##$CONDENSED SPECTRUM=NO
##NPOINTS= 230
##XYDATA=(XY..XY) 1 
    33          2
    36          4
    37         13
    38         41
    39        214
    40         25
    41         16
    42         10
    43         25
    44         14
    45          8
    50         75
    51         72
    52         52
    53         69
    54         10
    55         16
    56          4
    57         10
    59         11
    60          8
    61         19
    62         57
    63        126
    64         76
    65        300
    66         35
    67          6
    69         42
    70          8
    71         11
    72          3
    73          6
    74         28
    75         43
    76         45
    77         80
    78         67
    79         38
    80         38
    81         20
    82         14
    83          7
    84          8
    85         13
    86          6
    87          8
    88         16
    89         30
    90         35
    91         52
    92         32
    93        118
    94         18
    95          4
    96          1
    97          3
    98          6
    99          8
   100          7
   101          8
   102         13
   103         10
   104         15
   105         28
   106         13
   107         25
   109        999
   110         63
   111          5
   112          4
   113          9
   114         11
   115         18
   116          8
   117         12
   118         25
   119         34
   120         89
   121         22
   122          9
   123          2
   124          1
   125          4
   126         10
   127         18
   128         28
   129         13
   130          8
   131         12
   132         17
   133         91
   134         13
   135          3
   136          2
   137          2
   138          2
   139          8
   140         13
   141         22
   142         10
   143         17
   144         12
   145         10
   148        974
   149         95
   150          9
   151          3
   152          9
   153         12
   154         20
   155         16
   156         11
   157         16
   158          8
   159         13
   160         37
   161         36
   163          3
   164          2
   165          2
   166          5
   167         15
   168         28
   169         32
   170         27
   171         11
   172          7
   173         10
   174          2
   175          8
   176          1
   180          4
   181          8
   182         17
   183         16
   184         16
   185         11
   186          9
   187          7
   188          2
   193          1
   194          3
   195          4
   196          7
   197         10
   198         29
   199         25
   200         18
   201         20
   202          4
   208          2
   209          4
   210         14
   211         16
   212         15
   213         11
   214          4
   215          3
   216          1
   217          1
   221          1
   222          2
   223          3
   224         11
   225         31
   226         52
   227        244
   228         56
   229        226
   230         22
   231          2
   232          1
   234          1
   236          1
   238          1
   239          1
   240          8
   241          4
   242          2
   243          2
   244          1
   245          1
   248          2
   249          1
   250          3
   251          3
   253          5
   254          2
   255          3
   256          1
   257          1
   260          2
   261          1
   262          2
   263          2
   274          1
   276         10
   277          3
   278          8
   279          2
   289          2
   290          2
   291          3
   292          2
   293          1
   294          5
   295          1
   296          8
   297          1
   298          4
   302          1
   303          1
   304          9
   305          4
   306          8
   307          3
   318          1
   319          4
   320          2
   321          4
   322          2
   330          1
   331          2
   333         25
   335         60
   336         23
   337         58
   338          8
   339          1