##TITLE=Library Entry 15312
##JCAMP-DX=Revision 4.10 
##DATA TYPE=MASS SPECTRUM
##SAMPLE DESCRIPTION=A.A.Kutin, Moscow, Russia
##NAMES=HP
##CAS NAME=Benzofuran-5-ol, 3-(2-furanoyl)-4-dimethylaminomethyl-
##MOLFORM=C16H15NO4
##CAS REGISTRY NO=296245-40-4
##MP= -300
##BP= -300
##MW= 285
##$RETENTION INDEX=0
##$CONDENSED SPECTRUM=NO
##NPOINTS= 71
##XYDATA=(XY..XY) 1 
    33         12
    38        119
    39        299
    40         22
    42        272
    43        355
    44        999
    45        144
    50         22
    51         62
    53         29
    54         18
    55         50
    57         13
    58        174
    62         59
    63        132
    64         46
    65         28
    66         34
    67         18
    68          6
    74         18
    75         46
    76         55
    77         62
    78         14
    87         59
    88         10
    89        135
    90         28
    91         46
    93          4
    94          8
    95        243
    98          7
   101         13
   102         84
   103          8
   105          6
   109          7
   115          9
   116          8
   117         20
   118         11
   126         54
   127        124
   128        105
   129         71
   139         30
   143          6
   145         36
   146         18
   155         43
   156          8
   170          4
   174          4
   184         39
   185         30
   202         33
   211         91
   212         58
   213         20
   214          8
   232          8
   241         29
   242         13
   270        139
   271          4
   284          8
   285         68