##TITLE=Library Entry 5401
##JCAMP-DX=Revision 4.10 
##DATA TYPE=MASS SPECTRUM
##SAMPLE DESCRIPTION=A.A.Kutin, Moscow, Russia
##NAMES=HP
##CAS NAME=1,3,5,7,9-Pentaazatricyclo[5.3.1.0(4.11)]undecane-2,6-dione, 9-(2
-hydroxyethyl)-3,5-dimethyl-
##MOLFORM=C10H17N5O3
##CAS REGISTRY NO=296244-82-1
##MP= -300
##BP= -300
##MW= 255
##$RETENTION INDEX=0
##$CONDENSED SPECTRUM=NO
##NPOINTS= 139
##XYDATA=(XY..XY) 1 
    33          0
    35          2
    36         12
    37          0
    38          5
    40         22
    42        999
    43         75
    44         83
    45         36
    46          2
    51          0
    52          2
    53          3
    54         16
    55         32
    56        223
    57         24
    58         49
    59          3
    60          2
    61          0
    63          0
    64          0
    66          0
    67          3
    68          9
    69         60
    70         27
    71         25
    72         49
    73         10
    74         76
    75          3
    77          1
    78          0
    81         12
    83        151
    84         39
    85         40
    86         25
    87          7
    88          0
    91          4
    92          1
    95          3
    96         11
    97         83
    98        182
    99         69
   100          5
   101         15
   102          0
   103          1
   104          0
   105          1
   109          1
   110         15
   111         39
   112         62
   113         32
   114          5
   115          3
   117          1
   119          0
   120          0
   124         27
   125         14
   126        156
   127         40
   128         20
   129          7
   130          1
   135          0
   136          0
   138        294
   139         38
   140         53
   141         17
   142        186
   143         15
   144          1
   148          0
   149          0
   151          1
   152         12
   153          7
   154         29
   155          9
   156          2
   157          5
   158          1
   159          0
   161          0
   165          1
   166          3
   167        104
   168         10
   169          2
   170         19
   171          3
   172          0
   173          0
   174          6
   175          1
   179          0
   180          2
   181          8
   182         21
   183         58
   184          9
   185          0
   194         17
   195        195
   196         19
   197         23
   198          3
   199          4
   200         22
   201          2
   210          1
   211          1
   212          4
   213          1
   214          0
   221          0
   222          2
   224        992
   225        173
   226         16
   227          1
   228          0
   237         94
   238         11
   239          1
   241          0
   254          5
   255          8
   256          1