##TITLE=Library Entry 53867
##JCAMP-DX=Revision 4.10 
##DATA TYPE=MASS SPECTRUM
##SAMPLE DESCRIPTION=Div. of Experiment Therapeutics WRAIR, WRAMC, Washingto
n DC 20307
##NAMES=HP
##CAS NAME=s-Triazine, 2-((3-(dimethylamino)propyl)amino)-4-(trichloromethyl
)-6-(.alpha.,.alpha.,.alpha.-trichloro-m-tolyl)-
##MOLFORM=C16H17Cl6N5
##CAS REGISTRY NO=29622-48-8
##MP= -300
##BP= -300
##MW= 489
##$RETENTION INDEX=0
##$CONDENSED SPECTRUM=NO
##NPOINTS= 120
##XYDATA=(XY..XY) 1 
    41         23
    42         96
    43         32
    44         54
    45         12
    46          4
    51          0
    53          2
    54          3
    55         37
    56         18
    58        860
    59         21
    62          3
    63          3
    65          0
    67          0
    68         10
    69         15
    70         26
    71         17
    72         42
    73          2
    74          1
    75          2
    76          1
    80          1
    81          3
    82         11
    84        999
    85         46
    86          1
    87          3
    88          3
    89          0
    95          0
    97          1
    98          1
    99          3
   100          0
   102          1
   108          6
   109          4
   110          4
   111          2
   114         10
   115          2
   116          2
   117          3
   119          3
   121          0
   122          0
   123         10
   124          3
   125          4
   134          3
   136          3
   141          1
   142          0
   148          5
   149          3
   150          3
   151          2
   152          1
   157          2
   158          4
   160          4
   161          1
   162          0
   175          0
   176          3
   178          1
   184         14
   185          9
   186         10
   187          7
   188          1
   189          2
   210          1
   212          0
   220          1
   222          1
   251          0
   253          1
   314          0
   327          0
   336          1
   346          5
   347          2
   348          3
   349          3
   350          1
   351          2
   361          2
   363          3
   377          0
   380          0
   382         10
   384         10
   385          2
   386          5
   388          0
   412          1
   413          0
   414          0
   417          0
   419          0
   453          6
   454          3
   455         10
   456          6
   457          6
   458          6
   459          2
   460          2
   461          0
   488          0
   489          0
   491          1
   493          0