##TITLE=Library Entry 53482
##JCAMP-DX=Revision 4.10 
##DATA TYPE=MASS SPECTRUM
##SAMPLE DESCRIPTION=A.A.Kutin, Moscow, Russia
##NAMES=HP
##CAS NAME=Benzofuran-5-ol, 4-(1-piperidylmethyl)-3-(2-thienoyl)-
##MOLFORM=C19H19NO3S
##CAS REGISTRY NO=296243-17-9
##MP= -300
##BP= -300
##MW= 341
##$RETENTION INDEX=0
##$CONDENSED SPECTRUM=NO
##NPOINTS= 195
##XYDATA=(XY..XY) 1 
    33         15
    34          3
    36          0
    37          1
    39        122
    40         43
    41        123
    42         90
    43         52
    44         70
    45         25
    46          0
    47          1
    50          9
    51         14
    53         23
    54         23
    55         64
    56        102
    57         61
    58          8
    59          1
    61          1
    62          9
    63         27
    64          8
    65         10
    66          3
    67         10
    68          8
    69         18
    70         28
    71          6
    72          2
    73          1
    74          4
    75          7
    76          6
    77         12
    78          4
    79          4
    80          3
    81          4
    82         25
    84        999
    85         92
    86         17
    87          9
    88          6
    89         33
    90         10
    91         10
    92          4
    93          2
    94          1
    95          1
    96          4
    97         12
    98         18
    99          5
   101         23
   102          8
   103          4
   104          4
   105          4
   106          2
   107          2
   108          1
   109          1
   111         76
   112          9
   113          7
   114          4
   115         10
   116          3
   117          5
   118          9
   119          4
   120          6
   121          2
   123          0
   124          0
   125          0
   126          3
   127          8
   128         17
   129         17
   130          2
   131          2
   132          3
   133          2
   134          1
   137          0
   139         14
   140          4
   141          2
   142          1
   143          1
   144          2
   145          9
   146         11
   147          6
   148          0
   151          0
   152          1
   154          0
   155          3
   156          0
   157          1
   158          2
   159          2
   160          2
   161          3
   162          0
   167          1
   168          4
   169          3
   171         32
   172          9
   173          8
   174          7
   175          4
   176          0
   181          0
   182          1
   183          4
   184          4
   185          3
   186         11
   187          5
   188         11
   189          1
   190          0
   195          2
   196          2
   197          1
   198          1
   199          3
   200          7
   201          5
   202          2
   203          0
   211          9
   212          3
   213          1
   214          3
   215          0
   216          0
   223          4
   224          6
   225          6
   226          4
   227         14
   228          7
   229          4
   230          1
   238          1
   239          3
   240          5
   241          2
   242          3
   243          1
   244          0
   245          0
   252          0
   253          2
   255         21
   256        116
   257         32
   258         22
   259          3
   260          0
   270          2
   271          0
   272          1
   281          0
   282          0
   284          0
   285          0
   294          0
   295          0
   296          0
   298         14
   299          2
   300          0
   311          0
   312          3
   313          0
   324          0
   326          0
   338          0
   339          1
   341         42
   342          7
   343          2