##TITLE=Library Entry 84555
##JCAMP-DX=Revision 4.10 
##DATA TYPE=MASS SPECTRUM
##SAMPLE DESCRIPTION=A.A.Kutin, Moscow, Russia
##NAMES=HP
##CAS NAME=Cyclohex-3-ene-1-carboxylic acid, 6-(2-methylphenylaminocarbonyl)
-
##MOLFORM=C15H17NO3
##CAS REGISTRY NO=296246-13-4
##MP= -300
##BP= -300
##MW= 259
##$RETENTION INDEX=0
##$CONDENSED SPECTRUM=NO
##NPOINTS= 132
##XYDATA=(XY..XY) 1 
    37          2
    39        127
    41         79
    42         10
    43         16
    45        154
    47         13
    50         35
    51         85
    52         70
    53         92
    54         30
    55         32
    56          0
    57          7
    60          1
    61          0
    63         30
    64         15
    65         76
    66         23
    67         27
    68          7
    69          9
    70          3
    71          4
    73          3
    74          2
    75          5
    77        403
    78        141
    79        473
    80        100
    81         59
    83         10
    84          0
    86          2
    87          1
    89         27
    91        125
    92         12
    93         12
    94          2
    95          3
    97         55
    98          4
    99          4
   102          2
   104         72
   106        500
   107        999
   108        165
   109         16
   110          1
   115          2
   116          3
   117          8
   118         16
   119          4
   120          6
   121          1
   123         13
   124         23
   125         18
   126          4
   127          0
   128          3
   130         13
   132         26
   133         29
   134         73
   135         31
   136          3
   138          0
   140          1
   141          2
   142          3
   143          5
   144          8
   146         10
   147          6
   148          3
   149          1
   153         41
   154          5
   155          0
   156          2
   157          0
   158          2
   159          2
   160          5
   165          0
   167          2
   168          3
   169          4
   170          5
   171          1
   172          3
   173          2
   174          2
   175          0
   179          5
   180          1
   182          0
   183          0
   184          9
   185          1
   186         16
   187          2
   194          0
   196          1
   198          7
   200          2
   201          0
   212         51
   213         38
   214         30
   215         27
   216          3
   217          0
   224          1
   226          3
   239          0
   241        101
   242         22
   243          3
   244          2
   257          0
   259        799
   260        136
   261         17
   262          1