##TITLE=Library Entry 6411
##JCAMP-DX=Revision 4.10 
##DATA TYPE=MASS SPECTRUM
##SAMPLE DESCRIPTION=A.A.Kutin, Moscow, Russia
##NAMES=HP
##CAS NAME=Acetamide, 2-(3-oxo-4-propyl-2-morpholyl)-N-(4-bromophenyl)-
##MOLFORM=C15H19BrN2O3
##CAS REGISTRY NO=296246-41-8
##MP= -300
##BP= -300
##MW= 354
##$RETENTION INDEX=0
##$CONDENSED SPECTRUM=NO
##NPOINTS= 154
##XYDATA=(XY..XY) 1 
    33          8
    38         80
    39        215
    41        940
    42        543
    43        999
    44        173
    45        243
    50         60
    51         29
    52         42
    54        315
    55        436
    56        579
    57         71
    58         37
    59         10
    61         13
    63        220
    64        116
    65         91
    66         14
    69        721
    70        299
    72        250
    74         47
    75         51
    76         65
    77         21
    78         14
    79         10
    80         19
    82        108
    83         65
    84        115
    85         90
    86         48
    87         15
    88         10
    90        102
    91        191
    92         63
    93         21
    94         11
    96         54
    98        341
   100        326
   102         50
   104         29
   105         34
   106          4
   107          1
   108          3
   111        250
   113        412
   114        121
   115         16
   117         27
   119         27
   120          3
   121          0
   122          4
   123          2
   124          4
   126        107
   127         70
   128        180
   129         19
   130          4
   131          2
   132          4
   133         42
   135         18
   138         11
   140        157
   142        402
   143         46
   145         40
   146          6
   147          2
   148          3
   149          4
   155        750
   156        123
   157         27
   158          2
   159          0
   160          1
   162         14
   164         11
   169         11
   170         52
   171        171
   172         56
   173        189
   174         12
   175          0
   183        407
   184         49
   185          7
   186          9
   187          1
   195          0
   196          1
   197          9
   198          6
   199          7
   200          5
   203          0
   210          0
   211          1
   212          1
   213          9
   214          2
   215          9
   224          3
   225          3
   226          5
   227          3
   228          1
   239          6
   240          1
   241          5
   244          2
   245          2
   252          6
   253          6
   254          5
   255          5
   256          0
   276          0
   281          5
   282          0
   283          4
   295          1
   297          1
   309          0
   311          1
   320          0
   321          3
   323         80
   324         15
   325         75
   326         12
   327          7
   328          0
   336          1
   338          1
   352          1
   354         44
   355         10
   356         43
   357          8
   358          0