##TITLE=Library Entry 86607
##JCAMP-DX=Revision 4.10 
##DATA TYPE=MASS SPECTRUM
##SAMPLE DESCRIPTION=A.A.Kutin, Moscow, Russia
##NAMES=HP
##CAS NAME=Cyclohex-3-ene-1-carboxylic acid, 6-(4-pentyloxyphenylaminocarbon
yl)-
##MOLFORM=C19H25NO4
##CAS REGISTRY NO=296246-12-3
##MP= -300
##BP= -300
##MW= 331
##$RETENTION INDEX=0
##$CONDENSED SPECTRUM=NO
##NPOINTS= 180
##XYDATA=(XY..XY) 1 
    37          4
    39        105
    41         91
    42         18
    43         58
    44         10
    45         12
    50         28
    51         35
    52         41
    53         54
    54         19
    55         19
    56          1
    57          1
    62          5
    63         17
    64         10
    65         37
    66          8
    67          6
    68          1
    69          4
    71         11
    73          0
    74          3
    75          2
    77         95
    79        358
    80        226
    81         44
    82          5
    83          0
    84          0
    89          1
    90          5
    91         48
    92         19
    93          7
    94         11
    95          2
    96          2
    97         10
    99          0
   100          0
   103          0
   105         10
   106         13
   108        271
   109        999
   110         65
   111          6
   113          0
   115          0
   117          2
   119          7
   120         17
   121         15
   122         20
   124        156
   125         11
   127          0
   128          0
   129          0
   131          1
   132          2
   133          3
   134         10
   135         39
   136          8
   137         11
   138          2
   140         24
   141          9
   142          7
   143          2
   144          1
   145          1
   146          3
   147          0
   148          2
   149          3
   150          3
   151          0
   152          0
   153         16
   154          1
   155          0
   157          0
   161          3
   162          3
   163          8
   164          3
   165          1
   166          0
   167          2
   168          1
   169          0
   170          2
   171          4
   172          1
   173          0
   174          2
   176          4
   179        815
   180        107
   181          6
   182          1
   185          0
   186          2
   187          0
   188          3
   189          2
   190          2
   191          1
   194          0
   197          2
   198          0
   200          1
   202          0
   205          8
   207          6
   208          0
   210          0
   211          4
   212          2
   214         15
   215          7
   216          3
   218          0
   220          0
   226          0
   227          0
   228          1
   230          0
   239         15
   240          1
   241          6
   243        131
   244         21
   245          2
   246          0
   247          1
   253         77
   254         12
   255          0
   256          3
   258          1
   260          1
   261          4
   262          0
   268          0
   271          0
   274          1
   275          6
   276          0
   283          0
   284          7
   285         10
   286          7
   287         27
   288          3
   289          0
   291          2
   293          5
   294          0
   295          1
   310          1
   311          2
   312          5
   313        203
   314         46
   315          5
   316          0
   321          0
   329          1
   331        567
   332        121
   333         21
   334          1