##TITLE=Library Entry 73668
##JCAMP-DX=Revision 4.10 
##DATA TYPE=MASS SPECTRUM
##SAMPLE DESCRIPTION=A.A.Kutin, Moscow, Russia
##NAMES=HP
##CAS NAME=4H-1,3,5-Oxadiazine-4-carboxylic acid, 2-chloromethyl-6-diethylam
ino-4-trifluoromethyl-, ethyl ester
##MOLFORM=C12H17ClF3N3O3
##CAS REGISTRY NO=296246-24-7
##MP= -300
##BP= -300
##MW= 343
##$RETENTION INDEX=0
##$CONDENSED SPECTRUM=NO
##NPOINTS= 74
##XYDATA=(XY..XY) 1 
    33         83
    34          4
    36          8
    39          1
    40        118
    41         18
    42         89
    43         91
    44        155
    45          8
    49         46
    51         16
    54         10
    55         34
    56         80
    57         22
    58         72
    68         19
    69         21
    70         27
    71         57
    72        317
    75          3
    76         14
    77         64
    78          2
    79         19
    83         13
    84          6
    86          1
    88          1
    91          2
    94          3
    96         23
    97          6
    99        208
   100        999
   101         44
   102          4
   108          1
   112          1
   113         20
   114          3
   115          5
   121          1
   139          5
   142          7
   163          8
   164          5
   167          1
   168          6
   170         13
   171          1
   173          7
   189         40
   190          2
   191         11
   213          1
   220          1
   228          5
   235          1
   236          1
   242         11
   244          2
   253          1
   265          2
   267          7
   268          5
   270        390
   271         45
   272        120
   273         13
   284          1
   343          1