##TITLE=Library Entry 34665
##JCAMP-DX=Revision 4.10 
##DATA TYPE=MASS SPECTRUM
##SAMPLE DESCRIPTION=A.A.Kutin, Moscow, Russia
##NAMES=HP
##CAS NAME=1H-1,2,4-Triazole-3-carboxamide, N-(4H-1,2,4-triazol-4-yl-)-
##MOLFORM=C5H5N7O
##CAS REGISTRY NO=296246-33-8
##MP= -300
##BP= -300
##MW= 179
##$RETENTION INDEX=0
##$CONDENSED SPECTRUM=NO
##NPOINTS= 34
##XYDATA=(XY..XY) 1 
    33        178
    34         16
    35         83
    36        448
    38        265
    39        194
    40        660
    41        492
    42        798
    43        137
    44        300
    45         39
    53         29
    54         37
    55         24
    56         11
    57         64
    67         21
    69        999
    70         37
    81          8
    82          7
    84        492
    85         24
    91         27
    95        135
    96        449
    97         94
   103         11
   108         34
   109          6
   111          8
   179        235
   180          4