##TITLE=Library Entry 12278
##JCAMP-DX=Revision 4.10 
##DATA TYPE=MASS SPECTRUM
##SAMPLE DESCRIPTION=Japan AIST/NIMC Database- Spectrum MS-IW-2768
##NAMES=HP
##CAS NAME=Widdrol hydroxyether
##MOLFORM=C15H26O2
##CAS REGISTRY NO=29620-91-5
##MP= -300
##BP= -300
##MW= 238
##$RETENTION INDEX=0
##$CONDENSED SPECTRUM=NO
##NPOINTS= 176
##XYDATA=(XY..XY) 1 
    15          6
    17          8
    18         29
    26          2
    27         68
    28         13
    29        114
    30          3
    31         14
    38          1
    39         79
    40         18
    41        436
    42         37
    43        999
    44         29
    45         25
    50          2
    51         11
    52          7
    53         98
    54         19
    55        420
    56         73
    57        178
    58         50
    59         67
    60          3
    61          2
    63          4
    64          2
    65         33
    66         14
    67        190
    68         95
    69        595
    70        112
    71        391
    72        103
    73         28
    74          2
    75          2
    76          3
    77         72
    78         13
    79        149
    80         52
    81        472
    82        230
    83        259
    84        135
    85        109
    86         36
    87         33
    88          6
    89         21
    90          6
    91         89
    92         24
    93        267
    94        123
    95        382
    96         99
    97        174
    98         96
    99         94
   100         24
   101         30
   102         10
   103          6
   104          3
   105         70
   106         29
   107        280
   108        108
   109        362
   110         90
   111        122
   112         36
   113         28
   114          7
   115         10
   116          2
   117          9
   118          6
   119         58
   120         22
   121        266
   122         82
   123        496
   124         84
   125        239
   126         99
   127         20
   128         12
   129          6
   130          2
   131         13
   132          6
   133         35
   134         20
   135        262
   136         65
   137        128
   138         66
   139         63
   140        668
   141         92
   142         27
   143          5
   144          2
   145         14
   146          6
   147         35
   148         12
   149        118
   150        126
   151         68
   152         37
   153         86
   154         32
   155         54
   156         28
   157          5
   158          2
   159         11
   160          3
   161         63
   162         13
   163         66
   164         34
   165         21
   166         19
   167        312
   168        136
   169         37
   170         54
   171          7
   172          1
   173          2
   174          1
   175         11
   176          8
   177         67
   178         15
   179         50
   180          9
   181         49
   182         25
   183          5
   187         20
   188          4
   189          2
   191          9
   192         12
   193          9
   194         33
   195         54
   196          9
   197          1
   202          3
   203          1
   205         68
   206          9
   207          2
   209         10
   210          5
   220         25
   221          9
   222          2
   223        121
   224         19
   225          2
   238        194
   239         31
   240          3