##TITLE=Library Entry 44893
##JCAMP-DX=Revision 4.10 
##DATA TYPE=MASS SPECTRUM
##SAMPLE DESCRIPTION=A.A.Kutin, Moscow, Russia
##NAMES=HP
##CAS NAME=Guanidine, 1-[5-nitro-2-(1-piperidyl)benzylideno]amino--
##MOLFORM=C13H18N6O2
##CAS REGISTRY NO=296244-86-5
##MP= -300
##BP= -300
##MW= 290
##$RETENTION INDEX=0
##$CONDENSED SPECTRUM=NO
##NPOINTS= 174
##XYDATA=(XY..XY) 1 
    33          1
    34          0
    36          1
    38          1
    39         28
    40         16
    41         54
    42         25
    43        153
    44         87
    45          6
    46          0
    50          9
    51         12
    52         10
    53          9
    54          8
    55         22
    56         11
    57         10
    58         17
    59         14
    60         19
    61          0
    62         11
    63         32
    64          9
    65         13
    66          4
    67         12
    68          2
    69          5
    70          8
    71          1
    74        999
    76         37
    77         26
    78         12
    79          5
    80          7
    82          8
    83          5
    84         15
    85         15
    86          4
    87          5
    89         63
    90         33
    91         16
    92          8
    93          2
    94          0
    95          0
    98          1
    99          1
   100          1
   102         19
   103         39
   104         25
   105         13
   106          2
   107          2
   108          0
   113          1
   114          4
   115         22
   116         45
   117         52
   118         23
   119          6
   120          2
   121          0
   122          2
   127          3
   128         15
   129         45
   130         84
   131         27
   132         18
   133          5
   134          1
   135          0
   139          0
   140          1
   141          9
   142         23
   143         80
   144         25
   145         16
   146          8
   147          7
   148          4
   149          4
   151          4
   152          1
   153          0
   154         14
   155         10
   156         26
   157         17
   158         14
   159         11
   160          5
   161          1
   162          9
   163          7
   164         11
   165          0
   167          8
   168         68
   169         51
   170        123
   171        247
   172         54
   173         20
   174          5
   175         64
   176         32
   177         10
   178          1
   182          1
   183          5
   184         21
   185         17
   186         18
   187          9
   188          8
   189         24
   190          9
   191          4
   192          1
   198          9
   199          3
   200         42
   201        145
   202         73
   203         31
   204          7
   205          4
   206          3
   207          0
   211          0
   213         10
   214          9
   215         16
   216         26
   217        246
   218         63
   219         15
   220          2
   227          0
   230         77
   231         49
   232         24
   233         15
   234         10
   235          1
   241          1
   243          1
   255          0
   256          0
   257          0
   258          0
   260          0
   261          0
   272          0
   273          0
   286          0
   287          0
   288          0
   289          1
   290         34
   291          6
   292          5