##TITLE=Library Entry 47768
##JCAMP-DX=Revision 4.10 
##DATA TYPE=MASS SPECTRUM
##SAMPLE DESCRIPTION=A.A.Kutin, Moscow, Russia
##NAMES=HP
##CAS NAME=Acetonitrile, 2-[4-(2,4-dimethylphenyl)-2-thiazolyl)-2-phenylhydr
azono-
##MOLFORM=C19H16N4S
##CAS REGISTRY NO=296244-95-6
##MP= -300
##BP= -300
##MW= 332
##$RETENTION INDEX=0
##$CONDENSED SPECTRUM=NO
##NPOINTS= 228
##XYDATA=(XY..XY) 1 
    33          0
    34          0
    36          0
    37          2
    38         16
    39        119
    41         26
    42          1
    43          1
    45         91
    47          7
    50         26
    51        179
    52         24
    53         19
    54          1
    55          0
    57          1
    58          2
    59          4
    60          1
    61          1
    62          9
    63         44
    64         37
    65        140
    66         14
    69         16
    70         27
    71          7
    72          2
    74          8
    75         14
    77        999
    78         69
    79         17
    80          1
    81          1
    82          3
    83          2
    84          7
    85          1
    86          2
    87          3
    88          5
    89         21
    90         10
    91         75
    92         41
    93        196
    94         15
    95          3
    96          2
    97         10
    98          3
    99          1
   100          1
   101          9
   102         25
   103         30
   104         13
   105        116
   106          9
   107          8
   108          2
   109          2
   110          1
   113          6
   115        164
   116         47
   117         31
   118         12
   119          7
   121         10
   122          2
   123          1
   124          1
   126         10
   127         61
   128        147
   129        181
   130        119
   131         22
   132         11
   133         19
   134         10
   135          4
   136          1
   137          0
   138          1
   139          4
   140         14
   141          9
   142          9
   143         12
   144         41
   145         22
   146         13
   147         77
   148         33
   149          8
   150          2
   151          2
   152          5
   153          9
   154          9
   155          3
   156          3
   157          3
   158          6
   159         15
   160         49
   161        128
   162         97
   163         20
   164          6
   165          4
   166         20
   167          9
   168         15
   169          4
   170          2
   171          5
   172         28
   173         16
   174          5
   175          1
   176          1
   177          0
   178          2
   179          5
   180          1
   181          3
   182          3
   183         13
   184          5
   185         13
   186         14
   187         17
   188          8
   189          3
   190          1
   191          2
   192          2
   193          4
   194         18
   195          5
   196          2
   197          6
   198          5
   199          6
   200         79
   201         12
   202          4
   203          0
   204          0
   205          0
   206          0
   207          2
   208          1
   209          1
   210          3
   211         16
   212         29
   213         11
   214          5
   215          2
   216          0
   218          0
   219          1
   220          1
   221          0
   223          2
   224          3
   225          5
   226          8
   227         28
   228         44
   229          8
   230          2
   231          0
   235          1
   237          3
   238          4
   239         27
   240        378
   241         64
   242         22
   243          3
   244          1
   254          0
   255          1
   256          1
   257          0
   259          0
   262          0
   265          1
   269          0
   270          0
   271          1
   272          0
   273          0
   274          0
   275          0
   276          1
   277          3
   278          4
   279          1
   287          1
   288          4
   289          8
   290          1
   291          0
   299          2
   300          1
   301          2
   302          1
   303         25
   304         13
   305          3
   306          1
   316          0
   328          1
   329          1
   332        316
   333         70
   334         20
   335          3