##TITLE=Library Entry 11818
##JCAMP-DX=Revision 4.10 
##DATA TYPE=MASS SPECTRUM
##SAMPLE DESCRIPTION=A.A.Kutin, Moscow, Russia
##NAMES=HP
##CAS NAME=Oxazolidin-2-one, 3-(2-aminoethyl)-4-hydroxy-4-methyl-5-spiro-cyc
lohexane-
##MOLFORM=C11H20N2O3
##CAS REGISTRY NO=296245-00-6
##MP= -300
##BP= -300
##MW= 228
##$RETENTION INDEX=0
##$CONDENSED SPECTRUM=NO
##NPOINTS= 112
##XYDATA=(XY..XY) 1 
    33          8
    34          0
    39         24
    40         34
    41         59
    42         60
    43        999
    44        174
    45         40
    46          1
    50          0
    51          2
    53         21
    54         16
    55         78
    56         30
    57         15
    58         29
    59         36
    60         12
    61          3
    62          3
    65          4
    66          5
    67         45
    68         21
    69         17
    70         13
    71         38
    72         14
    73        140
    74          9
    75          2
    76          0
    77          6
    78          3
    79         23
    80         10
    81         57
    82         24
    83         38
    84         42
    85         23
    86         14
    87         52
    88          5
    91          6
    93         13
    94          9
    95         14
    96          5
    97         49
    98         13
    99         35
   100          1
   102         81
   103          5
   104          2
   105          3
   106          0
   107         10
   108         21
   109         16
   110          3
   111         57
   112         16
   113          1
   122         11
   123          3
   124         23
   125         83
   126        521
   127         39
   128          5
   130         55
   131          4
   136         10
   137         10
   138          1
   139          2
   140          1
   142          4
   149          2
   151          0
   152          6
   153          0
   154          3
   155          0
   158          0
   166          3
   167          8
   168        103
   169         11
   170          0
   171          1
   180          0
   181         16
   182          1
   183          0
   185          0
   186         82
   187          7
   188          1
   199         68
   200          7
   210         17
   211          6
   212          0
   213         31
   214          3
   228         13
   229          1