##TITLE=Library Entry 34795
##JCAMP-DX=Revision 4.10 
##DATA TYPE=MASS SPECTRUM
##SAMPLE DESCRIPTION=A.A.Kutin, Moscow, Russia
##NAMES=HP
##CAS NAME=Pyrimidine-4,6(1H,5H)-dione, 2-(methylthio)-
##MOLFORM=C5H6N2O2S
##CAS REGISTRY NO=29639-68-7
##MP= -300
##BP= -300
##MW= 158
##$RETENTION INDEX=0
##$CONDENSED SPECTRUM=NO
##NPOINTS= 92
##XYDATA=(XY..XY) 1 
    33         18
    34          6
    35          2
    36          2
    38         56
    39         80
    40        139
    41        257
    42        365
    43        791
    44        254
    45        348
    46        205
    47        177
    48         43
    49         12
    50          5
    51         10
    52         10
    53         28
    54         33
    56        122
    57         35
    58         45
    59         71
    60         55
    62         13
    63          2
    64          5
    65         22
    66         25
    67         62
    69        999
    70         45
    71         27
    72         31
    73         82
    74        111
    75         11
    76          6
    77          2
    78          1
    79          4
    80          1
    82          6
    83         13
    84         48
    85        100
    86         54
    87         11
    88         30
    89         53
    90         66
    91          7
    92          4
    93         10
    94          5
    95          8
    96         24
    97         71
    98          9
    99          3
   100          2
   102         25
   103          0
   104          1
   111        120
   112         78
   113          9
   114          7
   115         22
   116         42
   117         10
   118          2
   119          0
   125         22
   126          1
   127          1
   130         60
   131          3
   132          1
   140          0
   141          1
   143          8
   144          1
   145          0
   146          0
   155          2
   158        536
   159         31
   160         17
   161          1