##TITLE=Library Entry 79105
##JCAMP-DX=Revision 4.10 
##DATA TYPE=MASS SPECTRUM
##SAMPLE DESCRIPTION=R.I.REED CHEMISTRY DEPT., GLASGOW UNIVERSITY, GLASGOW,
 UK
##NAMES=HP
##CAS NAME=Phenol, o-[(.alpha.-methylbenzyl)sulfonyl]-
##MOLFORM=C14H14O3S
##CAS REGISTRY NO=29634-38-6
##MP= -300
##BP= -300
##MW= 262
##$RETENTION INDEX=0
##$CONDENSED SPECTRUM=NO
##NPOINTS= 31
##XYDATA=(XY..XY) 1 
    39         31
    45          8
    50         11
    51         32
    52         11
    53          9
    63         16
    64          6
    65         32
    70          5
    76          5
    77         95
    78         35
    79         90
    80          6
    91         10
    94          8
    96         18
    97          8
   102          8
   103         70
   104         57
   105        999
   106         91
   107          5
   113          9
   124         10
   126          8
   141          8
   142         24
   262          7