##TITLE=Library Entry 12273
##JCAMP-DX=Revision 4.10 
##DATA TYPE=MASS SPECTRUM
##SAMPLE DESCRIPTION=R.I.REED CHEMISTRY DEPT., GLASGOW UNIVERSITY, GLASGOW,
 UK
##NAMES=HP
##CAS NAME=Phenol, o-(isopentylsulfonyl)-
##MOLFORM=C11H16O3S
##CAS REGISTRY NO=29634-36-4
##MP= -300
##BP= -300
##MW= 228
##$RETENTION INDEX=0
##$CONDENSED SPECTRUM=NO
##NPOINTS= 83
##XYDATA=(XY..XY) 1 
    39        476
    40         61
    41        400
    42         91
    43        999
    44         37
    45         31
    46          5
    47          6
    48         33
    49          9
    50         42
    51         47
    52         30
    53         71
    54         13
    55        291
    56         22
    57         22
    58         13
    59          5
    61         10
    62         33
    63        122
    64         76
    65        368
    66         76
    67         16
    68          6
    69         61
    70        245
    71        191
    72         13
    74         11
    75         11
    76         16
    77         22
    78         10
    79          8
    80          6
    81         20
    84         40
    85          8
    91         11
    92        107
    93        114
    94        237
    95         24
    96         51
    97         20
    98          5
   103          5
   107         31
   108          8
   109         50
   110         11
   112         36
   113         56
   114          7
   121         13
   124          8
   125          8
   126         18
   135         36
   136          5
   137          5
   140        514
   141        291
   142         54
   143         18
   157         45
   158        122
   159        168
   160         18
   161         11
   162          5
   172         33
   185         27
   186          6
   213          5
   228        237
   229         33
   230         14