##TITLE=Library Entry 87124
##JCAMP-DX=Revision 4.10 
##DATA TYPE=MASS SPECTRUM
##SAMPLE DESCRIPTION=Chemical Concepts
##NAMES=HP
##CAS NAME=Cyclohexanone, 4-methylidene-
##MOLFORM=C7H10O
##CAS REGISTRY NO=29648-66-6
##MP= -300
##BP= -300
##MW= 110
##$RETENTION INDEX=0
##$CONDENSED SPECTRUM=NO
##NPOINTS= 42
##XYDATA=(XY..XY) 1 
    26         31
    27        214
    28        204
    29         35
    37          8
    38         24
    39        298
    40        151
    41        184
    42         86
    43         43
    44         13
    50         40
    51         74
    52         50
    53        258
    54        407
    55        188
    56         44
    57          8
    62          7
    63         12
    65         47
    66         33
    67        653
    68        260
    69         27
    77         29
    78          8
    79         57
    80         11
    81        395
    82        465
    83         34
    91         11
    94         90
    95          0
    96          7
   109         19
   110        999
   111         87
   113          6