##TITLE=Library Entry 19534
##JCAMP-DX=Revision 4.10 
##DATA TYPE=MASS SPECTRUM
##SAMPLE DESCRIPTION=Exported from NIST MS Search
##NAMES=HP
##CAS NAME=1,3-Cyclotetradecanedione, 2-octyl-
##MOLFORM=C22H40O2
##CAS REGISTRY NO=29653-06-3
##MP= -300
##BP= -300
##MW= 336
##$RETENTION INDEX=0
##$CONDENSED SPECTRUM=NO
##NPOINTS= 90
##XYDATA=(XY..XY) 1 
    27         70
    28         82
    29        210
    39         60
    41        779
    42        140
    43        569
    53         50
    54         80
    55        999
    56        130
    57        240
    58        140
    59         50
    67        210
    68        100
    69        320
    70        110
    71        190
    79        100
    80         60
    81        290
    82        150
    83        320
    84        180
    85        120
    93         90
    94         60
    95        270
    96        170
    97        210
    98        410
    99         80
   100        100
   107         90
   108         80
   109        130
   110        190
   111        210
   112        150
   113         50
   121         90
   122         50
   123         70
   124         70
   125        120
   126         90
   127         40
   128         70
   135         80
   136         50
   137         60
   138         80
   139         70
   140         50
   142         40
   148         60
   149        110
   150         50
   151         40
   152         40
   153         60
   154         50
   155         80
   156         40
   163         60
   164         40
   166         80
   167        110
   168         40
   181         80
   182         80
   183         40
   195         40
   196         50
   197         40
   206         90
   209        150
   223         50
   224        699
   225        210
   237        100
   238         60
   239         50
   262         90
   279         90
   292         50
   318         70
   336        180
   337         60