##TITLE=Library Entry 55769
##JCAMP-DX=Revision 4.10 
##DATA TYPE=MASS SPECTRUM
##SAMPLE DESCRIPTION=A.A.Kutin, Moscow, Russia
##NAMES=HP
##CAS NAME=5, 8-Dioxa-2-azaspiro[3.4]octane, 2-(4-tolylsulfonyl)-
##MOLFORM=C12H15NO4S
##CAS REGISTRY NO=296790-40-4
##MP= -300
##BP= -300
##MW= 269
##$RETENTION INDEX=0
##$CONDENSED SPECTRUM=NO
##NPOINTS= 98
##XYDATA=(XY..XY) 1 
    33          1
    34          1
    36          0
    37          1
    38          8
    39         85
    40         23
    41        102
    42        934
    43        126
    45         41
    48          3
    49          1
    50         17
    51         30
    52         14
    53          9
    54          6
    55          3
    56          5
    57          2
    58          3
    59          3
    60          0
    61          1
    62         12
    63         51
    64         19
    65        193
    66          9
    67          3
    68          7
    69          3
    70          4
    71          2
    73        161
    74          8
    75          4
    76          5
    77         13
    78          5
    79          4
    80          0
    82          0
    83          2
    84          8
    86        999
    87         58
    88          6
    89         45
    90         21
    91        180
    92         15
    93          1
    94          0
    95          0
    96          0
    97          0
    99          0
   100          0
   101          0
   102          0
   103          1
   104          0
   105          3
   106          0
   107          1
   108          0
   109          0
   110          0
   111          1
   112          1
   114        440
   115         23
   116          2
   117          1
   118          2
   119          0
   120          0
   121          1
   122          0
   123          1
   124          1
   125          0
   139          8
   140          3
   141          0
   153          0
   155         12
   156          1
   157          0
   167          0
   173          0
   176          0
   177          7
   178          0
   209          0
   211          0