##TITLE=Library Entry 56909
##JCAMP-DX=Revision 4.10 
##DATA TYPE=MASS SPECTRUM
##SAMPLE DESCRIPTION=A.A.Kutin, Moscow, Russia
##NAMES=HP
##CAS NAME=Benzofuran-5-ol, 4-(4-morpholylmethyl)-3-(2-thienoyl)-
##MOLFORM=C18H17NO4S
##CAS REGISTRY NO=296792-83-1
##MP= -300
##BP= -300
##MW= 343
##$RETENTION INDEX=0
##$CONDENSED SPECTRUM=NO
##NPOINTS= 193
##XYDATA=(XY..XY) 1 
    33          4
    34          5
    36          4
    38          5
    39         77
    40         25
    41         38
    42         74
    43         48
    44         67
    45         53
    46          2
    50          7
    51         14
    53         13
    54         22
    55         40
    56        204
    57        417
    58         54
    59          7
    60          1
    62         10
    63         37
    64         15
    65         13
    66          2
    69         18
    70         16
    71         25
    72          7
    73          1
    74         14
    75          6
    76          3
    77         23
    79          4
    82         16
    83         39
    84         25
    85         95
    86        999
    87        192
    88         19
    89         47
    90         15
    91         19
    92         12
    93          2
    95          2
    97         27
    98          7
    99         12
   100         45
   101         16
   102         12
   103         14
   104          7
   105         14
   107         20
   108          4
   109          4
   110          7
   111        157
   112         23
   113         13
   114         10
   115         24
   116          4
   117         12
   118         25
   119         13
   120         11
   121          8
   122          2
   124          5
   125          5
   126          5
   127         22
   128         64
   129         32
   130         23
   131         10
   132          3
   134          1
   135          2
   138          1
   139         37
   140         12
   141          3
   142          8
   143         11
   144          1
   145         22
   146         40
   147         17
   148          3
   151          6
   152         13
   153          2
   155          9
   157          9
   158          3
   159          1
   161         10
   162          1
   167          2
   168         18
   170         13
   171        125
   172         38
   173         30
   174         70
   175         22
   176          2
   183         17
   184         16
   185         14
   186         36
   187         18
   188         23
   189          1
   192          3
   195         14
   196         11
   197          5
   199         21
   200         48
   201         31
   202         24
   203          7
   209          4
   210          8
   211         48
   212         16
   213         14
   214          8
   215          1
   216          2
   222          6
   223         29
   224         41
   225         42
   226         34
   227        134
   228         45
   229         34
   230          9
   231          2
   232          1
   236          6
   238          4
   239         33
   240         40
   241         22
   242         38
   243         19
   244          3
   249          4
   253          9
   254         14
   255        121
   256        727
   257        224
   258        210
   259         40
   260          8
   264          3
   268         11
   269         10
   270         32
   271          9
   272         11
   280          7
   281          4
   282          9
   283          1
   284         10
   285         92
   286         28
   287          7
   288          2
   296         34
   297         47
   298         31
   299          7
   300          3
   314         40
   315          9
   341          2
   343        372
   344         77
   345         26