##TITLE=Library Entry 79607
##JCAMP-DX=Revision 4.10 
##DATA TYPE=MASS SPECTRUM
##SAMPLE DESCRIPTION=Chemical Concepts
##NAMES=HP
##CAS NAME=Benzamide, N-(2'-benzoylphenyl)-
##MOLFORM=C20H15NO2
##CAS REGISTRY NO=29670-64-2
##MP= -300
##BP= -300
##MW= 301
##$RETENTION INDEX=0
##$CONDENSED SPECTRUM=NO
##NPOINTS= 158
##XYDATA=(XY..XY) 1 
    25          0
    26          0
    27          9
    28          0
    29          1
    37          0
    38          2
    39         13
    40          1
    41          2
    43          0
    44          0
    49          0
    50         18
    51        109
    52         10
    53          3
    54          0
    55          0
    56          0
    57          1
    58          0
    61          0
    62          2
    63         10
    64         10
    65         11
    66          1
    69          0
    70          0
    71          0
    74          3
    75          7
    76         19
    77        717
    78         40
    79          1
    80          0
    81          0
    83          0
    84          0
    85          0
    86          0
    87          0
    88          0
    89          4
    90         12
    91          5
    92         10
    93          2
    94          0
    95          0
    97          0
    98          0
    99          0
   100          0
   101          0
   102          1
   103          2
   104          3
   105        999
   106         90
   107          5
   108          0
   110          0
   111          0
   112          0
   113          1
   114          1
   115          5
   116          1
   117          0
   118          0
   119          1
   120          2
   121          0
   122          0
   125          0
   126          1
   127          1
   128          1
   129          0
   130          0
   131          0
   134          0
   137          0
   138          0
   139          7
   140          5
   141          2
   142          0
   144          0
   146          7
   147          0
   149          0
   150          1
   151          2
   152          6
   153          1
   154          0
   155          0
   163          0
   164          1
   165          0
   166          9
   167         37
   168          7
   169          0
   170          0
   177          0
   178          1
   179          1
   180          3
   181          0
   182          0
   194          1
   195         13
   196        555
   197         74
   198          6
   199          0
   202          0
   203          0
   208          0
   209          0
   210          0
   217          0
   222          0
   223          0
   224         33
   225          4
   226          0
   227          0
   228          0
   239          0
   241          0
   242          0
   243          0
   244          0
   254          0
   256          0
   257          0
   269          0
   270          0
   272          4
   273          1
   274          0
   282          0
   283          0
   284          0
   297          1
   298          0
   299          0
   300          2
   301        322
   302         66
   303          8
   304          0