##TITLE=Library Entry 72801
##JCAMP-DX=Revision 4.10 
##DATA TYPE=MASS SPECTRUM
##SAMPLE DESCRIPTION=A.A.Kutin, Moscow, Russia
##NAMES=HP
##CAS NAME=3-Morpholinopropyl 2,4-dihydroxybenzoate
##MOLFORM=C14H19NO5
##CAS REGISTRY NO=296770-38-2
##MP= -300
##BP= -300
##MW= 281
##$RETENTION INDEX=0
##$CONDENSED SPECTRUM=NO
##NPOINTS= 77
##XYDATA=(XY..XY) 1 
    39         61
    40         40
    41        158
    42        279
    43         82
    44         74
    45         20
    50         11
    51         31
    52         32
    53         54
    54         28
    55         52
    56        122
    57         36
    58         19
    59          5
    60          3
    61          3
    62          4
    63         13
    64          3
    65          6
    66          5
    67          6
    68         37
    69         73
    70         92
    71         16
    72         17
    73          3
    77          3
    79         14
    80         18
    81         47
    82         23
    83          6
    84         16
    85          7
    86         29
    87          5
    88          6
    91          2
    92          5
    93          4
    95          8
    96          8
    97         22
    98         42
    99          9
   100        999
   101         63
   102          5
   107         11
   108         37
   109         11
   110          4
   112         13
   114          8
   119          2
   121          2
   125          3
   126         11
   127         11
   128          6
   136         41
   137        128
   138          9
   144         45
   145          5
   149          3
   151          3
   154          2
   224          1
   281         52
   282          7
   283          0