##TITLE=Library Entry 29578
##JCAMP-DX=Revision 4.10 
##DATA TYPE=MASS SPECTRUM
##SAMPLE DESCRIPTION=D.J.MANNING NATIONAL INSTIT. FOR RES. IN DAIRYING, READ
ING, UK
##NAMES=HP
##CAS NAME=Butanoic acid, 2-hydroxy-, methyl ester
##MOLFORM=C5H10O3
##CAS REGISTRY NO=29674-47-3
##MP= -300
##BP= -300
##MW= 118
##$RETENTION INDEX=1363
##$CONDENSED SPECTRUM=NO
##NPOINTS= 49
##XYDATA=(XY..XY) 1 
    25          1
    26         12
    27         47
    28        128
    29         69
    30         19
    31        374
    32          8
    38          3
    39         21
    40          7
    41        142
    42          7
    43         19
    44         16
    45          9
    55         16
    56          3
    57         51
    58         58
    59        999
    60         35
    61         40
    62          1
    63          0
    68          1
    69         12
    70          5
    71          2
    73          5
    74          1
    75          3
    76          1
    77          1
    78          0
    79          1
    85          2
    86          2
    87          1
    89         40
    90         14
    91          1
   100          1
   101          1
   102          0
   103          0
   116          1
   117          0
   118          4