##TITLE=Library Entry 59322
##JCAMP-DX=Revision 4.10 
##DATA TYPE=MASS SPECTRUM
##SAMPLE DESCRIPTION=A.A.Kutin, Moscow, Russia
##NAMES=HP
##CAS NAME=Piperidine, 1-[(4-amino-1,2,5-oxadiazol-3-yl)carbonyl]-4-(phenylm
ethyl)-
##MOLFORM=C15H18N4O2
##CAS REGISTRY NO=296771-03-4
##MP= -300
##BP= -300
##MW= 286
##$RETENTION INDEX=0
##$CONDENSED SPECTRUM=NO
##NPOINTS= 219
##XYDATA=(XY..XY) 1 
    33          3
    34          1
    36          3
    37          2
    38         18
    39        129
    40         31
    41        135
    42        236
    43         73
    44         91
    45         42
    46          2
    47          0
    48          0
    50         22
    51         59
    52         28
    53        130
    54        167
    55        368
    56        284
    57         82
    58        191
    59          5
    60          1
    61          1
    62          8
    63         36
    65        176
    67         69
    68         41
    69        167
    70         76
    71          8
    72          7
    73          1
    74          6
    75          6
    76          8
    77         47
    78         27
    79         19
    80         22
    81         48
    82        173
    83         74
    84        130
    85         14
    86          4
    87          3
    89         36
    91        999
    92         92
    93          8
    94          5
    95         11
    96         16
    97         54
    98         12
    99         11
   100          1
   101          5
   102         10
   103         25
   104         26
   105         32
   106          6
   107          3
   108          3
   109         17
   110         20
   111         30
   112         40
   113          4
   115         80
   116         36
   117        135
   118         40
   119          6
   120          4
   121          5
   122          7
   123         12
   124         14
   125          9
   126         16
   127         12
   128         33
   129        118
   130         76
   131         67
   132         30
   133          4
   134          2
   135          8
   136         12
   137         28
   138         25
   139          8
   140          2
   141         13
   142          7
   143         15
   144         12
   145         16
   146          8
   147          3
   148         21
   149          6
   150          8
   151          8
   152          2
   153          3
   154          3
   155         17
   156          6
   157         22
   158         10
   159         10
   160          7
   161          3
   162          4
   163          6
   164         17
   165         56
   166          6
   167          2
   168          3
   169          3
   170          3
   171          5
   172         29
   173         27
   174        197
   175        187
   176         28
   177          4
   178         11
   179          3
   180         26
   181          3
   182          1
   183          1
   184          3
   185          2
   186          2
   187          1
   188          0
   189          0
   190          0
   191          0
   192          1
   193          4
   194          3
   195          9
   196          1
   197          0
   198          1
   199          3
   200          4
   201         12
   202         89
   203         13
   204          1
   206          2
   207          0
   208          0
   209          0
   210          0
   211          3
   212          1
   213          1
   214          2
   215          1
   217          0
   218          1
   222          0
   223          0
   224          0
   225          0
   226          1
   227          3
   228         18
   229         78
   230         13
   231          1
   232          0
   235          0
   237          0
   238          3
   239         10
   240          2
   241          5
   242         16
   243          3
   244          0
   245          1
   246          0
   249          0
   252         14
   253         18
   254          9
   256        197
   257         34
   258          3
   259          0
   267          0
   268          4
   269         35
   270          7
   271          0
   281          0
   282          0
   283          0
   286        347
   287         58
   288          6
   289          0