##TITLE=Library Entry 71544
##JCAMP-DX=Revision 4.10 
##DATA TYPE=MASS SPECTRUM
##SAMPLE DESCRIPTION=A.A.Kutin, Moscow, Russia
##NAMES=HP
##CAS NAME=Acetamide, 2-(1-pyperidyl)-N-[5-(4-nitrophenyl)1,3,4-thiadiazol-2
-yl)-
##MOLFORM=C15H17N5O3S
##CAS REGISTRY NO=296772-20-8
##MP= -300
##BP= -300
##MW= 347
##$RETENTION INDEX=0
##$CONDENSED SPECTRUM=NO
##NPOINTS= 112
##XYDATA=(XY..XY) 1 
    39          6
    40          4
    41         20
    42         16
    43          3
    44          5
    45          0
    46          0
    48          0
    50          4
    51          3
    53          2
    55         32
    56          6
    57          5
    58          1
    61          0
    62          4
    63          1
    64          1
    66          0
    67          5
    68          7
    69         47
    70         25
    71          0
    72          1
    73          0
    74          7
    75         10
    76         15
    77          1
    78          0
    80          1
    81          1
    82         11
    84         38
    85          3
    86          5
    87          5
    88         13
    89          2
    90          7
    91          1
    93         11
    94         17
    98        999
    99         44
   100          3
   101          4
   102         14
   103          6
   104          0
   105          0
   106          0
   107          6
   108         12
   109          0
   112          1
   115          0
   116          5
   117          1
   118          5
   119         15
   120         68
   121          5
   122          3
   124         30
   125        166
   126         11
   127          2
   129          1
   130          1
   132          1
   133          2
   134          4
   135          1
   136          5
   142          5
   143          0
   144          3
   147          0
   148          2
   150          1
   153          1
   160          1
   163          3
   166         12
   167          0
   168          0
   176          2
   177          0
   185          0
   186          0
   189          1
   190          6
   191          0
   203          1
   205          0
   206          0
   222          5
   223          2
   224          0
   235          0
   249          1
   317          1
   337          0
   344          0
   345          3
   347         88
   348         11
   349          5