##TITLE=Library Entry 82138
##JCAMP-DX=Revision 4.10 
##DATA TYPE=MASS SPECTRUM
##SAMPLE DESCRIPTION=A.A.Kutin, Moscow, Russia
##NAMES=HP
##CAS NAME=Furazan-3-amine, 4-[1-(4-methylbenzyl)-2-benzimidazolyl]-
##MOLFORM=C17H15N5O
##CAS REGISTRY NO=296772-75-3
##MP= -300
##BP= -300
##MW= 305
##$RETENTION INDEX=0
##$CONDENSED SPECTRUM=NO
##NPOINTS= 202
##XYDATA=(XY..XY) 1 
    37          0
    38          1
    39          6
    40          4
    42          1
    43          1
    44          1
    50          5
    51         12
    52          5
    53          8
    54          1
    55          2
    56          0
    57          1
    58          2
    61          0
    62          2
    63         13
    64          9
    65         15
    66          2
    67          0
    68          0
    69          0
    70          1
    71          0
    73          2
    74          2
    75          7
    76         14
    77         95
    78         28
    79         73
    80          4
    81          0
    82          1
    83          2
    84          0
    85          0
    86          0
    87          1
    89         13
    90         14
    91         17
    92          4
    93          0
    94          0
    95          1
    96          1
    97          0
    98          0
    99          0
   101          4
   102         23
   103         74
   105        999
   106         68
   107          3
   108          0
   109          4
   111          2
   112          1
   113          1
   114          1
   115          7
   116         19
   117          6
   118          8
   119          4
   120          4
   121          1
   123          7
   124         18
   126          0
   127          2
   128          3
   129          8
   130         12
   131          5
   132          2
   133          0
   134          0
   135          1
   137         15
   139          1
   140          2
   141          1
   143         46
   144         22
   145          3
   146          0
   147          0
   149          0
   150          1
   151          2
   152         11
   153          1
   154          0
   155          2
   156          6
   157          4
   158          7
   159          1
   160          1
   161          0
   162          0
   163          0
   164          1
   165          3
   166          1
   167          0
   168          0
   169          0
   170          1
   171          7
   172          0
   174          0
   175          0
   176          0
   177          1
   178          2
   179          1
   180          0
   181          0
   182          0
   183          1
   184          0
   185          0
   186          0
   187          0
   188          0
   189          0
   190          2
   191          2
   192          3
   193          1
   194          1
   195          0
   200          0
   201          0
   202          0
   203          0
   204          1
   205          4
   206          4
   207          1
   208          0
   209          0
   210          0
   213          0
   214          0
   215          0
   216          1
   217          4
   218          6
   219          8
   220          4
   221          4
   222          0
   229          1
   230          3
   231         17
   232         65
   233         49
   234          9
   235          1
   242          0
   243          1
   244          2
   245          4
   246          8
   247         11
   248         49
   249          9
   251          0
   254          0
   256          0
   258          5
   259          9
   260          8
   261          4
   262          1
   263          0
   264          0
   271          0
   273          1
   275        163
   276         29
   277          2
   282          0
   283          0
   286          0
   287          0
   288          2
   289          0
   301          0
   303          0
   305        177
   306         32
   307          3
   308          0