##TITLE=Library Entry 10935
##JCAMP-DX=Revision 4.10 
##DATA TYPE=MASS SPECTRUM
##SAMPLE DESCRIPTION=A.A.Kutin, Moscow, Russia
##NAMES=HP
##CAS NAME=Acetamide, N-(3-amino-3-acetoxyiminopropyl)-N-phenyl-
##MOLFORM=C13H17N3O3
##CAS REGISTRY NO=29675-92-1
##MP= -300
##BP= -300
##MW= 263
##$RETENTION INDEX=0
##$CONDENSED SPECTRUM=NO
##NPOINTS= 128
##XYDATA=(XY..XY) 1 
    33          0
    34          0
    37          2
    38          9
    39         33
    40         16
    41         33
    43        999
    44         53
    46          2
    50         22
    51         83
    52         17
    53          8
    54         35
    55         26
    56         57
    57         15
    58         39
    59        112
    60         16
    61          2
    62          3
    63         16
    64         17
    65         45
    66         14
    67          4
    69         34
    70          9
    71         14
    72         11
    74         39
    75          8
    77        300
    78         42
    79         49
    80          4
    81          0
    82          0
    83          2
    84          3
    85         20
    86         99
    87         59
    89          8
    91         62
    93        173
    94         34
    95          2
    97          0
    98          2
    99          5
   100         22
   101         10
   104        125
   106        841
   107         54
   108          2
   109          1
   111         55
   112         10
   113          3
   114          1
   116         23
   118        169
   119         97
   120         74
   121         19
   122          1
   126          0
   128          8
   129         14
   130          7
   131          3
   132          5
   133          5
   135         45
   136        122
   137         10
   140          0
   141          0
   143          8
   145        325
   146         47
   147         10
   148         12
   149          1
   152          0
   156          0
   157          0
   158          0
   160         42
   161         28
   162         93
   163         10
   164          1
   165          3
   166          0
   169          0
   171          1
   173          0
   174          1
   175          0
   178          3
   179          0
   183          0
   184          0
   185          0
   187         38
   188         12
   189          3
   190          6
   191          0
   204        509
   205         56
   206          5
   219          0
   220          3
   221         11
   222          1
   243          7
   244          1
   245          2
   246         20
   247          3
   263          8
   264          1