##TITLE=Library Entry 18499
##JCAMP-DX=Revision 4.10 
##DATA TYPE=MASS SPECTRUM
##SAMPLE DESCRIPTION=A.A.Kutin, Moscow, Russia
##NAMES=HP
##CAS NAME=Furazan-3-carboxamide, 4-amino-N-(2-furylmethyl)-
##MOLFORM=C8H8N4O3
##CAS REGISTRY NO=296771-05-6
##MP= -300
##BP= -300
##MW= 208
##$RETENTION INDEX=0
##$CONDENSED SPECTRUM=NO
##NPOINTS= 109
##XYDATA=(XY..XY) 1 
    35          0
    36          5
    37         97
    38        245
    39        328
    40         75
    41        166
    42        305
    43        144
    44         53
    45          1
    48          0
    49         12
    50        131
    51        186
    52        166
    53        999
    54        434
    55         71
    56         23
    58        204
    59          5
    60          1
    61          1
    62          5
    63         13
    64         17
    65         19
    66         45
    67         49
    68         74
    69         29
    70         83
    71          4
    72          0
    73          0
    74          1
    75          4
    76          4
    77          3
    78         16
    79         15
    81        742
    82         41
    83         12
    84         78
    86         11
    87          0
    89          3
    90          0
    91          0
    92          2
    93         12
    94         95
    95         67
    96         81
    97         11
    98          0
    99          0
   102          0
   103          0
   105         19
   106         12
   107          8
   108         59
   109          4
   110          2
   111          5
   112         30
   113          1
   117          0
   118          2
   119          1
   120          2
   121         26
   122         62
   123         15
   124          3
   126          0
   130          0
   132          1
   133         21
   134          2
   135         12
   136         10
   137          2
   138          0
   139          0
   141          0
   147          0
   149         13
   150         32
   151         16
   152          1
   160          2
   161         23
   162          2
   164          2
   165          0
   175          0
   178         92
   179          9
   180          0
   190          0
   191         11
   192          0
   208        105
   209          9
   210          0