##TITLE=Library Entry 68222
##JCAMP-DX=Revision 4.10 
##DATA TYPE=MASS SPECTRUM
##SAMPLE DESCRIPTION=L. Cohen, LC, NIDDK, NIH, Bethesda, MD 20892
##NAMES=HP
##CAS NAME=Histamine, N-benzoyl-
##MOLFORM=C12H13N3O
##CAS REGISTRY NO=29677-71-2
##MP= -300
##BP= -300
##MW= 215
##$RETENTION INDEX=0
##$CONDENSED SPECTRUM=NO
##NPOINTS= 157
##XYDATA=(XY..XY) 1 
    41         51
    42         17
    43         15
    44        556
    45         16
    46          8
    47          0
    48          0
    49          2
    50         57
    51        210
    52         36
    53         20
    54        111
    55         49
    56         20
    57          8
    58          2
    59          1
    60          3
    61          1
    62          3
    63          7
    64          6
    65          8
    66         13
    67         16
    68         39
    69         10
    70          2
    71          3
    72          0
    73          4
    74         13
    75         14
    76         41
    77        522
    78         99
    79         37
    80          6
    81        245
    82        708
    83          9
    84          5
    85          2
    86          1
    87          1
    88          0
    89          2
    90          1
    91          5
    92          0
    93         93
    94        181
    95        999
    96         12
    97          1
    98          1
    99          1
   100          0
   101          1
   102          1
   103          3
   104         18
   105        553
   106         77
   107         10
   108          4
   109          7
   110         64
   111          7
   112          1
   113          0
   114          0
   115          1
   116          2
   117          2
   118          0
   119          0
   120          2
   121          6
   122        149
   123         16
   124         22
   125          3
   126          3
   128          3
   129          1
   130          2
   131          1
   132          1
   133          1
   134         15
   135          2
   136          0
   137          0
   138         16
   139          2
   140          0
   141          0
   142          0
   143          0
   144          0
   145          0
   146          0
   147          0
   148          0
   149          4
   150          1
   151          0
   152          0
   153          0
   154          0
   155          0
   156          0
   157          2
   158          4
   159          0
   160          2
   161          0
   162          0
   163          0
   165          0
   167          0
   168          0
   169          1
   170          0
   171          2
   172          0
   173          0
   176          0
   177          1
   178          0
   181          0
   183          0
   184          1
   185          4
   186          1
   187          2
   188          0
   192          0
   193          0
   194          0
   195          0
   196          3
   197          1
   198          5
   199          1
   205          0
   211          0
   212          0
   213          0
   214          2
   215        190
   216        130
   217         19
   218          2