##TITLE=Library Entry 79625
##JCAMP-DX=Revision 4.10 
##DATA TYPE=MASS SPECTRUM
##SAMPLE DESCRIPTION=A.A.Kutin, Moscow, Russia
##NAMES=HP
##CAS NAME=Thiophene-3-carboxylic acid, 4,5-dihydro-2-amino-5-benzoyl-4-phen
yl-, ethyl ester
##MOLFORM=C20H19NO3S
##CAS REGISTRY NO=296798-01-1
##MP= -300
##BP= -300
##MW= 353
##$RETENTION INDEX=0
##$CONDENSED SPECTRUM=NO
##NPOINTS= 208
##XYDATA=(XY..XY) 1 
    33         16
    34          8
    36          2
    37          3
    38         10
    39         60
    40          5
    41         74
    42         30
    43         75
    44         79
    45         55
    46         11
    47          5
    50         45
    51        183
    52         42
    53         24
    54         28
    55         69
    56         30
    57         80
    58          6
    59          6
    60         48
    61          6
    62          9
    63         27
    64         10
    65         28
    66          7
    67         16
    68         32
    69         46
    70         46
    71         51
    72         16
    73         12
    74         17
    75         19
    76         42
    77        744
    78         72
    79         21
    80          5
    81         12
    82         12
    83         27
    84         24
    85         11
    86          5
    87          7
    88          7
    89         30
    90         11
    91         81
    92          9
    93          6
    94          4
    95         10
    96         15
    97         29
    98         14
    99          5
   100          4
   101         18
   102         43
   103         75
   105        999
   106         82
   107          9
   108          4
   109          8
   110          5
   111         10
   112         24
   113         18
   114         18
   115        113
   116         24
   117          9
   118          3
   119          3
   120          7
   121         23
   122          3
   123          7
   124          9
   125         68
   126         13
   127         11
   128         46
   129         28
   130         67
   131         27
   132          3
   133          4
   134         24
   135         37
   136          5
   137          3
   138          1
   139          3
   140         25
   141          9
   142          5
   143         48
   144          8
   145         10
   146         14
   147         53
   148          8
   149         13
   150          3
   151          6
   152         26
   153          5
   154          2
   155          2
   156         30
   157          9
   158          7
   159          3
   160          2
   161          3
   162          1
   163          1
   165          4
   166          1
   168          3
   169         10
   170          6
   171         53
   172         20
   173         16
   174         42
   175        137
   176         45
   177         11
   178          6
   179          3
   184          9
   185          5
   186          3
   187          3
   188          2
   189          7
   190          2
   191          9
   192          3
   193          1
   196          1
   198          2
   199          1
   200          5
   201         18
   202        334
   203         54
   204         28
   205          4
   206          1
   207          5
   208          4
   209          5
   210          3
   213          1
   216          1
   217          1
   218          1
   219          3
   220          5
   221          3
   227          1
   228          3
   229          2
   230         10
   231          5
   232          2
   234          6
   235          2
   236          1
   246          1
   247          5
   248         58
   249          8
   250          4
   251          1
   256          4
   263          7
   264          1
   274         62
   275         15
   276          4
   278          4
   279          1
   280         14
   281          3
   283          2
   290          1
   292          1
   306          8
   307          6
   308          5
   320         83
   321         18
   322          1
   353          8
   354          1