##TITLE=Library Entry 78257
##JCAMP-DX=Revision 4.10 
##DATA TYPE=MASS SPECTRUM
##SAMPLE DESCRIPTION=A.A.Kutin, Moscow, Russia
##NAMES=HP
##CAS NAME=Piperazine, 1-benzoyl-4-(3,5-dibromobenzoyl)-
##MOLFORM=C18H16Br2N2O2
##CAS REGISTRY NO=296893-06-6
##MP= -300
##BP= -300
##MW= 450
##$RETENTION INDEX=0
##$CONDENSED SPECTRUM=NO
##NPOINTS= 228
##XYDATA=(XY..XY) 1 
    33          9
    36          0
    38          1
    39          4
    40          8
    41         12
    42         50
    43          3
    44          2
    45          0
    50         12
    51         40
    52          2
    53          2
    54         11
    55         45
    56        112
    57          7
    58          1
    63          1
    65          0
    69        561
    70         27
    72          0
    74         20
    75         47
    77        273
    78         16
    79          1
    80          0
    81          2
    82          1
    83          4
    84          2
    85          0
    88          0
    89          1
    90          1
    91          3
    92          2
   101          0
   102          2
   105        999
   106         65
   107          2
   109          0
   110          3
   111          0
   112          1
   113          1
   115          0
   116          1
   117          2
   118          2
   119          3
   120          2
   122          1
   123          0
   128          0
   129          0
   130          1
   131          2
   132          5
   134         23
   135          2
   136          0
   137          1
   138          1
   139          1
   140          0
   143          0
   144          1
   145          6
   146         17
   147         27
   148         46
   150          8
   151          1
   152          1
   153          6
   154         14
   155          7
   156         14
   157          2
   158          0
   160         49
   161         15
   162          2
   163          0
   171          4
   173         59
   174         10
   175         44
   176          5
   177          0
   180          0
   181          1
   182         12
   183          3
   184         12
   185          2
   187          0
   189         39
   190          5
   191          3
   193          1
   196          0
   197          0
   209          0
   211          0
   212          0
   215          0
   217         16
   219         19
   220          1
   221          4
   222          0
   224          1
   225          0
   226          0
   233         18
   235         37
   236          4
   237         18
   238          2
   239          0
   240          1
   241          0
   247          0
   248          0
   249          1
   250          1
   251          2
   252          1
   253          1
   254          0
   257          0
   258          1
   259          2
   261         80
   263        146
   265         79
   266          7
   267          0
   268          1
   272          1
   273          0
   274          1
   275          0
   276          0
   277          0
   278          0
   285          1
   286          1
   287          2
   288          1
   289          1
   290          1
   291          0
   292          1
   301          4
   303          7
   304          3
   305          3
   306          3
   307          0
   308          1
   315          0
   316          6
   317          4
   318         11
   319          6
   320          5
   321          2
   327          0
   328          1
   329          9
   330          4
   331         16
   332          4
   333          8
   334          1
   335          0
   338          0
   340          1
   345         11
   347         21
   348          2
   349          9
   350          1
   353          1
   355          0
   365          3
   366          0
   367          1
   371          0
   373          0
   382          4
   383          0
   384          9
   385          1
   386          4
   394          0
   395          0
   396          1
   397          0
   398          0
   399          0
   400          0
   405          0
   406          5
   408          7
   409          1
   410          1
   411          0
   432          1
   433          0
   434          2
   435          0
   436          1
   437          0
   449          3
   450         24
   451         13
   452         42
   453         12
   454         21
   455          3