##TITLE=Library Entry 17582
##JCAMP-DX=Revision 4.10 
##DATA TYPE=MASS SPECTRUM
##SAMPLE DESCRIPTION=A.A.Kutin, Moscow, Russia
##NAMES=HP
##CAS NAME=Thiophene-3-carboxylic acid, 4-(4-bromophenyl)-2-phenylthioacetyl
amino-, ethyl ester
##MOLFORM=C21H18BrNO3S2
##CAS REGISTRY NO=296890-39-6
##MP= -300
##BP= -300
##MW= 475
##$RETENTION INDEX=0
##$CONDENSED SPECTRUM=NO
##NPOINTS= 228
##XYDATA=(XY..XY) 1 
    33         29
    34         11
    37          5
    39        134
    40         58
    41         13
    42         32
    43         75
    45        999
    47         62
    50         69
    51        155
    52         28
    53         13
    54          2
    55          7
    57          8
    58         23
    59         12
    60          6
    61          8
    62         19
    63         43
    65        131
    66         54
    67          5
    69         86
    70         13
    71         24
    73          8
    74         37
    75         46
    77        249
    78         59
    79        106
    80         27
    81         20
    82         40
    84         23
    85         20
    86         13
    87         12
    88          8
    89         42
    91         45
    92          6
    93         18
    94         21
    95         18
    96          8
    97         15
    99         25
   100         30
   101         39
   102         39
   103          8
   104         12
   105         23
   106          3
   108         37
   109        111
   110        111
   111         15
   112         10
   113         25
   114         13
   115         14
   116         19
   117         42
   118          6
   119          7
   120         13
   121         46
   123        683
   124         77
   125         36
   126         26
   127         90
   128         33
   129         10
   132          8
   133         18
   134         28
   135          5
   138         21
   139         10
   140         18
   141          8
   142          4
   143          5
   144         21
   145         73
   146         43
   147         10
   148          5
   149          9
   150         27
   151          7
   152          8
   153         31
   154          8
   155          8
   156         18
   157         10
   158         16
   159         10
   160         16
   161         16
   162          8
   163          6
   164          2
   166         18
   167          4
   168          2
   169          4
   170         33
   171        108
   172        202
   173         70
   174         28
   175          8
   176          1
   180         17
   181          3
   182         13
   184         34
   185         16
   186         65
   187         20
   188         18
   189         25
   190          4
   195          4
   196          5
   197          7
   198          8
   199        131
   200         78
   201         51
   202         17
   203          4
   205          2
   206         34
   207         10
   208         36
   209          8
   212          7
   213         44
   214         16
   215         26
   216         12
   217         60
   218          9
   219          3
   220          1
   223         16
   225         27
   227        112
   228         20
   229          8
   230          2
   232          7
   233          6
   234         27
   235          8
   236          4
   238         10
   239         13
   240          3
   241          5
   242          5
   243          2
   245          6
   246         22
   247         13
   248          4
   250         18
   251         13
   252         17
   253         11
   255          2
   261         11
   264          1
   277          3
   279        290
   281        324
   282         40
   283         14
   292         55
   293         11
   294         59
   295         10
   296          7
   306         41
   307          5
   308         41
   309          4
   310          2
   312          2
   322          2
   323          7
   325        455
   327        505
   328         65
   329         22
   338          2
   340          3
   349         25
   350          4
   351          3
   352          5
   354          5
   367          2
   369          2
   392         25
   393          5
   394         52
   395         10
   396         31
   397          5
   429          2
   431          4
   432          2
   475        142
   476         34
   477        146
   478         35
   479         16