##TITLE=Library Entry 82398
##JCAMP-DX=Revision 4.10 
##DATA TYPE=MASS SPECTRUM
##SAMPLE DESCRIPTION=A.A.Kutin, Moscow, Russia
##NAMES=HP
##CAS NAME=Pyridine, 4-[2-(2-ethylsylfonyl)ethylthio]ethyl-
##MOLFORM=C11H17NO2S2
##CAS REGISTRY NO=296880-06-3
##MP= -300
##BP= -300
##MW= 259
##$RETENTION INDEX=0
##$CONDENSED SPECTRUM=NO
##NPOINTS= 119
##XYDATA=(XY..XY) 1 
    33          3
    34          2
    35          6
    36          0
    37          1
    38          3
    39         66
    40         11
    41         16
    42          3
    43          5
    45         95
    46         21
    47         21
    48          4
    50         22
    51         79
    52         31
    53         26
    54         11
    55          2
    57          1
    58         12
    59         28
    60         31
    61         30
    63         20
    65         62
    66         27
    67          9
    68          2
    69          2
    70          0
    71          2
    73        324
    75         31
    77        107
    78         65
    79         35
    80         15
    81          1
    82          1
    83         14
    85          4
    86          2
    87          2
    89          2
    90          1
    91          4
    92         25
    93         50
    94         19
    95          7
    96          1
    97          1
    98          0
    99          0
   101          0
   102          1
   103          2
   104         31
   106        999
   107         72
   109         11
   110          5
   111          3
   112          1
   113          0
   115          1
   117          6
   118          3
   119          1
   120          2
   121          5
   122          1
   123          2
   124          0
   125          0
   126          0
   128          0
   129          1
   130          2
   131          4
   132          6
   133          1
   136         44
   138        199
   139         16
   140          9
   141          0
   143          0
   149          0
   150          1
   152          4
   153          1
   154          0
   160          0
   162          0
   163          1
   165        189
   166        277
   167         53
   168         16
   169          2
   170          0
   171          0
   179          0
   180          0
   181          0
   183          0
   202          0
   211          0
   231          0
   244          1
   245          0
   259         16
   260          3
   261          1
   262          0