##TITLE=Library Entry 71623
##JCAMP-DX=Revision 4.10 
##DATA TYPE=MASS SPECTRUM
##SAMPLE DESCRIPTION=A.A.Kutin, Moscow, Russia
##NAMES=HP
##CAS NAME=Indole-2(3H)-one, 1-(1-piperidylmethyl)-3,2'-spiro(5-methyl-5-phe
nyl-1,3-dioxane)-
##MOLFORM=C24H28N2O3
##CAS REGISTRY NO=296898-90-3
##MP= -300
##BP= -300
##MW= 392
##$RETENTION INDEX=0
##$CONDENSED SPECTRUM=NO
##NPOINTS= 122
##XYDATA=(XY..XY) 1 
    33          0
    34          1
    36          0
    38          1
    39         17
    40         12
    41         48
    42         38
    43          9
    44         26
    45          2
    46          0
    48          1
    50          5
    51         12
    52          4
    53          5
    54          3
    55         37
    56          9
    57          5
    58          1
    59          0
    61          0
    62          1
    63          8
    64          7
    65         10
    66          1
    67          2
    68          3
    69         15
    70         14
    71          1
    73          0
    74          1
    75          2
    76          8
    77         35
    78         16
    79          3
    80          0
    81          0
    82          2
    83          2
    84         10
    85          2
    86          0
    87          0
    89          4
    90         35
    91         50
    92         22
    93          3
    94          0
    95          0
    96         10
    98        999
    99         68
   100          2
   102          4
   103         20
   104          8
   105          9
   106          1
   110          0
   112          9
   113          1
   115         17
   116          8
   117         31
   118         36
   119         50
   120         35
   121          3
   122          0
   127          0
   128          1
   129          9
   130         21
   131        113
   132         49
   133          5
   134          1
   135          0
   137          2
   138          0
   143          0
   146        139
   147         11
   148          5
   149          1
   150          0
   158          0
   159          0
   160          0
   161          0
   164          0
   171          0
   173          0
   176          1
   177          0
   179          0
   180          2
   181          0
   187          0
   208          0
   215          0
   226          0
   265          0
   266          1
   267         15
   268          2
   280          0
   291          0
   292          0
   294         41
   295         10
   296          1
   391          0
   392          2
   393          0