##TITLE=Library Entry 107610
##JCAMP-DX=Revision 4.10 
##DATA TYPE=MASS SPECTRUM
##SAMPLE DESCRIPTION=A.A.Kutin, Moscow, Russia
##NAMES=HP
##CAS NAME=Ethanone, 2-(6-amino-2-benzothiazolylthio)-1-(4-fluorophenyl)-
##MOLFORM=C15H11FN2OS2
##CAS REGISTRY NO=296880-00-7
##MP= -300
##BP= -300
##MW= 318
##$RETENTION INDEX=0
##$CONDENSED SPECTRUM=NO
##NPOINTS= 111
##XYDATA=(XY..XY) 1 
    33          6
    39         11
    40         12
    41          6
    42          1
    44          1
    45         20
    46          2
    50          5
    51         10
    52         14
    53          4
    54          5
    57         11
    58          2
    59          5
    60          1
    61          0
    62          6
    63         17
    64          5
    65          9
    66          3
    67          1
    69         19
    70          7
    72          4
    74         10
    75         31
    76         10
    77          9
    78         23
    79         14
    80          7
    82          8
    83         31
    84          8
    86          1
    88          1
    89          5
    90         10
    91          6
    92          9
    93         12
    95        246
    96         31
    97          5
    98          1
   104          8
   105         32
   106         22
   107          6
   108          3
   109         38
   110          6
   112          2
   115          0
   117         23
   118          6
   119          6
   120          7
   121         16
   123        999
   124         93
   125          4
   127          3
   129          0
   131          9
   132          0
   134          2
   135          5
   136         15
   137        146
   138         15
   139          7
   147          2
   148          5
   149         14
   150         24
   151        102
   152         12
   153          6
   154          2
   161          0
   162          3
   163         19
   164          2
   166          4
   167          1
   168          0
   178          3
   181        154
   182         26
   183          9
   184          0
   192          0
   193          1
   195        553
   196         67
   197         52
   198          7
   243          0
   257          2
   276          0
   307          0
   315          1
   318        632
   319        107
   320         50
   321          7
   322          1