##TITLE=Library Entry 79788
##JCAMP-DX=Revision 4.10 
##DATA TYPE=MASS SPECTRUM
##SAMPLE DESCRIPTION=A.A.Kutin, Moscow, Russia
##NAMES=HP
##CAS NAME=Benzimidazole, 1-(2-phenylethyl)-2-(1-phenyl-5-tetrazolylthiometh
yl)-
##MOLFORM=C23H20N6S
##CAS REGISTRY NO=296899-26-8
##MP= -300
##BP= -300
##MW= 412
##$RETENTION INDEX=0
##$CONDENSED SPECTRUM=NO
##NPOINTS= 148
##XYDATA=(XY..XY) 1 
    33          1
    34         12
    37         10
    38         37
    39        146
    40        163
    41         46
    42         21
    43         29
    44        136
    45         48
    46        181
    47         11
    48         25
    50         74
    51        261
    52         42
    53         18
    54          6
    55         18
    56          8
    57         20
    58          5
    59         11
    60          3
    61          3
    62         15
    63         83
    64         97
    65        207
    66         17
    67          4
    69         18
    70          9
    71         10
    72          2
    73          5
    74         13
    75         36
    76        142
    77        706
    78        117
    79        204
    80         18
    81          4
    82          7
    83          4
    84          5
    88          4
    89         54
    90        106
    91        420
    92         93
    93         13
    95          1
    96          7
    97         10
    98          8
   102         85
   103        216
   104        250
   105        999
   106         85
   107         10
   108          7
   109          6
   110          4
   112         20
   113          1
   115         47
   116         51
   117        285
   118        216
   119         98
   120          9
   121          5
   122          5
   123         19
   127          1
   128          7
   129         32
   130         25
   131        310
   132         81
   133         31
   134         17
   135        135
   136         14
   137          4
   143        115
   144        269
   145        314
   146         31
   147          1
   148          1
   149         30
   150         16
   151          7
   152          5
   156          1
   157         15
   158          8
   162         92
   163        199
   164         27
   165         19
   166          4
   167          4
   171          2
   173          2
   175        207
   176         44
   177         15
   178        109
   179          8
   180          4
   181         22
   190          5
   191          2
   192          1
   193          4
   194          5
   205          3
   206         31
   207         10
   219        152
   220         37
   221          8
   231         17
   232         23
   233         98
   234        112
   235        622
   236        155
   237         14
   247         12
   264         10
   265         19
   267        594
   268        104
   269         29
   280          2
   308         21
   309          1
   370          2
   412         79
   413         18
   414          1