##TITLE=Library Entry 29949
##JCAMP-DX=Revision 4.10 
##DATA TYPE=MASS SPECTRUM
##SAMPLE DESCRIPTION=Chemical Concepts
##NAMES=HP
##CAS NAME=Pentanamide, 5-hydroxy-
##MOLFORM=C5H11NO2
##CAS REGISTRY NO=29686-12-2
##MP= -300
##BP= -300
##MW= 117
##$RETENTION INDEX=0
##$CONDENSED SPECTRUM=NO
##NPOINTS= 60
##XYDATA=(XY..XY) 1 
    26         18
    27        150
    28         89
    29        153
    30         22
    31        236
    37          4
    38         15
    39        132
    40         29
    41        388
    42        177
    43        469
    44        712
    45         69
    46         16
    50         11
    51         15
    52          5
    53         29
    54         44
    55        347
    56        940
    57        163
    58         13
    59        999
    60         40
    61          5
    63          3
    64          3
    65         15
    66          5
    67          5
    68          9
    69         30
    70         25
    71         40
    72        447
    73        199
    74         20
    75          6
    78          5
    79          4
    80          4
    81         16
    82         47
    83         65
    84         18
    85          9
    86        263
    87        204
    88         24
    97         10
    98         65
    99        470
   100         65
   101         34
   117         14
   118         10
   119          5