##TITLE=Library Entry 83213
##JCAMP-DX=Revision 4.10 
##DATA TYPE=MASS SPECTRUM
##SAMPLE DESCRIPTION=A.A.Kutin, Moscow, Russia
##NAMES=HP
##CAS NAME=Pyrrolidine-3-carboxamide, 5-oxo-1-phenyl-N-ethyl-
##MOLFORM=C13H16N2O2
##CAS REGISTRY NO=296893-55-5
##MP= -300
##BP= -300
##MW= 232
##$RETENTION INDEX=0
##$CONDENSED SPECTRUM=NO
##NPOINTS= 122
##XYDATA=(XY..XY) 1 
    33         16
    34          1
    35          0
    36          3
    37          6
    39        144
    40         60
    41        198
    42         32
    44        128
    46         28
    47          0
    51        147
    52         27
    53         13
    55        161
    56         26
    57         10
    58         12
    59          2
    60          1
    61          2
    62          7
    63         23
    64         29
    65         32
    66         14
    68         40
    69         10
    70          6
    72         32
    74         15
    75          9
    77        276
    78         35
    79         31
    80          9
    82         21
    84        104
    86          0
    87          1
    88          1
    89          5
    91         50
    92         11
    93         24
    94          4
    95          1
    96          3
    98         85
    99         94
   100         11
   101          2
   102          6
   104        127
   106        999
   107         62
   108         15
   111         11
   112         10
   113          3
   114          2
   115         10
   116         10
   117         41
   118         14
   119         41
   120          6
   121          1
   122          0
   123          1
   124          1
   127        274
   128         23
   130        111
   132        215
   133         20
   135          2
   136          0
   137          0
   139          0
   140          4
   141          1
   142          1
   145         33
   146         18
   147          2
   148          0
   150         11
   151          2
   152          3
   153          0
   156          0
   159         87
   160        138
   161         17
   162          1
   170          0
   171          0
   172          0
   173          0
   175          0
   186          3
   187          6
   188          4
   189          1
   190          9
   191          1
   202          0
   203          4
   204         11
   205          1
   215          0
   217          3
   218          0
   229          9
   230         14
   232        313
   233         42
   234          5
   235          4
   236          0