##TITLE=Library Entry 79638
##JCAMP-DX=Revision 4.10 
##DATA TYPE=MASS SPECTRUM
##SAMPLE DESCRIPTION=A.A.Kutin, Moscow, Russia
##NAMES=HP
##CAS NAME=1,3,4-Dioxazine, perhydro-4-benzoyl-6-methyl-2-(3-nitrophenyl)-
##MOLFORM=C17H16N2O5
##CAS REGISTRY NO=296881-21-5
##MP= -300
##BP= -300
##MW= 328
##$RETENTION INDEX=0
##$CONDENSED SPECTRUM=NO
##NPOINTS= 143
##XYDATA=(XY..XY) 1 
    33          1
    34          0
    36          0
    37          0
    39         29
    41        101
    43         16
    44          1
    45          1
    46          0
    51         64
    52          5
    55        100
    57         10
    58          6
    59          1
    61          1
    63         24
    64          6
    65          6
    66          1
    68          3
    69          0
    70          0
    71          1
    72          0
    73          0
    74          1
    77        296
    78         25
    79          8
    80          1
    81          0
    82          0
    83          0
    84          1
    85          0
    86          0
    87          1
    89         26
    90         19
    91         11
    92          3
    93          1
    94          1
    95          0
    96          0
   100          0
   105        999
   106         63
   107          4
   109          0
   110          0
   111          0
   112          0
   114          0
   115          5
   116         13
   117         25
   118          4
   119          3
   120          1
   121          2
   122          2
   123          3
   124          0
   127          0
   128          0
   130          7
   131          1
   132          2
   133          2
   134          1
   135          6
   136          4
   137          0
   139          0
   140          0
   141          0
   142          0
   143          2
   144          0
   145          2
   146          4
   147          2
   149         13
   150          3
   151          1
   152         19
   153          1
   154          0
   157          0
   158          0
   159          2
   160          2
   163         79
   164          6
   165          1
   166          0
   167          1
   168          0
   169          0
   171          0
   173          1
   174          0
   175          0
   176          1
   177          2
   178          0
   179          1
   180          2
   181          0
   186          0
   189         49
   190         10
   191          1
   192          0
   193          0
   203          2
   206        120
   207         34
   208          4
   209          0
   220          0
   223          2
   224          0
   263          0
   264          0
   269          0
   271          3
   272          0
   307          0
   308          0
   309          0
   311         31
   312          4
   313          0
   323          0
   325          0
   326          1
   328         28
   329          5
   330          0