##TITLE=Library Entry 29617
##JCAMP-DX=Revision 4.10 
##DATA TYPE=MASS SPECTRUM
##SAMPLE DESCRIPTION=A.A.Kutin, Moscow, Russia
##NAMES=HP
##CAS NAME=Pyrimidine-2,4(1H,3H)-dione, 5-bromo-1-(1-methoxyethyl)-
##MOLFORM=C7H9BrN2O3
##CAS REGISTRY NO=296879-03-3
##MP= -300
##BP= -300
##MW= 248
##$RETENTION INDEX=0
##$CONDENSED SPECTRUM=NO
##NPOINTS= 22
##XYDATA=(XY..XY) 1 
    33         31
    39          8
    40        142
    41         14
    43         84
    44          7
    51          2
    53         37
    55          3
    58        131
    59        999
    60         26
    82          3
   118          3
   120          5
   149          4
   169         14
   174          5
   176          5
   191          3
   248         10
   250         12