##TITLE=Library Entry 12847
##JCAMP-DX=Revision 4.10 
##DATA TYPE=MASS SPECTRUM
##SAMPLE DESCRIPTION=A.A.Kutin, Moscow, Russia
##NAMES=HP
##CAS NAME=Butan-2-one, 4-(2-hydroxyphenyl)-4-(4-methylphenylthio)-
##MOLFORM=C17H18O2S
##CAS REGISTRY NO=296891-93-5
##MP= -300
##BP= -300
##MW= 286
##$RETENTION INDEX=0
##$CONDENSED SPECTRUM=NO
##NPOINTS= 93
##XYDATA=(XY..XY) 1 
    33          3
    34          2
    36          0
    37          2
    39         70
    40         29
    41          9
    43        999
    45         71
    47          3
    49          0
    50         12
    51         34
    52          9
    53         12
    55          3
    57          3
    58          4
    59          3
    60          2
    61          3
    62         12
    63         26
    65         52
    66          3
    67          0
    69         14
    70          3
    71          5
    72          0
    74          4
    75          7
    77         57
    78         11
    79         31
    80          4
    82          3
    83          1
    84          2
    85          0
    86          1
    87          1
    89         19
    91        232
    92         20
    93          3
    94          0
    95          2
    97          6
    98          0
   101          3
   103         33
   104          2
   105          3
   107          1
   108          5
   109          3
   111          0
   115         14
   116          2
   117          0
   118          3
   119         11
   120         31
   121         33
   123         56
   124        167
   125         15
   126          7
   127          2
   131          2
   133          3
   134          0
   135          5
   137          2
   144         12
   145         20
   147         53
   148          4
   149          2
   151          0
   161          2
   162          8
   163        263
   164         27
   165          2
   246          0
   247          0
   248          0
   249          0
   286         20
   287          3
   288          0