##TITLE=Library Entry 25676
##JCAMP-DX=Revision 4.10 
##DATA TYPE=MASS SPECTRUM
##SAMPLE DESCRIPTION=A.A.Kutin, Moscow, Russia
##NAMES=HP
##CAS NAME=Propanamide, N-[1,1-di(trifluoromethyl)-1-(5-hydroxy-3-methyl-1-p
henyl-4-pyrazolyl)methyl]-
##MOLFORM=C16H15F6N3O2
##CAS REGISTRY NO=296882-40-1
##MP= -300
##BP= -300
##MW= 395
##$RETENTION INDEX=0
##$CONDENSED SPECTRUM=NO
##NPOINTS= 177
##XYDATA=(XY..XY) 1 
    33          4
    38          9
    39         38
    40         31
    41         13
    42         23
    43         20
    44         14
    45          2
    50         20
    51         70
    52          5
    54          7
    55         31
    57        999
    58         28
    59          1
    63         15
    64         21
    65         17
    66         11
    67         19
    68          9
    69         16
    71         19
    72          3
    73          4
    74          4
    75         10
    77        370
    78         30
    79          1
    80          0
    81          1
    82          2
    83          0
    86          6
    87          1
    88          0
    89          2
    91         65
    92         16
    93         11
    94          2
    95          0
    96          5
    98          1
    99          1
   100          1
   101          6
   102          2
   103          5
   104         10
   105         23
   106         16
   107          6
   108          1
   109          0
   113          1
   114          0
   115          7
   116          4
   117          4
   118          7
   119         14
   120          2
   121          1
   122          0
   124          0
   127          0
   128          1
   129          4
   130          2
   131          3
   132          4
   133          1
   134          2
   135          5
   136          4
   137          2
   138          1
   139          2
   140          0
   142          4
   143          1
   144          0
   145          4
   146          3
   147          0
   150          2
   151          2
   154          0
   156          0
   157          1
   158          1
   159          1
   163          3
   164          1
   165          2
   166          6
   167          0
   169          3
   170          1
   171          0
   173         42
   174         29
   175          8
   176          1
   177          3
   178          1
   179          0
   182          0
   184          4
   185          1
   187          2
   189          0
   191          0
   192          4
   193          1
   198          0
   200         19
   201          5
   202          0
   203          0
   205          1
   207          0
   212          0
   214          1
   222          0
   223          0
   225          0
   226          0
   227          0
   228          0
   233          5
   234          1
   235          1
   250          0
   253        154
   254         19
   255          2
   262          0
   268          0
   269         10
   270         87
   271         14
   272          0
   273          0
   275          2
   281          0
   284          0
   295          1
   296          0
   300          0
   303          4
   304          0
   306          0
   310          0
   318          0
   320          6
   321         12
   322        329
   323         53
   324          4
   338         12
   339        231
   340         34
   341          4
   356          0
   365          0
   366         22
   367          2
   376          0
   393          0
   395         93
   396         14
   397          0