##TITLE=Library Entry 86586
##JCAMP-DX=Revision 4.10 
##DATA TYPE=MASS SPECTRUM
##SAMPLE DESCRIPTION=A.A.Kutin, Moscow, Russia
##NAMES=HP
##CAS NAME=Pyrazole, 1-methyl-5-(1-pyrazolylcarbonyl)-
##MOLFORM=C8H8N4O
##CAS REGISTRY NO=296895-85-7
##MP= -300
##BP= -300
##MW= 176
##$RETENTION INDEX=0
##$CONDENSED SPECTRUM=NO
##NPOINTS= 92
##XYDATA=(XY..XY) 1 
    33         27
    34          1
    36          3
    37         17
    38         48
    39         43
    40         92
    41         24
    42         35
    43         14
    44          3
    45          0
    47          1
    49          0
    50          4
    51         21
    52         73
    53        141
    54        143
    55         12
    57          2
    60          1
    62          0
    63          0
    64          2
    66         38
    67          7
    68         25
    69         23
    70          0
    71          0
    74          2
    75          1
    76          1
    77          2
    78          2
    79          9
    80        125
    81        275
    82         21
    83          0
    85          0
    86          0
    87          0
    88          1
    91          1
    92          1
    93          2
    94          8
    95         28
    96          6
   105          1
   106          8
   108        301
   109        999
   110         55
   111          4
   112          0
   114          0
   115          5
   117          1
   118          0
   119          3
   120         15
   121         32
   122          2
   123          0
   126          0
   128          0
   129          0
   132          0
   133          0
   134          0
   136          0
   146          0
   147         72
   148         52
   149         79
   150          3
   154          0
   157          1
   158          0
   159          8
   160          0
   161          7
   162          0
   171          0
   173          0
   175         24
   176        332
   177         34
   178          1