##TITLE=Library Entry 77485
##JCAMP-DX=Revision 4.10 
##DATA TYPE=MASS SPECTRUM
##SAMPLE DESCRIPTION=A.A.Kutin, Moscow, Russia
##NAMES=HP
##CAS NAME=Aziridine, 2-chloromethyl-2-methyl-1-(4-methylphenylsulfonyl)-
##MOLFORM=C11H14ClNO2S
##CAS REGISTRY NO=296889-12-8
##MP= -300
##BP= -300
##MW= 259
##$RETENTION INDEX=0
##$CONDENSED SPECTRUM=NO
##NPOINTS= 100
##XYDATA=(XY..XY) 1 
    33          5
    34          2
    35          0
    36          6
    37          0
    39        112
    40         45
    41        112
    42         60
    43         10
    44          7
    45          5
    48          0
    49        137
    51         66
    52          7
    53         10
    54         40
    55         64
    56          8
    57          6
    58          1
    60          1
    61          1
    62          6
    63         38
    64         16
    65        116
    66          8
    68        100
    69         66
    70          7
    71          3
    72          2
    73          2
    74          4
    75         58
    76         16
    77         28
    78         10
    79          2
    81          0
    82          1
    83          8
    84          3
    85          0
    86          0
    87          2
    88          4
    89         38
    91        244
    92         20
    93          4
    94          0
    95          0
    96          0
    97          1
    98          0
    99          1
   100          0
   101          0
   104        999
   106        348
   107         18
   108          1
   109          0
   110          0
   111          1
   112          0
   115          0
   117          1
   118          1
   121          0
   122          1
   123          1
   125          9
   127          2
   130          0
   132          0
   138         12
   139         18
   140         10
   141          0
   142          1
   144          1
   149          1
   155         33
   156          3
   157          1
   167          0
   171          1
   173          0
   175          0
   184          5
   187          0
   189          1
   224          3
   225          1
   258          0
   259          1