##TITLE=Library Entry 16890
##JCAMP-DX=Revision 4.10 
##DATA TYPE=MASS SPECTRUM
##SAMPLE DESCRIPTION=Japan AIST/NIMC Database- Spectrum MS-IW-4065
##NAMES=HP
##CAS NAME=Ethanol, 1-[2-[2-(1-methylethoxy)ethoxy]ethoxy]-
##MOLFORM=C9H20O4
##CAS REGISTRY NO=29681-21-8
##MP= -300
##BP= -300
##MW= 192
##$RETENTION INDEX=0
##$CONDENSED SPECTRUM=NO
##NPOINTS= 83
##XYDATA=(XY..XY) 1 
    14          1
    15         27
    16          1
    17          2
    18          9
    19          2
    26          6
    27         92
    28         87
    29         52
    30         11
    31         89
    32          6
    33         18
    38          1
    39         18
    40          5
    41        125
    42         46
    43        788
    44        290
    45        999
    46         52
    47         10
    51          1
    55         29
    56          8
    57         71
    58        334
    59        212
    60         34
    61         34
    62         17
    63         31
    64          1
    65          2
    68          1
    69         35
    70          7
    71         10
    72        152
    73        236
    74         11
    75        516
    76         71
    77          8
    85          1
    86        321
    87        226
    88        141
    89        478
    90         67
    91          7
   100          2
   101         17
   102          8
   103         41
   104         15
   105          6
   106         22
   107         12
   108          1
   115          4
   116          1
   117         31
   118          3
   119         69
   120          4
   121          1
   130          3
   131          4
   132          1
   133         44
   134         10
   135          1
   147          1
   149          1
   151          9
   161          1
   162          2
   177          2
   192          1
   193          1