##TITLE=Library Entry 89528
##JCAMP-DX=Revision 4.10 
##DATA TYPE=MASS SPECTRUM
##SAMPLE DESCRIPTION=A.A.Kutin, Moscow, Russia
##NAMES=HP
##CAS NAME=Propanoic acid, 3,3,3-trifluoro-2-[(3-trifluoromethyl-2-quinoxali
nyl)amino]-2-[(4-methoxybenzoyl)amino]-, ethyle ester
##MOLFORM=C6H11N5OS
##CAS REGISTRY NO=296881-68-0
##MP= -300
##BP= -300
##MW= 201
##$RETENTION INDEX=0
##$CONDENSED SPECTRUM=NO
##NPOINTS= 145
##XYDATA=(XY..XY) 1 
    33         76
    34         11
    35          3
    36          0
    38          2
    39         15
    41         87
    42        398
    43        206
    44         53
    45         41
    46         20
    47         23
    48         11
    49          0
    50          1
    51          3
    52          8
    53         14
    54         38
    55         58
    56         79
    57         71
    58         90
    59        125
    60        333
    61         41
    62         16
    63          4
    64         12
    66          6
    67         23
    68         50
    69         79
    70         39
    71         22
    72         29
    73         45
    74         57
    76         93
    77          6
    78          6
    79          1
    80          3
    81          4
    83        215
    84         24
    85         29
    86         23
    87         11
    88         26
    91        607
    92         19
    93         14
    94          2
    95          4
    96          8
    97         44
    98         12
    99         22
   100         11
   101         12
   102         12
   103          1
   104          1
   106          1
   107          0
   108          4
   109          5
   112        999
   113        145
   114         18
   115         16
   116         24
   117          2
   119          0
   121          1
   122          0
   124          6
   125         21
   126         58
   127         63
   128         27
   129         10
   130          2
   131          2
   132          0
   133         21
   134          1
   135          2
   137          3
   138          5
   140         20
   141         20
   143         25
   144         69
   145          8
   146          1
   148          1
   149          0
   150          1
   151          8
   152          6
   153          4
   154          5
   155          4
   157         43
   158         14
   159         20
   160          0
   161          0
   164          3
   165          3
   167         24
   168          5
   169         11
   170         44
   171          7
   172          9
   173          0
   174          5
   175          2
   176          1
   177          1
   178          0
   179          4
   180          4
   181          2
   182          5
   184         55
   185          5
   186         12
   187          1
   189          0
   191          0
   192          1
   193          1
   194          1
   197         10
   198          2
   199          5
   201        144
   202         12
   203          7
   205          0