##TITLE=Library Entry 63048
##JCAMP-DX=Revision 4.10 
##DATA TYPE=MASS SPECTRUM
##SAMPLE DESCRIPTION=A.A.Kutin, Moscow, Russia
##NAMES=HP
##CAS NAME=Acetamide, N-(4-fluorophenyl)-2-(1-benzyl-3-methylthio-2-indolyl)
-
##MOLFORM=C24H21FN2OS
##CAS REGISTRY NO=296900-33-9
##MP= -300
##BP= -300
##MW= 404
##$RETENTION INDEX=0
##$CONDENSED SPECTRUM=NO
##NPOINTS= 209
##XYDATA=(XY..XY) 1 
    33          2
    34          3
    36          0
    37          0
    39         24
    40         15
    41         14
    42         26
    43         19
    44         10
    45         19
    46          5
    47          6
    48          0
    50          3
    51         12
    52          3
    53          1
    54          3
    55          8
    56         25
    57         27
    58          8
    59          8
    60          3
    61          2
    62          3
    63         15
    64         11
    65         87
    66          5
    67          0
    68          1
    69          8
    70         29
    71          4
    72          4
    73          1
    74          3
    75         13
    76         10
    77         15
    78          3
    79          1
    80          0
    81          1
    82          6
    83         24
    84         17
    85          9
    86         27
    87          7
    88          9
    89         30
    91        999
    92         72
    93          4
    94          4
    95         17
    96          2
    97          1
    98          2
    99          6
   100          7
   101          8
   102          9
   103          5
   104          4
   105          1
   106          0
   107          0
   108          2
   109         14
   110         26
   111         12
   112          2
   113          2
   114         17
   115         13
   116         32
   117         17
   118          9
   119          2
   120         26
   121          5
   122          2
   123          3
   124          9
   125          1
   126          0
   127         10
   128         40
   129         15
   130         52
   131         27
   132         65
   133         17
   134         10
   135          5
   136          1
   137          5
   138          4
   139          0
   140          3
   141          1
   142          8
   143         14
   144         10
   145          2
   146          2
   147          2
   148          1
   149          1
   150          2
   151          0
   152          0
   153          0
   157          0
   158          1
   159         10
   160         19
   161         21
   162          6
   163          8
   164          1
   165          1
   166          0
   169          0
   170          0
   171          0
   172          1
   173          4
   174         11
   175         10
   176         98
   177         14
   178          7
   179          0
   180          0
   183          0
   185          0
   186          0
   187          3
   188          4
   189          2
   190          1
   191          1
   192          0
   193          0
   194          0
   200          6
   201          1
   202          3
   203          2
   204          5
   205          2
   206          1
   207          0
   214          0
   215          1
   216          5
   217         22
   218         75
   219         35
   220         36
   221          9
   222          1
   223          0
   231          0
   232          1
   233          0
   234          0
   235          0
   236          2
   237          4
   238          1
   243          1
   244          0
   246          3
   247          1
   248          3
   249          2
   250         12
   251          9
   252         29
   253          5
   254          1
   259          1
   260          0
   264          1
   265          3
   266         81
   267         18
   268          5
   269          0
   277          1
   278          2
   279          0
   313          0
   318          0
   356          1
   357         29
   358          8
   359          0
   389          0
   404         67
   405         17
   406          5
   407          0