##TITLE=Library Entry 57580
##JCAMP-DX=Revision 4.10 
##DATA TYPE=MASS SPECTRUM
##SAMPLE DESCRIPTION=Chuck Anderson, Aldrich Chemical Co.
##NAMES=HP
##CAS NAME=Ethyl 4-bromobutyrate
##MOLFORM=C6H11BrO2
##CAS REGISTRY NO=2969-81-5
##MP= -300
##BP= -300
##MW= 194
##$RETENTION INDEX=0
##$CONDENSED SPECTRUM=NO
##NPOINTS= 105
##XYDATA=(XY..XY) 1 
    13          0
    14          5
    15         21
    16          1
    17          0
    18          0
    19          2
    25          1
    26         33
    27        213
    28         54
    29        436
    30         18
    31         15
    32          0
    34          0
    35          0
    36          0
    37          4
    38         12
    39        107
    40         18
    41        241
    42        110
    43         74
    44          5
    45         79
    46          2
    47          0
    50          0
    51          0
    53          1
    54          0
    55         22
    56          1
    57          4
    58          1
    59          1
    60        163
    61         68
    62          2
    63          0
    67          0
    68          4
    69         22
    70         71
    71          5
    72          0
    73         66
    74          3
    75          0
    77          0
    79          2
    80          2
    81          2
    82          1
    83          0
    85          6
    86          2
    87        120
    88        999
    89         45
    90          5
    91          1
    92          1
    93         22
    94          1
    95         20
    96          0
    97          0
   101         13
   102          1
   105          4
   106          5
   107         13
   108          7
   109          9
   110          2
   114          0
   115         50
   116          3
   117          0
   119          3
   120          2
   121        118
   122          8
   123        111
   124          7
   125          1
   148          4
   149        180
   150         12
   151        186
   152          8
   153          0
   166         29
   167          3
   168         30
   169          3
   179          0
   181          0
   194          1
   195          0
   196          1
   197          0