##TITLE=Library Entry 14663
##JCAMP-DX=Revision 4.10 
##DATA TYPE=MASS SPECTRUM
##SAMPLE DESCRIPTION=AAFS Toxicology Section MS DB Committee, U. Alberta, Ca
nada
##NAMES=HP
##CAS NAME=Ethynodiol diacetate
##MOLFORM=C24H32O4
##CAS REGISTRY NO=297-76-7
##MP= -300
##BP= -300
##MW= 384
##$RETENTION INDEX=0
##$CONDENSED SPECTRUM=NO
##NPOINTS= 138
##XYDATA=(XY..XY) 1 
    43        999
    44         24
    53         69
    55         75
    65         59
    66         21
    67        133
    68         25
    69         28
    77        207
    78         65
    79        236
    80         35
    81        135
    82         16
    83         28
    91        634
    92        169
    93        182
    94         36
    95         90
    96         18
    97         25
   103         51
   104         60
   105        209
   106         63
   107        108
   108         46
   109         78
   110         43
   115        113
   116         52
   117        209
   118         96
   119        139
   120         47
   121         57
   122         44
   123         43
   124         16
   127         20
   128         82
   129        146
   130         72
   131        179
   132         56
   133         75
   134         27
   135         30
   136         17
   137         22
   141         79
   142         69
   143        140
   144         85
   145        141
   146         80
   147         60
   148         19
   149         19
   153         22
   154         26
   155         69
   156         36
   157         82
   158         46
   159         75
   160         30
   161         24
   162         18
   165         28
   167         35
   168         18
   169         63
   170         33
   171         71
   172         32
   173         55
   174         16
   178         21
   179         26
   181         41
   182         25
   183         47
   184         19
   185         54
   186         26
   187         20
   193         35
   194         21
   195         66
   196         26
   197        174
   198         43
   199        263
   200         53
   201         33
   207         52
   208         26
   209         37
   210         34
   211         35
   212         46
   213         53
   214        126
   215         41
   221         61
   222         28
   223         29
   225         28
   235         46
   236         52
   237         30
   239         26
   249         90
   250         22
   253         45
   254         32
   263         37
   264        102
   265         58
   267         70
   268         17
   281         53
   282        209
   283         48
   309         83
   310         16
   324        822
   325        226
   326         33
   327         19
   342         25
   369        182
   370         45
   384        190
   385         53