##TITLE=Library Entry 30761
##JCAMP-DX=Revision 4.10 
##DATA TYPE=MASS SPECTRUM
##SAMPLE DESCRIPTION=HOME OFFICE, CENTRAL RES. EST., ALDERMASTON, BERKS., U.
K.
##NAMES=HP
##CAS NAME=Racemorphan
##MOLFORM=C17H23NO
##CAS REGISTRY NO=297-90-5
##MP= -300
##BP= -300
##MW= 257
##$RETENTION INDEX=2218
##$CONDENSED SPECTRUM=NO
##NPOINTS= 54
##XYDATA=(XY..XY) 1 
    29         30
    30         90
    31        180
    32         30
    41        100
    42        280
    43         40
    44        190
    55         40
    56         40
    57         50
    58        150
    59        999
    60         30
    65         30
    67         40
    70        140
    77         60
    79        190
    80        320
    81        130
    82        270
    91        110
    94         70
    95         30
    96         30
   107         40
   115        150
   116         30
   124         50
   127         70
   128        110
   129         50
   131         40
   141        110
   142         40
   143         30
   144         80
   145         70
   146         30
   147         40
   148         60
   150        340
   151         50
   157        120
   200        220
   201         20
   212         20
   214         70
   228         70
   242         50
   256        600
   257        750
   258        100