##TITLE=Library Entry 26169
##JCAMP-DX=Revision 4.10 
##DATA TYPE=MASS SPECTRUM
##SAMPLE DESCRIPTION=D.HENNEBERG, MAX-PLANCK INSTITUTE, MULHEIM, WEST GERMAN
Y
##NAMES=HP
##CAS NAME=Cyclotriacontane
##MOLFORM=C30H60
##CAS REGISTRY NO=297-35-8
##MP= -300
##BP= -300
##MW= 420
##$RETENTION INDEX=0
##$CONDENSED SPECTRUM=NO
##NPOINTS= 233
##XYDATA=(XY..XY) 1 
    26          0
    27          1
    29         11
    33          0
    34          0
    37          0
    39          2
    40          0
    41         72
    42         34
    43        458
    44          8
    47          0
    49          0
    51          0
    52          0
    53          1
    54         31
    55        386
    56        358
    57        999
    58         43
    61          0
    62          0
    65          0
    66         10
    67         70
    68        152
    69        498
    70        315
    71        549
    72         29
    73          0
    74          0
    75          0
    78          0
    79          2
    80          7
    81         71
    82        274
    83        652
    84        198
    85        327
    86         20
    87          0
    88          0
    90          0
    91          0
    92          0
    93          1
    94          4
    95         45
    96        196
    97        694
    98        129
    99        104
   100          7
   101          0
   105          1
   106          0
   107          0
   108          2
   109         24
   110         74
   111        391
   112         93
   113         67
   114          6
   117          0
   118          0
   119          0
   120          0
   121          0
   122          5
   123         22
   124         62
   125        234
   126         65
   127         47
   128          4
   130          0
   133          0
   134          0
   135          0
   136          3
   137         17
   138         51
   139        149
   140         51
   141         37
   142          3
   143          0
   148          0
   149          0
   150          0
   151          6
   152         38
   153        108
   154         42
   155         28
   156          3
   157          0
   164          0
   165          3
   166         32
   167         87
   168         38
   169         24
   170          3
   178          0
   179          2
   180         28
   181         70
   182         31
   183         17
   184          2
   185          0
   186          0
   187          0
   193          1
   194         26
   195         59
   196         28
   197         14
   198          2
   199          0
   203          0
   204          0
   205          0
   206          0
   207          1
   208         26
   209         50
   210         25
   211         12
   212          1
   220          0
   221          1
   222         26
   223         43
   224         23
   225         11
   226          2
   235          1
   236         24
   237         37
   238         22
   239          9
   240          1
   244          0
   245          0
   246          0
   247          0
   249          1
   250         26
   251         35
   252         20
   253          8
   254          1
   263          1
   264         25
   265         33
   266         19
   267          7
   268          1
   269          0
   277          0
   278         25
   279         31
   280         17
   281          6
   282          1
   289          0
   291          1
   292         25
   293         31
   294         17
   295          5
   296          0
   305          0
   306         24
   307         31
   308         15
   309          5
   310          0
   312          0
   313          0
   314          0
   315          0
   316          0
   319          0
   320         24
   321         30
   322         16
   323          4
   324          0
   333          0
   334         23
   335         31
   336         16
   337          5
   338          1
   347          0
   348         21
   349         32
   350         15
   351          4
   352          0
   362         18
   363         34
   364         16
   365          4
   366          2
   376          9
   377         22
   378         10
   379          3
   380          0
   390          6
   391         13
   392         41
   393         11
   394          1
   405          1
   406          0
   408          0
   416          0
   417          0
   418          4
   420        543
   421        180
   422         29
   423          3