##TITLE=Library Entry 24100
##JCAMP-DX=Revision 4.10 
##DATA TYPE=MASS SPECTRUM
##SAMPLE DESCRIPTION=G.SCHILL, CHEM. LAB., ALBERT LUDWIGS UNIV., FREIBURG, W
. GER
##NAMES=HP
##CAS NAME=Cyclooctacosane
##MOLFORM=C28H56
##CAS REGISTRY NO=297-24-5
##MP= -300
##BP= -300
##MW= 392
##$RETENTION INDEX=2795
##$CONDENSED SPECTRUM=NO
##NPOINTS= 132
##XYDATA=(XY..XY) 1 
    26         20
    27         50
    28         80
    29        190
    32         20
    39         40
    40         10
    41        490
    42        160
    43        960
    44         30
    45         10
    50         10
    51         10
    52         10
    53         30
    54         80
    55        810
    56        490
    57        999
    58         70
    60         10
    65         20
    66         30
    67        110
    68        170
    69        660
    70        380
    71        530
    72         40
    73         10
    74         10
    75         10
    77         10
    79         10
    80         10
    81         70
    82        240
    83        730
    84        260
    85        350
    86         30
    87         10
    91         20
    92         10
    93         10
    94         10
    95         60
    96        150
    97        650
    98        150
    99         80
   100         10
   109         30
   110         60
   111        330
   112        100
   113         40
   123         20
   124         30
   125        150
   126         60
   127         30
   137         10
   138         20
   139         70
   140         40
   141         20
   152         20
   153         40
   154         30
   155         10
   166         10
   167         30
   168         30
   169         10
   181         20
   182         20
   183         10
   194         10
   195         10
   196         20
   197         10
   202         10
   205         10
   207         10
   208         10
   209         10
   210         20
   211         10
   222         10
   223         10
   224         10
   225         10
   236         10
   237         10
   238         10
   239         10
   250         10
   251         10
   252         10
   253         10
   264         10
   265         10
   266         10
   267         10
   278         10
   279         10
   280         10
   281         10
   292         10
   293         10
   294         10
   295         10
   306         10
   307         10
   308         10
   321         10
   322         10
   334         10
   335         20
   336         10
   348         10
   349         20
   350         10
   362         10
   363         10
   364         20
   365         10
   392         90
   393         30
   394         10