##TITLE=Library Entry 76729
##JCAMP-DX=Revision 4.10 
##DATA TYPE=MASS SPECTRUM
##SAMPLE DESCRIPTION=MASS SPECTROMETRY CENTER, UNIV. OF UTAH. EPA-PTSEL 1137
##NAMES=HP
##CAS NAME=Isobenzan
##MOLFORM=C9H4Cl8O
##CAS REGISTRY NO=297-78-9
##MP= -300
##BP= -300
##MW= 408
##$RETENTION INDEX=1970
##$CONDENSED SPECTRUM=NO
##NPOINTS= 166
##XYDATA=(XY..XY) 1 
    17          7
    18         11
    26          4
    28         60
    29        141
    35         37
    36        148
    37         50
    38         73
    39        236
    40         34
    42          2
    47         32
    48         10
    49        106
    50         31
    51         27
    60         34
    61         63
    62         21
    63         26
    65          2
    68         33
    69         20
    71         16
    72         20
    73         72
    74         49
    75        342
    76          7
    77        104
    83         52
    84         58
    85         88
    86         30
    87          8
    95         29
    96         25
    97         41
    98         46
    99         23
   102         35
   103        999
   104         50
   105        313
   106         20
   107         39
   108         54
   109        204
   110         21
   111        105
   112         23
   113         12
   114          6
   117         33
   118          9
   119         75
   120         64
   121         46
   122          7
   130         23
   131         14
   132         29
   133         53
   134         14
   135         15
   137        176
   138        106
   139        125
   140         34
   141         57
   142          1
   143         67
   144          4
   145         37
   147          2
   155          4
   157         14
   159          2
   165         21
   167         45
   168         19
   169         55
   170         43
   171         29
   172         16
   179          2
   180         10
   182          2
   191         20
   193         23
   195          4
   201          5
   203         33
   204        120
   205         44
   206        114
   207         24
   208         36
   216          5
   227         60
   228          6
   229         73
   230          1
   231         32
   233          5
   235        110
   236         30
   237        178
   238        103
   239        177
   240        108
   241        109
   242         51
   243         41
   244          7
   248         11
   250         20
   251          4
   252         11
   261         46
   263         75
   265         49
   267         15
   269          2
   270         67
   271          4
   272        131
   273        110
   274        165
   275        184
   276        147
   277        125
   278         75
   279         48
   280         18
   281          7
   309        242
   310         29
   311        476
   312         46
   313        380
   314         36
   315        158
   316         10
   317         36
   339          7
   341          4
   345         13
   347         34
   349         33
   351         14
   373         74
   374          9
   375        166
   376         16
   377        159
   378         14
   379         87
   380          1
   381         25
   408         10
   410         33
   412         38
   414         24
   416          5