##TITLE=Library Entry 7727
##JCAMP-DX=Revision 4.10 
##DATA TYPE=MASS SPECTRUM
##SAMPLE DESCRIPTION=Chemical Concepts
##NAMES=HP
##CAS NAME=Cyclotetracosane
##MOLFORM=C24H48
##CAS REGISTRY NO=297-03-0
##MP= -300
##BP= -300
##MW= 336
##$RETENTION INDEX=2589
##$CONDENSED SPECTRUM=NO
##NPOINTS= 161
##XYDATA=(XY..XY) 1 
    26         11
    27         67
    28         20
    29        268
    30          6
    33          3
    36          0
    37          1
    38          3
    39         48
    40          3
    41        647
    42        161
    43        999
    44          9
    45          0
    47          1
    49          2
    50          3
    51          2
    52          3
    53         31
    54         75
    55        915
    56        514
    57        955
    58         42
    59          0
    60          2
    61          2
    62          1
    63          3
    64          1
    65          5
    66         10
    67        108
    68        183
    69        713
    70        375
    71        465
    72         23
    73          1
    74          2
    75          2
    76          1
    77          4
    78          1
    79          7
    80          6
    81         66
    82        233
    83        799
    84        228
    85        269
    86         16
    87          2
    89          1
    90          1
    91          2
    92          1
    93          2
    94          2
    95         38
    96        126
    97        610
    98        140
    99         61
   100          5
   103          1
   104          2
   105          2
   106          3
   107          1
   108          2
   109         15
   110         41
   111        274
   112         84
   113         30
   114          3
   115          2
   117          1
   119          3
   120          1
   121          2
   122          2
   123          9
   124         25
   125        129
   126         53
   127         19
   128          2
   129          1
   130          1
   131          2
   133          2
   135          2
   137          8
   138         19
   139         56
   140         36
   141         15
   142          1
   147          0
   148          0
   149          3
   151          2
   152         12
   153         34
   154         27
   155         11
   156          1
   165          1
   166          9
   167         24
   168         20
   169          8
   179          1
   180          9
   181         14
   182         16
   183          5
   184          0
   194          8
   195         12
   196         13
   197          4
   207          2
   208          6
   209          8
   210         10
   211          3
   222          8
   223          8
   224          9
   225          1
   235          1
   236          6
   237          6
   238          6
   239          1
   250          7
   251          5
   252          5
   253          1
   264          5
   265          5
   266          4
   267          1
   278          5
   279          5
   280          3
   292          2
   293          4
   294          2
   306          1
   307          3
   308          9
   309          2
   336         39
   337          9