##TITLE=Library Entry 83848
##JCAMP-DX=Revision 4.10 
##DATA TYPE=MASS SPECTRUM
##SAMPLE DESCRIPTION=CATALOGUE OF MASS SPECTRA OF PESTICIDES, APRIL, 1975; J
. FREUDENTHAL & L. G. GRAMBERG, NAT'L INST. OF PUBLIC HEALTH, THE NETHERLAND
S
##NAMES=HP
##CAS NAME=Thionazin
##MOLFORM=C8H13N2O3PS
##CAS REGISTRY NO=297-97-2
##MP= -300
##BP= -300
##MW= 248
##$RETENTION INDEX=1594
##$CONDENSED SPECTRUM=NO
##NPOINTS= 82
##XYDATA=(XY..XY) 1 
    26         35
    27         69
    28         48
    29        129
    39         10
    40        114
    41         55
    42         11
    43         20
    44         20
    45         62
    47         33
    51         17
    52        112
    53         16
    60         20
    61         12
    63         27
    65        191
    67         25
    68        307
    69         26
    76         11
    79        402
    80         45
    81         54
    84         29
    91         18
    93        106
    95         28
    96        982
    97        641
    98         24
    99         42
   100         10
   106        730
   107        999
   108        224
   109         44
   111         25
   112        336
   113         27
   114         57
   115         22
   121         46
   123        213
   124        266
   125        127
   126         16
   128        300
   129         17
   130         15
   134         27
   135         11
   139        101
   140        407
   141         50
   142         40
   143        530
   144         32
   153         17
   159         65
   160         67
   171        144
   172         12
   175        184
   176         28
   187         85
   191         56
   192        232
   193         35
   194         18
   202         21
   203         62
   204         25
   205         11
   215         88
   220        113
   221         15
   248        432
   249         53
   250         29