##TITLE=Library Entry 28235
##JCAMP-DX=Revision 4.10 
##DATA TYPE=MASS SPECTRUM
##SAMPLE DESCRIPTION=R.C. DOUGHERTY
##NAMES=HP
##CAS NAME=Benzenemethanol, .alpha.-[(dimethylamino)methyl]-4-methoxy-
##MOLFORM=C11H17NO2
##CAS REGISTRY NO=2970-99-2
##MP= -300
##BP= -300
##MW= 195
##$RETENTION INDEX=0
##$CONDENSED SPECTRUM=NO
##NPOINTS= 74
##XYDATA=(XY..XY) 1 
    28        190
    29         80
    30        200
    31         10
    32         20
    38         20
    39         70
    40         30
    41         60
    42        340
    43        130
    44        160
    45         30
    50         30
    51         50
    52         20
    53         30
    55         20
    56         30
    57        130
    58        999
    59        480
    60         15
    62         10
    63         40
    64         40
    65         80
    66         50
    67         10
    72         30
    74         10
    75         10
    76         20
    77        200
    78         60
    79         30
    88         15
    89         30
    90         15
    91         80
    92         70
    93         20
    94         80
   103         15
   104         10
   105         20
   106         10
   107         40
   108         30
   109         50
   118         15
   119         40
   120         15
   121        120
   122         30
   123         10
   134        110
   135        250
   136        110
   137        120
   138         10
   146         20
   147         15
   148         20
   149         20
   150         40
   162        120
   163         20
   164         30
   177        130
   178         30
   193         25
   194         15
   195         50