##TITLE=Library Entry 9969
##JCAMP-DX=Revision 4.10 
##DATA TYPE=MASS SPECTRUM
##SAMPLE DESCRIPTION=Institute of Chemistry, SAS, Bratislava, Slovakia
##NAMES=HP
##CAS NAME=Xylopyranoside, methyl, 3-acetate 2,4-dimethanesulfonate, .alpha.
-D-
##MOLFORM=C10H18O10S2
##CAS REGISTRY NO=29709-43-1
##MP= -300
##BP= -300
##MW= 362
##$RETENTION INDEX=0
##$CONDENSED SPECTRUM=NO
##NPOINTS= 36
##XYDATA=(XY..XY) 1 
    41         22
    42          6
    43        999
    44         22
    45         58
    57         31
    58          2
    69         54
    70          4
    73         26
    79        117
    80          1
    85        207
    86         20
    97         63
    98          4
   111         13
   112          1
   127        117
   128          5
   135          6
   151          8
   163         49
   164          3
   175         17
   193          4
   207          4
   223        135
   224          6
   229          2
   242          2
   271          3
   283          1
   303          1
   331          1
   362          0