##TITLE=Library Entry 96480
##JCAMP-DX=Revision 4.10 
##DATA TYPE=MASS SPECTRUM
##SAMPLE DESCRIPTION=A.A.Kutin, Moscow, Russia
##NAMES=HP
##CAS NAME=Acetamide, 2-(1-phenyltetrazol-5-yl)thio-N-(2-phenoxyethyl)-
##MOLFORM=C17H17N5O2S
##CAS REGISTRY NO=297138-20-6
##MP= -300
##BP= -300
##MW= 355
##$RETENTION INDEX=0
##$CONDENSED SPECTRUM=NO
##NPOINTS= 158
##XYDATA=(XY..XY) 1 
    37          4
    38         15
    39         65
    40         10
    41         21
    42         76
    43         61
    44        164
    45         42
    46         69
    47         13
    48          4
    50         51
    51        166
    52         17
    53          7
    54          9
    56         88
    57         32
    58          5
    59          7
    60          8
    61         12
    62         20
    63         61
    64         76
    65        232
    66         50
    67          4
    68          2
    70         69
    71          8
    72         26
    74         55
    75         21
    77        635
    79         95
    80          5
    81          1
    82          2
    83          5
    84         22
    85        101
    86         22
    88         98
    91        250
    92         40
    93         46
    94        164
    95         21
    97          8
    98          5
    99          2
   100          0
   102         12
   103         16
   104         18
   105         30
   106         23
   107         73
   108         11
   109          7
   110          2
   111          5
   112          1
   116        999
   117        382
   118        273
   119        145
   120        557
   121         66
   122          9
   123          5
   124          4
   125          7
   126          1
   127          1
   128          1
   129          1
   131         18
   132          4
   133          7
   134         13
   135         53
   136         26
   137          8
   139         31
   140          3
   141          2
   143         11
   145         13
   146          2
   147          2
   148          6
   149         23
   150         15
   151          8
   152         19
   153         12
   154          1
   157          0
   159          0
   160          2
   161          3
   163        118
   164         14
   165          8
   166          5
   167          5
   168          2
   169          0
   171          0
   176          1
   177          3
   178         10
   179          9
   181         52
   182          9
   183          1
   188          1
   191          6
   192          1
   193          1
   194          1
   196          2
   198          1
   200          0
   201          0
   202          0
   205          0
   207          1
   208          1
   209          2
   210          3
   211          0
   217          0
   219         47
   220          5
   221          1
   222          0
   223          2
   234          5
   235          1
   236          0
   248          1
   249          4
   250          0
   251          0
   259          1
   262        518
   263         75
   264         28
   265          2
   282          0
   355         63
   356         15
   357          3
   358          0