##TITLE=Library Entry 52196
##JCAMP-DX=Revision 4.10 
##DATA TYPE=MASS SPECTRUM
##SAMPLE DESCRIPTION=A.A.Kutin, Moscow, Russia
##NAMES=HP
##CAS NAME=Cyclopropane-1-carboxamide, 2-(2,2-dichloroethenyl)-3,3-dimethyl-
N-cyclohexyl-
##MOLFORM=C14H21Cl2NO
##CAS REGISTRY NO=297146-28-2
##MP= -300
##BP= -300
##MW= 289
##$RETENTION INDEX=0
##$CONDENSED SPECTRUM=NO
##NPOINTS= 172
##XYDATA=(XY..XY) 1 
    34          0
    35          3
    36         21
    37          2
    38          9
    39         54
    40         17
    41        195
    42         21
    43         55
    44         21
    45          1
    46          3
    47          0
    49          2
    50          6
    51         20
    52         11
    53         26
    54         21
    55        396
    56         63
    57          5
    58          6
    59          4
    60          1
    61          1
    62          1
    63          7
    64          1
    65         20
    66          5
    67         25
    68          5
    69          7
    70          7
    71          1
    72          1
    73         12
    74          1
    75         10
    76          1
    77         35
    78          8
    79         26
    80          5
    81         18
    83        999
    84         65
    85         12
    86          1
    87         11
    88          1
    89          4
    90          1
    91         76
    92         11
    93         26
    94          5
    95          7
    96          4
    97          4
    98         24
    99         10
   100          3
   101          2
   102          0
   103          0
   104          0
   105          1
   106          1
   107          2
   108          2
   109         13
   110          4
   111         11
   112          6
   113         10
   114          7
   115          4
   116          3
   117          1
   118          1
   119          3
   120          2
   121          6
   122          3
   123          6
   124          2
   125          6
   126        127
   127         53
   128         14
   129         56
   130         10
   131         14
   132          1
   133          1
   134          0
   135          1
   136          6
   137          1
   138          1
   139          0
   140          1
   141          1
   142          0
   143          0
   144          0
   146          0
   147          2
   148          7
   149          7
   150          7
   151          4
   152          2
   153          0
   154          0
   155          1
   156          1
   157          1
   158          0
   159          0
   160          0
   161          0
   162          3
   163         64
   164         31
   165         45
   166         20
   167          8
   168          4
   169          0
   170          0
   171          0
   172          5
   173          1
   174          2
   175          2
   176          1
   177          0
   178          0
   180          1
   182          0
   188          0
   190          0
   191          1
   192          2
   193          1
   194          1
   195          0
   196         17
   197          2
   198          5
   199          0
   203          0
   204          0
   205          0
   206          0
   208          0
   210          0
   211          5
   212          1
   213          1
   214          0
   218          3
   220          0
   231          0
   232          0
   233          0
   246          0
   248          0