##TITLE=Library Entry 45177
##JCAMP-DX=Revision 4.10 
##DATA TYPE=MASS SPECTRUM
##SAMPLE DESCRIPTION=Chemical Concepts
##NAMES=HP
##CAS NAME=1,4-Bis(3,5-dinitrobenzoyl)piperazine
##MOLFORM=C18H14N6O10
##CAS REGISTRY NO=297149-10-1
##MP= -300
##BP= -300
##MW= 474
##$RETENTION INDEX=0
##$CONDENSED SPECTRUM=NO
##NPOINTS= 170
##XYDATA=(XY..XY) 1 
    33         35
    34          8
    36         20
    37         18
    38         30
    39         65
    40        146
    41        275
    42        314
    43        246
    44        150
    45         53
    46         24
    48         10
    49          9
    50         62
    51         42
    52         48
    53         54
    54        101
    55        300
    56        914
    57        163
    58         42
    60         78
    61         23
    62         42
    63        115
    64         30
    65         19
    66         12
    67         48
    68         42
    69        290
    70         57
    71         53
    73         93
    74        160
    75        999
    76         80
    79         65
    80         20
    81         42
    82         26
    83         66
    84         47
    85         34
    87         24
    88         29
    89         17
    90         10
    91         45
    92         22
    94         13
    95         24
    96         18
    97         33
    98         23
    99         11
   100          8
   101         19
   103        210
   104         24
   105          9
   106          4
   107         12
   108          7
   109         12
   110         11
   111         15
   112         13
   113         10
   114          2
   115         10
   116          6
   117          5
   118          6
   119         29
   120         23
   121         15
   122          7
   123          9
   124          6
   125          9
   126          5
   127          6
   128          4
   129         15
   130          6
   131         10
   132          3
   133          7
   134          3
   135          8
   136         10
   137         11
   138          6
   139          4
   140          3
   143          4
   144          2
   145          3
   146          6
   147         10
   149        422
   150         37
   151          8
   152          6
   153          4
   154          2
   157          6
   159          4
   160          2
   163          5
   164          2
   165         11
   166         15
   167          9
   171         10
   177          4
   179         54
   180          9
   181          6
   185          6
   187          4
   189          3
   191          9
   192         14
   195        654
   196         57
   197         10
   199          2
   204          5
   205          2
   206          2
   207          1
   208          2
   212         22
   213          5
   219         10
   220         14
   221          2
   222          5
   224          4
   233         15
   234          8
   235          6
   236          9
   237         10
   238         18
   239          2
   245         13
   246          2
   249          7
   250         35
   251          9
   252          2
   256          8
   261         10
   263         17
   264          4
   265          5
   278          6
   279         46
   280          9
   281          2
   439          2
   455          2
   456          6
   457          9