##TITLE=Library Entry 58989
##JCAMP-DX=Revision 4.10 
##DATA TYPE=MASS SPECTRUM
##SAMPLE DESCRIPTION=A.A.Kutin, Moscow, Russia
##NAMES=HP
##CAS NAME=Urea, N-benzyl-N-(1-cyclopropylethyl)-N'-(3-nitrophenyl)-
##MOLFORM=C19H21N3O3
##CAS REGISTRY NO=297138-91-1
##MP= -300
##BP= -300
##MW= 339
##$RETENTION INDEX=0
##$CONDENSED SPECTRUM=NO
##NPOINTS= 205
##XYDATA=(XY..XY) 1 
    33         10
    34          5
    36          2
    37         19
    39        239
    41        738
    42         76
    43         32
    44         31
    46          9
    48          1
    50         47
    51         61
    52         32
    53         39
    54         20
    55         27
    56         24
    57         11
    58          2
    59          0
    60          1
    61          7
    63        101
    64         69
    65        161
    66         14
    67         32
    69        680
    70         47
    71          4
    74         11
    75         25
    76         42
    77         57
    78         29
    79         25
    80          9
    82         10
    83          8
    84         32
    85          3
    86          2
    87          2
    91        999
    92         79
    93          6
    94          1
    96         11
    97          1
    98          1
    99          0
   100          0
   101          0
   102          2
   104         36
   106        136
   107         12
   108          2
   110          4
   111          1
   112          1
   113          0
   115          5
   117         13
   118         21
   119          5
   120          1
   122          6
   123          0
   124          0
   125          0
   127          1
   128          2
   129          2
   130          6
   132         56
   133          8
   134         37
   135          4
   137         13
   138         26
   139          3
   140          0
   141          0
   142          0
   143          1
   144          3
   145          2
   146         10
   147          6
   148          2
   149          2
   151         13
   152          1
   153          0
   154          0
   155          0
   156          0
   157          1
   158          5
   160         81
   161          9
   162          1
   164         34
   165         13
   166          1
   167          1
   168          0
   169          0
   171          1
   172          2
   174         24
   175          8
   176          4
   177          4
   178          1
   179          0
   180          1
   181          0
   182          0
   183          0
   186          0
   187          0
   188          0
   189          0
   190          0
   191          7
   192          1
   193          0
   194          0
   195          0
   196          0
   197          0
   199          0
   200          0
   202         21
   203          2
   205          6
   206          4
   207          1
   208          0
   210          0
   211          0
   212          0
   214          0
   217          0
   218          0
   219          0
   220          3
   221          0
   222          0
   223          0
   224          0
   225          0
   226          0
   227          1
   228          2
   229          0
   232          0
   233          0
   234          0
   235          0
   236          0
   240          0
   241          1
   242          0
   244          0
   246          1
   247          1
   248         63
   249          9
   250          1
   253          0
   254          1
   255          0
   256          0
   267          0
   268          2
   270         55
   271          6
   272          0
   283          0
   294          0
   295          0
   296          4
   297          0
   298          1
   299          0
   309          0
   310          1
   311          0
   313          0
   322          1
   323          0
   324          2
   325          0
   335          0
   336          0
   337          0
   338          2
   339         23
   340          4
   341          1
   342          0