##TITLE=Library Entry 46998
##JCAMP-DX=Revision 4.10 
##DATA TYPE=MASS SPECTRUM
##SAMPLE DESCRIPTION=Chemical Concepts
##NAMES=HP
##CAS NAME=N-[2,2,2-Trichloro-1-(p-tolylthio)ethyl]-4-methylbenzamide
##MOLFORM=C17H16Cl3NOS
##CAS REGISTRY NO=297141-25-4
##MP= -300
##BP= -300
##MW= 387
##$RETENTION INDEX=0
##$CONDENSED SPECTRUM=NO
##NPOINTS= 109
##XYDATA=(XY..XY) 1 
    35         24
    36         24
    37         20
    38         47
    39        140
    40         13
    41         17
    42          2
    43          5
    45        256
    47         59
    48         16
    50        250
    51        414
    52         51
    53         48
    54          3
    55          3
    57         13
    58         15
    59          8
    60         13
    61         10
    62         31
    63         69
    64         15
    65         65
    66          7
    67          2
    69         79
    70         19
    71         29
    72          4
    73         13
    74         58
    75         48
    77        999
    79        177
    80         13
    81          9
    82         42
    83         51
    84         21
    85         28
    86          8
    87          8
    89         48
    90         21
    91         91
    92         12
    93          9
    94          3
    95         21
    96          8
    97         34
    98          3
    99          3
   100          1
   101          1
   102          4
   105        746
   106         64
   107         10
   108         42
   109          9
   110          8
   111          4
   112          4
   113          1
   114          1
   115          2
   116          4
   117          7
   118          4
   119          7
   121         69
   123        313
   124        182
   125         28
   126          9
   127          2
   128          1
   130          1
   131          2
   134          2
   135          8
   136          1
   137          1
   139          1
   147          2
   148          2
   150          1
   151          1
   152          1
   154          1
   158          2
   160          1
   161          2
   163          1
   165          1
   171          1
   173          1
   180          1
   182          1
   184          1
   215          1
   217          1
   250          1
   252          1