##TITLE=Library Entry 3570
##JCAMP-DX=Revision 4.10 
##DATA TYPE=MASS SPECTRUM
##SAMPLE DESCRIPTION=CAR 0007
##NAMES=HP
##CAS NAME=Cyclodecanone, oxime
##MOLFORM=C10H19NO
##CAS REGISTRY NO=2972-01-2
##MP= -300
##BP= -300
##MW= 169
##$RETENTION INDEX=0
##$CONDENSED SPECTRUM=NO
##NPOINTS= 117
##XYDATA=(XY..XY) 1 
    12          2
    14         20
    15         30
    16         26
    19          4
    26         20
    27        345
    29        356
    30        466
    31         18
    33          6
    34          4
    37          6
    38         11
    39        362
    40         67
    41        999
    42        218
    43        198
    45         13
    46         16
    48          8
    50         12
    51         38
    52         33
    53        151
    54        368
    55        569
    56        134
    57        603
    58         43
    59         30
    60         33
    62          3
    63         12
    64          7
    65         50
    66         52
    67        483
    68        122
    69        431
    70        420
    71         58
    72         31
    73        994
    74         35
    75          9
    76          5
    77         85
    78         33
    79        186
    80        189
    81        828
    82        477
    83        142
    84         67
    85         42
    86        345
    87         63
    88          4
    89          5
    91         63
    92         19
    93        259
    94        253
    95        759
    96        420
    97        133
    98        136
    99         47
   100         28
   101          7
   103          9
   104         25
   105         16
   106         13
   107         89
   108        101
   109         43
   110        816
   111         83
   112        191
   113         76
   114         13
   115          6
   117          3
   118          3
   119         20
   120          8
   121         84
   122         48
   123         24
   124        150
   125         21
   126        153
   127         47
   128         55
   129          5
   132          3
   134         10
   135         24
   136        391
   137        615
   138         67
   139          7
   140         41
   141         10
   150         16
   151         19
   152         85
   153        102
   154         38
   155          4
   167          6
   168          6
   169         73
   170          9