##TITLE=Library Entry 87406
##JCAMP-DX=Revision 4.10 
##DATA TYPE=MASS SPECTRUM
##SAMPLE DESCRIPTION=W.J.FEAST UNIV. OF LEUVEN, HEVERLEE, BELGIUM
##NAMES=HP
##CAS NAME=1H-Pyrrole-2,5-dione, 1-butyl-
##MOLFORM=C8H11NO2
##CAS REGISTRY NO=2973-09-3
##MP= -300
##BP= -300
##MW= 153
##$RETENTION INDEX=0
##$CONDENSED SPECTRUM=NO
##NPOINTS= 40
##XYDATA=(XY..XY) 1 
    26        170
    27        180
    28        100
    29         40
    30         40
    32         10
    37         10
    38         20
    39         90
    40         30
    41        150
    42         40
    43        220
    44         30
    53         60
    54        180
    55         70
    56         90
    57         10
    58         70
    66         10
    69         10
    70         20
    72         20
    80         90
    82        190
    83         80
    84         10
    96         20
    97         10
    98        180
    99        140
   110        999
   111        530
   112         50
   124         40
   125         10
   138         10
   153        430
   154         40