##TITLE=Library Entry 9887
##JCAMP-DX=Revision 4.10 
##DATA TYPE=MASS SPECTRUM
##SAMPLE DESCRIPTION=Chemical Concepts
##NAMES=HP
##CAS NAME=Hexanoic acid, 3,5-dioxo-, methyl ester
##MOLFORM=C7H10O4
##CAS REGISTRY NO=29736-80-9
##MP= -300
##BP= -300
##MW= 158
##$RETENTION INDEX=0
##$CONDENSED SPECTRUM=NO
##NPOINTS= 52
##XYDATA=(XY..XY) 1 
    26         18
    27         78
    29        122
    30         13
    31        187
    33          4
    37         10
    38         23
    39         73
    40         19
    41         80
    42        159
    43        999
    44         94
    45         44
    53         20
    55         68
    56         51
    57         31
    58         18
    59         89
    69        319
    70         15
    72         23
    74         32
    84         71
    85        809
    86         36
    97          2
    98        243
    99         52
   100         87
   101        113
   102          5
   109          2
   110         77
   111          6
   115          3
   116        121
   117          6
   125         42
   126        298
   127         81
   128          1
   130         37
   131          3
   140         10
   141         18
   143         35
   144          3
   158         84
   159          8