##TITLE=Library Entry 20275
##JCAMP-DX=Revision 4.10 
##DATA TYPE=MASS SPECTRUM
##SAMPLE DESCRIPTION=NIST Mass Spectrometry Data Center
##NAMES=HP
##CAS NAME=cis-10-Heptadecenoic acid
##MOLFORM=C17H32O2
##CAS REGISTRY NO=29743-97-3
##MP= -300
##BP= -300
##MW= 268
##$RETENTION INDEX=2073
##$CONDENSED SPECTRUM=NO
##NPOINTS= 199
##XYDATA=(XY..XY) 1 
    15          1
    26          3
    27         63
    28         17
    29        129
    30          4
    31          6
    39        104
    40         21
    41        546
    42        115
    43        354
    44         13
    45         72
    46          2
    47          1
    50          2
    51          8
    52          7
    53         90
    54        218
    55        999
    56        286
    57        213
    58         15
    59         34
    60        154
    61         13
    62          1
    63          2
    64          1
    65         32
    66         22
    67        303
    68        194
    69        695
    70        275
    71        118
    72          8
    73        149
    74         13
    75          2
    77         28
    78          9
    79         82
    80         38
    81        257
    82        224
    83        564
    84        336
    85         87
    86         11
    87         59
    88          7
    89          2
    91         28
    92          7
    93         40
    94         44
    95        203
    96        292
    97        489
    98        280
    99         54
   100         52
   101         76
   102         10
   103          2
   104          1
   105         17
   106          7
   107         32
   108         34
   109        116
   110        179
   111        225
   112        101
   113         44
   114         99
   115         46
   116         10
   117          4
   118          3
   119         34
   120         12
   121         36
   122         24
   123        118
   124        104
   125        110
   126         46
   127         66
   128         20
   129         32
   130          7
   131          3
   132          2
   133         34
   134         30
   135         32
   136         18
   137         78
   138         72
   139         52
   140         21
   141         19
   142          5
   143         11
   144          3
   145          1
   146          1
   147         26
   148         26
   149         23
   150         14
   151         56
   152         53
   153         29
   154         10
   155         16
   156          4
   157          6
   158          3
   159          1
   161         20
   162          9
   163         12
   164          8
   165         36
   166         47
   167         19
   168          7
   169         10
   170          3
   171          5
   172          7
   173          1
   174          1
   175         13
   176          4
   177          5
   178          4
   179         24
   180         15
   181          9
   182          3
   183          3
   184          1
   185          6
   186          4
   187          1
   189          7
   190          2
   191          2
   192          2
   193         18
   194         10
   195          5
   196          3
   197          2
   198          1
   199          2
   200          2
   201          1
   203          3
   204          2
   206         38
   207         27
   208         41
   209          9
   210          1
   211          1
   212          1
   213          1
   217          1
   219          1
   220          1
   221         17
   222          9
   223          2
   225          4
   226          1
   231          1
   232          8
   233          2
   235          3
   236          1
   239          1
   240          1
   249          1
   250        102
   251         23
   252          2
   264          2
   265          1
   266          1
   268         25
   269          5
   270          1