##TITLE=Library Entry 68455
##JCAMP-DX=Revision 4.10 
##DATA TYPE=MASS SPECTRUM
##SAMPLE DESCRIPTION=Exported from NIST MS Search
##NAMES=HP
##CAS NAME=Bicyclo[4.1.0]heptan-2-one, 3,5,5-trimethyl-
##MOLFORM=C10H16O
##CAS REGISTRY NO=29750-24-1
##MP= -300
##BP= -300
##MW= 152
##$RETENTION INDEX=0
##$CONDENSED SPECTRUM=NO
##NPOINTS= 46
##XYDATA=(XY..XY) 1 
    41        630
    42         50
    43        100
    51         20
    52         30
    53        150
    54         70
    55        700
    56         80
    57         30
    65         30
    66         20
    67        520
    68        300
    69        520
    70         30
    76         70
    77         20
    78        100
    80         20
    81        500
    82        380
    83        180
    84        400
    85         20
    92         50
    93         50
    94         60
    95        999
    96        400
    97        500
    98         40
   107         20
   108         70
   109        430
   110        800
   111        120
   119         30
   121         20
   123        220
   124         50
   133         20
   137        210
   138         40
   152        650
   153         50