##TITLE=Library Entry 18767
##JCAMP-DX=Revision 4.10 
##DATA TYPE=MASS SPECTRUM
##SAMPLE DESCRIPTION=Exported from NIST MS Search
##NAMES=HP
##CAS NAME=2-Norcaranone, 3-methyl-
##MOLFORM=C8H12O
##CAS REGISTRY NO=29750-22-9
##MP= -300
##BP= -300
##MW= 124
##$RETENTION INDEX=0
##$CONDENSED SPECTRUM=NO
##NPOINTS= 32
##XYDATA=(XY..XY) 1 
    42        290
    43         40
    44         30
    50         20
    51         50
    52         30
    53        160
    54        999
    55        270
    56         30
    57         30
    65         30
    66         30
    67        300
    68        140
    69        130
    70         20
    77         30
    79         50
    80        100
    81        380
    82        630
    83         80
    91         30
    93         50
    95        130
    96         80
   109        140
   110         30
   123         20
   124        600
   125         40