##TITLE=Library Entry 42946
##JCAMP-DX=Revision 4.10 
##DATA TYPE=MASS SPECTRUM
##SAMPLE DESCRIPTION=Exported from NIST MS Search
##NAMES=HP
##CAS NAME=1,3-Cyclohexanediol, (E)-, 2TMS derivative
##MOLFORM=C12H28O2Si2
##CAS REGISTRY NO=29753-64-8
##MP= -300
##BP= -300
##MW= 260
##$RETENTION INDEX=0
##$CONDENSED SPECTRUM=NO
##NPOINTS= 93
##XYDATA=(XY..XY) 1 
    41        180
    42         30
    43         50
    44        250
    45        170
    46         10
    47         90
    48         20
    49         20
    50         10
    51         10
    53         50
    54         20
    55         70
    56        270
    57         30
    58         20
    59        150
    60         20
    61         80
    62         20
    63         20
    65         20
    66         20
    67         30
    68         30
    69         50
    70         20
    71         20
    72         30
    73        999
    74         80
    75        550
    76         50
    77         50
    78         10
    79         70
    80         40
    81        730
    82         50
    83         10
    84         10
    85         20
    87         10
    89         10
    91         10
    93         10
    94         30
    95         20
    97         30
    98         10
   101        190
   102         20
   111         10
   112         50
   113         20
   115        150
   116        360
   117         40
   118         10
   126         10
   127         10
   128         50
   129        150
   130         30
   131         30
   132         50
   141         10
   142         70
   143         30
   144         10
   147        420
   148         70
   149        100
   150         20
   155        230
   156         40
   157         20
   165         20
   168         10
   169        400
   170        920
   171        150
   172         40
   191         10
   203         10
   217        220
   218         50
   219         20
   245        200
   246         20
   247         10
   260         10