##TITLE=Library Entry 85641
##JCAMP-DX=Revision 4.10 
##DATA TYPE=MASS SPECTRUM
##SAMPLE DESCRIPTION=Chemical Concepts
##NAMES=HP
##CAS NAME=Ketone, isopropylidenecyclopropyl methyl
##MOLFORM=C8H12O
##CAS REGISTRY NO=29765-67-1
##MP= -300
##BP= -300
##MW= 124
##$RETENTION INDEX=0
##$CONDENSED SPECTRUM=NO
##NPOINTS= 82
##XYDATA=(XY..XY) 1 
    26         16
    27        131
    28         11
    29         43
    30          1
    31          5
    37          7
    38         19
    39        189
    40         35
    41        208
    42         18
    43        923
    44         20
    45          8
    46          0
    47          0
    49          2
    50         22
    51         46
    52         19
    53        175
    54         22
    55         58
    56          7
    57         14
    58        116
    59         25
    60          1
    61          5
    62          8
    63         16
    64          3
    65         52
    66         28
    67         55
    68          7
    69         14
    70          5
    71         41
    72          4
    73          1
    74          3
    75          8
    76          1
    77         45
    78          7
    79        153
    80         18
    81        174
    82         19
    83         14
    84          2
    85         10
    86          2
    87          0
    88          0
    89          0
    91         31
    92          2
    93         10
    94         11
    95         24
    96         13
    97          3
    98          1
    99          2
   100          3
   101          2
   103          1
   105         10
   106          2
   107         11
   108         10
   109        999
   110         73
   111          6
   122          5
   123        210
   124        140
   125         17
   126          1