##TITLE=Library Entry 635
##JCAMP-DX=Revision 4.10 
##DATA TYPE=MASS SPECTRUM
##SAMPLE DESCRIPTION=Exported from NIST MS Search
##NAMES=HP
##CAS NAME=Butane, 1-(ethylsulfinyl)-
##MOLFORM=C6H14OS
##CAS REGISTRY NO=2976-99-0
##MP= -300
##BP= -300
##MW= 134
##$RETENTION INDEX=0
##$CONDENSED SPECTRUM=NO
##NPOINTS= 57
##XYDATA=(XY..XY) 1 
    25         10
    26         90
    27        430
    28        370
    29        999
    30         20
    31         10
    32         30
    33         10
    34         20
    35         20
    37         10
    38         20
    39        130
    40         30
    41        670
    42         30
    43         40
    44         40
    45         50
    46         30
    47         50
    48         20
    49         20
    50        110
    51         20
    52         10
    53         20
    54         10
    55        150
    56        150
    57        400
    58         40
    59         40
    60         10
    61         40
    62         20
    63        400
    64         50
    65         20
    75         50
    76         30
    77         60
    78        850
    79         40
    80         40
    89         50
    90         20
    91         10
    92         20
   105         10
   106         50
   117        100
   118         20
   119         10
   134         70
   135         10