##TITLE=Library Entry 95526
##JCAMP-DX=Revision 4.10 
##DATA TYPE=MASS SPECTRUM
##SAMPLE DESCRIPTION=Japan AIST/NIMC Database- Spectrum MS-NW-4392
##NAMES=HP
##CAS NAME=(1-Naphthoxy)acetic acid
##MOLFORM=C12H10O3
##CAS REGISTRY NO=2976-75-2
##MP= -300
##BP= -300
##MW= 202
##$RETENTION INDEX=0
##$CONDENSED SPECTRUM=NO
##NPOINTS= 115
##XYDATA=(XY..XY) 1 
    14          7
    15          3
    16          1
    17          4
    18         14
    26          3
    27          6
    28         19
    29         10
    30          3
    31         28
    32          4
    36          1
    37          4
    38          9
    39         39
    40          2
    41          6
    42          9
    43          3
    44          7
    45         15
    49          2
    50         32
    51         44
    52          7
    53          3
    55          2
    57          5
    58          2
    59          4
    60          1
    61          8
    62         31
    63         74
    64         26
    65         33
    66          2
    69          1
    71          1
    72          2
    73          3
    74         34
    75         46
    76         22
    77         68
    78          9
    79          1
    83          1
    85          4
    86         13
    87         22
    88         20
    89         56
    90          7
    91          2
    92          1
    93          1
    97          1
    98          9
    99          8
   100          6
   101         43
   102          9
   103          4
   104          1
   105          1
   106          1
   108          1
   109          1
   110          2
   111          2
   113         19
   114         36
   115        999
   116        134
   117          9
   118          1
   121          1
   122          2
   123          1
   124          1
   125          5
   126         61
   127        239
   128         70
   129         52
   130          8
   131          6
   132          1
   133          1
   139          1
   140          1
   141          2
   142          3
   143        810
   144        255
   145         26
   146          3
   147          1
   149          1
   155         13
   156         11
   157         55
   158          9
   159          2
   174          7
   175          1
   184          3
   185          1
   201          3
   202        883
   203        107
   204         12
   205          1