##TITLE=Library Entry 1667
##JCAMP-DX=Revision 4.10 
##DATA TYPE=MASS SPECTRUM
##SAMPLE DESCRIPTION=A.A.Kutin, Moscow, Russia
##NAMES=HP
##CAS NAME=Tetrazole, 5-(3,5-dimethylpyrazol-1-yl)-
##MOLFORM=C6H8N6
##CAS REGISTRY NO=297763-48-5
##MP= -300
##BP= -300
##MW= 164
##$RETENTION INDEX=0
##$CONDENSED SPECTRUM=NO
##NPOINTS= 112
##XYDATA=(XY..XY) 1 
    33          8
    34         37
    35          1
    36        140
    37        152
    38        411
    39        999
    40        905
    41        542
    42        556
    43        175
    44        194
    45         27
    48          4
    49         14
    50         85
    51        183
    52        145
    53        107
    54        105
    55         91
    56         30
    57         35
    59          3
    60         10
    61         16
    62         40
    63         75
    64         80
    65        230
    66        639
    67        227
    68        148
    69         96
    70         17
    71         16
    72          1
    73         12
    74         21
    75         31
    76         46
    77         68
    78         16
    79         35
    80         69
    81         95
    82         78
    83         17
    84         10
    85          6
    86          4
    87          8
    88          7
    89         14
    90          6
    91         20
    92          5
    93        125
    94         57
    95        794
    96        169
    97         10
    99         11
   100          4
   101          8
   102          9
   103         46
   104         42
   105         25
   106         22
   107         31
   108         16
   109         40
   110          9
   111          7
   112          3
   113         15
   115          8
   116          3
   117          1
   118          8
   119          6
   120         18
   121         54
   122         33
   123          4
   126          1
   128          8
   130         11
   131         22
   135         17
   136         18
   137          2
   140          4
   142          1
   143          2
   145          7
   149         10
   150          6
   151          2
   152          2
   155          3
   156          1
   158          3
   159          7
   160          1
   161          2
   162          4
   163          3
   164        175
   165         18
   167          1