##TITLE=Library Entry 31057
##JCAMP-DX=Revision 4.10 
##DATA TYPE=MASS SPECTRUM
##SAMPLE DESCRIPTION=A.Mazepa, Phys.-Chem.Institute, Odessa, Ukraine
##NAMES=HP
##CAS NAME=3,4-Dihydroxy-1-O-tolyl-pyrrolidine-2,5-dione
##MOLFORM=C11H11NO4
##CAS REGISTRY NO=297763-90-7
##MP= -300
##BP= -300
##MW= 221
##$RETENTION INDEX=0
##$CONDENSED SPECTRUM=NO
##NPOINTS= 43
##XYDATA=(XY..XY) 1 
    51         10
    52         12
    53          3
    59         13
    60        999
    61         19
    62          2
    65         74
    66          2
    71         80
    76          3
    77         73
    78         73
    79         22
    80          1
    89         24
    90         14
    91        160
    92         27
    93          9
   102          4
   103          2
   104        106
   105         93
   106         67
   107         71
   108         19
   117          4
   118         33
   119          2
   132         40
   133        617
   134        246
   135         15
   136          1
   146         13
   151         49
   152          1
   164         17
   165          6
   221        479
   222         57
   223          3