##TITLE=Library Entry 89325
##JCAMP-DX=Revision 4.10 
##DATA TYPE=MASS SPECTRUM
##SAMPLE DESCRIPTION=Chemical Concepts
##NAMES=HP
##CAS NAME=Ethyl 2-[1,3-bis(4-amino-3-furazanyl)-2-triazeno]acetate
##MOLFORM=C8H11N9O4
##CAS REGISTRY NO=297763-49-6
##MP= -300
##BP= -300
##MW= 297
##$RETENTION INDEX=0
##$CONDENSED SPECTRUM=NO
##NPOINTS= 60
##XYDATA=(XY..XY) 1 
    34         15
    35          7
    36          6
    38         12
    40        272
    41         77
    42        124
    43        101
    44        132
    45         17
    46          3
    48          5
    49         18
    50          6
    51         13
    53        158
    54        321
    55         85
    56         27
    57         23
    58         27
    59         38
    60         11
    61          4
    63          3
    65          4
    66          5
    67          8
    68         17
    69         17
    70         17
    71         15
    72         14
    73         25
    74          5
    77         36
    79         12
    81          5
    82         11
    83         21
    84         19
    85          9
    86          7
    87          6
    91          4
    94          5
    95          5
    96          4
    97          4
   101          5
   107          6
   108          6
   109          6
   112        999
   113         40
   114          6
   149          6
   252         11
   297         38
   298          4