##TITLE=Library Entry 67630
##JCAMP-DX=Revision 4.10 
##DATA TYPE=MASS SPECTRUM
##SAMPLE DESCRIPTION=Asinex Ltd, Moscow, Russia
##NAMES=HP
##CAS NAME=Furane-2-carboxylic acid, (2-chloro-5-furanoyloxy)phenyl ester
##MOLFORM=C16H9ClO6
##CAS REGISTRY NO=297743-53-4
##MP= -300
##BP= -300
##MW= 332
##$RETENTION INDEX=0
##$CONDENSED SPECTRUM=NO
##NPOINTS= 123
##XYDATA=(XY..XY) 1 
    33          0
    34          0
    35          0
    36          2
    37          7
    38         31
    39        162
    40          7
    41          4
    42          0
    43          0
    44          2
    45          0
    47          0
    49          0
    50          2
    51         15
    52          1
    53          6
    54          0
    55          0
    56          0
    57          0
    60          0
    61          0
    62          2
    63          7
    64          0
    65          1
    66          7
    67         35
    68          2
    69          2
    70          0
    71          0
    72          0
    73          3
    74          1
    75          1
    76          0
    77          0
    78          0
    79          3
    80          0
    81          0
    82          0
    83          0
    84          0
    85          0
    86          0
    87          0
    88          0
    89          0
    90          0
    91          0
    95        999
    96         66
    97          6
    98          1
    99          0
   100          0
   101          1
   102          0
   103          0
   105          0
   107          0
   109          0
   111          0
   112          0
   114          0
   115          0
   116          0
   117          0
   118          0
   125          0
   126          0
   127          0
   128          0
   129          6
   130          0
   131          2
   132          0
   133          0
   137          0
   139          0
   144          0
   145          0
   149          0
   152          0
   157          0
   158          0
   161          0
   163          0
   165          2
   166          0
   167          0
   173          0
   181          0
   183          0
   185          0
   193          1
   194          0
   195          0
   202          0
   203          0
   207          0
   209          0
   221          0
   236          0
   237          0
   238          0
   239          0
   240          0
   281          0
   297         18
   298          3
   299          0
   330          0
   332         26
   333          4
   334          8
   335          1
   336          0