##TITLE=Library Entry 81614
##JCAMP-DX=Revision 4.10 
##DATA TYPE=MASS SPECTRUM
##SAMPLE DESCRIPTION=A.A.Kutin, Moscow, Russia
##NAMES=HP
##CAS NAME=Acetamide, 2-(1-phenylethylamino)-N-(2-dimethylamino-4-quinolyl)-
##MOLFORM=C21H24N4O
##CAS REGISTRY NO=297757-88-1
##MP= -300
##BP= -300
##MW= 348
##$RETENTION INDEX=0
##$CONDENSED SPECTRUM=NO
##NPOINTS= 230
##XYDATA=(XY..XY) 1 
    33          3
    34          1
    35          1
    36          7
    37          2
    38          7
    39         33
    40         26
    41         30
    42         64
    44        228
    45        372
    46        181
    47          3
    48          0
    50         16
    51         44
    52         14
    53         10
    54          9
    55         13
    56         44
    57         11
    58          3
    59          2
    60          1
    61          1
    62          6
    63         18
    64          8
    65         22
    66          9
    67          7
    68         11
    69          6
    70          4
    71          4
    72          2
    73          2
    74          5
    75         16
    76         27
    77        132
    78         42
    79        124
    80         11
    81          3
    82          2
    83          1
    84          2
    85          2
    86          2
    87          4
    88          9
    89         34
    90         24
    91         88
    92         12
    93          6
    94          2
    95          1
    96          0
    97          0
    98          1
    99          2
   100          5
   101         14
   102         67
   103         97
   105        999
   106         84
   108          0
   109          0
   110          0
   111          1
   112          1
   113          4
   114         25
   115         31
   116         64
   117         47
   118         55
   120         60
   121          6
   122          0
   123          0
   124          0
   125          0
   126          1
   127          7
   128         30
   129         22
   130         42
   131         12
   132         16
   134         68
   135          7
   136          0
   137          0
   138          0
   139          1
   140          5
   141         36
   142         28
   143         45
   144        111
   145         27
   147          6
   148          2
   149          1
   150          1
   152         48
   154          3
   155         19
   156         11
   157         14
   158        101
   159         72
   160         11
   161          3
   162          1
   163          0
   164          0
   167         45
   169         28
   170         45
   171         32
   172        134
   173         22
   174         10
   175          2
   176          1
   177          0
   179          0
   180          0
   181          1
   182          2
   184         66
   185         22
   187        912
   188        140
   189         16
   190          1
   191          0
   192          0
   194          0
   195          0
   196          2
   197          8
   198         53
   199         15
   200         36
   201          6
   202          7
   203          1
   204          0
   205          2
   206          0
   210          1
   211          3
   212         12
   213         24
   214        127
   215         26
   216          6
   217         10
   218          2
   219          0
   220          0
   221          0
   223          0
   224          6
   225          2
   226         14
   228        170
   229        103
   230         14
   231          2
   232          1
   233          0
   237          0
   241          1
   242          1
   243          5
   244          2
   245          2
   246          1
   247          1
   248          1
   249          0
   258          0
   259          0
   260          1
   261          1
   264          0
   270          0
   271          2
   273          0
   274          1
   275          7
   276          2
   283          0
   288          0
   289          1
   290          4
   291          1
   300          0
   301          0
   302          0
   303          1
   304          0
   305          0
   317          1
   318          0
   319         12
   320          2
   331          0
   332          0
   333         20
   334          4
   335          0
   342          0
   343          0
   344          1
   345          1
   346          6
   348        385
   349         90
   350         11
   351          1