##TITLE=Library Entry 19693
##JCAMP-DX=Revision 4.10 
##DATA TYPE=MASS SPECTRUM
##SAMPLE DESCRIPTION=CARL DJERASSI DEPT OF CHEM STANFORD UNIV STANFORD CALIF
 94305
##NAMES=HP
##CAS NAME=Gorgost-5-en-3-ol, (3.beta.)-
##MOLFORM=C30H50O
##CAS REGISTRY NO=29782-65-8
##MP= -300
##BP= -300
##MW= 426
##$RETENTION INDEX=3420
##$CONDENSED SPECTRUM=NO
##NPOINTS= 195
##XYDATA=(XY..XY) 1 
    41        600
    42         30
    43        850
    44         30
    50         20
    51         10
    52         10
    53        110
    54         30
    55        999
    56         70
    57        220
    65         40
    66         20
    67        450
    68         80
    69        720
    70        130
    71        280
    72         20
    77        140
    78         40
    79        380
    80         60
    81        480
    82        180
    83        680
    84         50
    85         20
    91        380
    92         80
    93        390
    94        100
    95        410
    96         60
    97        270
    98        230
    99         20
   103         20
   104         20
   105        420
   106         90
   107        390
   108         90
   109        280
   110         50
   111         60
   112         10
   115         40
   116         20
   117        130
   118         50
   119        290
   120        130
   121        220
   122         40
   123        110
   124         30
   125         20
   128         40
   129         80
   130         50
   131        190
   132         60
   133        400
   134         80
   135        160
   136         30
   137         60
   138         10
   139         10
   141         20
   142         20
   143        150
   144         70
   145        300
   146         70
   147         40
   148        110
   149         10
   150        140
   151         10
   155         20
   156         20
   157        120
   158         90
   159        330
   160         80
   161        150
   162         40
   163        110
   164         20
   165         20
   169         30
   170         10
   171         80
   172         20
   173        130
   174         30
   175         80
   176         30
   177         60
   178         20
   183         30
   184         10
   185         80
   186         30
   187        100
   188         20
   189         60
   190         10
   191         20
   197         40
   198         10
   199         90
   200         20
   201         50
   202         20
   203         50
   204         10
   205         10
   211         80
   212         20
   213        200
   214         50
   215        140
   216         30
   217         50
   218         10
   225         30
   226         10
   227         60
   228         50
   229        140
   230         40
   231         80
   232         20
   233         10
   239         40
   240         20
   241         60
   242         20
   243         30
   244         20
   245         20
   246         30
   253         60
   254         30
   255        220
   256         70
   257         50
   258         50
   259         20
   267         40
   268         20
   269         20
   270         90
   271        330
   272        240
   273         90
   274         20
   281        190
   282         70
   283        190
   284         50
   285         50
   286         10
   287         20
   295         40
   296         80
   297         20
   299        140
   300        140
   301        100
   302         30
   310         20
   313         30
   314        350
   315         90
   316         40
   328         40
   329         20
   337        120
   338         40
   355         70
   356         30
   365         30
   383         20
   393         30
   408         30
   411         40
   412         20
   426        160
   427         60
   428         20