##TITLE=Library Entry 7590
##JCAMP-DX=Revision 4.10 
##DATA TYPE=MASS SPECTRUM
##SAMPLE DESCRIPTION=Exported from NIST MS Search
##NAMES=HP
##CAS NAME=4-Cyclopentene-1,3-diol, cis-
##MOLFORM=C5H8O2
##CAS REGISTRY NO=29783-26-4
##MP= -300
##BP= -300
##MW= 100
##$RETENTION INDEX=0
##$CONDENSED SPECTRUM=NO
##NPOINTS= 45
##XYDATA=(XY..XY) 1 
    39        499
    40         68
    41        120
    42        104
    43        999
    44        304
    45         72
    46         20
    47         24
    48         20
    49         28
    50         64
    51        100
    52         64
    53        476
    54        396
    55        448
    56        288
    57        559
    58        392
    59         24
    60         28
    61         24
    62         20
    63         28
    64         16
    65         56
    66         64
    67         28
    68         16
    69         48
    70         24
    71        288
    72        200
    73         64
    80         32
    81        424
    82        320
    83         84
    84          8
    85         24
    97         20
    98         24
    99         44
   100         20