##TITLE=Library Entry 91202
##JCAMP-DX=Revision 4.10 
##DATA TYPE=MASS SPECTRUM
##SAMPLE DESCRIPTION=Chemical Concepts
##NAMES=HP
##CAS NAME=Naphtho[1,8-de]-1,3-dioxin-2-one
##MOLFORM=C11H6O3
##CAS REGISTRY NO=29788-37-2
##MP= -300
##BP= -300
##MW= 186
##$RETENTION INDEX=0
##$CONDENSED SPECTRUM=NO
##NPOINTS= 73
##XYDATA=(XY..XY) 1 
    25          0
    26          4
    27          6
    29          1
    36          0
    37          6
    38         11
    39         16
    40          3
    43          3
    44          3
    49          4
    50         28
    51         16
    52          4
    53          2
    55          5
    56          4
    57         83
    58          0
    60          1
    61         10
    62         36
    63         59
    64         11
    65          1
    71         13
    73          3
    74         25
    75         28
    76         33
    77          4
    78          0
    79          0
    80          0
    84          1
    85          4
    86         16
    87         35
    88         75
    89          6
    93         42
    94          0
    97          1
    98          4
    99          2
   101          5
   102         56
   103          6
   104          0
   109          1
   110          3
   111          1
   112          1
   113        119
   114        999
   115         87
   116          2
   129          1
   130          1
   131          3
   132          1
   141          6
   142        586
   143         64
   159          0
   161          2
   162          0
   170          0
   185          2
   186        927
   187        103
   188         11