##TITLE=Library Entry 28991
##JCAMP-DX=Revision 4.10 
##DATA TYPE=MASS SPECTRUM
##SAMPLE DESCRIPTION=A.Pleshkova, Nesmeyanov Inst.Org.Elem.Cpds, Moscow
##NAMES=HP
##CAS NAME=N-(1,1-Dimethyl-2-propynyl)-N-(1,1-dimethylpropyl)amine
##MOLFORM=C10H19N
##CAS REGISTRY NO=2978-40-7
##MP= -300
##BP= -300
##MW= 153
##$RETENTION INDEX=0
##$CONDENSED SPECTRUM=NO
##NPOINTS= 27
##XYDATA=(XY..XY) 1 
    39         61
    40         22
    41        193
    42        151
    43        133
    44         21
    55        113
    56         31
    57         30
    58        999
    59         75
    60         12
    65         32
    66         21
    67        181
    68        451
    69         51
    70          9
    72        553
    73         41
   124        832
   125        113
   126         18
   138        153
   139         21
   153         38
   154          4