##TITLE=Library Entry 86039
##JCAMP-DX=Revision 4.10 
##DATA TYPE=MASS SPECTRUM
##SAMPLE DESCRIPTION=TNO Volatile Compounds in Food - Chemical Concepts
##NAMES=HP
##CAS NAME=Naphthalene, decahydro-1,6-dimethyl-4-(1-methylethyl)-
##MOLFORM=C15H28
##CAS REGISTRY NO=29788-41-8
##MP= -300
##BP= -300
##MW= 208
##$RETENTION INDEX=1479
##$CONDENSED SPECTRUM=NO
##NPOINTS= 50
##XYDATA=(XY..XY) 1 
    27         37
    29         86
    39         50
    41        317
    42         20
    43         99
    53         47
    54         22
    55        356
    56         24
    57         28
    65         15
    67        224
    68         45
    69        263
    70         14
    71         11
    77         22
    79         61
    80         17
    81        332
    82         47
    83        331
    84         23
    91         28
    93         36
    94         22
    95        772
    96         64
    97         62
   105          3
   107         22
   108         21
   109        999
   110         81
   111         10
   121         11
   122          9
   123        125
   124         27
   135          9
   137          9
   149         11
   163         23
   164         56
   165        660
   166        144
   167          9
   208         66
   209          3