##TITLE=Library Entry 89657
##JCAMP-DX=Revision 4.10 
##DATA TYPE=MASS SPECTRUM
##SAMPLE DESCRIPTION=Philip Morris R&D
##NAMES=HP
##CAS NAME=3-Butyl-2-hydroxy-2-cyclopenten-1-one
##MOLFORM=C9H14O2
##CAS REGISTRY NO=29798-72-9
##MP= -300
##BP= -300
##MW= 154
##$RETENTION INDEX=1296
##$CONDENSED SPECTRUM=NO
##NPOINTS= 82
##XYDATA=(XY..XY) 1 
    36          0
    37          1
    38         17
    39        204
    40         59
    41        255
    42         79
    43        260
    44         10
    45          5
    50         13
    51         32
    52         21
    53         93
    54         62
    55        428
    56         56
    57         80
    58          8
    59          1
    60          0
    61          0
    62          2
    63          6
    64          3
    65         36
    66         47
    67         53
    68         20
    69         88
    70         93
    71         33
    72          5
    73          1
    74          1
    77         31
    78          6
    79         36
    80         27
    81         29
    82         18
    83        191
    84         54
    85          4
    86          1
    87          0
    89          0
    91          9
    92          0
    93         16
    94         21
    95         29
    96          4
    97         89
    98         81
    99        292
   100         15
   101          0
   105          0
   107         11
   108          2
   109          4
   110          3
   111        308
   112        999
   113         68
   114          4
   121          3
   123          2
   124          0
   125        438
   126         47
   127          1
   136          0
   137          2
   138          0
   139         26
   140          1
   153          5
   154        197
   155         18
   156          0