##TITLE=Library Entry 70230
##JCAMP-DX=Revision 4.10 
##DATA TYPE=MASS SPECTRUM
##SAMPLE DESCRIPTION=J. MINYARD STATE COLLEGE, MISSISSIPPI, USA
##NAMES=HP
##CAS NAME=Cyclohexane, 1-(1,5-dimethylhexyl)-4-methyl-
##MOLFORM=C15H30
##CAS REGISTRY NO=29799-19-7
##MP= -300
##BP= -300
##MW= 210
##$RETENTION INDEX=1461
##$CONDENSED SPECTRUM=NO
##NPOINTS= 37
##XYDATA=(XY..XY) 1 
    39         20
    41        270
    42         30
    43        170
    53         30
    54         40
    55        820
    56        220
    57        340
    65         10
    66         10
    67        100
    68         60
    69        460
    70         80
    71        120
    79         10
    80         10
    81        340
    82         30
    83        150
    95         60
    96        830
    97        999
    98         60
   111         20
   112        130
   113         50
   123         60
   124        160
   125        220
   126         20
   137         10
   139         10
   208         10
   210         90
   211         10