##TITLE=Library Entry 57918
##JCAMP-DX=Revision 4.10 
##DATA TYPE=MASS SPECTRUM
##SAMPLE DESCRIPTION=NIST Mass Spectrometry Data Center, 1990.
##NAMES=HP
##CAS NAME=Disulfoton
##MOLFORM=C8H19O2PS3
##CAS REGISTRY NO=298-04-4
##MP= -300
##BP= -300
##MW= 274
##$RETENTION INDEX=1801
##$CONDENSED SPECTRUM=NO
##NPOINTS= 146
##XYDATA=(XY..XY) 1 
    12          1
    13          1
    14          2
    15         15
    16          0
    24          0
    25          3
    26         30
    27        243
    28         49
    29        388
    30          9
    31          5
    32          2
    33          3
    34          5
    35         47
    36          1
    37          2
    39          3
    41         13
    42          3
    43         18
    44          1
    45        103
    46         34
    47        121
    48         10
    49          4
    50          0
    53          1
    54          2
    55         21
    57          5
    58         31
    59        124
    60        319
    61        311
    62         30
    63         43
    64         39
    65        179
    66          5
    67          1
    71          1
    73         15
    75         54
    76          6
    77          4
    78          4
    79         11
    80         18
    81         13
    82          1
    83          0
    85          2
    88        999
    89        389
    90         66
    91         29
    92         17
    93        127
    94          9
    95         23
    96          0
    97        326
    98          5
    99         16
   105          4
   106          1
   107          2
   108          5
   109         44
   110          2
   111          3
   112         21
   113         15
   114         32
   115          3
   116          2
   119          1
   121         34
   122          3
   123          7
   124          1
   125        150
   126          6
   127          8
   128          1
   129         82
   130         18
   131         25
   132          2
   133          1
   135          0
   137          1
   139          5
   140          3
   142        156
   143          9
   144         17
   145          0
   151          1
   153        137
   154          9
   155         12
   156          0
   157         37
   158         42
   159         22
   160          5
   161         18
   163          2
   167          0
   168          2
   169          0
   170          0
   171          2
   173          2
   183          0
   185         19
   186        107
   187         32
   188         15
   189         28
   190          2
   191          3
   199          0
   201          0
   212          8
   213          8
   214          1
   215          0
   217          5
   219          0
   229          5
   230          0
   231          0
   245         13
   246          1
   247          2
   274         79
   275          8
   276         11
   277          1
   278          0