##TITLE=Library Entry 70589
##JCAMP-DX=Revision 4.10 
##DATA TYPE=MASS SPECTRUM
##SAMPLE DESCRIPTION=Japan AIST/NIMC Database- Spectrum MS-NW-4196
##NAMES=HP
##CAS NAME=Phosphorodithioic acid, O,O-diethyl ester
##MOLFORM=C4H11O2PS2
##CAS REGISTRY NO=298-06-6
##MP= -300
##BP= -300
##MW= 186
##$RETENTION INDEX=0
##$CONDENSED SPECTRUM=NO
##NPOINTS= 137
##XYDATA=(XY..XY) 1 
    13          2
    14          9
    15         42
    16          2
    17          3
    18         10
    19          1
    25          4
    26         42
    27        285
    28         82
    29        458
    30         13
    31        211
    32         30
    33         26
    34         59
    35         17
    36          5
    38          1
    39          2
    40          2
    41          3
    42         10
    43         67
    44         11
    45        229
    46         44
    47        146
    48         18
    49          8
    50          1
    51          1
    55          1
    56          1
    57          3
    58          9
    59         20
    60         37
    61         53
    62         61
    63         73
    64         25
    65        379
    66          9
    67          3
    69          1
    73          1
    75          4
    76         11
    77          8
    78          1
    79         24
    80         67
    81        170
    82         18
    83         10
    84          1
    89          1
    90          1
    91         10
    92          8
    93        133
    94          7
    95         69
    96         34
    97        999
    98         20
    99         55
   100          2
   101          1
   102          1
   106          1
   107          5
   108         23
   109        391
   110         26
   111         23
   112         58
   113        160
   114        210
   115         30
   116         18
   117          2
   118          1
   120          1
   121        147
   122          8
   123          3
   124         14
   125        304
   126         20
   127         19
   128          3
   129         98
   130        117
   131         57
   132         11
   133          5
   134          1
   135          1
   137         35
   138          4
   139          4
   140          6
   141         81
   142        387
   143         28
   144         36
   145          2
   146          2
   151          2
   152          1
   153        200
   154         41
   155         12
   156          9
   157         15
   158         92
   159         19
   160          9
   161          3
   166          1
   169          9
   170         21
   171          4
   172          3
   182          1
   183          1
   184          2
   185          5
   186        753
   187         50
   188         72
   189          5
   190          4
   191          2