##TITLE=Library Entry 44944
##JCAMP-DX=Revision 4.10 
##DATA TYPE=MASS SPECTRUM
##SAMPLE DESCRIPTION=ACCUSTANDARD Chemicals / NIST MS Data Center.
##NAMES=HP
##CAS NAME=Phorate
##MOLFORM=C7H17O2PS3
##CAS REGISTRY NO=298-02-2
##MP= -300
##BP= -300
##MW= 260
##$RETENTION INDEX=1686
##$CONDENSED SPECTRUM=NO
##NPOINTS= 139
##XYDATA=(XY..XY) 1 
    12          0
    13          1
    14          2
    15         16
    16          0
    17          2
    18          3
    19          2
    26         25
    27        192
    28         68
    29        308
    30         10
    31          3
    32          7
    33          2
    34          3
    35         14
    39          3
    41         55
    42          5
    43         17
    44          2
    45        136
    46         70
    47        251
    48         13
    49         11
    57          2
    58          8
    59         27
    60         14
    61         25
    62          7
    63         33
    64         15
    65        203
    66          2
    67          1
    71          0
    72          1
    75        999
    76         49
    77         48
    78         25
    79         83
    80         23
    81         14
    82          2
    83          1
    89          1
    90          1
    91          5
    92          1
    93        161
    94          6
    95         17
    96          1
    97        246
    98          3
    99         14
   102          1
   103          1
   105          1
   107         62
   108          5
   109         12
   110          2
   111          2
   112         22
   113         22
   114          4
   115          2
   118          0
   121        303
   122         13
   123          6
   124          0
   125         81
   126          4
   127          9
   128          0
   129         83
   130          3
   131         16
   133          1
   135          0
   136          1
   137          1
   138          0
   139          2
   140          3
   141         11
   142          6
   143          6
   144          6
   145          1
   153         44
   154         22
   155         16
   156         10
   157         19
   158          3
   159          7
   161          0
   168          0
   169          1
   170          0
   171          4
   172          8
   173          0
   175         16
   176          0
   177          2
   185         10
   186         11
   187         11
   188          2
   189          1
   199          4
   200          5
   201          0
   203         12
   204          0
   205          1
   213          1
   214          1
   215          4
   217          0
   231         88
   232          9
   233         13
   234          1
   235          0
   260        147
   261         14
   262         21
   263          2
   264          1