##TITLE=Library Entry 86780
##JCAMP-DX=Revision 4.10 
##DATA TYPE=MASS SPECTRUM
##SAMPLE DESCRIPTION=NIST Mass Spectrometry Data Center, 1990.
##NAMES=HP
##CAS NAME=Methyl parathion
##MOLFORM=C8H10NO5PS
##CAS REGISTRY NO=298-00-0
##MP= -300
##BP= -300
##MW= 263
##$RETENTION INDEX=1876
##$CONDENSED SPECTRUM=NO
##NPOINTS= 154
##XYDATA=(XY..XY) 1 
    15         90
    17          1
    18          3
    25          1
    26          8
    29         11
    30        122
    31         21
    33          2
    36          0
    37         10
    38         55
    39         21
    41          1
    42          1
    43          1
    44          1
    45         33
    46         24
    47        245
    48          7
    49         15
    50         84
    51         27
    52         20
    53         12
    54         10
    55          2
    56          1
    57          4
    58          4
    59          1
    60          1
    61         16
    62        124
    63        293
    64        114
    65         23
    66          7
    67          3
    68         10
    69         15
    70          7
    71          2
    73          4
    74         33
    75         57
    76         61
    77         31
    78          2
    79        366
    80         24
    81         10
    82         12
    83          8
    84          1
    85          1
    86          0
    87          1
    88          0
    89          7
    90          7
    91          5
    92         36
    93        202
    94         21
    95         49
    96         61
    97          8
    98          2
    99          2
   104          2
   105          2
   106         19
   107         39
   108          2
   109        999
   110         32
   111         29
   112         13
   113          3
   114          1
   115          3
   119          0
   120          1
   121          7
   122         16
   123         47
   124          0
   125        827
   126         30
   127         51
   128          2
   129          1
   134          0
   135          9
   136         52
   137         81
   138         29
   139         32
   140          5
   141          2
   142          2
   143          3
   149          2
   150          2
   151         13
   152          9
   153         30
   154         26
   155         37
   156          5
   157          3
   167          4
   168         18
   169         11
   170          9
   171          6
   172         25
   173          3
   174          1
   175          0
   183          2
   184          2
   185          8
   186          9
   187          3
   188          1
   200         75
   201         16
   202         18
   203          2
   204          2
   205          9
   206          1
   215          6
   216         33
   217         16
   218          9
   219          1
   230          3
   231          8
   232         37
   233         51
   234          7
   235          3
   246         74
   247         17
   248          8
   249          1
   263        868
   264         87
   265         49
   266          4