##TITLE=Library Entry 57761
##JCAMP-DX=Revision 4.10 
##DATA TYPE=MASS SPECTRUM
##SAMPLE DESCRIPTION=NIST Mass Spectrometry Data Center, 1990.
##NAMES=HP
##CAS NAME=Phosphorothioic acid, O,O-diethyl O-[2-(ethylthio)ethyl] ester
##MOLFORM=C8H19O3PS2
##CAS REGISTRY NO=298-03-3
##MP= -300
##BP= -300
##MW= 258
##$RETENTION INDEX=1606
##$CONDENSED SPECTRUM=NO
##NPOINTS= 129
##XYDATA=(XY..XY) 1 
    13          1
    14          3
    15         10
    16          0
    17          0
    18          1
    19          2
    26         21
    27        153
    28         56
    29        234
    30          6
    31          7
    32         11
    33          1
    34          4
    35         36
    36          1
    37          1
    39          2
    40          1
    41         11
    42          3
    43         20
    44          7
    45        109
    46         27
    47         83
    48          5
    49          4
    53          2
    54          3
    55         20
    56          1
    57          4
    58         28
    59        136
    60        450
    61        242
    62         28
    63         17
    64         15
    65         57
    66          3
    73         25
    75         50
    76          3
    77          5
    78          3
    79          8
    80          3
    81        113
    82          9
    83          5
    85          4
    88        999
    89        378
    90         65
    91         52
    92         13
    93         72
    94          4
    95          4
    96         14
    97         90
    98          9
    99          8
   100          0
   105          2
   106          1
   107          4
   109         64
   110          3
   111          5
   113         19
   114         86
   115        145
   116          7
   117          6
   119          1
   121         12
   122          2
   123          5
   124          3
   125         22
   126         75
   127          8
   128          5
   129          1
   137         10
   138          4
   139         22
   140          4
   141         42
   142         53
   143        107
   144          5
   145          9
   146          1
   147          0
   153         10
   154          1
   155          4
   156          1
   157          6
   158          1
   167          1
   169          9
   170         81
   171        120
   172         12
   173         34
   174          1
   175          2
   183          0
   185          4
   187          2
   197          4
   198          1
   201          5
   203          1
   213         14
   214          1
   215          1
   229          4
   231          0
   258         19
   259          2
   260          2