##TITLE=Library Entry 72095
##JCAMP-DX=Revision 4.10 
##DATA TYPE=MASS SPECTRUM
##SAMPLE DESCRIPTION=Japan AIST/NIMC Database- Spectrum MS-NW-5325
##NAMES=HP
##CAS NAME=Bis(2-ethylhexyl)hydrogen phosphate
##MOLFORM=C16H35O4P
##CAS REGISTRY NO=298-07-7
##MP= -300
##BP= -300
##MW= 322
##$RETENTION INDEX=0
##$CONDENSED SPECTRUM=NO
##NPOINTS= 60
##XYDATA=(XY..XY) 1 
    15          1
    18          1
    26          1
    27         27
    28          6
    29         61
    30          1
    31          6
    39         21
    40          4
    41        136
    42         30
    43         97
    44          4
    45          4
    51          2
    52          1
    53         11
    54         11
    55        149
    56         56
    57        194
    58          9
    65          2
    66          1
    67         12
    68          8
    69         66
    70        132
    71        139
    72          8
    77          2
    79          2
    81          9
    82         19
    83         75
    84         29
    85          2
    95          3
    97          8
    98          1
    99        999
   100          2
   101          8
   110          2
   111          5
   112        160
   113        160
   114         13
   125          2
   137          1
   139          1
   149          3
   152          1
   153          5
   167          2
   181          5
   211         23
   212          2
   293          1