##TITLE=Library Entry 114939
##JCAMP-DX=Revision 4.10 
##DATA TYPE=MASS SPECTRUM
##SAMPLE DESCRIPTION=Chemical Concepts
##NAMES=HP
##CAS NAME=Naphthalene, 1,2,3,4-tetrahydro-5-nitro-
##MOLFORM=C10H11NO2
##CAS REGISTRY NO=29809-14-1
##MP= -300
##BP= -300
##MW= 177
##$RETENTION INDEX=1589
##$CONDENSED SPECTRUM=NO
##NPOINTS= 118
##XYDATA=(XY..XY) 1 
    25          4
    26         18
    27        130
    28         37
    29         29
    30         28
    31          8
    36          4
    37         10
    38         33
    39        270
    40         25
    41        163
    42         10
    43         35
    44         27
    45          4
    46          5
    49          6
    50        127
    51        359
    52         95
    53        168
    54         25
    55        169
    56         12
    57         22
    58          9
    59          4
    61         14
    62         66
    63        260
    64        105
    65        243
    66         44
    67         20
    68          6
    69         17
    70         10
    71         15
    72          5
    73         10
    74         73
    75         98
    76        120
    77        494
    78        169
    79        135
    80         24
    81         10
    82          7
    83         12
    84          6
    85          9
    86         17
    87         34
    88         17
    89        165
    90         97
    91        665
    92        117
    93         53
    94         16
    95          9
    96          6
    97         12
    98         14
    99         10
   100          7
   101         38
   102        163
   103        292
   104        297
   105        188
   106         42
   107        146
   108         22
   109          7
   110          5
   111          8
   112          5
   113         14
   114         27
   115        698
   116        343
   117        577
   118        105
   119         68
   120         91
   121         67
   122         15
   123          7
   124          4
   125          8
   126         42
   127        248
   128        479
   129        441
   130        999
   131        285
   132         11
   141         29
   142         59
   143         36
   144         30
   145         28
   146         25
   147         71
   148          8
   149          1
   158         39
   159        681
   160        368
   161         51
   176          7
   177        185
   178         26
   179          6