##TITLE=Library Entry 50150
##JCAMP-DX=Revision 4.10 
##DATA TYPE=MASS SPECTRUM
##SAMPLE DESCRIPTION=Chemical Concepts
##NAMES=HP
##CAS NAME=Spiro[3.5]nonan-1-one
##MOLFORM=C9H14O
##CAS REGISTRY NO=29800-45-1
##MP= -300
##BP= -300
##MW= 138
##$RETENTION INDEX=0
##$CONDENSED SPECTRUM=NO
##NPOINTS= 63
##XYDATA=(XY..XY) 1 
    26          6
    27         50
    29         25
    36          8
    38          5
    39        120
    40         28
    41        172
    42         12
    43         21
    44         11
    45          2
    50         12
    51         27
    52         10
    53         89
    54        263
    55        181
    56         22
    57         14
    58          4
    59          5
    60          5
    63          7
    65         31
    66         54
    67        680
    68        264
    69         64
    70          5
    71          5
    77         37
    78         15
    79        118
    80         39
    81        999
    82        186
    83         23
    91         24
    92         19
    93         19
    94        115
    95        128
    96        300
    97         33
   105         14
   106          5
   107          5
   108          3
   109         37
   110        218
   111         22
   115          3
   119          4
   120        154
   121         21
   122          5
   123          5
   135          3
   136          3
   137          8
   138        138
   139         16