##TITLE=Library Entry 10320
##JCAMP-DX=Revision 4.10 
##DATA TYPE=MASS SPECTRUM
##SAMPLE DESCRIPTION=N.W. Davies, Centr. Sci. Lab., Univ. Tasmania, Hobart,
 Australia
##NAMES=HP
##CAS NAME=2-Cyclohexen-1-ol, 1-methyl-4-(1-methylethyl)-, trans-
##MOLFORM=C10H18O
##CAS REGISTRY NO=29803-81-4
##MP= -300
##BP= -300
##MW= 154
##$RETENTION INDEX=1140
##$CONDENSED SPECTRUM=NO
##NPOINTS= 78
##XYDATA=(XY..XY) 1 
    27        187
    29         46
    30         10
    31          6
    33          8
    36          5
    38         13
    39        188
    41        334
    42         16
    43        999
    45         43
    50         22
    51         66
    52         22
    53        110
    54         25
    55        211
    56         24
    57         38
    58         80
    59         20
    62         10
    63         28
    65         84
    66         44
    67        165
    68         46
    69        299
    70         33
    71        321
    72         13
    77        202
    78         46
    79        331
    80         56
    81        237
    82         34
    83        172
    84        184
    85         24
    86         37
    91        163
    92        107
    93        460
    94        291
    95        147
    96         77
    97         93
    98         24
    99         10
   101          7
   105         24
   106         12
   107         59
   108         29
   109         30
   110         30
   111        319
   112         35
   113          6
   117          8
   119         28
   120         10
   121        249
   122         32
   123         10
   124          6
   125         26
   126         26
   134         10
   135          7
   136        149
   137         31
   139        354
   140         38
   154         73
   155         10