##TITLE=Library Entry 10321
##JCAMP-DX=Revision 4.10 
##DATA TYPE=MASS SPECTRUM
##SAMPLE DESCRIPTION=N.W. Davies, Centr. Sci. Lab., Univ. Tasmania, Hobart,
 Australia
##NAMES=HP
##CAS NAME=2-Cyclohexen-1-ol, 1-methyl-4-(1-methylethyl)-, cis-
##MOLFORM=C10H18O
##CAS REGISTRY NO=29803-82-5
##MP= -300
##BP= -300
##MW= 154
##$RETENTION INDEX=1122
##$CONDENSED SPECTRUM=NO
##NPOINTS= 81
##XYDATA=(XY..XY) 1 
    26         10
    27        183
    29         40
    31         33
    33          8
    38         17
    39        205
    41        360
    42         27
    43        999
    45         30
    50         25
    51         64
    52         21
    53         84
    54         29
    55        267
    56         23
    57         52
    58         70
    59         14
    62          8
    63         31
    64          5
    65         85
    66         40
    67        157
    68         42
    69        354
    70         30
    71        245
    72         14
    73         13
    77        190
    78         35
    79        195
    80         52
    81        240
    82         46
    83        222
    84        157
    85         16
    86         25
    88          7
    91        182
    92        117
    93        448
    94        145
    95        144
    96         67
    97         90
    98         20
    99          9
   101         10
   102          9
   103         11
   104          7
   105         26
   106         16
   107         62
   108         32
   109         34
   110         40
   111        272
   112         31
   115         14
   117          5
   119         47
   120          9
   121        296
   122         37
   123         12
   125         24
   126         22
   134         12
   136        187
   137         34
   139        385
   140         44
   154         68
   155         10