##TITLE=Library Entry 22019
##JCAMP-DX=Revision 4.10 
##DATA TYPE=MASS SPECTRUM
##SAMPLE DESCRIPTION=NIST Mass Spectrometry Data Center, 1990.
##NAMES=HP
##CAS NAME=2-Methyl-1-nonene
##MOLFORM=C10H20
##CAS REGISTRY NO=2980-71-4
##MP= -300
##BP= -300
##MW= 140
##$RETENTION INDEX=983
##$CONDENSED SPECTRUM=NO
##NPOINTS= 39
##XYDATA=(XY..XY) 1 
    27        164
    28         65
    29        204
    39        244
    40         64
    41        520
    42        104
    43        195
    44          9
    50          8
    51         21
    52         12
    53         85
    54         47
    55        361
    56        999
    57        278
    58         12
    65         14
    66          8
    67         74
    68         45
    69        316
    70         92
    71         11
    77          9
    79         10
    81         13
    82         21
    83         46
    84         80
    85         13
    97         30
    98         15
   111         12
   112         35
   125         28
   140         78
   141          8