##TITLE=Library Entry 8884
##JCAMP-DX=Revision 4.10 
##DATA TYPE=MASS SPECTRUM
##SAMPLE DESCRIPTION=Exported from NIST MS Search
##NAMES=HP
##CAS NAME=Undecane, 4-methyl-
##MOLFORM=C12H26
##CAS REGISTRY NO=2980-69-0
##MP= -300
##BP= -300
##MW= 170
##$RETENTION INDEX=1160
##$CONDENSED SPECTRUM=NO
##NPOINTS= 78
##XYDATA=(XY..XY) 1 
    26         17
    27        319
    28         50
    29        397
    30          9
    31          1
    37          2
    38          4
    39        149
    40         30
    41        496
    42        160
    43        999
    44         33
    45          1
    50          2
    51          7
    52          4
    53         34
    54         17
    55        215
    56        109
    57        509
    58         22
    59          1
    63          1
    65          4
    66          2
    67         14
    68          9
    69         50
    70        302
    71        690
    72         37
    73          1
    77          3
    78          1
    79          3
    80          1
    81          4
    82          7
    83         22
    84         37
    85        280
    86         18
    87          1
    91          1
    93          1
    94          1
    95          2
    96          4
    97         23
    98         35
    99         19
   100          1
   105          1
   109          1
   110          1
   111          3
   112          9
   113          7
   114          1
   119          1
   123          1
   124          1
   125          2
   126        118
   127         99
   128          9
   129          1
   140         11
   141         12
   142          1
   154          3
   155         11
   156          2
   170         13
   171          2