##TITLE=Library Entry 3690
##JCAMP-DX=Revision 4.10 
##DATA TYPE=MASS SPECTRUM
##SAMPLE DESCRIPTION=Exported from NIST MS Search
##NAMES=HP
##CAS NAME=Cyclopentane, 1,1'-(1,4-butandiyl)bis-
##MOLFORM=C14H26
##CAS REGISTRY NO=2980-70-3
##MP= -300
##BP= -300
##MW= 194
##$RETENTION INDEX=0
##$CONDENSED SPECTRUM=NO
##NPOINTS= 66
##XYDATA=(XY..XY) 1 
    14          3
    15         23
    26         14
    27        214
    28         71
    29        213
    37          4
    38          8
    39        246
    40         47
    41        999
    42         97
    43         89
    50          4
    51         15
    52         11
    53         98
    54        139
    55        602
    56         46
    57         38
    63          4
    64          2
    65         23
    66         60
    67        484
    68        614
    69        636
    70         17
    71         11
    75          2
    77         18
    78          6
    79         29
    80         19
    81        148
    82        706
    83        361
    84          8
    85          4
    91          8
    93          6
    94         19
    95        184
    96        141
    97         57
    98          6
   107          2
   108          5
   109         53
   110         34
   111         13
   112         10
   121          2
   122          5
   123         37
   124         27
   125         81
   126          4
   135          2
   136          4
   137         39
   138         17
   151         10
   152          6
   165          3