##TITLE=Library Entry 34736
##JCAMP-DX=Revision 4.10 
##DATA TYPE=MASS SPECTRUM
##SAMPLE DESCRIPTION=NIST Mass Spectrometry Data Center, 1998.
##NAMES=HP
##CAS NAME=Disparlure
##MOLFORM=C19H38O
##CAS REGISTRY NO=29804-22-6
##MP= -300
##BP= -300
##MW= 282
##$RETENTION INDEX=2028
##$CONDENSED SPECTRUM=NO
##NPOINTS= 125
##XYDATA=(XY..XY) 1 
    15          2
    26          2
    27        105
    28         23
    29        239
    30          6
    31          9
    37          1
    39        108
    40         25
    41        739
    42        147
    43        816
    44         52
    45         18
    50          1
    51          5
    52          4
    53         59
    54         86
    55        807
    56        479
    57        710
    58         58
    59         18
    60          1
    63          1
    65         13
    66         38
    67        245
    68        340
    69        999
    70        267
    71        274
    72         23
    73          5
    77         10
    78          2
    79         33
    80         15
    81        177
    82        484
    83        431
    84        151
    85        152
    86         12
    87          2
    91          6
    92          1
    93         12
    94          7
    95        233
    96        125
    97        439
    98         60
    99         30
   100          9
   101          1
   105          1
   107          5
   109        120
   110        195
   111        274
   112         50
   113         40
   114          5
   115          1
   121          3
   122          2
   123         59
   124         37
   125         17
   126         14
   127         14
   128          9
   129         11
   130          1
   131          1
   135          1
   137          9
   138          7
   139          3
   140          1
   141         78
   142         11
   143          3
   151          4
   152         34
   153         10
   154          6
   155          6
   156          2
   157          3
   165          8
   166          3
   167          1
   168          1
   169         18
   170          7
   171          8
   172          1
   179          1
   180          2
   181          1
   183        145
   184         21
   185          4
   193          1
   197          3
   198          2
   199          1
   208          1
   211         15
   212          2
   225          7
   226          1
   239          3
   240          1
   249          1
   253          1
   264          1
   266          2
   267          3
   282          3
   283          1