##TITLE=Library Entry 17983
##JCAMP-DX=Revision 4.10 
##DATA TYPE=MASS SPECTRUM
##SAMPLE DESCRIPTION=A.Pleshkova, Nesmeyanov Inst.Org.Elem.Cpds, Moscow
##NAMES=HP
##CAS NAME=4,5,5,5-Tetrafluoro-4-trifluoromethyl-1-pentanol
##MOLFORM=C6H7F7O
##CAS REGISTRY NO=29819-73-6
##MP= -300
##BP= -300
##MW= 228
##$RETENTION INDEX=0
##$CONDENSED SPECTRUM=NO
##NPOINTS= 89
##XYDATA=(XY..XY) 1 
    30         15
    31        354
    32         57
    45        237
    46         53
    47        999
    48         11
    49         25
    50         21
    51        244
    53          3
    57        274
    58         14
    59        303
    60          8
    61         19
    62          2
    64        295
    65        148
    67         51
    68          9
    69        991
    70         25
    71         26
    72          4
    73         14
    74          3
    75        171
    76         25
    77        478
    78          2
    83         12
    84          2
    88         50
    89        162
    90         47
    91        122
    92          3
    93         32
    94         11
    95        418
    96          5
   100        158
   101        155
   102          8
   103         12
   106          3
   107         13
   108         27
   109        185
   110          7
   113        144
   115         22
   119         68
   121        465
   122         21
   123         18
   125          4
   126          4
   127        137
   128          2
   131         59
   133          2
   138          2
   139        126
   141        197
   142         15
   145        237
   146          6
   147          5
   149         50
   150        227
   151         48
   155          2
   156          2
   157         49
   158         39
   159         40
   163         46
   164          5
   171         52
   172          4
   177         57
   178         31
   179          2
   226         19
   227        217
   228         13
   229          2