##TITLE=Library Entry 76367
##JCAMP-DX=Revision 4.10 
##DATA TYPE=MASS SPECTRUM
##SAMPLE DESCRIPTION=NIST Mass Spectrometry Data Center, 2010
##NAMES=HP
##CAS NAME=Butanoic acid, 2-methyl-, octyl ester
##MOLFORM=C13H26O2
##CAS REGISTRY NO=29811-50-5
##MP= -300
##BP= -300
##MW= 214
##$RETENTION INDEX=1430
##$CONDENSED SPECTRUM=NO
##NPOINTS= 73
##XYDATA=(XY..XY) 1 
    15          1
    26          3
    27         51
    28         22
    29        139
    30          4
    31          5
    39         50
    40         12
    41        283
    42         78
    43        211
    44          8
    45          7
    47          3
    51          2
    53         16
    54         19
    55        171
    56        214
    57        674
    58         33
    59          4
    60          1
    61          2
    65          2
    67         20
    68         35
    69        143
    70        267
    71        162
    72         11
    73         11
    74        128
    75         37
    76          2
    81          6
    82         60
    83        213
    84        186
    85        355
    86         20
    87         53
    88          3
    95          1
    97         30
    98          3
   100          2
   101          5
   102         49
   103        999
   104         56
   105          5
   109          1
   110          2
   111         11
   112        243
   113         22
   114          1
   115          8
   116          1
   127         10
   129         10
   130          3
   140          1
   142          1
   143          6
   157         41
   158          8
   159          1
   184          1
   186         20
   214          1