##TITLE=Library Entry 17728
##JCAMP-DX=Revision 4.10 
##DATA TYPE=MASS SPECTRUM
##SAMPLE DESCRIPTION=A.A.Kutin, Moscow, Russia
##NAMES=HP
##CAS NAME=1,3,4-Oxadiazole, 2-(4-chloro-2,5-dimethylphenylthiomethyl)-5-(3-
methyl-4-nitrophenyl)-
##MOLFORM=C18H16ClN3O3S
##CAS REGISTRY NO=298187-59-4
##MP= -300
##BP= -300
##MW= 389
##$RETENTION INDEX=0
##$CONDENSED SPECTRUM=NO
##NPOINTS= 184
##XYDATA=(XY..XY) 1 
    34          3
    35          3
    36         15
    37         20
    38         28
    39        152
    40         34
    41         26
    42         18
    43         28
    44         12
    45        999
    46         30
    47         51
    48          4
    49          3
    50         78
    51        174
    52         76
    53         51
    54         26
    55          9
    56         41
    57         12
    58         13
    59         36
    60          6
    61         10
    62         42
    63        171
    64         87
    65         90
    66         19
    67         19
    68          1
    69         33
    70         15
    71         17
    73         14
    74         36
    75         76
    76         82
    77        225
    78         83
    79         46
    80         17
    81          6
    82         11
    83         14
    84          2
    85          5
    86          9
    87         27
    88         13
    89        348
    90        229
    91        251
    92         51
    93         14
    94          3
    95         10
    96         15
    97         13
    99         19
   100          9
   101         37
   102         80
   103        111
   104         51
   105         60
   106        185
   107         21
   108          5
   109          8
   111          5
   112          4
   113          1
   114          5
   115         45
   116         38
   117         55
   118        308
   119         75
   120         17
   121         56
   122          5
   123          2
   125         53
   126         37
   127         57
   128         18
   129          7
   130          2
   131         37
   132         52
   133         40
   134        375
   135        158
   136         81
   137         36
   138         18
   139         68
   140         24
   141         32
   142         11
   145         15
   146         23
   147         55
   148         53
   149         39
   150         23
   151          4
   152         59
   153         54
   154         34
   155         74
   156         31
   157          8
   158         12
   159          8
   160          4
   161          1
   162          9
   163          1
   164        382
   165         43
   166         14
   168          4
   169         45
   170         86
   171        401
   172        102
   173        170
   174         36
   175          6
   176          7
   177         35
   178         28
   180        210
   181         28
   182         95
   183         33
   184         45
   185         31
   186         27
   187         13
   188        155
   189         32
   191          2
   192          2
   194         80
   195          7
   196         25
   197          1
   200          4
   201         22
   202         33
   203         17
   204          3
   207          4
   208         10
   209         50
   210         20
   211         18
   212         14
   218          2
   219        217
   220         24
   225          5
   281         13
   342        108
   343         19
   344         35
   345          2
   354         39
   355         29
   356         41
   357         11
   358         27
   359         25
   389        215
   390         49
   391         84
   392         12