##TITLE=Library Entry 62369
##JCAMP-DX=Revision 4.10 
##DATA TYPE=MASS SPECTRUM
##SAMPLE DESCRIPTION=Chemical Concepts
##NAMES=HP
##CAS NAME=4-(3-Benzyl-4-oxo-2-thiazolidinyl)benzoic acid
##MOLFORM=C17H15NO3S
##CAS REGISTRY NO=298216-87-2
##MP= -300
##BP= -300
##MW= 313
##$RETENTION INDEX=0
##$CONDENSED SPECTRUM=NO
##NPOINTS= 135
##XYDATA=(XY..XY) 1 
    33         18
    34          4
    36          1
    39        121
    41         60
    42         15
    43         32
    45        111
    46         48
    47         15
    48          3
    50         31
    51         68
    52         15
    53          6
    55          9
    56          4
    57          5
    58          2
    59          3
    60          3
    63         63
    65        231
    67          2
    69         11
    70          7
    71          2
    73          3
    74         24
    76         25
    77         72
    78         14
    79          9
    81          9
    82          3
    83          4
    84          2
    86          4
    87          4
    89         60
    91        999
    92        100
    95          3
    96          3
    97          3
   102         10
   104        249
   105         35
   106         16
   107         14
   109          3
   110          1
   111          3
   112          1
   113          1
   116         16
   118         63
   119         21
   121         24
   122         10
   123          6
   125         20
   126          2
   128          5
   129          5
   131          5
   132         19
   135         91
   136          8
   137         10
   139          4
   140          1
   141          1
   146        296
   147        329
   148         39
   149          9
   150          3
   152          6
   153          1
   157          2
   158          1
   159          1
   160          3
   161          5
   162          4
   163          3
   165         30
   166          9
   167         10
   168          1
   170          1
   171          1
   172          3
   173          1
   174          1
   176         23
   177          4
   178          8
   179          4
   181         22
   183          1
   190          6
   192         19
   193         12
   194          9
   195          2
   202          1
   203          1
   206          6
   207          1
   208          2
   209          1
   211          2
   213          2
   222        320
   223         34
   224         17
   225          2
   228          2
   234          3
   235          3
   238        140
   239         29
   240          8
   241          1
   246          6
   267          4
   268          1
   270          1
   296          3
   311          1
   313         76
   314         14
   315          5