##TITLE=Library Entry 4834
##JCAMP-DX=Revision 4.10 
##DATA TYPE=MASS SPECTRUM
##SAMPLE DESCRIPTION=Chemical Concepts
##NAMES=HP
##CAS NAME=6,7,8,9-Tetrahydro-9-methyl-4-trifluoromethyl-2H-pyrano[2,3-b][1,
8]naphthyridin-2-one
##MOLFORM=C13H11F3N2O2
##CAS REGISTRY NO=298206-46-9
##MP= -300
##BP= -300
##MW= 284
##$RETENTION INDEX=0
##$CONDENSED SPECTRUM=NO
##NPOINTS= 110
##XYDATA=(XY..XY) 1 
    37         39
    39        382
    40        179
    42        999
    43         98
    44         36
    49        104
    50        178
    51        202
    52        106
    53        139
    54        111
    55         85
    56        117
    57         63
    58         25
    62        205
    63        142
    64         81
    65        118
    66         91
    67         46
    69        586
    70         17
    75        366
    76        121
    77         87
    78         68
    79         42
    80         46
    81         30
    82         82
    83         56
    87        134
    88        102
    89         97
    90         58
    91         41
    92         47
    93         46
    94         31
    95         20
    99         92
   102        132
   103         74
   104         59
   105         34
   106         49
   107         41
   108         32
   109         20
   113         15
   114         59
   115         62
   117         86
   119        156
   120         23
   121         25
   123         17
   125         45
   126         19
   127         29
   128         20
   129         19
   130         45
   131         91
   132         41
   134         36
   135         32
   137         19
   138         17
   139         17
   142         96
   144         53
   145         43
   146         21
   147         18
   151         32
   152         48
   156         17
   157         62
   158         36
   159         83
   160         28
   161         16
   171         31
   172         41
   185         30
   186         29
   187         52
   199         27
   200         33
   201         44
   209         14
   213         14
   226         23
   227        172
   228         66
   229         49
   239         36
   240         22
   241         37
   253         21
   255        467
   256        236
   257         37
   265         42
   283        136
   284        480
   285         60