##TITLE=Library Entry 5318
##JCAMP-DX=Revision 4.10 
##DATA TYPE=MASS SPECTRUM
##SAMPLE DESCRIPTION=J.Zhang ET AL.J.Mass Spectrom.,35,841(2000)
##NAMES=HP
##CAS NAME=1,3,3-Trinitropiperidine
##MOLFORM=C5H8N4O6
##CAS REGISTRY NO=298228-66-7
##MP= -300
##BP= -300
##MW= 220
##$RETENTION INDEX=0
##$CONDENSED SPECTRUM=NO
##NPOINTS= 48
##XYDATA=(XY..XY) 1 
    15         29
    26         10
    27         90
    28         73
    29         35
    30        166
    31          6
    38          6
    39         78
    41        106
    42        999
    43         53
    44          8
    47         44
    50         14
    52         30
    53        190
    56         68
    57         23
    59         30
    60         82
    70         72
    72         24
    74         15
    79         11
    80        211
    81         83
    82        152
    83        142
    84        151
    97         28
    98        298
    99         50
   100        431
   101         67
   110         11
   111        378
   112         30
   114          8
   127         21
   128        536
   129         35
   142         10
   144         55
   174        636
   175         40
   176          8
   220         10