##TITLE=Library Entry 48047
##JCAMP-DX=Revision 4.10 
##DATA TYPE=MASS SPECTRUM
##SAMPLE DESCRIPTION=Chemical Concepts
##NAMES=HP
##CAS NAME=2-(2,4-Dichlorophenyl)-3-[5-(2,5-dimethyl-3-nitrophenyl)furfuryli
deneamino]imidazo[1,2-a]pyridine
##MOLFORM=C26H18Cl2N4O3
##CAS REGISTRY NO=298216-98-5
##MP= -300
##BP= -300
##MW= 504
##$RETENTION INDEX=0
##$CONDENSED SPECTRUM=NO
##NPOINTS= 166
##XYDATA=(XY..XY) 1 
    33          8
    36         13
    39        259
    41         45
    42         59
    43        131
    44         28
    46          4
    47          1
    48          1
    51        173
    53         12
    55         41
    56         13
    57         40
    59          6
    62         30
    64          9
    65         11
    66          4
    67          9
    69         22
    70         13
    71         15
    72         32
    74          5
    75         15
    76         15
    78        999
    80          5
    81          5
    82          4
    83         13
    84          7
    85          5
    87         73
    89          9
    90          4
    91         10
    92          2
    93          5
    94          3
    95          4
    96          3
    97          4
    98          7
   100          7
   101          6
   102          6
   103          9
   104          7
   105          3
   106          3
   107          2
   109          5
   110          3
   111          5
   112          9
   113          7
   115         32
   116          7
   117          2
   118          4
   120          6
   121          3
   122          2
   123          3
   124          2
   125          4
   126          4
   127         13
   128          9
   129          6
   130          2
   131          4
   132          3
   133          1
   134          2
   135          3
   136          6
   137          2
   138          4
   139          9
   140          9
   141         11
   142          4
   143         12
   144          3
   145          2
   146          2
   148          4
   149          4
   150          3
   151          5
   152         15
   153          9
   154          7
   155          2
   157          4
   159          2
   162          1
   163          2
   164          5
   165          3
   166          5
   167          3
   168          2
   169          5
   170          3
   171         13
   172          4
   173          3
   174          1
   175          1
   178         24
   180          4
   181         11
   183          2
   184          2
   185          2
   187          2
   189          2
   190          2
   191          1
   194          1
   195          3
   196          2
   199          1
   208          5
   209          8
   213          2
   215          3
   217          4
   225          2
   226          2
   240          2
   242          2
   244          1
   245          2
   246          2
   249        112
   250         14
   251         64
   252         15
   253         21
   254          4
   255          6
   256          2
   283          3
   291          2
   398          2
   400          2
   433          4
   434          6
   435          5
   436          1
   437          2
   469          3
   471          1
   502          1
   504         71
   505         20
   506         48
   507         15
   508          7
   509          2