##TITLE=Library Entry 57686
##JCAMP-DX=Revision 4.10 
##DATA TYPE=MASS SPECTRUM
##SAMPLE DESCRIPTION=A.Pleshkova, Nesmeyanov Inst.Org.Elem.Cpds, Moscow
##NAMES=HP
##CAS NAME=8-Bromooctanoic acid, ethyl ester
##MOLFORM=C10H19BrO2
##CAS REGISTRY NO=29823-21-0
##MP= -300
##BP= -300
##MW= 250
##$RETENTION INDEX=0
##$CONDENSED SPECTRUM=NO
##NPOINTS= 68
##XYDATA=(XY..XY) 1 
    40         40
    41        339
    42        126
    43        111
    44          8
    45         84
    46          3
    54         35
    55        451
    56         45
    57         56
    58          4
    60        199
    61        123
    62          6
    69        119
    70        173
    71         20
    73        160
    74         30
    75          6
    79         26
    80          9
    81         53
    82         16
    83         92
    84         10
    85          6
    88        999
    89         69
    90          8
    95         41
    97        230
    98         27
    99          8
   101        220
   102         22
   103          2
   107         51
   108          5
   109         40
   110          1
   115         28
   116          2
   121         14
   122          2
   123         18
   125        258
   126         23
   127          2
   135         28
   136          3
   137         25
   138          1
   143         48
   144          5
   171        124
   172         14
   173          1
   205        153
   206         17
   207        161
   208         15
   221          6
   222          1
   223          8
   224          2
   225          1