##TITLE=Library Entry 85136
##JCAMP-DX=Revision 4.10 
##DATA TYPE=MASS SPECTRUM
##SAMPLE DESCRIPTION=Philip Morris R&D
##NAMES=HP
##CAS NAME=1-(5,6-Dimethyl-2-pyrazinyl)-1-butanone
##MOLFORM=C10H14N2O
##CAS REGISTRY NO=298210-72-7
##MP= -300
##BP= -300
##MW= 178
##$RETENTION INDEX=0
##$CONDENSED SPECTRUM=NO
##NPOINTS= 105
##XYDATA=(XY..XY) 1 
    36          5
    37          8
    38         20
    39        133
    40         38
    41        140
    42         87
    43        270
    44          9
    46          0
    47          0
    49          0
    50          9
    51         32
    52         78
    53        331
    54         73
    55         75
    56          5
    57          1
    58          0
    61          0
    62          0
    63          5
    64         19
    65         18
    66        186
    67        121
    68         20
    69          8
    70         14
    71         59
    72          4
    74          1
    75          1
    76          1
    77          5
    78          8
    79         16
    80         43
    81         16
    82          2
    83          0
    86          0
    87          0
    88          1
    90          1
    91          2
    92          4
    93          4
    94          4
    95          3
    96          1
    97          2
   101          0
   103          0
   104          0
   105          3
   106          4
   107        610
   108        999
   109        116
   110          6
   111          0
   117          0
   118          1
   119          0
   120          1
   121          4
   122        316
   123         34
   124          2
   131          0
   133          3
   134          3
   135        262
   136         52
   137          5
   138          0
   143          0
   145          2
   146          3
   147          4
   148          3
   149         42
   150        477
   151         56
   152          3
   155          0
   157          0
   158          0
   159         15
   160          3
   161          7
   162          4
   163        255
   164         28
   165          1
   174          0
   175          0
   176          1
   177         34
   178         77
   179          6
   180          1