##TITLE=Library Entry 12595
##JCAMP-DX=Revision 4.10 
##DATA TYPE=MASS SPECTRUM
##SAMPLE DESCRIPTION=A.A.Kutin, Moscow, Russia
##NAMES=HP
##CAS NAME=1,3,4-2-Thiadiazoline, 2-acetyl-4-(3-chlorophenyl)-5-(1-naphthyli
mino)-
##MOLFORM=C20H14ClN3OS
##CAS REGISTRY NO=298218-50-5
##MP= -300
##BP= -300
##MW= 379
##$RETENTION INDEX=0
##$CONDENSED SPECTRUM=NO
##NPOINTS= 228
##XYDATA=(XY..XY) 1 
    33          3
    34          2
    35          2
    36         11
    37         11
    38         23
    39         60
    40         19
    41         18
    43        999
    44         40
    46          0
    47          1
    48          1
    49          8
    50         57
    51         70
    52         31
    53          6
    54          3
    55          9
    56          4
    57         11
    58          3
    59          3
    60          2
    61          9
    62         22
    63         77
    64         20
    65         15
    67          5
    68          2
    69         11
    70          5
    71          6
    72          3
    73         12
    74         32
    75        100
    76         38
    77         94
    78        100
    79         11
    80          1
    81          3
    82          2
    83          4
    84          3
    85          9
    86          5
    87         15
    88         16
    89         27
    90         59
    91         53
    92          5
    93          2
    94          2
    95          3
    96          1
    97          4
    98         10
    99         13
   100         12
   101         36
   102         15
   103          6
   104          2
   105         10
   106         23
   107          5
   108          3
   109          2
   111         46
   112          9
   113         39
   114         42
   115         68
   116          8
   117          3
   118          4
   119          1
   120          1
   121          2
   122          4
   123          3
   125        247
   126         98
   127        228
   128         41
   129          5
   130          1
   131          1
   132          0
   133          1
   134          1
   135          1
   136          1
   137          4
   138          4
   139         11
   140         81
   141         32
   142          4
   143          0
   144          0
   145          1
   146          3
   147          1
   148          0
   149          2
   150          3
   152        388
   153         67
   154        118
   155         11
   156          1
   157          4
   158         10
   159          7
   160          1
   161          0
   162          0
   163          1
   164          1
   165          3
   166          2
   167          7
   168          7
   169          3
   170          1
   171          3
   172         14
   173          4
   174          1
   176          0
   177          1
   178          1
   179          1
   181          0
   182          1
   183          3
   185        274
   186         43
   187         15
   188          3
   190         16
   191          2
   192          0
   194          6
   195          1
   196          2
   197          0
   198          0
   199          1
   200          0
   201          0
   202          1
   203          1
   209          0
   210          0
   211          1
   212          1
   213          1
   214          5
   215          3
   216          5
   217          5
   218          1
   219          0
   220          0
   221          0
   227          0
   228          0
   230          0
   236          2
   237          0
   239          1
   240          4
   241          8
   242         35
   243         25
   244          4
   249          1
   251          4
   252          0
   253          1
   267          0
   268          0
   273          1
   274          9
   275          3
   276          3
   277         15
   278         18
   279          8
   280          5
   281          1
   295          0
   300          0
   301          0
   302          0
   308          0
   309          1
   310          1
   311          0
   312          0
   321          0
   333          1
   334          0
   335          0
   336          4
   337          1
   338          1
   344          0
   346          0
   363          0
   374          1
   375          1
   376          2
   377          4
   379        204
   380         44
   381         72
   382         14
   383          3
   384          0