##TITLE=Library Entry 97114
##JCAMP-DX=Revision 4.10 
##DATA TYPE=MASS SPECTRUM
##SAMPLE DESCRIPTION=BAY 0158
##NAMES=HP
##CAS NAME=N,N'-Dimethyl-3'-hydroxy-1-methyl-butobarbitone, TMS derivative
##MOLFORM=C16H30N2O4Si
##CAS REGISTRY NO=29836-74-6
##MP= -300
##BP= -300
##MW= 342
##$RETENTION INDEX=0
##$CONDENSED SPECTRUM=NO
##NPOINTS= 124
##XYDATA=(XY..XY) 1 
    41        105
    42         35
    43         45
    44         10
    45         65
    46          5
    47         30
    51          5
    53         15
    54         10
    55         30
    56         15
    57         10
    58         45
    59         40
    60          5
    61         35
    66         10
    67         30
    68         10
    69        120
    70         25
    71         10
    72         20
    73        501
    74         55
    75        260
    76         20
    77         20
    78          5
    79         10
    80          5
    81         10
    82         10
    83         15
    84         10
    85         15
    86          5
    87         10
    89         10
    91          5
    93          5
    95         10
    96          5
    97         40
    98          5
    99         50
   100         10
   101         30
   102         10
   103         45
   104          5
   108         10
   109         10
   110         20
   111         10
   112         35
   113         10
   115         50
   116         15
   117        999
   118        130
   119         45
   120          5
   123         10
   125          5
   126         20
   127         15
   128          5
   129          5
   138          5
   140         10
   141         10
   142         10
   143        180
   144         30
   145         15
   156         10
   157         20
   158         15
   159          5
   166          5
   168          5
   169         60
   170         10
   171         10
   181          5
   182          5
   183         25
   184         45
   185         30
   186         10
   209          5
   211          5
   223         50
   224         15
   225         15
   226          5
   239          5
   240          5
   241         40
   242         10
   243          5
   252         10
   253         10
   254          5
   255         15
   256        160
   257         55
   258         15
   259         25
   260          5
   269          5
   283          5
   284          5
   285         30
   286          5
   325          5
   326         30
   327        400
   328         80
   329         30
   330          5
   342          1