##TITLE=Library Entry 11951
##JCAMP-DX=Revision 4.10 
##DATA TYPE=MASS SPECTRUM
##SAMPLE DESCRIPTION=Exported from NIST MS Search
##NAMES=HP
##CAS NAME=Mannofuranoside, methyl 6-deoxy-3-O-methyl-, diacetate
##MOLFORM=C12H20O7
##CAS REGISTRY NO=29836-38-2
##MP= -300
##BP= -300
##MW= 276
##$RETENTION INDEX=0
##$CONDENSED SPECTRUM=NO
##NPOINTS= 78
##XYDATA=(XY..XY) 1 
    27         61
    28         34
    29         61
    30         61
    31         35
    39         61
    41         70
    42         79
    43        999
    44         53
    45        106
    69         53
    70         70
    71         88
    72         61
    73         35
    74        194
    75         44
    81         26
    82         17
    83        203
    84         53
    85        168
    86         35
    87        424
    88        141
    89         44
    96        159
    97         70
    98         26
    99         61
   100         26
   101        185
   102         53
   103        106
   111         35
   113        203
   114        300
   115        203
   116        115
   117         61
   125        115
   129        477
   130        106
   131         11
   132          6
   133          6
   141          6
   142         10
   143         33
   144          7
   145          2
   146          2
   147         13
   149          9
   153          4
   154          4
   155          4
   156        184
   157        120
   158         15
   172         13
   173         10
   184          6
   185          8
   187          7
   189        159
   190         14
   191          4
   201          6
   202          6
   203          3
   216          8
   217          6
   218          4
   245         56
   246          8
   247          4