##TITLE=Library Entry 96572
##JCAMP-DX=Revision 4.10 
##DATA TYPE=MASS SPECTRUM
##SAMPLE DESCRIPTION=NIST Mass Spectrometry Data Center, 2010
##NAMES=HP
##CAS NAME=Hexanoic acid, 2-ethyl-, ethyl ester
##MOLFORM=C10H20O2
##CAS REGISTRY NO=2983-37-1
##MP= -300
##BP= -300
##MW= 172
##$RETENTION INDEX=1108
##$CONDENSED SPECTRUM=NO
##NPOINTS= 88
##XYDATA=(XY..XY) 1 
    15          3
    19          1
    25          1
    26          7
    27         99
    28         23
    29        212
    30          7
    31          6
    37          1
    38          2
    39         74
    40         13
    41        260
    42         60
    43        189
    44          8
    45         42
    46          2
    47          3
    50          2
    51          5
    52          2
    53         26
    54         13
    55        235
    56         73
    57        699
    58         36
    59         17
    60          6
    61          1
    63          1
    65          4
    66          2
    67         12
    68          9
    69         74
    70         77
    71         36
    72          6
    73        296
    74         15
    75          3
    77          2
    79          4
    80          2
    81          5
    82          3
    83         22
    84          4
    85          5
    86          5
    87         85
    88        165
    89         29
    90          2
    93          1
    95          2
    96          2
    97         25
    98         28
    99        113
   100         13
   101        828
   102         58
   103          5
   109          1
   111          3
   113          2
   114          1
   115        220
   116        999
   117         63
   118          5
   125          1
   127        185
   128         15
   129        117
   130         12
   131          1
   141          2
   143         67
   144        156
   145         21
   146          2
   157          6
   172          6