##TITLE=Library Entry 56418
##JCAMP-DX=Revision 4.10 
##DATA TYPE=MASS SPECTRUM
##SAMPLE DESCRIPTION=Japan AIST/NIMC Database- Spectrum MS-IW-2623
##NAMES=HP
##CAS NAME=2(3H)-Furanone, 3-heptyldihydro-
##MOLFORM=C11H20O2
##CAS REGISTRY NO=2983-21-3
##MP= -300
##BP= -300
##MW= 184
##$RETENTION INDEX=0
##$CONDENSED SPECTRUM=NO
##NPOINTS= 68
##XYDATA=(XY..XY) 1 
    15          1
    26          2
    27         43
    28          9
    29         68
    30          2
    31          2
    38          1
    39         43
    40          9
    41        153
    42         62
    43        111
    44          6
    45          4
    51          2
    52          1
    53         19
    54         18
    55        171
    56         58
    57         35
    58         44
    59          2
    60          1
    65          2
    66          1
    67         18
    68         12
    69         52
    70         26
    71          8
    72          1
    73          7
    77          2
    79          3
    81         25
    82          4
    83         12
    84          9
    85         48
    86        999
    87         55
    88          6
    91          1
    93          1
    95          7
    96          1
    97          8
    98          4
    99        511
   100         36
   101          3
   109          2
   110          1
   111          2
   112          1
   113          7
   123          1
   126          1
   127          4
   128          1
   141          3
   155          1
   165          1
   183          1
   184         19
   185          3