##TITLE=Library Entry 22409
##JCAMP-DX=Revision 4.10 
##DATA TYPE=MASS SPECTRUM
##SAMPLE DESCRIPTION=D. LUKE UNILEVER RESEARCH LAB., PORT SUNLIGHT
##NAMES=HP
##CAS NAME=1-Pentadecene, 2-methyl-
##MOLFORM=C16H32
##CAS REGISTRY NO=29833-69-0
##MP= -300
##BP= -300
##MW= 224
##$RETENTION INDEX=1587
##$CONDENSED SPECTRUM=NO
##NPOINTS= 72
##XYDATA=(XY..XY) 1 
    15         11
    17         13
    18         50
    26         10
    27        135
    28         80
    29        308
    30         11
    31         19
    32          8
    39        114
    40         27
    41        632
    42        127
    43        676
    44         30
    45         14
    53         50
    54         57
    55        554
    56        999
    57        735
    58        145
    59         29
    60         14
    65          8
    66          8
    67         87
    68         82
    69        452
    70        207
    71        204
    72         16
    73         18
    74          6
    79         13
    81         48
    82         75
    83        217
    84        124
    85        109
    86          9
    95         27
    96         37
    97        152
    98         54
    99         21
   109         13
   110         16
   111         78
   113         12
   123          6
   124          9
   125         30
   126         16
   127          7
   135         21
   137         21
   138          6
   139         12
   140         15
   141          6
   149          4
   151          4
   152          3
   153          7
   154          6
   168         16
   182          4
   196         14
   209          6
   224         20