##TITLE=Library Entry 65792
##JCAMP-DX=Revision 4.10 
##DATA TYPE=MASS SPECTRUM
##SAMPLE DESCRIPTION=Flavors and Fragrances (Eds.B.Lawrence ET AL.),1986
##NAMES=HP
##CAS NAME=cis-.alpha.-Bisabolene
##MOLFORM=C15H24
##CAS REGISTRY NO=29837-07-8
##MP= -300
##BP= -300
##MW= 204
##$RETENTION INDEX=1504
##$CONDENSED SPECTRUM=NO
##NPOINTS= 87
##XYDATA=(XY..XY) 1 
    27        290
    28         75
    29        241
    30          8
    39        342
    40        117
    41        747
    42         67
    43        148
    50          7
    51         84
    52         53
    53        272
    54         40
    55        236
    56         30
    57         21
    58          9
    62          7
    63         23
    65        123
    66         50
    67        344
    68        104
    69        211
    70         20
    71          9
    74          9
    75          9
    77        303
    78         87
    79        344
    80        186
    81        123
    82         62
    83         13
    84          9
    88         10
    89         13
    91        348
    92        233
    93        999
    94        233
    95        127
    96         19
    97          9
   102         10
   103         29
   105        227
   106         95
   107        211
   108         50
   109        185
   110         26
   115         36
   116         16
   117         35
   119        182
   120         62
   121        197
   122         52
   123         16
   127         12
   128         19
   129         16
   130         11
   131         18
   133        125
   134         47
   135         42
   136         28
   141          9
   147         69
   148         46
   149         25
   150         11
   161         89
   162         23
   163         11
   175         22
   176         23
   177         11
   189         48
   190         10
   204        150
   205         26
   206         10