##TITLE=Library Entry 8213
##JCAMP-DX=Revision 4.10 
##DATA TYPE=MASS SPECTRUM
##SAMPLE DESCRIPTION=Div. of Experiment Therapeutics WRAIR, WRAMC, Washingto
n DC 20307
##NAMES=HP
##CAS NAME=1,2-O-Isopropylidene-5-O-ethoxycarbonyl-d-xylofuranose
##MOLFORM=C11H18O7
##CAS REGISTRY NO=29836-12-2
##MP= -300
##BP= -300
##MW= 262
##$RETENTION INDEX=0
##$CONDENSED SPECTRUM=NO
##NPOINTS= 129
##XYDATA=(XY..XY) 1 
    41        209
    42         92
    43        999
    44         67
    45        121
    46          5
    47         48
    48         15
    49         16
    50          7
    51          5
    52          1
    53          9
    54         15
    55        266
    56        155
    57        165
    58         38
    59        972
    61        326
    63        105
    64          0
    65          1
    67          3
    68         74
    69        106
    70         14
    71        159
    72          3
    73        259
    74        104
    75          5
    76          5
    77          1
    78          0
    79          1
    80          0
    81          4
    82          7
    83         20
    84         99
    85        279
    86         90
    87         28
    88         10
    89         10
    90          1
    91        113
    92          3
    93          1
    95          5
    96          6
    97        365
    98         23
    99          8
   100        119
   101         85
   102         10
   103          6
   104          2
   105         36
   106          1
   107          0
   109          0
   111          4
   112          0
   113         35
   114         45
   115         61
   117         11
   119          6
   123          3
   125         15
   126          3
   127         52
   129        138
   130         11
   131          4
   132          2
   133        132
   134          6
   135          1
   137          2
   139        128
   140          9
   141          6
   142          1
   143          4
   144          1
   145          7
   146         34
   147          2
   149          9
   150          0
   153          1
   155          2
   157          8
   158          1
   159         68
   160          4
   161          1
   163          0
   169          2
   172         10
   173         14
   174          1
   175        119
   176          8
   177          7
   187         11
   188          1
   191          3
   201          7
   203          1
   204          0
   205         14
   206          1
   215          3
   217          3
   219          7
   220          0
   223          0
   231          1
   245          1
   247        163
   248         16
   249          3
   262          9
   263          1