##TITLE=Library Entry 44258
##JCAMP-DX=Revision 4.10 
##DATA TYPE=MASS SPECTRUM
##SAMPLE DESCRIPTION=M.G.HORNING,INST.FOR LIPID RES,BAYLOR COLL.OF MED,HOUST
ON,TEX
##NAMES=HP
##CAS NAME=3-Aminopropanephosphonic acid, 4TMS derivative
##MOLFORM=C15H42NO3PSi4
##CAS REGISTRY NO=29836-73-5
##MP= -300
##BP= -300
##MW= 427
##$RETENTION INDEX=0
##$CONDENSED SPECTRUM=NO
##NPOINTS= 97
##XYDATA=(XY..XY) 1 
    41         17
    43         25
    44         25
    45        145
    46         10
    47         12
    56         10
    57          7
    58         12
    59        135
    60         12
    61         12
    71          7
    72         20
    73        999
    74         85
    75         65
    77         12
    85         10
    86         95
    87         12
   100         45
   101          7
   102          7
   112         22
   114         10
   115          7
   116         12
   117         17
   119         12
   121         17
   128         42
   129         10
   130         47
   131         30
   132         10
   133         65
   134         10
   135         70
   136          7
   137          7
   144          7
   146         15
   147         90
   148         17
   149         12
   151          7
   172         15
   174        370
   175         62
   176         30
   177          7
   179          7
   181         15
   188         17
   191          7
   193         10
   195         60
   196         10
   200          7
   207         22
   209         30
   210         27
   211         15
   224         12
   225         65
   226         15
   236          7
   237         35
   238         10
   240         25
   250         10
   251         15
   252         10
   253         22
   298         70
   299         25
   300         10
   308          7
   312         45
   313         12
   314          7
   324         65
   325         27
   326         42
   327         12
   339         10
   340          7
   354        160
   355         47
   356         25
   412        499
   413        180
   414        100
   415         25
   416          7
   426         10