##TITLE=Library Entry 9041
##JCAMP-DX=Revision 4.10 
##DATA TYPE=MASS SPECTRUM
##SAMPLE DESCRIPTION=Japan AIST/NIMC Database- Spectrum MS-NW- 975
##NAMES=HP
##CAS NAME=2-Ethyl-n-butyric acid ethyl ester
##MOLFORM=C8H16O2
##CAS REGISTRY NO=2983-38-2
##MP= -300
##BP= -300
##MW= 144
##$RETENTION INDEX=914
##$CONDENSED SPECTRUM=NO
##NPOINTS= 67
##XYDATA=(XY..XY) 1 
    14          1
    15         12
    17          1
    18          3
    26         16
    27        198
    28         34
    29        475
    30          9
    31         14
    32          4
    37          1
    38          5
    39         94
    40         13
    41        202
    42         65
    43        999
    44         33
    45         77
    46          2
    47          8
    50          3
    51          5
    52          3
    53         14
    54          5
    55        152
    56         11
    57         11
    58          1
    59         16
    60          9
    61          4
    65          1
    67          4
    68          4
    69         32
    70         71
    71        671
    72         38
    73        160
    74         12
    75          5
    77          2
    78          8
    83          9
    85          3
    86          3
    87        150
    88        132
    89         16
    97          2
    98          4
    99        264
   100         16
   101        244
   102         23
   103          2
   115        113
   116        500
   117         51
   118          4
   129         22
   130          1
   144          6
   145          1