##TITLE=Library Entry 100097
##JCAMP-DX=Revision 4.10 
##DATA TYPE=MASS SPECTRUM
##SAMPLE DESCRIPTION=NIST Mass Spectrometry Data Center, 2010
##NAMES=HP
##CAS NAME=Cubenene
##MOLFORM=C15H24
##CAS REGISTRY NO=29837-12-5
##MP= -300
##BP= -300
##MW= 204
##$RETENTION INDEX=1532
##$CONDENSED SPECTRUM=NO
##NPOINTS= 51
##XYDATA=(XY..XY) 1 
    29         16
    39         34
    41        115
    53         29
    55        100
    56         46
    63         13
    64          7
    65         43
    67         26
    69         94
    70         26
    77         82
    78         28
    79         72
    81         45
    89          6
    91        189
    92        125
    93        114
    94         21
   103         44
   104         26
   105        638
   106         77
   107         30
   115         58
   116         20
   117         77
   118         37
   119        999
   120        185
   121        174
   122         37
   127          8
   128         33
   129         23
   133         62
   134         28
   136          9
   141          8
   147         37
   148         16
   157          5
   159         24
   161        370
   162         58
   189         17
   204        201
   205         31
   206          3