##TITLE=Library Entry 57237
##JCAMP-DX=Revision 4.10 
##DATA TYPE=MASS SPECTRUM
##SAMPLE DESCRIPTION=D.HENNEBERG, MAX-PLANCK INSTITUTE, MULHEIM, WEST GERMAN
Y
##NAMES=HP
##CAS NAME=1,3-Butadiene, 1,4-dichloro-
##MOLFORM=C4H4Cl2
##CAS REGISTRY NO=2984-42-1
##MP= -300
##BP= -300
##MW= 122
##$RETENTION INDEX=827
##$CONDENSED SPECTRUM=NO
##NPOINTS= 57
##XYDATA=(XY..XY) 1 
    26        148
    27         73
    28          3
    29          1
    34          1
    35          8
    36         24
    37         13
    38         26
    39         35
    40          2
    41          1
    42          1
    43         13
    44          5
    47          7
    48         10
    49         44
    50        230
    51        672
    52         49
    53          2
    59          0
    60         39
    61        117
    62         60
    63         34
    64         12
    72          2
    73         70
    74          3
    75         26
    76          1
    77          1
    83          6
    84         14
    85         51
    86         51
    87        999
    88         63
    89        306
    90         12
    91          1
    95          2
    96         23
    97          2
    98         14
   100          2
   107          2
   109          1
   121          2
   122        444
   123         20
   124        278
   125         12
   126         50
   127          2