##TITLE=Library Entry 35465
##JCAMP-DX=Revision 4.10 
##DATA TYPE=MASS SPECTRUM
##SAMPLE DESCRIPTION=NIST Mass Spectrometry Data Center, 1990.
##NAMES=HP
##CAS NAME=2-Methyl-5-nonanol
##MOLFORM=C10H22O
##CAS REGISTRY NO=29843-62-7
##MP= -300
##BP= -300
##MW= 158
##$RETENTION INDEX=0
##$CONDENSED SPECTRUM=NO
##NPOINTS= 37
##XYDATA=(XY..XY) 1 
    15         18
    27        210
    28        123
    29        330
    30         19
    31         73
    32         14
    39        156
    41        656
    42         80
    43        364
    44         82
    45         94
    53         43
    55        561
    56        166
    57        365
    58        128
    59         36
    67         34
    69        999
    70         81
    71         37
    72         16
    81         36
    83        952
    84         85
    85         44
    87        478
    88         29
    99         13
   100         35
   101        216
   102         17
   112         19
   125         18
   140         20