##TITLE=Library Entry 89887
##JCAMP-DX=Revision 4.10 
##DATA TYPE=MASS SPECTRUM
##SAMPLE DESCRIPTION=Humboldt-Universitat zu Berlin, Department of Chemistry
, Analytical Group
##NAMES=HP
##CAS NAME=3,3-Dimethyl-1-pyrrolidin-1-yl-butan-1-one
##MOLFORM=C10H19NO
##CAS REGISTRY NO=29846-83-1
##MP= -300
##BP= -300
##MW= 169
##$RETENTION INDEX=0
##$CONDENSED SPECTRUM=NO
##NPOINTS= 92
##XYDATA=(XY..XY) 1 
    12          1
    14         11
    15        149
    16          3
    17          5
    18         26
    19          0
    20          0
    24          0
    26         18
    27        213
    28        211
    29        281
    30         89
    31          3
    32          0
    37          3
    39        202
    40         43
    41        417
    42        183
    43        530
    44         33
    45          1
    46          0
    48          0
    49          0
    50          4
    51         10
    52          5
    53         37
    55        323
    56        231
    57        247
    58         17
    59         16
    60          0
    62          0
    63          0
    64          0
    65          2
    66          2
    67         11
    68         33
    69         44
    70        385
    71        224
    72         66
    73          2
    76          0
    77          1
    78          1
    79          1
    80          2
    81          3
    82          7
    83         31
    85        346
    86         19
    87          2
    91          0
    92          1
    93          0
    94          1
    95          1
    96          8
    98        297
    99         25
   100          2
   106          0
   107          0
   108          1
   110          7
   112        139
   113        999
   114         74
   115          4
   122          0
   124          4
   125          2
   126          2
   127          0
   138          2
   140          0
   149          0
   152          0
   154         38
   155          3
   156          0
   169        103
   170         35
   171          4