##TITLE=Library Entry 11333
##JCAMP-DX=Revision 4.10 
##DATA TYPE=MASS SPECTRUM
##SAMPLE DESCRIPTION=Exported from NIST MS Search
##NAMES=HP
##CAS NAME=Cholest-5-ene-16,22-dione, 3.beta.,26-dihydroxy-, 3-acetate, (20S
,25R)-
##MOLFORM=C29H44O5
##CAS REGISTRY NO=29853-25-6
##MP= -300
##BP= -300
##MW= 472
##$RETENTION INDEX=0
##$CONDENSED SPECTRUM=NO
##NPOINTS= 354
##XYDATA=(XY..XY) 1 
    12         12
    13         58
    14        156
    15        313
    16         86
    17         73
    18        301
    24          3
    25         24
    26         86
    27        255
    28        276
    29        292
    30         12
    31         36
    37         21
    38         40
    39        286
    40         70
    41        516
    42        215
    43        999
    44        113
    45        372
    50         27
    51         61
    52         27
    53        150
    54         24
    55        719
    56         61
    57         86
    58         24
    60        286
    61         21
    62         15
    63         43
    64         18
    65        116
    66         46
    67        264
    68         46
    69        486
    70         55
    71         24
    73         46
    74         15
    75         15
    76         15
    77        301
    78        104
    79        381
    80         58
    81        353
    82         55
    83         61
    84         24
    85         27
    89         27
    90          9
    91        769
    92        141
    93        295
    94         80
    95        196
    96         55
    97        270
    98         30
    99         24
   101          9
   102         30
   103        101
   104         76
   105        664
   106        132
   107        289
   108        116
   109        178
   110         43
   111         55
   112         30
   113         73
   114         40
   115        941
   116        153
   117        338
   118        110
   119        298
   120        209
   121        286
   122         89
   123         95
   124         67
   125         58
   126         36
   127         80
   128        227
   129        360
   130         98
   131        264
   132         67
   133        163
   134         55
   135        107
   136         36
   137         43
   138         12
   139         49
   140         49
   141        255
   142        138
   143        270
   144         98
   145        307
   146         86
   147        147
   148         70
   149         73
   150         36
   151         76
   152         83
   153         89
   154         55
   155        141
   156         70
   157        218
   158        147
   159        224
   160         86
   161        116
   162         98
   163         80
   164         80
   165        132
   166         80
   167         86
   168         36
   169         89
   170         43
   171        113
   172         55
   173        101
   174         40
   175         70
   176         40
   177         49
   178         67
   179         83
   180         55
   181        104
   182         40
   183         92
   184         36
   185         89
   186         36
   187         55
   188         24
   189         73
   190         36
   191         55
   192         30
   193         58
   194         43
   195        104
   196         58
   197        252
   198        101
   199        147
   200         49
   201         52
   202         49
   203         49
   204         21
   205         30
   206         18
   207         30
   208         24
   209         61
   210         40
   211        123
   212        110
   213        393
   214        190
   215        135
   216         52
   217         49
   218         18
   219         24
   220          9
   221         24
   222         12
   223         40
   224         24
   225         49
   226         55
   227         61
   228         36
   229         43
   230         18
   231         27
   232         15
   233         27
   234         12
   235         30
   236         12
   237         27
   238         15
   239         46
   240         18
   241         27
   242         15
   243         18
   244         12
   245         21
   246         12
   247         24
   248         18
   249         27
   250         36
   251         55
   252         30
   253         61
   254         49
   255         67
   256         27
   257         21
   258          3
   259          9
   260          6
   261         18
   262         15
   263         30
   264         24
   265         67
   266         30
   267         55
   268         64
   269         58
   270         30
   271         36
   272         12
   273         27
   274         15
   275         15
   276         15
   277         24
   278         24
   279         61
   280         86
   281        166
   282         70
   283        144
   284         36
   285         27
   286          9
   287          9
   288          9
   289          9
   290          9
   291         21
   292         21
   293         30
   294         30
   295         43
   296        190
   297        400
   298        172
   299         86
   300         33
   301         18
   302          3
   303         12
   304         12
   305         30
   306         24
   307         58
   308         27
   309         43
   310         21
   311         12
   318         18
   319         43
   320         61
   321         95
   322         58
   323         36
   324         27
   325        123
   326         49
   327         24
   328          6
   329          3
   331          3
   332          6
   333         36
   334         43
   335         30
   336         40
   337         40
   338         18
   339          9
   340         15
   341          6
   342          6
   343         12
   345         12
   346          9
   347         12
   348         21
   349         18
   350         18
   351          9
   352         49
   353         21
   354          3
   355          3
   356          3
   357          3
   358         24
   359         21
   360         40
   361        126
   362         52
   363         36
   364         12
   370          3
   372          9
   374         43
   375         40
   376        458
   377        172
   378        104
   379        101
   380         30
   381         24
   382          3
   390         15
   392         30
   393         30
   394        418
   395        123
   396         43
   397          6
   421         52
   422         18
   423          9
   434         12
   436        110
   437         36
   438         12
   439          9
   452          6
   453          3
   454         36