##TITLE=Library Entry 109605
##JCAMP-DX=Revision 4.10 
##DATA TYPE=MASS SPECTRUM
##SAMPLE DESCRIPTION=A.A.Kutin, Moscow, Russia
##NAMES=HP
##CAS NAME=Indane-1,3-dione, 2-(4-chorobenzyl)-2-(4-chlorophenyl)-
##MOLFORM=C22H14Cl2O2
##CAS REGISTRY NO=298686-19-8
##MP= -300
##BP= -300
##MW= 380
##$RETENTION INDEX=0
##$CONDENSED SPECTRUM=NO
##NPOINTS= 226
##XYDATA=(XY..XY) 1 
    33          8
    34          2
    35          4
    36         18
    37          2
    38         10
    39         21
    40         24
    41          3
    42          2
    44         16
    45          0
    47          1
    50         35
    51         22
    52          2
    53          2
    54          0
    55          1
    56          1
    57          1
    58          2
    60          1
    61          2
    62         10
    63         27
    64          5
    65          5
    66          0
    67          0
    68          0
    69          0
    70          1
    71          0
    73         10
    74         12
    75         37
    76         62
    77         27
    78          2
    79          0
    80          0
    81          1
    82          1
    83          1
    84          1
    85          2
    86          4
    87          9
    89         65
    90         20
    91          5
    92          1
    93          2
    94          0
    97          3
    99         26
   100          4
   101         16
   102          6
   104         40
   105          9
   106          6
   109          1
   110          2
   111          8
   112          6
   113         13
   114          2
   115          1
   117          0
   118          2
   120          5
   121          7
   125        999
   127        372
   128         16
   129          1
   132         13
   133          4
   134          3
   135          1
   136          4
   137          4
   138          4
   139          9
   140          4
   141          5
   142          0
   143          0
   145          2
   146          1
   147          1
   149          5
   150          7
   151          8
   152          7
   153          1
   154          1
   155          2
   158          0
   159          0
   160          1
   161          3
   162          7
   163         29
   164         15
   165          5
   166          0
   168          0
   169          0
   171          0
   172          1
   173          2
   174          3
   175          5
   176         23
   177          9
   178         15
   179          2
   180          0
   181          0
   182          0
   184          0
   185          0
   186          1
   187          1
   188          0
   189          1
   190          2
   191          2
   192          3
   193          1
   194          0
   195          1
   196          0
   197          0
   199         25
   200          4
   201          7
   202          1
   203          0
   205          1
   206          0
   208          0
   210          1
   212          9
   213          2
   214          2
   215          0
   220          5
   221          1
   222          0
   223          0
   224          0
   225          0
   226          1
   227          5
   228          1
   229          1
   230          0
   233          1
   234          0
   235          0
   236          0
   237          0
   238          0
   239          1
   240          0
   241          1
   243          3
   245          1
   246          0
   247          0
   248          2
   249          1
   250          4
   252          8
   253          3
   255         12
   256          4
   257          3
   258          1
   262          0
   263          0
   264          0
   265          1
   266          0
   267          0
   268          0
   269          0
   270          0
   271          4
   272          0
   273          1
   274          0
   279          0
   280          0
   281          1
   282          0
   286          0
   287          0
   288          0
   289          0
   299          0
   300          0
   301          0
   309          0
   315          0
   316          0
   317          0
   327          0
   328          0
   329          0
   345          1
   346          0
   347          0
   351          0
   377          0
   378          0
   380         37
   381         10
   382         22
   383          5
   384          4
   385          0