##TITLE=Library Entry 29142
##JCAMP-DX=Revision 4.10 
##DATA TYPE=MASS SPECTRUM
##SAMPLE DESCRIPTION=Japan AIST/NIMC Database- Spectrum MS-NW- 196
##NAMES=HP
##CAS NAME=Thiourea, N,N'-bis(1-methylethyl)-
##MOLFORM=C7H16N2S
##CAS REGISTRY NO=2986-17-6
##MP= -300
##BP= -300
##MW= 160
##$RETENTION INDEX=1470
##$CONDENSED SPECTRUM=NO
##NPOINTS= 73
##XYDATA=(XY..XY) 1 
    15         14
    26          2
    27         63
    28         27
    29          4
    30         15
    32          3
    34          1
    38          3
    39         39
    40          8
    41        127
    42         70
    43        142
    44        116
    45          7
    46          1
    47          4
    48          3
    52          1
    54          4
    55          3
    56          8
    57         13
    58        999
    59         36
    60        104
    61          7
    62          9
    64         12
    65          2
    66          2
    67          2
    68          4
    69         23
    70         30
    71          6
    72          3
    73          3
    74          3
    75         16
    76          9
    77          3
    83          8
    84          1
    85         46
    86          6
    87          1
    88          4
    90         10
    93          2
    96          3
   100          7
   101          7
   102          9
   103         10
   104          2
   111          3
   113          3
   115          2
   117         32
   118          3
   119          2
   126          3
   127          7
   128          7
   130          1
   145          1
   159         26
   160        420
   161         42
   162         20
   163          1