##TITLE=Library Entry 44570
##JCAMP-DX=Revision 4.10 
##DATA TYPE=MASS SPECTRUM
##SAMPLE DESCRIPTION=A.A.Kutin, Moscow, Russia
##NAMES=HP
##CAS NAME=Acetic acid, 2-(2,4-dinitrobenzylidenhydrazino)-, methyl ester
##MOLFORM=C10H10N4O6
##CAS REGISTRY NO=298683-38-2
##MP= -300
##BP= -300
##MW= 282
##$RETENTION INDEX=0
##$CONDENSED SPECTRUM=NO
##NPOINTS= 122
##XYDATA=(XY..XY) 1 
    33         24
    34          8
    37         10
    38         49
    39        115
    40        272
    41         27
    42        224
    43        761
    44        211
    45        191
    46         29
    49          1
    50        197
    51        158
    52        142
    53         60
    54         34
    55         34
    56          4
    57         15
    58         15
    59         87
    60          5
    61         22
    62        136
    63        267
    64        185
    65         84
    66         38
    67         22
    68         20
    69         20
    70          3
    71          5
    73        532
    74        999
    75        599
    76        343
    77        351
    78        135
    79        114
    80         26
    81          5
    82          2
    83          1
    84          1
    85          3
    86         22
    87         44
    88         56
    89         96
    90        178
    91        365
    92         95
    93         37
    94         14
    95         22
    96         12
    98          1
    99          7
   100         31
   101        127
   102        178
   103        151
   104        107
   105         70
   106         59
   107        616
   108         50
   115          1
   116          8
   117         44
   118         72
   119         97
   120         38
   121          7
   122         12
   123         12
   124          6
   129         31
   130        223
   131         81
   132         10
   133          9
   134        294
   135         63
   136          6
   137         23
   138          3
   145          1
   146          3
   147          5
   148        114
   149         34
   150         73
   151         10
   153         95
   154          3
   163          5
   164         64
   165         52
   166          7
   176         73
   177         82
   178         16
   179          5
   180         44
   181        113
   182         15
   191          7
   192          1
   193         10
   194         60
   195         26
   196          4
   207          1
   223        417
   224         38
   225          1
   252          2
   282          3