##TITLE=Library Entry 65186
##JCAMP-DX=Revision 4.10 
##DATA TYPE=MASS SPECTRUM
##SAMPLE DESCRIPTION=A.A.Kutin, Moscow, Russia
##NAMES=HP
##CAS NAME=4,6-Ethenocycloprop[f]isoindole-1,3(2H)-dione. 2-(3-chloro-4-meth
ylphenyl)-3a,4,7,7a-tetrahydro-
##MOLFORM=C18H16ClNO2
##CAS REGISTRY NO=298687-71-5
##MP= -300
##BP= -300
##MW= 313
##$RETENTION INDEX=0
##$CONDENSED SPECTRUM=NO
##NPOINTS= 173
##XYDATA=(XY..XY) 1 
    33          8
    34          0
    35          1
    36          3
    37          5
    39        161
    40         25
    41         19
    43          4
    44          2
    45          3
    46          1
    47          0
    51        121
    52         35
    53         23
    54         62
    55         12
    57          8
    59          3
    61          4
    63         65
    65        114
    66         14
    67          2
    68          4
    69          1
    70          1
    72          2
    73          5
    75         27
    76         26
    77         97
    78         44
    79         11
    80          4
    82         13
    84          1
    85          1
    86          2
    87          6
    89         50
    91        690
    92        999
    95          1
    96          1
    97          1
    99          7
   102         22
   103         49
   104         18
   105          5
   106          2
   107          1
   108          0
   109          0
   111          5
   112          3
   113          3
   115         87
   117        231
   118        143
   120          0
   121          0
   123          0
   124          5
   125         13
   126          3
   127          7
   128          4
   130         26
   131         17
   132         52
   133          3
   135          0
   136          0
   137          0
   138          4
   139          2
   140          6
   141          7
   142          4
   143          4
   144          5
   145         10
   146          8
   147          0
   149          1
   151         13
   152          5
   153          4
   154          2
   155          0
   156          1
   158         10
   159          1
   160          0
   161          0
   162          0
   164          4
   166         17
   167          9
   168          6
   169          3
   170          0
   172          5
   173          0
   174          0
   176          1
   177          7
   178          2
   179          3
   180          1
   181          0
   182          0
   183          0
   184          1
   186         28
   187          3
   188          0
   190          0
   192          5
   193          2
   194          2
   195          1
   196          0
   197          0
   199          0
   200          0
   203          0
   204          0
   205          0
   206          1
   207          1
   208          0
   209          0
   216          0
   217          0
   218          0
   221         52
   222         13
   223         14
   224          3
   225          0
   230          0
   232          0
   233          0
   235          1
   236          0
   237          0
   242          0
   243          0
   244          0
   256          0
   258          0
   270          0
   271          0
   272          0
   277          0
   278          0
   279          0
   283          0
   284          1
   285          0
   286          0
   309          0
   310          1
   311          2
   313        134
   314         23
   315         40
   316          7
   317          0