##TITLE=Library Entry 73318
##JCAMP-DX=Revision 4.10 
##DATA TYPE=MASS SPECTRUM
##SAMPLE DESCRIPTION=A.A.Kutin, Moscow, Russia
##NAMES=HP
##CAS NAME=Tetrazole-5-(4H)-thione, 1-benzyl-4-(4-morpholylmethyl)-
##MOLFORM=C13H17N5OS
##CAS REGISTRY NO=298687-97-5
##MP= -300
##BP= -300
##MW= 291
##$RETENTION INDEX=0
##$CONDENSED SPECTRUM=NO
##NPOINTS= 153
##XYDATA=(XY..XY) 1 
    33          9
    34          3
    35          0
    36          1
    37          2
    39         41
    40         22
    41         41
    42         75
    43         19
    44         21
    45         13
    46          3
    47          1
    48          1
    50         13
    51         24
    52          7
    53          4
    54         12
    56        135
    57         25
    58          5
    59          4
    60          4
    61          2
    62          4
    63         15
    64         11
    65         49
    67          4
    68          2
    69          6
    70         28
    71         11
    72         20
    73          3
    74          3
    75          3
    76          4
    77         20
    78          5
    79          2
    80          0
    81          1
    82          1
    83          1
    84          2
    86         12
    87         11
    89         14
    91        178
    92          8
    93          1
    94          0
    96          2
    98         24
   100        999
   101         33
   103          6
   104         10
   105          5
   106          2
   107          0
   108          1
   109          7
   111          1
   112          1
   113          0
   114          0
   115          0
   116          1
   117          1
   118          1
   119          1
   120          2
   121          2
   122          1
   123          1
   124          0
   125          0
   126          0
   128          2
   129          2
   131         25
   132          7
   133          1
   134          0
   135          1
   136          0
   137          0
   138          0
   140          0
   142          0
   143          0
   144          0
   145          0
   146          0
   148          0
   149          1
   150          0
   151          0
   152          0
   153          0
   157          2
   158          0
   160          2
   161          0
   162          0
   163          6
   164          1
   165          0
   166          0
   167          0
   168          0
   169          0
   171          3
   172          0
   173          0
   174          0
   176          0
   177          0
   178          0
   179          0
   185          2
   186          3
   187          0
   189          0
   190          0
   192         11
   193          1
   194          0
   195          0
   221          0
   222          0
   223          0
   224          0
   225          0
   230          0
   235          0
   253          1
   254          0
   256          1
   257          0
   258          0
   266          0
   268          0
   280          0
   281          0
   283          0
   291          8
   292          1
   293          0