##TITLE=Library Entry 5068
##JCAMP-DX=Revision 4.10 
##DATA TYPE=MASS SPECTRUM
##SAMPLE DESCRIPTION=A.A.Kutin, Moscow, Russia
##NAMES=HP
##CAS NAME=Thiomorpholine, 4-(4-tert-butylphenylsulfonyl)-
##MOLFORM=C14H21NO2S2
##CAS REGISTRY NO=298685-33-3
##MP= -300
##BP= -300
##MW= 299
##$RETENTION INDEX=0
##$CONDENSED SPECTRUM=NO
##NPOINTS= 138
##XYDATA=(XY..XY) 1 
    33         11
    34          4
    35          5
    37          0
    39         82
    42        999
    45         88
    46         69
    47         33
    48          7
    50         27
    51         41
    52         10
    53         19
    55        101
    56        217
    57         75
    58         18
    59         28
    60         12
    61         26
    63         29
    64          8
    65         31
    66          4
    67          6
    68          6
    69          8
    70          4
    71          2
    74        294
    76         57
    77         91
    78         30
    79         21
    80          4
    82          5
    86         15
    88         55
    89         28
    90         52
    91        140
    92         14
    93         10
    94          1
    95          0
    97          0
    98          2
   102        805
   103         64
   104         37
   105         48
   107         11
   108          0
   111          0
   113          2
   115         67
   117        109
   118        114
   119         15
   120          2
   121          1
   122          3
   123          3
   125          1
   127          2
   128          3
   129          3
   130          3
   131         13
   133        158
   134         11
   135          5
   136          2
   138          8
   139          1
   140          2
   142          7
   143          0
   145          2
   146         11
   147         16
   148          2
   149          2
   150          3
   151          2
   155          4
   159          0
   160          9
   161          7
   162          1
   164          0
   165          3
   166         15
   167          2
   174          4
   175          5
   176          0
   178          2
   180         18
   181         16
   183          8
   188          9
   189          4
   192         12
   193          2
   194          0
   195          4
   197        175
   198         18
   199         12
   200          0
   202          1
   210          0
   220         48
   221          6
   222          2
   226         43
   227          4
   228          1
   234         19
   235         31
   236          5
   237          0
   240         15
   241          1
   251          0
   252         20
   253          2
   284         54
   285          7
   286          5
   296          1
   297          3
   299        195
   300         31
   301         18
   302          2