##TITLE=Library Entry 5129
##JCAMP-DX=Revision 4.10 
##DATA TYPE=MASS SPECTRUM
##SAMPLE DESCRIPTION=A.A.Kutin, Moscow, Russia
##NAMES=HP
##CAS NAME=Propanoic acid, 3-(perhydro-4,6-dimethyl-2,5-dioxoimidazolo[4,5-d
]imidazol-1-yl)-
##MOLFORM=C9H14N4O4
##CAS REGISTRY NO=298687-82-8
##MP= -300
##BP= -300
##MW= 242
##$RETENTION INDEX=0
##$CONDENSED SPECTRUM=NO
##NPOINTS= 91
##XYDATA=(XY..XY) 1 
    34          3
    35         15
    36         89
    38         38
    40        147
    42        999
    43        155
    44        145
    45        101
    46          0
    51         12
    52          9
    53         12
    55        116
    56        244
    57         82
    58         92
    59         12
    60         20
    63          5
    65          4
    67          6
    69        203
    70        109
    71         71
    72         22
    73         47
    74          5
    75          1
    77         14
    79          3
    80          1
    81         10
    82         14
    83        146
    84         80
    85        104
    86         10
    87          8
    88          6
    89         10
    91         22
    92          3
    95         13
    97        107
    98         59
    99         47
   100         12
   101          1
   102          1
   105          6
   106          5
   109          5
   110         29
   111        103
   112        976
   113        141
   114         10
   115          4
   120          4
   121          5
   124         10
   125          8
   126         79
   127        260
   128         34
   129          2
   131          4
   137          1
   139         26
   140        138
   141         20
   142          2
   149          1
   153         92
   154        215
   155         18
   156         98
   157          6
   163          3
   166          3
   170          7
   171          3
   183         14
   184          5
   185          4
   198          1
   199          8
   225          2
   242         81
   243          6