##TITLE=Library Entry 47548
##JCAMP-DX=Revision 4.10 
##DATA TYPE=MASS SPECTRUM
##SAMPLE DESCRIPTION=A.A.Kutin, Moscow, Russia
##NAMES=HP
##CAS NAME=Acetamide, N-methyl-2-[(5-methyl-1,3,4-thiadiazol-2-yl)thio]-N-ph
enyl-
##MOLFORM=C12H13N3OS2
##CAS REGISTRY NO=298686-81-4
##MP= -300
##BP= -300
##MW= 279
##$RETENTION INDEX=0
##$CONDENSED SPECTRUM=NO
##NPOINTS= 142
##XYDATA=(XY..XY) 1 
    33         17
    34          7
    35          0
    37         16
    39        272
    40         64
    41        130
    42        333
    43         49
    44         54
    45        161
    46        127
    47         25
    48          6
    50         84
    51        305
    52         57
    53         31
    54         19
    55         41
    56         59
    58        183
    59        370
    61         22
    63        100
    64         82
    65        114
    66         33
    67         10
    69        789
    72         63
    73         16
    74         24
    77        999
    78        170
    79        192
    80         19
    82          1
    83          2
    84          3
    85          4
    86          5
    88         12
    90         66
    91        157
    92         34
    93         31
    94         22
    97        230
    99         98
   101         37
   104        251
   105        394
   106        910
   107        884
   108         65
   109         15
   110          4
   111          4
   112          8
   113          7
   114          2
   115          1
   116          4
   118        115
   119         61
   120        145
   121         11
   122          3
   123          6
   124          2
   125          4
   126          2
   127          1
   128          1
   130         19
   132        124
   133        127
   134        266
   135         30
   136         11
   137          6
   138         23
   139          6
   141          4
   145         97
   147        553
   148        109
   149         12
   150          6
   151          1
   152          2
   153          3
   154          0
   156          2
   157          0
   159          1
   160          0
   162          2
   163          3
   164          1
   165          1
   166          0
   168          0
   172        241
   173        968
   174         80
   175         87
   176          6
   177          3
   178          3
   179          9
   180          3
   181          2
   182          0
   186          1
   188          0
   189          2
   190          1
   191          0
   192          0
   204          4
   205          2
   206          2
   207          0
   212          0
   221          0
   222          3
   224          0
   234          0
   237          5
   238          0
   246          0
   250          1
   267          0
   276          0
   277          3
   279        108
   280         16
   281         10
   282          1
   283          0