##TITLE=Library Entry 64746
##JCAMP-DX=Revision 4.10 
##DATA TYPE=MASS SPECTRUM
##SAMPLE DESCRIPTION=A.A.Kutin, Moscow, Russia
##NAMES=HP
##CAS NAME=4H-1,2,4-Triazole, 3-benzyl-5-(4-trifluoromethyl-2-nitrophenylthi
o)-
##MOLFORM=C17H13F3N4O2S
##CAS REGISTRY NO=298684-45-4
##MP= -300
##BP= -300
##MW= 394
##$RETENTION INDEX=0
##$CONDENSED SPECTRUM=NO
##NPOINTS= 229
##XYDATA=(XY..XY) 1 
    39         77
    40          8
    41         14
    42         25
    44          8
    46         24
    50         35
    51         78
    52         15
    53         11
    54          8
    55         19
    57         15
    58          4
    59          4
    60          3
    63         90
    65        174
    66         14
    67          2
    69         76
    70         11
    71          3
    72          6
    73         17
    74         36
    75         54
    77        155
    78         26
    79         10
    80          3
    81         10
    82         10
    83          4
    84          4
    85          4
    87         10
    89        169
    91        999
    92         65
    93         15
    94         18
    95         55
    96          7
    97          3
    99         10
   100          5
   101         11
   102         27
   103         39
   104         29
   105         15
   106         15
   107         17
   108         20
   109          6
   112          3
   113         13
   114         19
   116        239
   117        206
   118         45
   119         18
   120         16
   121          9
   122          7
   123          9
   124          2
   125         31
   126         56
   127         11
   128         12
   129         12
   130         22
   131         73
   132        106
   133         31
   134         12
   135         12
   136          3
   137          4
   138         14
   139         20
   140         17
   141          3
   143         40
   144         56
   145         43
   146         42
   147         13
   148          7
   149          3
   150          6
   151          8
   153         13
   154          3
   155          3
   157        130
   158         37
   159         29
   160         19
   161         10
   162          8
   163         15
   164         86
   165         13
   166         44
   168          3
   170         15
   171         20
   172         18
   173         16
   174         26
   175         24
   176         65
   177         31
   178         10
   179          5
   182         26
   183         28
   184         70
   185         17
   186         13
   187         10
   188         10
   189         24
   190         30
   191         26
   192          8
   193          2
   196          2
   197          6
   198          6
   199          7
   201          5
   202         53
   203         58
   204        108
   205         24
   206        116
   207         33
   208         12
   209         10
   210          6
   211         19
   212         12
   213          6
   215         19
   216          8
   217         56
   218         24
   219         11
   220          3
   222          7
   223          6
   224          3
   228          4
   229         16
   230          6
   231         40
   232         22
   233          6
   234          2
   238         12
   240          6
   241          2
   243          4
   245          2
   247          3
   251         93
   252         18
   253          3
   256         28
   257          5
   258          4
   261          5
   262          2
   270         62
   271         10
   272          5
   273          3
   274          2
   278          4
   279          4
   280         12
   281          5
   282          3
   285          2
   286          3
   287         12
   288          4
   291          5
   292         11
   293          4
   305         19
   306          6
   307          7
   314         13
   315          9
   316        175
   317         33
   318          5
   319          5
   320          3
   321          9
   327          3
   329         53
   330         14
   331          6
   332          7
   333          6
   334         35
   335         10
   336          2
   346         19
   347         66
   348        716
   349        158
   350         47
   351          6
   363          7
   364         18
   365          3
   375          4
   377          4
   393        344
   394        250
   395         64
   396         17