##TITLE=Library Entry 89166
##JCAMP-DX=Revision 4.10 
##DATA TYPE=MASS SPECTRUM
##SAMPLE DESCRIPTION=A.A.Kutin, Moscow, Russia
##NAMES=HP
##CAS NAME=Thiophene-2-carboxamide, N-[4-[2-(4-morpholyl)-2-oxoethoxy]phenyl
]-
##MOLFORM=C17H18N2O4S
##CAS REGISTRY NO=298684-56-7
##MP= -300
##BP= -300
##MW= 346
##$RETENTION INDEX=0
##$CONDENSED SPECTRUM=NO
##NPOINTS= 85
##XYDATA=(XY..XY) 1 
    38          2
    39         51
    40         36
    41         15
    42         56
    43         37
    44         27
    45         10
    51          2
    52          6
    53          8
    54          5
    55         17
    56         67
    57         30
    58         13
    63          6
    64          7
    65          8
    69          4
    70         75
    71          5
    72         11
    77          7
    78          1
    81          8
    82          5
    83         49
    84          7
    85          8
    86         72
    87         12
    90          2
    91         23
    92          1
    93          2
    98          6
    99         10
   100        222
   101         14
   105          2
   108          3
   109          2
   111        999
   112         67
   113         55
   114         91
   115          5
   122          0
   123          1
   127          3
   128        209
   129         46
   130          3
   145          5
   147          1
   149          4
   154          3
   156          1
   165          4
   171          3
   172          5
   173          9
   175          5
   185          3
   186          2
   190          1
   199          3
   201         11
   202          8
   214          2
   216         13
   217          5
   218         15
   219         32
   230          9
   232         14
   233          2
   259          4
   260          1
   283          1
   346        592
   347        129
   348         39
   349          3