##TITLE=Library Entry 79483
##JCAMP-DX=Revision 4.10 
##DATA TYPE=MASS SPECTRUM
##SAMPLE DESCRIPTION=A.A.Kutin, Moscow, Russia
##NAMES=HP
##CAS NAME=1,3,4-Dioxazine, perhydro-4-benzoyl-6-methyl-2-(2-thienyl)-
##MOLFORM=C15H15NO3S
##CAS REGISTRY NO=298685-82-2
##MP= -300
##BP= -300
##MW= 289
##$RETENTION INDEX=0
##$CONDENSED SPECTRUM=NO
##NPOINTS= 138
##XYDATA=(XY..XY) 1 
    33         12
    34          1
    35          1
    36          3
    37          5
    39        122
    40         21
    41        102
    42         24
    43         22
    45        108
    47          9
    48          1
    50         58
    51        143
    52         23
    53         21
    55        142
    56         15
    57         20
    58         18
    59          5
    60          1
    62          8
    63         15
    64          3
    65          6
    66          5
    67          4
    69         36
    70         54
    71         11
    72          5
    73          3
    74          8
    75         14
    77        566
    79         38
    80          6
    81          3
    83         49
    84         30
    85         55
    87          7
    88          0
    89          1
    91          5
    92          1
    93          5
    95         42
    96         97
    97        178
    99         42
   100          4
   101          1
   105        999
   106         55
   110         77
   111         60
   112         67
   113        131
   115         16
   116          0
   117          2
   118          4
   119          1
   120          1
   122         14
   124        177
   125         13
   127         60
   128          6
   129          2
   130          0
   132          0
   133          0
   134          1
   135          2
   136          4
   137          4
   138          4
   139          3
   140          9
   141          4
   142          1
   143          0
   145          0
   146          0
   150        143
   151         48
   152         13
   153          2
   154          3
   155          1
   156          0
   160          1
   163         31
   164          4
   167        306
   168         82
   169         20
   170          4
   171          1
   172          0
   173          0
   177          0
   178          0
   181          0
   183          1
   184          7
   185          1
   186          0
   187          0
   197          0
   198          5
   199          0
   200          0
   201          0
   212          0
   215          0
   217          0
   228          0
   230          3
   231          0
   232          1
   239          0
   261          0
   267          0
   269          0
   272         25
   273          3
   274          1
   284          0
   286          3
   289        152
   290         23
   291          8
   292          1