##TITLE=Library Entry 48389
##JCAMP-DX=Revision 4.10 
##DATA TYPE=MASS SPECTRUM
##SAMPLE DESCRIPTION=A.A.Kutin, Moscow, Russia
##NAMES=HP
##CAS NAME=Pyrrol-2(5H)-one, 4-acetyl-3-hydroxy-1-(2-pyridyl)-5-(3-pyridyl)-
##MOLFORM=C16H13N3O3
##CAS REGISTRY NO=298685-49-1
##MP= -300
##BP= -300
##MW= 295
##$RETENTION INDEX=0
##$CONDENSED SPECTRUM=NO
##NPOINTS= 139
##XYDATA=(XY..XY) 1 
    38         28
    39         50
    40         29
    41         11
    43        654
    45         30
    49          4
    50         87
    51        232
    52         95
    53         43
    54          2
    55          9
    61          6
    63         51
    64         48
    65         34
    66         22
    67         48
    68          5
    69         55
    71          1
    73          2
    74         33
    75         63
    76         94
    78        999
    79        228
    80         43
    81          6
    83          1
    84         23
    85         13
    87          3
    88          5
    89         23
    90         27
    91         78
    92         61
    93         20
    94         61
    95          3
    97          7
    98         13
   101          3
   102         47
   103         80
   104        257
   105         72
   106         33
   108          9
   112         19
   115          3
   116         17
   117         39
   118        108
   119         69
   120         55
   121        315
   122         22
   123          5
   125          2
   129         33
   130         53
   132        286
   133         34
   135          1
   140          4
   142          2
   143         19
   144          5
   145         23
   146        104
   147        177
   148         26
   153          6
   155         59
   156         24
   157         22
   158          2
   160         13
   161         52
   162          3
   165          2
   166          7
   168         38
   169         68
   170         58
   171         28
   172          7
   173          7
   174         13
   175         35
   179          7
   180          8
   181         24
   182        100
   183         26
   184         23
   185          8
   189         57
   190          4
   193          3
   194         20
   195         42
   196        752
   197        100
   198          1
   205          2
   206          5
   207          4
   208          7
   210          3
   211          2
   217          2
   219         16
   220          6
   221          1
   222         44
   224        214
   225         27
   226          1
   234          5
   238        426
   239         92
   240          3
   250         18
   251         26
   252         37
   253          8
   266         48
   267         75
   268          6
   286          1
   294         96
   295        536
   296        104
   297          3
   298          5