##TITLE=Library Entry 38206
##JCAMP-DX=Revision 4.10 
##DATA TYPE=MASS SPECTRUM
##SAMPLE DESCRIPTION=Chuck Anderson, Aldrich Chemical Co.
##NAMES=HP
##CAS NAME=Cyclododecyl methyl ether
##MOLFORM=C13H26O
##CAS REGISTRY NO=2986-54-1
##MP= -300
##BP= -300
##MW= 198
##$RETENTION INDEX=0
##$CONDENSED SPECTRUM=NO
##NPOINTS= 84
##XYDATA=(XY..XY) 1 
    15         19
    18          0
    26          7
    27        118
    28         82
    29        269
    30          8
    31         18
    32          2
    33         15
    38          2
    39        155
    40         33
    41        820
    42        130
    43        226
    45        388
    46          8
    47          0
    50          0
    51          6
    52          3
    53         54
    54        102
    55        271
    56         44
    57         42
    58        200
    59         36
    60          0
    65         10
    66         50
    67        260
    68        243
    69        107
    71        999
    72         64
    73          6
    77          7
    78          0
    79         23
    80         24
    81        196
    82        444
    83         90
    84         16
    85        105
    86          6
    87          1
    91          1
    93          4
    94          5
    95        107
    96        138
    97         35
    98         10
    99          9
   100          3
   108          2
   109         68
   110         81
   111         11
   112          0
   113         24
   114          5
   122          4
   123         43
   124         43
   125          5
   127         26
   128          1
   129          0
   136          1
   137         23
   138         35
   139          3
   141         10
   151          1
   155         10
   166        107
   167         13
   169          1
   197          1
   198          8