##TITLE=Library Entry 87772
##JCAMP-DX=Revision 4.10 
##DATA TYPE=MASS SPECTRUM
##SAMPLE DESCRIPTION=A.A.Kutin, Moscow, Russia
##NAMES=HP
##CAS NAME=Furazan, 3,4-di(2-thienoyl)-
##MOLFORM=C12H6N2O3S2
##CAS REGISTRY NO=298687-94-2
##MP= -300
##BP= -300
##MW= 290
##$RETENTION INDEX=0
##$CONDENSED SPECTRUM=NO
##NPOINTS= 104
##XYDATA=(XY..XY) 1 
    33         10
    34          2
    37         26
    39        549
    41          4
    45         92
    47          3
    49          9
    50         17
    51          8
    53         20
    54          3
    55          4
    57         82
    58         14
    59          3
    60          1
    61          4
    63         11
    64          4
    65          1
    66          1
    69         32
    70          8
    71          3
    72          1
    73          0
    74          1
    75          3
    76          3
    77          9
    78          1
    81         28
    82         26
    83        115
    84         11
    85          5
    86          1
    87          1
    88          2
    89          0
    91          1
    93          6
    94          5
    95          5
    96          1
    97          0
    98          1
    99          1
   100          0
   102          0
   104          0
   105          1
   106          0
   107          1
   111        999
   113         41
   115          0
   116          0
   117          0
   118          0
   120          3
   121          1
   122          0
   125          6
   126          1
   127          1
   128          4
   129          0
   130          0
   132          0
   133          1
   134          1
   135          4
   137          7
   138          0
   139          0
   140          0
   141          0
   143          0
   145          1
   146          0
   149          0
   151          0
   153          2
   155          0
   158          0
   164          0
   166          0
   171          0
   180          0
   190          3
   191          0
   192          0
   197          0
   204          1
   280          0
   281          0
   286          2
   287          3
   290         76
   291         10
   292          6
   293          0