##TITLE=Library Entry 84208
##JCAMP-DX=Revision 4.10 
##DATA TYPE=MASS SPECTRUM
##SAMPLE DESCRIPTION=Chemical Concepts
##NAMES=HP
##CAS NAME=Silane, triethylphenyl-
##MOLFORM=C12H20Si
##CAS REGISTRY NO=2987-77-1
##MP= -300
##BP= -300
##MW= 192
##$RETENTION INDEX=0
##$CONDENSED SPECTRUM=NO
##NPOINTS= 109
##XYDATA=(XY..XY) 1 
    25          1
    26         19
    27         91
    28          1
    29        100
    30          5
    31         20
    33          1
    34          1
    35          2
    36          1
    38          4
    39         22
    40          0
    41          4
    42          6
    43         86
    44         10
    45         13
    47          0
    49          1
    50          9
    51         32
    52          7
    53        166
    54         28
    55         73
    56         18
    57         39
    58         17
    59         37
    60          3
    61          0
    63          9
    64          1
    65         15
    66         16
    67         21
    68          4
    69          6
    70          0
    71          1
    72          1
    73          1
    74          3
    75          6
    76          1
    77         36
    78         27
    79         77
    80         14
    81         85
    82         10
    83          7
    84          3
    85          7
    86          4
    87         11
    88          2
    90          3
    91         21
    92          4
    93         18
    94          3
    95          7
    98          2
   101          5
   102          2
   103         29
   104         13
   105        304
   106        121
   107        999
   108        116
   109         40
   110          3
   112         16
   113          4
   114          6
   115          4
   117          6
   119         13
   120          3
   121         12
   122          2
   123          2
   124          2
   128          1
   130          4
   131         13
   132          9
   133         28
   134         18
   135        825
   136        107
   137         30
   138          4
   149          2
   156          0
   161          4
   162          3
   163        554
   164         80
   165         26
   185          1
   192         56
   193          5
   194          3
   195          1