##TITLE=Library Entry 77587
##JCAMP-DX=Revision 4.10 
##DATA TYPE=MASS SPECTRUM
##SAMPLE DESCRIPTION=NIST Mass Spectrometry Data Center, 1998.
##NAMES=HP
##CAS NAME=1H-Benzotriazole, 4-methyl-
##MOLFORM=C7H7N3
##CAS REGISTRY NO=29878-31-7
##MP= -300
##BP= -300
##MW= 133
##$RETENTION INDEX=0
##$CONDENSED SPECTRUM=NO
##NPOINTS= 56
##XYDATA=(XY..XY) 1 
    26         13
    27         33
    28          7
    29         10
    36          2
    37         32
    38         51
    39        102
    40         10
    41         10
    42          2
    43          1
    48          1
    49         18
    50        151
    51        287
    52        240
    53         33
    54         10
    55          1
    60          3
    61         21
    62         36
    63         68
    64         35
    65         50
    66         13
    73          9
    74         36
    75         47
    76         89
    77        364
    78        358
    79         89
    80          5
    86          3
    87          5
    88          5
    89          4
    90         10
    91          3
    98          1
    99          4
   100          2
   102         24
   103         24
   104        999
   105        252
   106         18
   107          1
   116          1
   131          1
   132        105
   133        686
   134         63
   135          2