##TITLE=Library Entry 54139
##JCAMP-DX=Revision 4.10 
##DATA TYPE=MASS SPECTRUM
##SAMPLE DESCRIPTION=A. Brossi, LAC, NIDDK, NIH, Bethesda, MD 20892
##NAMES=HP
##CAS NAME=Pyrrolidine-2-one, 5-[2-benzoylethyl]-
##MOLFORM=C13H15NO2
##CAS REGISTRY NO=29879-82-1
##MP= -300
##BP= -300
##MW= 217
##$RETENTION INDEX=0
##$CONDENSED SPECTRUM=NO
##NPOINTS= 136
##XYDATA=(XY..XY) 1 
    41        162
    42         45
    43         32
    44         15
    45         16
    46          1
    49          0
    50         40
    51        143
    52         18
    53         20
    54         45
    55        134
    56        112
    57         23
    58          2
    59          2
    60          3
    61          1
    62          3
    63          8
    64          2
    65         14
    66          7
    67         12
    68         13
    69        104
    70         19
    71          9
    72          1
    73          4
    74          9
    75         12
    76         26
    77        387
    78         94
    79         13
    80          3
    81          5
    82         17
    83         30
    84        999
    85         56
    86          4
    87          1
    89          4
    90          0
    91         30
    92          9
    93          2
    94          2
    95          4
    96         13
    97        184
    98        835
    99         48
   100          3
   101          1
   102          3
   103          9
   104          9
   105        414
   106         37
   107          4
   108          0
   109          0
   110          6
   111          5
   112         13
   113          5
   115         15
   116          4
   117          9
   118          2
   119          1
   120        404
   121         38
   122          4
   123          1
   124          6
   125          0
   127          4
   128          4
   129          5
   130          3
   131          3
   132          4
   133         71
   134         10
   135          8
   136          0
   138          2
   139         54
   140         11
   141          2
   143          6
   144          7
   145          7
   146          1
   148          0
   149         43
   150          5
   151          0
   152          0
   153          0
   154          1
   155          0
   156          2
   157          4
   158          0
   159          1
   160          2
   161          2
   162          2
   163         12
   164          0
   167         15
   168          0
   169          0
   170          3
   171          1
   172          0
   173          0
   174          0
   185          0
   186          0
   188          4
   189          1
   198          1
   199          1
   200          5
   201          0
   216          2
   217         30
   218         17
   219          2