##TITLE=Library Entry 9583
##JCAMP-DX=Revision 4.10 
##DATA TYPE=MASS SPECTRUM
##SAMPLE DESCRIPTION=ASES Database, Dalian Institute, P.R. China
##NAMES=HP
##CAS NAME=3-Methyl-5-methoxy-isoxazole
##MOLFORM=C5H7NO2
##CAS REGISTRY NO=29871-77-0
##MP= -300
##BP= -300
##MW= 113
##$RETENTION INDEX=0
##$CONDENSED SPECTRUM=NO
##NPOINTS= 39
##XYDATA=(XY..XY) 1 
    37         19
    38         39
    39        109
    40         88
    41         80
    42        198
    43        999
    44         30
    45         70
    46         39
    47         30
    49         20
    50         10
    51         40
    52         90
    53         50
    54        596
    55        151
    56         20
    57         19
    58        677
    59         59
    67         20
    68         30
    70         20
    78         30
    81         10
    82        779
    83         39
    84        110
    85         89
    86         69
    88         10
    91          9
    92         10
    98         10
   112         10
   113        231
   114         19