##TITLE=Library Entry 96446
##JCAMP-DX=Revision 4.10 
##DATA TYPE=MASS SPECTRUM
##SAMPLE DESCRIPTION=Japan AIST/NIMC Database- Spectrum MS-NW-2289
##NAMES=HP
##CAS NAME=D-Amygdalin
##MOLFORM=C20H27NO11
##CAS REGISTRY NO=29883-15-6
##MP= -300
##BP= -300
##MW= 457
##$RETENTION INDEX=0
##$CONDENSED SPECTRUM=NO
##NPOINTS= 257
##XYDATA=(XY..XY) 1 
    12          7
    13          8
    14         25
    15         83
    16          5
    17         32
    18        129
    19          7
    24          2
    25          9
    26         47
    27        153
    28        122
    29        241
    30         67
    31        212
    32         21
    33          3
    34          5
    36          4
    37         20
    38         29
    39        122
    40         24
    41        129
    42         95
    43        311
    44         80
    45        168
    46          8
    47         28
    48          2
    49          9
    50         59
    51        119
    52         42
    53         39
    54         27
    55        126
    56         70
    57        349
    58         26
    59         23
    60        411
    61        182
    62         21
    63         39
    64         16
    65         26
    66          9
    67         16
    68         29
    69        217
    70         76
    71        168
    72         51
    73        603
    74        101
    75         27
    76         22
    77        191
    78         41
    79         41
    80         14
    81         63
    82         19
    83         25
    84         21
    85        324
    86         49
    87        139
    88         20
    89        166
    90        108
    91        120
    92         13
    93         12
    94          9
    95         14
    96         22
    97        131
    98        110
    99         80
   100          7
   101         52
   102         16
   103         62
   104         12
   105        193
   106        171
   107        105
   108         15
   109         53
   110         18
   111         11
   112          9
   113         13
   114         14
   115         81
   116        999
   117        554
   118         57
   119         51
   120          5
   121          6
   122          3
   123          8
   124          4
   125          4
   126         16
   127        223
   128         22
   129         14
   130          4
   131         62
   132         20
   133         62
   134         10
   135          8
   136          6
   137         11
   138          2
   139          3
   140          2
   141          4
   142          6
   143         58
   144         78
   145        286
   146         24
   147          7
   148          2
   149          7
   150          3
   151          3
   152          6
   153          3
   154          4
   155         19
   156          3
   157          9
   158          5
   159          3
   160          3
   161         48
   162          9
   163        128
   164          9
   165          3
   166          1
   167          2
   169          3
   170          1
   171          4
   172          2
   173        144
   174         15
   175          8
   176          4
   177          2
   178          2
   179          7
   180          1
   181          6
   182          1
   184          1
   185          3
   186         13
   187          4
   188          9
   189          4
   190          3
   191        211
   192         17
   193          7
   194          1
   195          1
   196          1
   197          3
   199          2
   200          4
   201          1
   202          1
   203          2
   204          7
   205          4
   206          5
   207          2
   208          1
   210          1
   211          2
   213          2
   215          4
   216          1
   217          2
   218          2
   219          2
   220          1
   221          1
   222          2
   223          2
   224          1
   226          1
   228          1
   229          1
   231          2
   233         10
   234          5
   235         16
   236          3
   237          3
   243          1
   245          1
   246          3
   247          1
   249          2
   250          2
   251         24
   252          3
   253          5
   254          1
   255          2
   256          4
   257          3
   259          1
   260          3
   261          2
   263          9
   264          2
   267          1
   269          3
   270          2
   271          1
   275          9
   276          2
   277          1
   278          4
   279         15
   280          2
   281          1
   288          2
   293          1
   294          1
   295          1
   296          7
   297         32
   298          5
   299          1
   306         36
   307          6
   308          1
   324         27
   325          6
   326          1
   337          4
   341          1
   350          1