##TITLE=Library Entry 28929
##JCAMP-DX=Revision 4.10 
##DATA TYPE=MASS SPECTRUM
##SAMPLE DESCRIPTION=Exported from NIST MS Search
##NAMES=HP
##CAS NAME=Cyclohexane, 1,3,5-trimethoxy-, (1.alpha.,3.alpha.,5.beta.)-
##MOLFORM=C9H18O3
##CAS REGISTRY NO=29887-75-0
##MP= -300
##BP= -300
##MW= 174
##$RETENTION INDEX=0
##$CONDENSED SPECTRUM=NO
##NPOINTS= 54
##XYDATA=(XY..XY) 1 
    41        190
    42         40
    43        200
    45        210
    47         30
    51         10
    52         10
    53         60
    54         30
    55        110
    56         30
    57         80
    58        999
    59        130
    60         10
    65         20
    66         20
    67         30
    68         20
    69         50
    71        160
    72         20
    73         20
    75        370
    76         20
    77         30
    78         30
    79         50
    80         40
    81         20
    82         20
    83         40
    84        200
    85        260
    86         30
    95         60
    96         10
    97         10
    98         10
    99         10
   100         10
   101        230
   102         20
   103         10
   108         10
   109         60
   110        960
   111        130
   112         30
   115         30
   127         20
   141         20
   142        190
   143         20