##TITLE=Library Entry 73870
##JCAMP-DX=Revision 4.10 
##DATA TYPE=MASS SPECTRUM
##SAMPLE DESCRIPTION=Exported from NIST MS Search
##NAMES=HP
##CAS NAME=Cyclopentane, 1,2,3,4,5-pentamethoxy-, stereoisomer
##MOLFORM=C10H20O5
##CAS REGISTRY NO=29887-59-0
##MP= -300
##BP= -300
##MW= 220
##$RETENTION INDEX=0
##$CONDENSED SPECTRUM=NO
##NPOINTS= 29
##XYDATA=(XY..XY) 1 
    41         30
    42         10
    43         20
    45        120
    47         10
    53         10
    55         10
    56         10
    57         10
    58         10
    59         20
    69         10
    71         10
    73         30
    74         20
    75         90
    85         20
    86         10
    88         50
    89         10
    95         10
   101        999
   102         60
   103         10
   114         30
   117         10
   131         30
   157         20
   220         20