##TITLE=Library Entry 30259
##JCAMP-DX=Revision 4.10 
##DATA TYPE=MASS SPECTRUM
##SAMPLE DESCRIPTION=Exported from NIST MS Search
##NAMES=HP
##CAS NAME=Cyclohexane, 1,4-diethoxy-, trans-
##MOLFORM=C10H20O2
##CAS REGISTRY NO=29887-72-7
##MP= -300
##BP= -300
##MW= 172
##$RETENTION INDEX=0
##$CONDENSED SPECTRUM=NO
##NPOINTS= 56
##XYDATA=(XY..XY) 1 
    39        160
    41        480
    42        160
    43        480
    45        130
    46         60
    47         80
    51         50
    52         40
    53        120
    54        150
    55        280
    56         70
    57        360
    58        110
    59        999
    60         60
    65         40
    66         40
    67        140
    68         50
    69        170
    70        160
    71         60
    72        340
    73         60
    75         50
    76         20
    77         60
    78         20
    79        170
    80        110
    81        340
    82        110
    83        160
    84         80
    85        160
    86         80
    87        870
    88         90
    94         50
    95         40
    96         40
    97        110
    98        260
    99         50
   103         30
   111         70
   114         20
   115         20
   125         70
   126        650
   127         90
   128         40
   143         20
   172         20