##TITLE=Library Entry 28941
##JCAMP-DX=Revision 4.10 
##DATA TYPE=MASS SPECTRUM
##SAMPLE DESCRIPTION=Chemical Concepts
##NAMES=HP
##CAS NAME=Cyclohexane, 1,3-dimethoxy-, trans-
##MOLFORM=C8H16O2
##CAS REGISTRY NO=29887-61-4
##MP= -300
##BP= -300
##MW= 144
##$RETENTION INDEX=0
##$CONDENSED SPECTRUM=NO
##NPOINTS= 77
##XYDATA=(XY..XY) 1 
    26         12
    27        139
    28         26
    29        109
    30          9
    31         39
    33         29
    34          0
    37          2
    38          7
    39        123
    40         18
    41        302
    42         37
    43        167
    44          5
    45        153
    46          3
    47         14
    49          0
    50          7
    51         16
    52          7
    53         53
    54         26
    55         76
    56         12
    57         20
    58        999
    59         66
    60          3
    61          0
    62          0
    63          2
    64          0
    65          8
    66          5
    67         34
    68          6
    69         33
    70          2
    71        380
    72         26
    73          4
    74          0
    75         49
    76          1
    77         16
    78          5
    79         41
    80         32
    81        121
    82         23
    83         11
    84        141
    85         36
    86         12
    87          3
    88          0
    94          0
    95          2
    96          1
    97        208
    98         13
    99          2
   101        103
   102          6
   103          1
   109          0
   110          4
   111         95
   112        574
   113         30
   114          1
   115          0
   129          1
   143          0