##TITLE=Library Entry 40085
##JCAMP-DX=Revision 4.10 
##DATA TYPE=MASS SPECTRUM
##SAMPLE DESCRIPTION=Exported from NIST MS Search
##NAMES=HP
##CAS NAME=Cyclopentane, 1,3-dimethoxy-, trans-
##MOLFORM=C7H14O2
##CAS REGISTRY NO=29887-57-8
##MP= -300
##BP= -300
##MW= 130
##$RETENTION INDEX=0
##$CONDENSED SPECTRUM=NO
##NPOINTS= 52
##XYDATA=(XY..XY) 1 
    39        230
    40         20
    41        510
    42        280
    43        160
    45        360
    46         20
    47         70
    50         20
    51         30
    52         10
    53         60
    54         20
    55        110
    56         30
    57        270
    58        470
    59        300
    60         20
    65         50
    66         50
    67        530
    68        110
    69         50
    70         30
    71        550
    72        999
    73         60
    74         20
    75        750
    76         30
    77         20
    78         30
    79         10
    80         10
    81         20
    82         20
    83         40
    84         10
    85         20
    87         10
    88         10
    89         10
    91         10
    94         10
    96         70
    97        350
    98        990
    99        110
   100         90
   101        140
   102         30