##TITLE=Library Entry 95381
##JCAMP-DX=Revision 4.10 
##DATA TYPE=MASS SPECTRUM
##SAMPLE DESCRIPTION=NIST Mass Spectrometry Data Center, 1994
##NAMES=HP
##CAS NAME=1,2-Diphenylcyclopropane
##MOLFORM=C15H14
##CAS REGISTRY NO=29881-14-9
##MP= -300
##BP= -300
##MW= 194
##$RETENTION INDEX=0
##$CONDENSED SPECTRUM=NO
##NPOINTS= 86
##XYDATA=(XY..XY) 1 
    15          6
    17          4
    18          8
    26         14
    27         83
    28          3
    37         11
    38         47
    39        298
    40         33
    41         27
    50        125
    51        314
    52         66
    53         17
    57          4
    61         16
    62         71
    63        241
    64         62
    65        214
    66         15
    69          6
    70          9
    74         38
    75         49
    76         84
    77        262
    78        127
    79         17
    83         38
    86         18
    87         26
    88         26
    89        214
    90         17
    91        385
    92         52
    94          7
    95         35
    96         10
    97          9
    98         10
    99          5
   101         14
   102         83
   103        242
   104         34
   113         18
   115        999
   116        576
   117        221
   118         19
   126         14
   127         15
   128         36
   129          8
   139         31
   140          5
   141         11
   150         11
   151         29
   152         96
   153         30
   154          6
   162          4
   163         24
   165        197
   166         60
   167         60
   168          8
   176         29
   178        477
   179        499
   180         68
   181          5
   187          5
   188          8
   189         54
   190         25
   191         64
   192          5
   193        570
   194        856
   195        132
   196         12