##TITLE=Library Entry 24322
##JCAMP-DX=Revision 4.10 
##DATA TYPE=MASS SPECTRUM
##SAMPLE DESCRIPTION=R.T.HOLMAN,UNIVERSITY OF MINNESOTA
##NAMES=HP
##CAS NAME=Hexadecanoic acid, 2-(octadecyloxy)ethyl ester
##MOLFORM=C36H72O3
##CAS REGISTRY NO=29899-13-6
##MP= -300
##BP= -300
##MW= 552
##$RETENTION INDEX=0
##$CONDENSED SPECTRUM=NO
##NPOINTS= 268
##XYDATA=(XY..XY) 1 
    26          5
    27         54
    28         38
    29        183
    30          6
    31         13
    32          4
    33          4
    34          1
    35          1
    36          5
    37          4
    38          3
    39         31
    40          9
    41        358
    42        116
    43        875
    44         40
    45         85
    46          4
    47          3
    53         17
    54         55
    55        516
    56        208
    57        999
    58         54
    59         30
    60         64
    61         28
    62          3
    63         29
    64          2
    65          4
    66         20
    67         95
    68        175
    69        416
    70        191
    71        583
    72         41
    73         83
    74         23
    75         18
    76          2
    77          4
    78          3
    79         13
    80         16
    81         95
    82        375
    83        458
    84        208
    85        416
    86         45
    87        112
    88         55
    89         12
    90          2
    91          6
    92          3
    93         10
    94         12
    95        101
    96        208
    97        333
    98        233
    99        166
   100         30
   101         41
   102          6
   103          3
   104          5
   105         66
   106          4
   107          9
   108          7
   109         63
   110         65
   111        166
   112         83
   113         55
   114         11
   115         16
   116          6
   117         10
   118          2
   119          2
   120          1
   121         12
   122          7
   123         41
   124         40
   125         68
   126         33
   127         40
   128         10
   129         25
   130          6
   131          2
   132          2
   133          2
   134          1
   135         12
   136          5
   137         29
   138         28
   139         29
   140         25
   141         37
   142          7
   143         10
   144          4
   145          3
   146          1
   147          2
   148          1
   149          6
   150          3
   151         11
   152         16
   153         16
   154         25
   155         31
   156          6
   157         19
   158          4
   159          1
   160          4
   161          1
   162          1
   163          4
   164          2
   165          5
   166         12
   167         10
   168         16
   169         23
   170          4
   171         10
   172          3
   173          2
   177          2
   179          4
   180          9
   181          9
   182         16
   183         20
   184          4
   185         10
   186          3
   187          1
   190          3
   191          3
   192          3
   193          6
   194         15
   195          8
   196          9
   197         15
   198          5
   199          8
   200          2
   201          2
   207          6
   208         10
   209          6
   210          4
   211         10
   212          4
   213         15
   214          4
   215          3
   216          3
   217          1
   218          2
   219          8
   220          5
   221          5
   222         15
   223          5
   224         10
   225          6
   226          2
   227          7
   228          2
   229          1
   230          1
   235          3
   236         15
   237         23
   238         17
   239        258
   240         45
   241         12
   242          4
   243          2
   244          2
   250         62
   251         16
   252         12
   253         35
   254         12
   255         38
   256         29
   257         58
   258         12
   259          2
   260          1
   263          2
   264          1
   265          1
   266          1
   267         10
   268          4
   269          3
   270          3
   271          3
   272          1
   278          2
   279          3
   280          2
   281         62
   282         23
   283        208
   284         75
   285         15
   286          4
   294          4
   295          4
   296         37
   297         20
   298          4
   299          2
   300          2
   301         37
   302          8
   303          2
   307          4
   308          1
   309          1
   310          1
   311          1
   312          1
   313         43
   314         10
   315          6
   316          2
   341          5
   342          2
   356         10
   357          4
   358          1
   369         11
   370          5
   371          2
   381          2
   491          2
   509          3
   510          2
   511          1
   522          1
   523          1
   552          6
   553          4
   554          2
   555          1