##TITLE=Library Entry 60884
##JCAMP-DX=Revision 4.10 
##DATA TYPE=MASS SPECTRUM
##SAMPLE DESCRIPTION=Exported from NIST MS Search
##NAMES=HP
##CAS NAME=3-Hexanone, 1-phenyl-
##MOLFORM=C12H16O
##CAS REGISTRY NO=29898-25-7
##MP= -300
##BP= -300
##MW= 176
##$RETENTION INDEX=0
##$CONDENSED SPECTRUM=NO
##NPOINTS= 26
##XYDATA=(XY..XY) 1 
    39        120
    41        190
    43        850
    44         30
    51        120
    55         82
    65        140
    66         10
    71        790
    72         50
    77        190
    78         80
    79        130
    80         10
    91        999
    92         98
   103         92
   104        110
   105        950
   106        100
   133        470
   134         55
   148         87
   149         10
   176        510
   177         78