##TITLE=Library Entry 28587
##JCAMP-DX=Revision 4.10 
##DATA TYPE=MASS SPECTRUM
##SAMPLE DESCRIPTION=NIST Mass Spectrometry Data Center, 1990.
##NAMES=HP
##CAS NAME=Ephedrine
##MOLFORM=C10H15NO
##CAS REGISTRY NO=299-42-3
##MP= -300
##BP= -300
##MW= 165
##$RETENTION INDEX=1369
##$CONDENSED SPECTRUM=NO
##NPOINTS= 38
##XYDATA=(XY..XY) 1 
    15          6
    27         17
    28         51
    29         31
    30         97
    39         17
    41         14
    42         53
    43         31
    44         23
    50         25
    51         64
    52         17
    53          9
    55          9
    56         72
    58        999
    59         41
    63         13
    65         11
    71         19
    74          6
    75          5
    77        126
    78         29
    79         46
    89          9
    90          4
    91         22
   105         43
   106         22
   107          9
   115         11
   117         19
   118          7
   131          8
   132          9
   146          8