##TITLE=Library Entry 15352
##JCAMP-DX=Revision 4.10 
##DATA TYPE=MASS SPECTRUM
##SAMPLE DESCRIPTION=Chuck Anderson, Aldrich Chemical Co.
##NAMES=HP
##CAS NAME=1,4-Dibromo-2,3-butanediol
##MOLFORM=C4H8Br2O2
##CAS REGISTRY NO=299-70-7
##MP= -300
##BP= -300
##MW= 246
##$RETENTION INDEX=0
##$CONDENSED SPECTRUM=NO
##NPOINTS= 80
##XYDATA=(XY..XY) 1 
    13          0
    14         11
    15         91
    16          3
    17          1
    18          3
    19         39
    25          3
    26         30
    27        181
    28         22
    29        130
    30          7
    31         45
    32          1
    36          4
    37          3
    38          7
    39         27
    40          4
    41         33
    42         58
    43        480
    44        999
    45        318
    46          9
    47          4
    50          4
    51          4
    52          0
    53          4
    54          0
    55         17
    56          2
    57         21
    58          0
    60          3
    69          7
    70          1
    71          2
    73         59
    74          2
    79          9
    80          8
    81         10
    82          8
    83          0
    86         27
    87          5
    91          3
    92          4
    93         37
    94         15
    95         35
    96         11
   105          7
   106          3
   107         37
   108          3
   109         29
   119          1
   120          1
   121         22
   122         35
   123        258
   124         39
   125        232
   126          8
   135         51
   136          0
   137         50
   138          0
   149          3
   151          3
   153         86
   154          1
   155         86
   156          1
   166         10
   168         10