##TITLE=Library Entry 87689
##JCAMP-DX=Revision 4.10 
##DATA TYPE=MASS SPECTRUM
##SAMPLE DESCRIPTION=Exported from NIST MS Search
##NAMES=HP
##CAS NAME=Zytron
##MOLFORM=C10H14Cl2NO2PS
##CAS REGISTRY NO=299-85-4
##MP= -300
##BP= -300
##MW= 313
##$RETENTION INDEX=1969
##$CONDENSED SPECTRUM=NO
##NPOINTS= 85
##XYDATA=(XY..XY) 1 
    35         10
    36         40
    37         10
    38         20
    39         50
    40         10
    41        210
    42        190
    43        280
    44         30
    45         30
    46        200
    47        170
    48         20
    49         10
    50         10
    51         10
    56         30
    57         30
    58        629
    59         20
    61         10
    62         40
    63        310
    64        230
    65         10
    72         20
    73         60
    74         30
    75         40
    76         10
    77         20
    78        180
    79         50
    83         10
    85         10
    87         10
    88         30
    90         20
    92         10
    94        170
    95         30
    97         20
    98         20
    99         10
   104         30
   106         10
   107         10
   109         40
   110        999
   111         40
   112         40
   118         20
   120         50
   133         60
   135         40
   136        120
   152        220
   153         10
   154         10
   161         50
   162         60
   163         40
   164         40
   173         10
   221         10
   223        190
   224         10
   225        120
   226         10
   227         20
   236         60
   238         20
   240         10
   242         10
   255         50
   257         30
   278        649
   279         80
   280        360
   281         40
   282         80
   284         10
   298         20
   300         20