##TITLE=Library Entry 11933
##JCAMP-DX=Revision 4.10 
##DATA TYPE=MASS SPECTRUM
##SAMPLE DESCRIPTION=A.Pleshkova, Nesmeyanov Inst.Org.Elem.Cpds, Moscow
##NAMES=HP
##CAS NAME=Isonitrosoacetylacetone
##MOLFORM=C5H7NO3
##CAS REGISTRY NO=29917-12-2
##MP= -300
##BP= -300
##MW= 129
##$RETENTION INDEX=0
##$CONDENSED SPECTRUM=NO
##NPOINTS= 17
##XYDATA=(XY..XY) 1 
    15         48
    16          8
    18          4
    27         24
    28         64
    29          6
    42         32
    43        999
    44         40
    47         24
    69         12
    70         56
    71         24
    86         24
   129         88
   130         12
   131          5