##TITLE=Library Entry 47080
##JCAMP-DX=Revision 4.10 
##DATA TYPE=MASS SPECTRUM
##SAMPLE DESCRIPTION=A.A.Kutin, Moscow, Russia
##NAMES=HP
##CAS NAME=2-Butyne-1,4-diol, 4-(5-methyl-2-furanyl)-1,1-diphenyl-
##MOLFORM=C21H18O3
##CAS REGISTRY NO=299198-89-3
##MP= -300
##BP= -300
##MW= 318
##$RETENTION INDEX=0
##$CONDENSED SPECTRUM=NO
##NPOINTS= 223
##XYDATA=(XY..XY) 1 
    33          1
    37          3
    39        119
    41         28
    43        530
    44         17
    47          0
    51        555
    52        103
    53        233
    55        124
    56          5
    58          9
    62         13
    63         63
    65         75
    66         19
    67          9
    68         12
    69         21
    70          3
    71          4
    73          3
    74         38
    75         61
    77        999
    78        255
    79         70
    81         57
    82         64
    83         43
    84          5
    86         14
    87         21
    88         17
    89         47
    90         12
    91         48
    92         12
    93         12
    95         82
    97         29
    98         13
    99         12
   101         43
   102         48
   103         90
   105        885
   106         66
   107         28
   109        131
   111        340
   112         30
   113         34
   114         29
   115        110
   116         13
   117          7
   118         26
   119         36
   120         18
   121         12
   122         11
   123         29
   124          4
   125          5
   126         45
   127         38
   128         51
   129        156
   130         34
   131         72
   132         10
   133         11
   135         49
   136         11
   137         11
   139         81
   141         74
   142         19
   143         18
   144          5
   145          9
   146         46
   147          7
   148          1
   150         41
   151         63
   152        181
   153         86
   154         39
   155         32
   157         18
   158          8
   159         42
   160         10
   161          6
   162         11
   163         46
   164         30
   165        209
   166         53
   167         49
   168         14
   169         22
   170         14
   171         63
   172          8
   174          6
   175          7
   176         50
   177         26
   178        135
   179         60
   180         15
   181         66
   182         19
   183         60
   184         12
   185         17
   186          5
   187         30
   188         18
   189        127
   190         40
   191         89
   192         17
   193          6
   195        666
   196        110
   197         37
   198         10
   199         11
   200         24
   201         24
   202         87
   203         35
   204         14
   205         17
   207        137
   208         58
   209         17
   211         43
   212         10
   213        134
   214         25
   215         79
   216         25
   217         11
   218         56
   219         39
   220         17
   221          6
   223        215
   224         54
   225         13
   226         49
   227         38
   228         95
   229        237
   230         63
   231         32
   232          9
   233          8
   234         12
   235         10
   236         27
   237         19
   239         79
   240         31
   241         25
   242          8
   243         15
   244         10
   245          7
   246          3
   247         11
   248          7
   249          1
   250          2
   252         14
   253         14
   254          5
   255         24
   257        188
   258         79
   259         21
   260          8
   261          7
   262          1
   265          2
   266          0
   267          6
   268          7
   269          4
   271         97
   272         78
   273         22
   275         61
   276         13
   277          2
   281          3
   282          5
   283         15
   284         26
   285         26
   286          5
   287          5
   288          1
   289          9
   290          2
   295          0
   298          0
   299         18
   300         56
   301         23
   302          6
   303          1
   316          3
   318        648
   319        140
   320         18
   321          1