##TITLE=Library Entry 73669
##JCAMP-DX=Revision 4.10 
##DATA TYPE=MASS SPECTRUM
##SAMPLE DESCRIPTION=A.A.Kutin, Moscow, Russia
##NAMES=HP
##CAS NAME=Acetamide, N-[5-(1-methylethyl)-1,3,4-thiadiazol-2-yl]-2-(4-morph
olyl)-
##MOLFORM=C11H18N4O2S
##CAS REGISTRY NO=299199-08-9
##MP= -300
##BP= -300
##MW= 270
##$RETENTION INDEX=0
##$CONDENSED SPECTRUM=NO
##NPOINTS= 98
##XYDATA=(XY..XY) 1 
    39         16
    40          5
    41         48
    42         86
    43         44
    44         12
    45         21
    46          2
    47          3
    48          0
    50          0
    51          1
    52          3
    53          9
    54         10
    55         13
    56         90
    57          8
    58          7
    59         13
    60          4
    61          0
    68         13
    69         17
    70         50
    71         40
    72         34
    73          5
    74          2
    75          1
    81          0
    82          2
    83          4
    84          8
    85         12
    86         21
    87         15
    88          2
    96          2
    97          4
    98         20
    99        108
   100        999
   101         60
   102          5
   110          0
   111          1
   112          0
   113          1
   114          3
   115          1
   116         22
   117          1
   118          1
   120          0
   125          0
   127        166
   128         19
   129          2
   130          0
   138          0
   140          2
   141          1
   142          6
   143         23
   144         74
   145          6
   146          3
   152          0
   154          4
   155          2
   156          6
   157          2
   158          0
   165          0
   167          2
   168          1
   170         43
   171          3
   172          1
   173          1
   181          0
   183          4
   185         48
   186          4
   187          2
   196          0
   197          1
   211          0
   221          1
   227          1
   240          0
   241          0
   252          2
   270        209
   271         35
   272         13
   273          1