##TITLE=Library Entry 6088
##JCAMP-DX=Revision 4.10 
##DATA TYPE=MASS SPECTRUM
##SAMPLE DESCRIPTION=A.A.Kutin, Moscow, Russia
##NAMES=HP
##CAS NAME=Carbamic acid, N-(3-chloro-4-methoxyphenyl)-, decyl ester
##MOLFORM=C18H28ClNO3
##CAS REGISTRY NO=299202-69-0
##MP= -300
##BP= -300
##MW= 341
##$RETENTION INDEX=0
##$CONDENSED SPECTRUM=NO
##NPOINTS= 196
##XYDATA=(XY..XY) 1 
    33          2
    34          2
    35          4
    36         14
    37          7
    39        139
    41        818
    43        999
    44         41
    45         11
    47          1
    49          4
    50         17
    51         37
    52         40
    53         55
    55        410
    57        496
    58         14
    59          4
    60          3
    61          7
    62         15
    63         32
    64         11
    65         24
    66          8
    67         26
    69        130
    70         43
    71        108
    72          7
    73          7
    74          4
    75         10
    76         27
    77         17
    78         44
    79         24
    80         57
    81         11
    82          9
    83         50
    84         16
    85         80
    86         14
    87          8
    88          6
    89          5
    90         11
    91         11
    92          7
    93          6
    94          3
    95          4
    97         27
    98          9
    99          6
   100          2
   101          1
   102          0
   103          0
   104          1
   106         66
   107          6
   108          8
   109          2
   110          2
   111          9
   112         20
   114         30
   116          9
   117          1
   118          1
   119          1
   120          7
   121          2
   122          7
   123          6
   124          4
   125          3
   126          8
   127          4
   128          3
   129          8
   130          1
   131          2
   132          1
   133          1
   134          3
   135          1
   136          2
   138          2
   140         34
   142        221
   144         79
   145          4
   146          0
   147          0
   148          1
   149          5
   150          3
   151          1
   152          1
   153          1
   154          3
   156        117
   157        175
   158         48
   159         55
   160          5
   161          1
   162          1
   163          1
   164          1
   165         11
   166          2
   168         62
   170         42
   171          6
   172          6
   173          0
   174          0
   176          0
   177          0
   178          0
   179          0
   180          0
   181          1
   183         59
   184         38
   185         22
   186         24
   187          3
   188          4
   189          0
   190          0
   191          0
   192          0
   193          0
   194          0
   196          2
   198         14
   199          5
   201        223
   202         42
   203         70
   204         11
   205          1
   206          0
   207          0
   210          0
   212          8
   214          4
   215          0
   216          0
   225          0
   226          7
   228          4
   229          0
   230          0
   240          5
   241          1
   242          2
   243          0
   254          4
   255          1
   256          1
   257          0
   268          5
   269          2
   270          2
   271          0
   282          1
   283          0
   284          0
   285          0
   297          0
   299          1
   300          0
   301          0
   307          2
   308          0
   311          0
   334          0
   335          0
   336          1
   337          2
   338          5
   339          5
   341        244
   342         48
   343         81
   344         16
   345          2
   346          0