##TITLE=Library Entry 58351
##JCAMP-DX=Revision 4.10 
##DATA TYPE=MASS SPECTRUM
##SAMPLE DESCRIPTION=J.S. THRASHER, DEP. CHEM., ALABAMA UNIV., ALABAMA, USA
##NAMES=HP
##CAS NAME=Isothiocyanatosulfur pentafluoride
##MOLFORM=CF5NS2
##CAS REGISTRY NO=2992-86-1
##MP= -300
##BP= -300
##MW= 185
##$RETENTION INDEX=0
##$CONDENSED SPECTRUM=NO
##NPOINTS= 17
##XYDATA=(XY..XY) 1 
    51        126
    58        771
    60         34
    63         76
    70        378
    72         21
    77         71
    82         76
    89        999
    91         58
   108         42
   127        538
   129         25
   166        105
   168         17
   185        210
   187         17