##TITLE=Library Entry 47201
##JCAMP-DX=Revision 4.10 
##DATA TYPE=MASS SPECTRUM
##SAMPLE DESCRIPTION=Chemical Concepts
##NAMES=HP
##CAS NAME=2-(4-Nitroanilino)-4-[(1-phenylethylidene)hydrazino]-6-(3,4-xylid
ino)-1,3,5-triazine
##MOLFORM=C25H24N8O2
##CAS REGISTRY NO=299202-27-0
##MP= -300
##BP= -300
##MW= 468
##$RETENTION INDEX=0
##$CONDENSED SPECTRUM=NO
##NPOINTS= 164
##XYDATA=(XY..XY) 1 
    39        133
    40         12
    41        116
    42         82
    43        139
    44         50
    45         23
    49         12
    50         66
    51        206
    52         64
    53         63
    54         25
    55         65
    56         29
    57         50
    58         21
    60         19
    61          9
    62         12
    63         71
    64         53
    65        104
    66         27
    67         28
    68         66
    69         33
    70         17
    71         20
    72          9
    73         17
    74         13
    75         29
    77        999
    78        185
    79        134
    80         22
    81         16
    82         16
    83         29
    84         24
    85         13
    86          9
    87          9
    88          9
    89         32
    90         77
    91        177
    92         71
    93         72
    94         11
    95          8
    97         11
    98          9
    99          9
   101         16
   102         41
   103        210
   104        168
   105        186
   106         82
   107         17
   108         12
   112          8
   115         13
   116         32
   117         85
   118        260
   119         86
   120        154
   121        124
   122         19
   128         14
   129         22
   130         45
   131        123
   132         85
   133        108
   134         48
   135          9
   138          9
   142         10
   143         60
   144         62
   145        131
   146        104
   147        136
   148         16
   156         34
   157         34
   158         33
   159         38
   160         45
   161         22
   162         25
   163          9
   164         25
   165          8
   169          9
   170         22
   171         33
   172         93
   173         20
   174         14
   183          9
   184         16
   185         40
   186         22
   187         29
   189         38
   190          9
   195          9
   199         13
   200         10
   203         16
   204         18
   210         24
   211          9
   212          9
   214          9
   220         11
   221         20
   226         12
   228         21
   229          9
   232          9
   234         27
   245         20
   246         11
   247         19
   248          8
   260         10
   261         23
   262         28
   263         13
   288         21
   289         27
   290         44
   291         11
   293         43
   302          9
   303          9
   304         12
   305          8
   306         11
   307         34
   308          9
   331         82
   332         17
   335         10
   347         13
   348         68
   349         17
   350         11
   364         26
   365         19
   366         22
   391         24
   452          9
   453         59
   454         19
   467         43
   468         48
   469         16