##TITLE=Library Entry 71999
##JCAMP-DX=Revision 4.10 
##DATA TYPE=MASS SPECTRUM
##SAMPLE DESCRIPTION=Chemical Concepts
##NAMES=HP
##CAS NAME=Spiro[bicyclo[3.3.1]non-6-ene-2,2'-[1,3]dioxolane]
##MOLFORM=C11H16O2
##CAS REGISTRY NO=29927-78-4
##MP= -300
##BP= -300
##MW= 180
##$RETENTION INDEX=0
##$CONDENSED SPECTRUM=NO
##NPOINTS= 88
##XYDATA=(XY..XY) 1 
    26          5
    27         54
    28         13
    29         20
    31          2
    38          5
    39         88
    40         18
    41         89
    42         87
    43         48
    44         10
    45         27
    50          9
    51         37
    52         24
    53         45
    54         15
    55        225
    56         26
    57         10
    58          8
    63          8
    65         31
    66         14
    67         22
    68          7
    69          4
    70          2
    71          2
    73         15
    74          3
    76          2
    77         69
    78         27
    79        110
    80         36
    81         11
    82          6
    83          3
    84          2
    85          2
    86        140
    87         11
    89          2
    91         69
    92         35
    93         18
    94          4
    95          9
    96          4
    97          3
    98          3
    99        999
   100         85
   101         10
   103          3
   104          2
   105          6
   106          5
   107          7
   108          5
   109          7
   112          4
   113          2
   115          2
   117         10
   118         34
   119          5
   120          1
   121          4
   122          4
   123          2
   124          2
   125          6
   126          2
   135          4
   136          3
   137          7
   138          1
   139          2
   149          3
   150          5
   151          9
   152         20
   153          3
   180         20
   181          3