##TITLE=Library Entry 72301
##JCAMP-DX=Revision 4.10 
##DATA TYPE=MASS SPECTRUM
##SAMPLE DESCRIPTION=Chemical Concepts
##NAMES=HP
##CAS NAME=6,6-Ethylenedioxybicyclo[3.3.1]nonan-2-one
##MOLFORM=C11H16O3
##CAS REGISTRY NO=29927-56-8
##MP= -300
##BP= -300
##MW= 196
##$RETENTION INDEX=0
##$CONDENSED SPECTRUM=NO
##NPOINTS= 120
##XYDATA=(XY..XY) 1 
    25          1
    26         10
    27         99
    28         36
    29         38
    30          2
    31          3
    32          2
    34          0
    37          0
    38          4
    39         84
    40         21
    41         98
    42        121
    43         62
    44          3
    45         14
    46          2
    47          2
    48          1
    50          7
    51         14
    52         10
    53         37
    54         13
    55        206
    56         11
    57          5
    58          1
    62          1
    63          3
    64          1
    65         16
    66          9
    67         42
    68         25
    69         15
    70          3
    71          2
    72          0
    73          7
    74          1
    75          1
    76          1
    77         27
    78          8
    79         28
    80          6
    81         14
    82          8
    83         13
    84          2
    85          3
    86        601
    87         43
    88          3
    89          1
    90          0
    91         11
    92          4
    93          6
    94          2
    95         18
    96          9
    97          6
    98          2
    99        999
   100         63
   101          5
   102          0
   103          0
   104          0
   105          4
   106          1
   107          5
   108          2
   109         10
   110          5
   111          3
   112         30
   113         24
   114          2
   115          0
   119          0
   121         17
   122          6
   123          6
   124          5
   125         14
   126          8
   127         17
   128          1
   133          1
   134          1
   135          2
   136          0
   137          1
   138          3
   139          6
   140          5
   141          2
   149          2
   150          0
   151          2
   152          1
   153          5
   154          1
   155          2
   157          0
   165          1
   166          3
   167          2
   168          4
   179          0
   181          0
   195          1
   196         56
   197          7
   198          0