##TITLE=Library Entry 13328
##JCAMP-DX=Revision 4.10 
##DATA TYPE=MASS SPECTRUM
##SAMPLE DESCRIPTION=Chemical Concepts
##NAMES=HP
##CAS NAME=O-2-Propynyl N-n-octylphthalamate
##MOLFORM=C19H25NO3
##CAS REGISTRY NO=299201-17-5
##MP= -300
##BP= -300
##MW= 315
##$RETENTION INDEX=0
##$CONDENSED SPECTRUM=NO
##NPOINTS= 159
##XYDATA=(XY..XY) 1 
    33          1
    38         25
    39        385
    41        532
    42          9
    43        999
    44         74
    45          3
    50         85
    51        123
    53         42
    55        321
    57        145
    58         57
    59          6
    60          2
    62         14
    64         15
    65         63
    66         49
    67         23
    69        119
    70         42
    71         17
    72         14
    74         15
    76        345
    77        200
    78         21
    79         17
    81         15
    82         29
    83         16
    84          9
    86         29
    87          2
    89          8
    90         32
    92         21
    93         48
    94         17
    96         46
    98          6
    99          3
   100          5
   102         32
   103         93
   104        174
   105        383
   106         15
   108          9
   110          8
   112          3
   113          3
   114          6
   115         30
   116         29
   117         10
   118          7
   119          6
   120         26
   122         36
   124          2
   125          6
   126          6
   128        359
   130         98
   131         80
   132         69
   133        481
   135         30
   137          1
   138          1
   140          1
   141          1
   142          2
   143         26
   144         10
   145         12
   146         17
   148        170
   149        287
   150          9
   152          2
   156         42
   157         29
   159        360
   160        186
   161        152
   162         22
   163          3
   164          1
   166          3
   167          2
   168          1
   169          1
   170          3
   172         54
   174         70
   175         23
   176          6
   178         10
   179          1
   184          1
   187        605
   188        139
   189         18
   190          5
   191          1
   192          1
   198          6
   199          6
   200          5
   202         49
   203          8
   204          8
   205          1
   206          1
   212          1
   213          1
   214          2
   215          2
   216         53
   217        109
   218          9
   219          1
   220         13
   221          2
   228          2
   230         25
   231          7
   232         29
   233          7
   234          2
   242          1
   244         22
   245          5
   248          1
   254          2
   256          1
   258         41
   259         39
   260         38
   261          7
   262          1
   271          5
   272         10
   273          3
   274          1
   276        182
   277         30
   278          3
   286          5
   287          1
   300          1
   314         29
   315         46
   316         10
   317          1