##TITLE=Library Entry 32787
##JCAMP-DX=Revision 4.10 
##DATA TYPE=MASS SPECTRUM
##SAMPLE DESCRIPTION=Chemical Concepts
##NAMES=HP
##CAS NAME=1H-Inden-1-one, octahydro-
##MOLFORM=C9H14O
##CAS REGISTRY NO=29927-85-3
##MP= -300
##BP= -300
##MW= 138
##$RETENTION INDEX=0
##$CONDENSED SPECTRUM=NO
##NPOINTS= 87
##XYDATA=(XY..XY) 1 
    25          2
    26         54
    27        427
    28        195
    29        155
    30          5
    31          3
    37         13
    38         44
    39        590
    40        114
    41        604
    42        109
    43         48
    44          6
    45          4
    46          2
    47          4
    48          2
    49          6
    50         61
    51        132
    52         79
    53        293
    54        522
    55        322
    56         70
    57         24
    58          3
    59          3
    61          5
    62         14
    63         37
    64          9
    65         92
    66        119
    67        999
    68        329
    69        161
    70         26
    71         16
    72          3
    73          3
    74          9
    75          8
    76          4
    77        117
    78         45
    79        285
    80        136
    81        647
    82        301
    83        380
    84         28
    85          5
    86          3
    87          3
    89          2
    90          2
    91         65
    92         50
    93         33
    94        484
    95        193
    96        560
    97         65
    98          5
   103          2
   104          2
   105         17
   106          3
   107         13
   108          5
   109        332
   110        119
   111          9
   118          2
   119          6
   120         54
   121          8
   123         15
   124          2
   136          3
   137         35
   138        451
   139         49
   140          4