##TITLE=Library Entry 11607
##JCAMP-DX=Revision 4.10 
##DATA TYPE=MASS SPECTRUM
##SAMPLE DESCRIPTION=V.Zaikin,Topchiev Inst.Petrochem.Synth.,Moscow
##NAMES=HP
##CAS NAME=Isopropyl bromoacetate
##MOLFORM=C5H9BrO2
##CAS REGISTRY NO=29921-57-1
##MP= -300
##BP= -300
##MW= 180
##$RETENTION INDEX=911
##$CONDENSED SPECTRUM=NO
##NPOINTS= 62
##XYDATA=(XY..XY) 1 
    25          3
    26         26
    27        100
    28          8
    29         22
    30          2
    31         14
    35         20
    36        141
    37          8
    38         46
    39         80
    40         19
    41        221
    42        107
    43        999
    44         15
    45         33
    47          3
    48          7
    49         43
    50        132
    51         10
    57         22
    58          4
    59        118
    60          8
    61          2
    64          1
    74          1
    75          7
    76          6
    82         11
    86          1
    87          3
    91          4
    92          9
    93        115
    94         19
    95        110
    96          8
   101        107
   102          6
   107          1
   109          1
   120         12
   121        574
   122         24
   123        571
   124         12
   125          1
   138          2
   139        196
   140          7
   141        192
   142          4
   165        132
   166          6
   167        131
   168          6
   179          2
   181          2