##TITLE=Library Entry 81896
##JCAMP-DX=Revision 4.10 
##DATA TYPE=MASS SPECTRUM
##SAMPLE DESCRIPTION=A.A.Kutin, Moscow, Russia
##NAMES=HP
##CAS NAME=2-Amino-5-[(3-methylbenzyl)thio]-1,3,4-thiadiazole
##MOLFORM=C10H11N3S2
##CAS REGISTRY NO=299442-42-5
##MP= -300
##BP= -300
##MW= 237
##$RETENTION INDEX=0
##$CONDENSED SPECTRUM=NO
##NPOINTS= 164
##XYDATA=(XY..XY) 1 
    35          1
    36          2
    37          5
    38         19
    39        117
    40         32
    41         24
    42         48
    43         17
    44         28
    45         68
    46         16
    47         13
    48          3
    49          1
    50         27
    51         66
    52         26
    53         28
    54          3
    55          3
    56          1
    57         17
    58         18
    59         45
    60        207
    61         12
    62         23
    63         46
    64         25
    65         40
    66          7
    67          2
    68          1
    69          4
    70          2
    71          2
    72          1
    73          4
    74         21
    75          7
    76         51
    77        196
    78         70
    79        138
    80         10
    82          3
    83          0
    84          1
    85          1
    86          2
    87          2
    88          1
    89         18
    90         10
    91         44
    92          7
    93          7
    95          1
    96          0
    97          1
    98          1
    99          0
   100          1
   101          2
   102         15
   103        102
   104         42
   105        999
   106         94
   107          4
   108          1
   109          1
   110          0
   111          0
   112          0
   114          6
   115          2
   116          2
   117          2
   118          8
   119          5
   120         20
   121          6
   122          1
   123          0
   124          0
   126          0
   128          0
   129          0
   130          0
   131          0
   132          5
   133         30
   134          7
   135         23
   136          7
   137          6
   138          2
   139          0
   143          0
   144          0
   145          2
   146          1
   147          1
   148          1
   149          1
   150          0
   151          0
   152          0
   153          0
   154          0
   159          0
   160          1
   161          1
   162        211
   163         26
   164         11
   165          2
   166          0
   167          0
   168          0
   171          0
   172          0
   174          0
   175          0
   176          0
   177          0
   178          0
   179          1
   180          0
   181          0
   183          0
   185          0
   186          0
   187          0
   188          0
   189          2
   190          0
   191          0
   193          0
   194          0
   195          3
   196          0
   197          0
   202          0
   203          1
   204         79
   205          9
   206          3
   207          0
   208          0
   215          0
   217          0
   220          0
   222          0
   223          0
   236          1
   237        252
   238         34
   239         23
   240          2
   241          0
   242          0