##TITLE=Library Entry 84807
##JCAMP-DX=Revision 4.10 
##DATA TYPE=MASS SPECTRUM
##SAMPLE DESCRIPTION=A.A.Kutin, Moscow, Russia
##NAMES=HP
##CAS NAME=Acetamide, 2-(2-nitrophenyl)-N-(2-cyanocyclopentenyl)-
##MOLFORM=C14H13N3O3
##CAS REGISTRY NO=299419-89-9
##MP= -300
##BP= -300
##MW= 271
##$RETENTION INDEX=0
##$CONDENSED SPECTRUM=NO
##NPOINTS= 142
##XYDATA=(XY..XY) 1 
    33          2
    35          1
    37         39
    38        120
    39        492
    40        115
    41        238
    42         42
    43         17
    44         27
    45         10
    46          5
    48          5
    50        136
    51        279
    52        273
    53        235
    54        109
    55         34
    56         17
    57          6
    59          4
    60          4
    61         31
    62        108
    63        347
    64        231
    65        527
    66        104
    67         75
    68         13
    69          4
    70          3
    71          3
    74          7
    75         58
    76        105
    77        307
    78        927
    79        157
    80        132
    81         38
    82         14
    84         12
    85          5
    86         13
    87         26
    88         42
    89        446
    90        168
    91        138
    92        351
    93         44
    94          4
    96          2
    98          4
    99          1
   101          1
   102          8
   103         18
   104         51
   105        130
   106        143
   107        528
   108        999
   109         72
   110          4
   113          2
   114          3
   115         18
   116         12
   117         28
   118         38
   119         31
   120         69
   121         10
   122          6
   125          1
   126          1
   127          5
   128          5
   130         19
   131         21
   132        107
   133         90
   134         36
   135         83
   136        637
   137         47
   138          6
   139          1
   140          5
   141          9
   142          5
   143          8
   144          7
   145         55
   146         12
   147          4
   148         26
   149          5
   150          2
   151          0
   152          3
   153          2
   154          7
   155          6
   156          6
   157          8
   158          2
   162          5
   164        199
   165         18
   166          5
   167          7
   168          9
   169         12
   170          9
   171          5
   172          1
   180          1
   181          4
   182          7
   183          4
   185          4
   195          2
   196         33
   197         15
   198          3
   208          7
   209          4
   210         14
   211          1
   223          1
   224         12
   225          3
   236          2
   252          1
   269          0
   270          1
   271         56
   272         11