##TITLE=Library Entry 93234
##JCAMP-DX=Revision 4.10 
##DATA TYPE=MASS SPECTRUM
##SAMPLE DESCRIPTION=Chemical Concepts
##NAMES=HP
##CAS NAME=2,2-Diphenyl-N'-veratrylidene-1-cyclopropanecarbohydrazide
##MOLFORM=C25H24N2O3
##CAS REGISTRY NO=299406-36-3
##MP= -300
##BP= -300
##MW= 400
##$RETENTION INDEX=0
##$CONDENSED SPECTRUM=NO
##NPOINTS= 167
##XYDATA=(XY..XY) 1 
    33        124
    34         30
    36         16
    37         42
    39        364
    40        309
    41        145
    43        208
    44        216
    45        364
    46          4
    48          4
    49         48
    50        128
    51        201
    52         75
    53         53
    55        204
    56         53
    57         48
    58         13
    59         22
    60         13
    62         43
    63        127
    65        295
    66         71
    67         35
    68         51
    70         47
    71         31
    72         10
    74         28
    75         37
    76         51
    77        427
    79        287
    81         45
    82         30
    83         37
    84         24
    85         16
    86         14
    87         22
    89        129
    91        597
    92        183
    93         53
    94         58
    95         57
    96         22
    98         17
   100          9
   101         11
   102         33
   103         48
   105        395
   107        110
   108         24
   109         25
   110         11
   111         10
   112         16
   113         33
   115        999
   116         95
   117         23
   118         25
   119         38
   120         86
   121         62
   122         68
   123         17
   124         11
   125         15
   126         15
   127         15
   128         22
   129         10
   130         24
   131         15
   133         33
   134         43
   135         41
   137        101
   138         24
   139         47
   140         20
   141         18
   142          7
   143         95
   144         15
   145         19
   146         20
   147         23
   148         59
   149         97
   150         85
   151         86
   152         82
   153         13
   158          9
   159          9
   160         25
   163        321
   164        171
   165        489
   166        206
   167         39
   168          7
   171         16
   176         27
   178        446
   179        525
   180        228
   181         38
   182         28
   183          9
   185          3
   187          5
   188         18
   189        111
   191        438
   192        446
   193        400
   194         62
   195         22
   196          4
   199          5
   200         13
   201         15
   202         56
   203        181
   204         33
   205         11
   206         38
   207         76
   208         21
   211          9
   217          7
   218         19
   219         56
   220         76
   221        179
   222         29
   223          5
   224         42
   225          9
   233          8
   234          9
   235          9
   236         40
   237         26
   238          6
   283          6
   328          5
   330         45
   331          7
   344          3
   345         28
   346          6
   396         10
   397         13
   399         49
   400        421
   401         99
   402         18