##TITLE=Library Entry 20148
##JCAMP-DX=Revision 4.10 
##DATA TYPE=MASS SPECTRUM
##SAMPLE DESCRIPTION=NIST Mass Spectrometry Data Center
##NAMES=HP
##CAS NAME=1-Heptafluorobutyryloxydecane
##MOLFORM=C14H21F7O2
##CAS REGISTRY NO=2994-16-3
##MP= -300
##BP= -300
##MW= 354
##$RETENTION INDEX=1298
##$CONDENSED SPECTRUM=NO
##NPOINTS= 95
##XYDATA=(XY..XY) 1 
    15          2
    26          5
    27         82
    28         27
    29        195
    30          6
    33          2
    37          1
    39        118
    40         31
    41        650
    42        215
    43        755
    44         27
    47          2
    50          6
    51          8
    52          5
    53         62
    54         97
    55        999
    56        594
    57        677
    58         28
    59          2
    61          3
    62          1
    63          1
    64          1
    65         11
    66          9
    67        141
    68        238
    69        939
    70        668
    71        329
    72         16
    77          7
    78          6
    79         16
    80          4
    81         55
    82        337
    83        634
    84        418
    85        323
    86         20
    87          1
    91          2
    93          6
    94          1
    95         12
    96         95
    97        498
    98        212
    99         44
   100         65
   101          2
   109         26
   110         34
   111        307
   112        249
   113         21
   114          1
   119         50
   120          1
   125          8
   126          1
   131          7
   137          1
   138          3
   140        145
   141         16
   142          1
   147          2
   150         11
   159          2
   167          4
   169        289
   170          9
   178          1
   185         28
   186          3
   195          1
   197         35
   198          2
   199          2
   213          1
   215          2
   227          4
   238          1
   241          1
   255          3
   293          1
   336          1