##TITLE=Library Entry 56671
##JCAMP-DX=Revision 4.10 
##DATA TYPE=MASS SPECTRUM
##SAMPLE DESCRIPTION=Chemical Concepts
##NAMES=HP
##CAS NAME=3-Fluorobenzoic acid, 2-(diethylamino)ethyl ester
##MOLFORM=C13H18FNO2
##CAS REGISTRY NO=2994-22-1
##MP= -300
##BP= -300
##MW= 239
##$RETENTION INDEX=0
##$CONDENSED SPECTRUM=NO
##NPOINTS= 101
##XYDATA=(XY..XY) 1 
    26          0
    27          9
    28         17
    29         27
    30         60
    31          1
    38          0
    39          2
    40          0
    41          6
    42         33
    43          7
    44         17
    45          1
    50          3
    51          2
    52          0
    53          0
    54          3
    55          5
    56         29
    57          9
    58         79
    59          3
    62          0
    63          0
    65          0
    67          0
    68          2
    69          3
    70         11
    71         15
    72          6
    73          0
    74          1
    75         18
    76          2
    77          1
    78          0
    79          0
    80          0
    81          0
    82          0
    83          0
    84         19
    85          3
    86        999
    87         58
    88          1
    91          0
    92          0
    93          0
    94          4
    95         66
    96          6
    97          1
    98          1
    99         62
   100         10
   101          0
   104          0
   105          0
   107          0
   108          0
   109          0
   111          0
   112          4
   113          0
   114          1
   115          0
   116          0
   119          0
   121          0
   122          1
   123         97
   124          8
   125          0
   127          0
   135          0
   137          0
   139          0
   140          0
   141          0
   142          0
   167         92
   168          9
   169          0
   178          0
   181          0
   183          0
   185          0
   186          0
   191          0
   192          0
   194          0
   224         10
   225          1
   237          0
   238          2
   239          7
   240          1