##TITLE=Library Entry 368
##JCAMP-DX=Revision 4.10 
##DATA TYPE=MASS SPECTRUM
##SAMPLE DESCRIPTION=Chemical Concepts
##NAMES=HP
##CAS NAME=2,5-Methano-2H-furo[3,2-b]pyran-8-one, hexahydro-
##MOLFORM=C8H10O3
##CAS REGISTRY NO=29946-82-5
##MP= -300
##BP= -300
##MW= 154
##$RETENTION INDEX=0
##$CONDENSED SPECTRUM=NO
##NPOINTS= 99
##XYDATA=(XY..XY) 1 
    26        182
    27        697
    28        162
    29        999
    30         99
    31         92
    33          1
    35          3
    36          8
    37         61
    38        113
    39        671
    40        112
    41        646
    42        443
    43        353
    44         45
    45         11
    47          9
    48          3
    49         19
    50        108
    51        118
    52         67
    53        298
    54        180
    55        626
    56         67
    57         85
    58         19
    59          4
    60          7
    61          9
    62         16
    63         23
    64          7
    65         56
    66        125
    67        183
    68         84
    69        245
    70         91
    71         76
    72          4
    73          2
    74          4
    75          5
    76          3
    77         40
    78         10
    79        190
    80         61
    81        304
    82         87
    83        366
    84         74
    85          7
    86          2
    87          1
    91          5
    92          6
    93          2
    94         13
    95         20
    96          5
    97         88
    98         19
    99          3
   104          1
   105          1
   106          1
   107         10
   108         18
   109          6
   110         31
   111          7
   112         13
   113          2
   118          0
   119          1
   120          6
   121          2
   123          1
   124          0
   125         10
   126          6
   127          2
   128          0
   129          0
   136         15
   137          2
   138          0
   139          0
   149          0
   150          0
   151          0
   154         87
   155         11
   156          1