##TITLE=Library Entry 51020
##JCAMP-DX=Revision 4.10 
##DATA TYPE=MASS SPECTRUM
##SAMPLE DESCRIPTION=Exported from NIST MS Search
##NAMES=HP
##CAS NAME=Verrucarin A, 2',3'-didehydro-7'-deoxo-2'-deoxy-7',5'-(ethylidene
oxy)-
##MOLFORM=C29H36O8
##CAS REGISTRY NO=29953-50-2
##MP= -300
##BP= -300
##MW= 512
##$RETENTION INDEX=0
##$CONDENSED SPECTRUM=NO
##NPOINTS= 241
##XYDATA=(XY..XY) 1 
    27        250
    28        195
    29        472
    30         20
    31        890
    32         63
    35         13
    36         11
    37          9
    38         27
    39        243
    40         40
    41        522
    42         52
    43        720
    44        186
    45        504
    46         27
    47         63
    48         36
    49        427
    50         22
    51        159
    52         50
    53        281
    54          9
    55        427
    56         63
    57        109
    58         31
    59        418
    60         56
    61         15
    62          6
    63         18
    64         20
    65        190
    66         86
    67        263
    68         56
    69        175
    70         40
    71        152
    72         18
    73         59
    74        288
    75         31
    76          9
    77        236
    78         68
    79        356
    80        136
    81        618
    82        999
    83        522
    84        345
    85         54
    86        218
    87         22
    88         36
    89         13
    90         18
    91        459
    92        181
    93        386
    94        331
    95        561
    97        122
    98         50
    99         61
   100         31
   101         31
   102         15
   103         59
   104         36
   105        611
   106        200
   107        309
   108        165
   109        368
   110        209
   111        468
   112         40
   113         40
   114         22
   115        772
   116         40
   117         88
   118         65
   119        300
   120        286
   121        177
   122        259
   123         79
   124        102
   125         38
   126         52
   127         50
   128        104
   129         50
   131        136
   132         65
   133        143
   134         63
   135        122
   136        113
   137        822
   138        163
   139         81
   140         50
   141         61
   142         45
   143        186
   144         90
   145        193
   146         90
   147        181
   148         65
   149         72
   150         40
   151         45
   152         27
   153         43
   154         31
   155        131
   156         72
   157        131
   158         81
   159        243
   160        136
   161        200
   162         81
   163        181
   164         38
   165         52
   166        129
   167         40
   168         18
   169         63
   170         40
   171        109
   172         59
   173         18
   174        109
   175        145
   176         95
   177         59
   178         22
   179         31
   180         18
   181         29
   182        186
   183        318
   184         81
   185        154
   186         68
   187        122
   188         61
   189         88
   190         81
   191         77
   192         36
   193         31
   194         45
   195         61
   196         22
   197         45
   198         20
   199         72
   200         65
   201        165
   202        136
   203        136
   204         61
   205         63
   206         20
   207         15
   208         15
   209         34
   210          6
   211         20
   212        122
   213        186
   214         63
   215         65
   216         29
   217        250
   218        104
   219        134
   220        175
   221         45
   222         22
   223         15
   225         13
   227          6
   228         20
   229         52
   230        204
   231        404
   232         88
   233         84
   234         31
   247        545
   248        240
   249         68
   264        179
   265         81
   266         31
   283          9
   311         11
   312         29
   313         15
   328          6
   329         36
   330        334
   331         88
   332         20
   355          6
   356         11
   357         15
   358         15
   359         22
   360          9
   384         15
   385         22
   419         15
   420         15
   421          9
   446         15
   447          9
   467          9
   468         29
   469         13
   470          9
   482          6
   484         29
   485         15
   486          6
   512         81
   513         31
   514         15