##TITLE=Library Entry 63168
##JCAMP-DX=Revision 4.10 
##DATA TYPE=MASS SPECTRUM
##SAMPLE DESCRIPTION=Exported from NIST MS Search
##NAMES=HP
##CAS NAME=2-Furanmethanol, 5-(2-furanylmethyl)-
##MOLFORM=C10H10O3
##CAS REGISTRY NO=29953-17-1
##MP= -300
##BP= -300
##MW= 178
##$RETENTION INDEX=0
##$CONDENSED SPECTRUM=NO
##NPOINTS= 66
##XYDATA=(XY..XY) 1 
    25         70
    26        140
    27        588
    28         22
    29        392
    30         22
    31        235
    36         19
    37        168
    38        319
    39        764
    40         89
    41        369
    42        112
    43        162
    49         33
    50        492
    51        605
    52        392
    53        560
    54         50
    55        134
    61         36
    62         78
    63        196
    64         56
    65        294
    66         56
    67         22
    68         64
    69        145
    73        112
    74         16
    75        131
    76         14
    77        229
    78        140
    79        168
    80         89
    81        680
    82         89
    89         75
    90         16
    91        999
    92         95
    95         78
    97        151
   102         22
   103        187
   104         84
   105         89
   109         95
   110         22
   118         22
   119        392
   120         39
   131        229
   132         19
   133         42
   147        826
   148         75
   160        378
   161        308
   177         61
   178        868
   179         84