##TITLE=Library Entry 404
##JCAMP-DX=Revision 4.10 
##DATA TYPE=MASS SPECTRUM
##SAMPLE DESCRIPTION=E.VAN LOOCK UNIV. OF LOUVAIN, HEVERLEE, BELGIUM
##NAMES=HP
##CAS NAME=Fumaric acid, (p-nitroanilino)-, diethyl ester
##MOLFORM=C14H16N2O6
##CAS REGISTRY NO=29954-03-8
##MP= -300
##BP= -300
##MW= 308
##$RETENTION INDEX=0
##$CONDENSED SPECTRUM=NO
##NPOINTS= 33
##XYDATA=(XY..XY) 1 
    27        400
    29        999
    30         75
    39         60
    50        135
    51         65
    63        140
    64         60
    65         55
    68         50
    69         60
    75        110
    76        275
    77         90
    89        200
    90         70
   104         60
   108         65
   116         65
   117         90
   118         85
   132         80
   143        275
   161        100
   162        140
   189        350
   190         55
   207        140
   234         80
   235         75
   262         10
   263         15
   308         95