##TITLE=Library Entry 65804
##JCAMP-DX=Revision 4.10 
##DATA TYPE=MASS SPECTRUM
##SAMPLE DESCRIPTION=Chemical Concepts
##NAMES=HP
##CAS NAME=Cyclopropanecarboxanilide, 2,2-dimethyl-
##MOLFORM=C12H15NO
##CAS REGISTRY NO=2996-59-0
##MP= -300
##BP= -300
##MW= 189
##$RETENTION INDEX=0
##$CONDENSED SPECTRUM=NO
##NPOINTS= 96
##XYDATA=(XY..XY) 1 
    26          5
    27        125
    28         13
    29         38
    30          2
    37          3
    38         13
    39        151
    40         17
    41        536
    42         29
    43         57
    44          2
    50         11
    51         57
    52         16
    53         56
    54         20
    55        118
    56          6
    57          3
    58          1
    62          3
    63         18
    64         17
    65         82
    66         77
    67         64
    68         15
    69        176
    70         91
    71          8
    73          1
    74          2
    75          2
    76          6
    77        118
    78         22
    79         37
    80          4
    81         39
    82          5
    83          7
    84          1
    86          0
    89          2
    90          2
    91         24
    92         57
    93        999
    94        153
    95         23
    96         87
    97        414
    98         36
    99          1
   103          3
   104         17
   105         10
   106         20
   107          4
   109          2
   115          3
   116          1
   117          5
   118          9
   119         22
   120         42
   121          3
   128          4
   129          2
   130         35
   131         29
   132         13
   133        223
   134         38
   135          4
   143          1
   144          5
   145          6
   146         44
   147          8
   148         59
   149          5
   156          1
   160          5
   161          1
   170          2
   172          1
   173          2
   174         20
   175          4
   188         21
   189        420
   190         57
   191          5