##TITLE=Library Entry 84389
##JCAMP-DX=Revision 4.10 
##DATA TYPE=MASS SPECTRUM
##SAMPLE DESCRIPTION=NIST Mass Spectrometry Data Center, 1995
##NAMES=HP
##CAS NAME=Ethiofencarb
##MOLFORM=C11H15NO2S
##CAS REGISTRY NO=29973-13-5
##MP= -300
##BP= -300
##MW= 225
##$RETENTION INDEX=0
##$CONDENSED SPECTRUM=NO
##NPOINTS= 116
##XYDATA=(XY..XY) 1 
    10          0
    11          0
    12          2
    13          2
    15         70
    18          1
    26         13
    27         88
    28          6
    29         51
    30          3
    33          1
    34          2
    35         10
    36          0
    37          1
    38          8
    39         47
    40          2
    41          5
    42          2
    43          1
    44          4
    45         80
    46          7
    47         12
    48          1
    49          1
    50         18
    51         59
    52         34
    53         23
    54          3
    55          8
    56         21
    57         44
    58         74
    59         12
    60          3
    61          8
    62          8
    63         16
    64          4
    65         15
    66         10
    67          6
    68          1
    69          6
    70          1
    71          3
    73          0
    74          3
    75          5
    76          0
    77        184
    78        102
    79         87
    80          6
    81          2
    82          2
    83          1
    84          2
    85          2
    86          0
    87          0
    89          7
    90          3
    91         10
    92          2
    93          1
    94          3
    95         14
    96          1
    97          2
   103          1
   105          8
   107        999
   108        115
   109         15
   110          4
   111          6
   112          0
   115          1
   116          0
   117          1
   118          2
   119          1
   120          2
   121          7
   122          2
   123          1
   133          1
   134          1
   135          1
   137         19
   138          5
   139         28
   140          2
   141          1
   149          0
   150          1
   151          1
   153          0
   162          1
   163          0
   164          3
   165         21
   166          3
   167          0
   168        253
   169         26
   170         12
   171          1
   225         16
   226          2
   227          0