##TITLE=Library Entry 20438
##JCAMP-DX=Revision 4.10 
##DATA TYPE=MASS SPECTRUM
##SAMPLE DESCRIPTION=H. Fales, LC, NHLBI, NIH, Bethesda, MD 20892
##NAMES=HP
##CAS NAME=11-Dodecenoic acid, methyl ester
##MOLFORM=C13H24O2
##CAS REGISTRY NO=29972-79-0
##MP= -300
##BP= -300
##MW= 212
##$RETENTION INDEX=1309
##$CONDENSED SPECTRUM=NO
##NPOINTS= 119
##XYDATA=(XY..XY) 1 
    41        510
    42        157
    43        297
    45         92
    47          3
    49          9
    51         18
    53         92
    54         76
    55        999
    56        115
    57        114
    59        261
    60         42
    61          8
    63          2
    65         20
    67        245
    68        108
    69        349
    70         64
    71         72
    73         76
    74        537
    77         17
    79         64
    81        217
    82        161
    83        267
    84        187
    85         56
    87        289
    88         30
    89          2
    91         17
    92          2
    93         44
    94         21
    95        105
    96        212
    97        151
    98        146
    99         32
   101         61
   102          9
   103          1
   105         12
   107         44
   109         68
   110         61
   111         55
   112         14
   113         34
   114         30
   115         36
   116          2
   117          2
   119         23
   121         32
   122         53
   123         77
   124        146
   125         63
   127         30
   128         16
   129         14
   130          8
   131          4
   133         14
   135         27
   137         62
   138         27
   139         13
   140          2
   141         28
   143         21
   144          1
   145          7
   147         21
   148         28
   149         67
   150          8
   151         15
   152         13
   153         11
   155         27
   156          1
   157         11
   158          5
   159          3
   161          2
   163          6
   164         37
   166        117
   167         27
   169         32
   171         13
   172          1
   173          8
   175          1
   178          3
   179          4
   180          2
   181         61
   182         16
   183         17
   185         25
   187         13
   191          1
   194          5
   196         34
   197         26
   198          2
   209          3
   210          4
   211         13
   212         99
   213         17
   214          8