##TITLE=Library Entry 83989
##JCAMP-DX=Revision 4.10 
##DATA TYPE=MASS SPECTRUM
##SAMPLE DESCRIPTION=A.A.Kutin, Moscow, Russia
##NAMES=HP
##CAS NAME=Methane, bis(4-methylphenoxysulfonyl)-
##MOLFORM=C15H16O6S2
##CAS REGISTRY NO=2997-56-0
##MP= -300
##BP= -300
##MW= 356
##$RETENTION INDEX=0
##$CONDENSED SPECTRUM=NO
##NPOINTS= 103
##XYDATA=(XY..XY) 1 
    33          3
    34          2
    36          0
    37          2
    38         11
    39         90
    40         30
    41         10
    42          1
    43          3
    44         17
    45          3
    46          1
    48         29
    49          4
    50         35
    51         99
    52         77
    53         95
    54          7
    55          6
    56          0
    57          0
    60          0
    61          1
    62          8
    63         28
    64         42
    65         51
    66          8
    67          2
    68          1
    69          1
    71          0
    73          0
    74          3
    75          4
    77        526
    78        138
    79        312
    80         30
    81          2
    82          0
    84          0
    85          0
    86          0
    87          0
    88          0
    89         10
    90         22
    91        129
    92         18
    93         31
    94          3
    95          0
   103          2
   105         20
   107        999
   108        664
   109         52
   110          3
   111          0
   115          0
   119          1
   120          5
   121         50
   122          5
   123          3
   124          0
   128          0
   135          0
   136          0
   141          0
   142          0
   152          0
   153          0
   154          0
   155          2
   156          0
   169          0
   171         17
   172          1
   173          0
   178          0
   181          0
   184          0
   185          0
   186          1
   195          0
   196          0
   197          0
   198          0
   199          0
   211          0
   213          0
   214          1
   249          2
   250          0
   356         96
   357         18
   358         10
   359          1
   360          0