##TITLE=Library Entry 1115
##JCAMP-DX=Revision 4.10 
##DATA TYPE=MASS SPECTRUM
##SAMPLE DESCRIPTION=Japan AIST/NIMC Database- Spectrum MS-NW-8607
##NAMES=HP
##CAS NAME=Ethylene glycol bis(3-aminopropyl) ether
##MOLFORM=C8H20N2O2
##CAS REGISTRY NO=2997-01-5
##MP= -300
##BP= -300
##MW= 176
##$RETENTION INDEX=0
##$CONDENSED SPECTRUM=NO
##NPOINTS= 113
##XYDATA=(XY..XY) 1 
    15         14
    16          2
    17          7
    18         80
    19          5
    26          5
    27         33
    28        117
    29         55
    30        999
    31         63
    32          1
    33          1
    38          1
    39         17
    40          3
    41        145
    42         54
    43         99
    44        108
    45        316
    46          9
    47          1
    49          1
    50          1
    51          3
    52          2
    53          1
    54          8
    55         10
    56        258
    57        263
    58        293
    59        343
    60         14
    61          2
    62          1
    63          3
    65          1
    68          1
    69          2
    70         14
    71          6
    72         39
    73         10
    74        120
    75        157
    76         78
    77         18
    78          3
    79          4
    81          1
    83          2
    84          6
    85          2
    86         60
    87          5
    88         15
    89        131
    90          7
    91          4
    95          4
    96          1
    97          1
    98          2
    99          2
   100          5
   101         49
   102         25
   103         96
   104          6
   105          6
   106          1
   107          2
   108          2
   111          1
   112          1
   113          1
   114          1
   115          5
   116          1
   117          1
   118         15
   119          8
   120        174
   121         10
   122          1
   123          3
   124          1
   125          2
   126          1
   127          4
   132          1
   133         18
   134          1
   138          2
   139          2
   140          2
   141          2
   143          4
   144          5
   146          7
   147          9
   148          1
   154         19
   155          2
   156          6
   160          3
   161          2
   175          2
   176          1
   177         10
   178          1