##TITLE=Library Entry 5255
##JCAMP-DX=Revision 4.10 
##DATA TYPE=MASS SPECTRUM
##SAMPLE DESCRIPTION=Japan AIST/NIMC Database- Spectrum MS-NW-8630
##NAMES=HP
##CAS NAME=1-Piperidinecarboxylic acid, 4-oxo-, ethyl ester
##MOLFORM=C8H13NO3
##CAS REGISTRY NO=29976-53-2
##MP= -300
##BP= -300
##MW= 171
##$RETENTION INDEX=0
##$CONDENSED SPECTRUM=NO
##NPOINTS= 99
##XYDATA=(XY..XY) 1 
    14          8
    15         75
    16          1
    17          2
    18          7
    25          1
    26         34
    27        279
    28        360
    29        948
    30        121
    31         10
    32          3
    37          1
    38          3
    39         23
    40         28
    41         87
    42        999
    43        230
    44         35
    45         26
    46          1
    50          3
    51          5
    52          5
    53         16
    54         43
    55        191
    56        845
    57        470
    58         28
    59          6
    60          9
    61          2
    62          3
    63          1
    65          3
    67          3
    68         12
    69         22
    70        223
    71         58
    72         16
    73         10
    74         23
    75          1
    77          2
    78          1
    79          3
    80          7
    81          2
    82         19
    83          9
    84         69
    85         32
    86         10
    87         31
    88         27
    89          2
    90          1
    91         18
    92          2
    96          7
    97         15
    98        415
    99         41
   100        568
   101         93
   102         49
   103          2
   104          1
   105          1
   106          4
   110          1
   112         21
   113          2
   114        122
   115         25
   116         10
   117          1
   118          1
   126        188
   127         14
   128         28
   129         20
   130          2
   142        971
   143        142
   144         14
   145          1
   150          5
   154          1
   156          1
   169          2
   170          9
   171        303
   172         49
   173          5