##TITLE=Library Entry 3943
##JCAMP-DX=Revision 4.10 
##DATA TYPE=MASS SPECTRUM
##SAMPLE DESCRIPTION=Japan AIST/NIMC Database- Spectrum MS-NW-3824
##NAMES=HP
##CAS NAME=Hexanedioic acid, di-2-propenyl ester
##MOLFORM=C12H18O4
##CAS REGISTRY NO=2998-04-1
##MP= -300
##BP= -300
##MW= 226
##$RETENTION INDEX=1567
##$CONDENSED SPECTRUM=NO
##NPOINTS= 104
##XYDATA=(XY..XY) 1 
    14          2
    15         13
    18          1
    26         11
    27         74
    28         18
    29         63
    30          4
    31         14
    32          1
    37          3
    38          9
    39        165
    40         27
    41        999
    42         52
    43         93
    44          5
    45          9
    51          2
    52          1
    53         13
    54         22
    55        262
    56         51
    57         77
    58         15
    59         44
    60          4
    61          2
    65          1
    66          1
    67         27
    68         14
    69         28
    70          5
    71         14
    72          2
    73          7
    74          1
    77          2
    78          1
    79         13
    80         26
    81        116
    82         14
    83        135
    84         87
    85         45
    86          4
    87          6
    91          1
    93          6
    94          6
    95         47
    96          8
    97          9
    98          9
    99         65
   100         50
   101        120
   102          7
   103          1
   105          8
   106          1
   107          2
   108          3
   109         20
   110          5
   111        676
   112        181
   113         42
   114          5
   115          1
   121          3
   122          6
   123         12
   124          3
   125          3
   126          3
   127         66
   128          6
   129         83
   130          6
   131          1
   135          1
   139          5
   140         42
   141         71
   142         22
   143          4
   149          1
   150          7
   151          4
   153         60
   154          7
   155          1
   167          3
   168         14
   169        263
   170         27
   171          6
   183          1
   226          2