##TITLE=Library Entry 20362
##JCAMP-DX=Revision 4.10 
##DATA TYPE=MASS SPECTRUM
##SAMPLE DESCRIPTION=Vladimir Zaikin,TIPS RAS, Moscow, Russia
##NAMES=HP
##CAS NAME=2-Propenoic acid, pentyl ester
##MOLFORM=C8H14O2
##CAS REGISTRY NO=2998-23-4
##MP= -300
##BP= -300
##MW= 142
##$RETENTION INDEX=978
##$CONDENSED SPECTRUM=NO
##NPOINTS= 27
##XYDATA=(XY..XY) 1 
    39         60
    40         19
    41        140
    42        195
    43        113
    44         61
    45         45
    51          8
    53         10
    54         12
    55        999
    56         53
    57         22
    58          3
    69         70
    70        365
    71         27
    72         92
    73        271
    74          6
    82          6
    83         12
    85         38
    86          6
    87          4
   113          6
   114          1