##TITLE=Library Entry 19825
##JCAMP-DX=Revision 4.10 
##DATA TYPE=MASS SPECTRUM
##SAMPLE DESCRIPTION=Exported from NIST MS Search
##NAMES=HP
##CAS NAME=2-Propenoic acid, 1-methylpropyl ester
##MOLFORM=C7H12O2
##CAS REGISTRY NO=2998-08-5
##MP= -300
##BP= -300
##MW= 128
##$RETENTION INDEX=0
##$CONDENSED SPECTRUM=NO
##NPOINTS= 55
##XYDATA=(XY..XY) 1 
    14          2
    15         13
    18          4
    25          2
    26         34
    27        243
    28         58
    29        129
    30          4
    31         11
    32          1
    36          2
    37          5
    38          9
    39         58
    40          9
    41        158
    42          8
    43         56
    44          8
    45         36
    50         16
    51         19
    52         19
    53         10
    54          7
    55        999
    56        249
    57         89
    58          5
    59          5
    68          2
    69         26
    70         27
    71          5
    72          4
    73        126
    74          9
    79          5
    82          5
    83          5
    84          5
    85          7
    86          2
    87          7
    95          1
    99         88
   100          8
   101          5
   102          1
   110          3
   111          1
   113         28
   114          1
   128          1