##TITLE=Library Entry 549
##JCAMP-DX=Revision 4.10 
##DATA TYPE=MASS SPECTRUM
##SAMPLE DESCRIPTION=Japan AIST/NIMC Database- Spectrum MS-NW-8586
##NAMES=HP
##CAS NAME=Ethyl isocyanoacetate
##MOLFORM=C5H7NO2
##CAS REGISTRY NO=2999-46-4
##MP= -300
##BP= -300
##MW= 113
##$RETENTION INDEX=0
##$CONDENSED SPECTRUM=NO
##NPOINTS= 44
##XYDATA=(XY..XY) 1 
    13          1
    14          8
    15         18
    16          1
    25          1
    26         20
    27        294
    28        178
    29        999
    30        119
    31         16
    32          1
    38          1
    39          2
    40          4
    41          4
    42         92
    43         48
    44         19
    45         31
    46          2
    54          5
    55         16
    56        951
    57        465
    58         33
    59          4
    60          1
    70          1
    72          1
    73         20
    74         13
    75          1
    77          1
    78          1
    83          3
    84         62
    85         13
    86         44
    87          1
    91          3
    92          1
   113          1
   114          3