##TITLE=Library Entry 47351
##JCAMP-DX=Revision 4.10 
##DATA TYPE=MASS SPECTRUM
##SAMPLE DESCRIPTION=A.A.Kutin, Moscow, Russia
##NAMES=HP
##CAS NAME=1H-Imidazole-2,5-dione, 4-[2-(4-chlorophenyl)-2-oxo-1-(phenylhydr
azono)ethyl]-
##MOLFORM=C17H11ClN4O3
##CAS REGISTRY NO=299921-99-6
##MP= -300
##BP= -300
##MW= 354
##$RETENTION INDEX=0
##$CONDENSED SPECTRUM=NO
##NPOINTS= 116
##XYDATA=(XY..XY) 1 
    33         27
    34          4
    35         10
    37         24
    39        135
    40         31
    41         20
    43         50
    44         37
    45         16
    46          5
    47          4
    51        363
    53         60
    54          8
    55          5
    57          6
    61         23
    63         98
    64         97
    65        118
    66          9
    67          9
    68          4
    69          9
    70         12
    71          2
    75        276
    77        999
    78         61
    79          0
    80          0
    82          0
    84          5
    85         19
    86          6
    87         11
    88         23
    89         32
    91        114
    93        117
    94         24
    97          1
    98          1
    99          4
   100          1
   101          2
   103          2
   105        283
   111        418
   113        147
   114         17
   116         33
   117          4
   119         27
   120          2
   123         47
   124          7
   125         14
   126          5
   127          8
   129          3
   132          0
   135          3
   136          0
   139        586
   141        214
   144         14
   145          1
   148          0
   150         34
   151          8
   152         11
   153          4
   162         21
   163          8
   164          8
   165          9
   167         95
   168         10
   169          1
   172          0
   178         12
   179          0
   180          2
   187          1
   188          1
   190          1
   191          6
   192          0
   200          0
   202        202
   204         78
   205          5
   206          3
   220          1
   221          4
   230          5
   232          0
   248          1
   249          0
   276          8
   282          1
   283          2
   297          0
   306          1
   311         16
   312          4
   313          4
   314          0
   319          4
   320          0
   354        121
   355         22
   356         33
   357          6