##TITLE=Library Entry 77908
##JCAMP-DX=Revision 4.10 
##DATA TYPE=MASS SPECTRUM
##SAMPLE DESCRIPTION=A.A.Kutin, Moscow, Russia
##NAMES=HP
##CAS NAME=1H-Imidazol-5(4H)-one, 4-(3-chlorobenzylideno)-2-phenyl-
##MOLFORM=C16H11ClN2O
##CAS REGISTRY NO=299970-54-0
##MP= -300
##BP= -300
##MW= 282
##$RETENTION INDEX=0
##$CONDENSED SPECTRUM=NO
##NPOINTS= 165
##XYDATA=(XY..XY) 1 
    35          2
    36          3
    37          2
    38          8
    39         27
    40         15
    41          4
    43         22
    44         16
    45         10
    49          3
    50         38
    51        111
    52         19
    53          2
    54          0
    55          3
    56          0
    57          3
    60          8
    61          4
    62         19
    63         32
    64         11
    65          4
    66          0
    67          0
    68          0
    69          2
    70          1
    71          1
    73         15
    74         17
    75         38
    76         59
    77        348
    78         18
    79          1
    81          1
    82          2
    83          1
    84          2
    85          2
    86          7
    87         14
    88         26
    89         61
    90          8
    91          3
    95          4
    96          4
    98          6
    99         12
   100          7
   101         17
   102         12
   103         63
   104        999
   105         97
   106          4
   107          0
   109          9
   110          2
   111          2
   112          2
   114         33
   115         22
   116         77
   117         10
   118          1
   119          0
   121          1
   123         55
   124         23
   125         22
   126          7
   127          5
   128          2
   129          1
   130          1
   134          0
   136         18
   137          1
   138          6
   139          1
   141         21
   142          7
   143          3
   144          4
   148          1
   149          3
   150         49
   151        406
   152         52
   153        126
   154         13
   155          0
   157          0
   159          9
   160          0
   161          1
   162          1
   163          3
   164          1
   165          1
   168          0
   169          0
   170          0
   171          3
   175          1
   176          2
   178         20
   179          5
   180          6
   181          0
   185          1
   187          0
   188          0
   190          3
   191          1
   193          0
   201          1
   202          2
   203          9
   204          3
   205          1
   207          0
   215          0
   216          0
   217          1
   218          3
   219          1
   220          0
   221          0
   228          0
   233          0
   238          4
   239          1
   240          1
   241          0
   244          0
   245          3
   246          1
   247         31
   248          8
   249          1
   250          0
   252          0
   253          0
   254          0
   255          0
   259          0
   261          0
   273          0
   274          0
   275          0
   277          0
   279          1
   281         92
   282        863
   283        199
   284        291
   285         55
   286          6
   287          0