##TITLE=Library Entry 48230
##JCAMP-DX=Revision 4.10 
##DATA TYPE=MASS SPECTRUM
##SAMPLE DESCRIPTION=Chemical Concepts
##NAMES=HP
##CAS NAME=3-Isonicotinoylhydrazono-N-(2-pyridyl)butyramide
##MOLFORM=C15H15N5O2
##CAS REGISTRY NO=299970-72-2
##MP= -300
##BP= -300
##MW= 297
##$RETENTION INDEX=0
##$CONDENSED SPECTRUM=NO
##NPOINTS= 71
##XYDATA=(XY..XY) 1 
    35          1
    36          9
    37         29
    38         69
    39        233
    40        122
    41        184
    42         65
    43         33
    44         21
    45          1
    49         12
    50        136
    51        439
    52         93
    53         35
    54         28
    55         17
    56          5
    57          8
    63          3
    64         12
    65         21
    66         50
    67        250
    68         18
    69         11
    70          6
    71         19
    73          4
    75          1
    76          9
    78        999
    80          9
    81          2
    82          1
    84          6
    91          1
    92          4
    93         24
    94        295
    95        143
    96          5
    97          4
    98          8
   106        632
   107         50
   108          3
   118          1
   119          3
   121        231
   123          3
   133          5
   134          7
   135         48
   136        420
   137         24
   138          2
   148          2
   159          1
   161          7
   162         31
   163          4
   175          6
   176         11
   177          9
   202          1
   203         27
   204          2
   212          1
   242          1