##TITLE=Library Entry 72800
##JCAMP-DX=Revision 4.10 
##DATA TYPE=MASS SPECTRUM
##SAMPLE DESCRIPTION=A.A.Kutin, Moscow, Russia
##NAMES=HP
##CAS NAME=1,3-Oxazinane, 3-(2-bromo-2,2-dinitroethyl)-
##MOLFORM=C6H10BrN3O5
##CAS REGISTRY NO=299922-70-6
##MP= -300
##BP= -300
##MW= 283
##$RETENTION INDEX=0
##$CONDENSED SPECTRUM=NO
##NPOINTS= 153
##XYDATA=(XY..XY) 1 
    33          0
    34          2
    36          0
    37          2
    38         12
    39        112
    40        107
    41        471
    42        811
    43        113
    44         46
    45         37
    46        123
    48          8
    50          5
    51         13
    52         44
    53         51
    54        223
    55        197
    56        204
    57        255
    58        281
    59         28
    60         97
    61          1
    62          1
    63          2
    64          3
    65          6
    66          7
    67         34
    68        136
    69         25
    70        214
    71         52
    72          8
    73          3
    74          6
    75          2
    77          8
    78          3
    79         19
    80         40
    81         25
    82        172
    83         45
    84         38
    85         58
    86        111
    87         31
    88          5
    89          1
    90          0
    91         13
    93         24
    94          4
    95         18
    96          3
    98        217
   100        999
   101         52
   102          3
   104          4
   105         78
   106         22
   107         76
   108         23
   109          7
   110          9
   111         20
   112         40
   113         10
   114          2
   115          1
   116          2
   117          2
   118          6
   119         17
   120         10
   121         19
   122         15
   123         12
   124          7
   125          8
   126          2
   127          4
   128          1
   129          3
   130          0
   131          4
   132         33
   133         45
   134         38
   135         51
   136          8
   137         20
   138          5
   139          0
   141         46
   142          4
   146          3
   147          3
   148          5
   149          8
   150          8
   151          7
   152          7
   153          1
   154          1
   158          4
   159          5
   160          5
   161         12
   162         10
   163         11
   164          4
   165          0
   169          0
   171          0
   175          0
   176          1
   177          3
   178          5
   179          3
   180          6
   182          1
   189          1
   190          4
   191          6
   192          5
   193          6
   194          0
   195          0
   204          5
   205          1
   206          1
   207         12
   208          2
   209         13
   219          0
   220          4
   221          1
   222          2
   236         12
   237          9
   238         12
   239          8
   240          0
   282          1
   283          7
   284          2
   285          6