##TITLE=Library Entry 44929
##JCAMP-DX=Revision 4.10 
##DATA TYPE=MASS SPECTRUM
##SAMPLE DESCRIPTION=A.A.Kutin, Moscow, Russia
##NAMES=HP
##CAS NAME=1,3,4-Thiadiazol-2-amine, 5-(2-iodophenyl)-
##MOLFORM=C8H6IN3S
##CAS REGISTRY NO=299934-10-4
##MP= -300
##BP= -300
##MW= 303
##$RETENTION INDEX=0
##$CONDENSED SPECTRUM=NO
##NPOINTS= 190
##XYDATA=(XY..XY) 1 
    33         10
    34          5
    35          0
    36          4
    37         30
    38         42
    39        107
    40         13
    41         14
    42         46
    43         12
    44         19
    45         61
    46         10
    47         42
    48          6
    49         27
    50        142
    51         78
    52         16
    53          3
    54          2
    55          1
    56          2
    57          8
    58         15
    59         24
    60        138
    61         40
    62        101
    63        110
    64         35
    65          7
    66          2
    67          1
    69         84
    70         25
    71          7
    72          8
    74        999
    75        134
    76        164
    77         38
    78          5
    79          3
    80          3
    81         15
    82         13
    83          6
    84          7
    85         11
    86         21
    87         29
    88         78
    89         81
    90        119
    91         20
    92          9
    93         55
    94         51
    95          8
    96          4
    97          1
    98          1
    99          6
   100          5
   102        118
   103         86
   104         22
   105          8
   106          7
   107         46
   108         17
   109          5
   110          1
   111          0
   112          0
   114          1
   115          1
   116          3
   117         20
   118         14
   119         41
   120        199
   121         41
   122         16
   123          5
   125          1
   127         46
   128         15
   129          3
   130          1
   131          4
   132         16
   133         36
   134        249
   135         26
   136         15
   137          6
   138          0
   139          1
   140          0
   141          0
   143          5
   144          1
   145          0
   146          2
   147          2
   148          3
   149         12
   150          3
   152         21
   153          1
   154          0
   155          0
   157          0
   159         11
   160          3
   161          1
   162          0
   163          0
   164          2
   165         12
   166          1
   167          0
   168          0
   169          0
   171          1
   172          0
   173          0
   174          0
   175          0
   176          3
   177          7
   178          2
   179          0
   185          0
   188          0
   190         14
   191          1
   192          1
   193          0
   194          0
   195          2
   196          0
   199          0
   200          0
   201          0
   203          4
   204          0
   206          2
   207         22
   208          3
   209          1
   210          0
   213          0
   215          5
   216          0
   219          0
   229         31
   230        168
   231         15
   232          0
   233          0
   242          0
   244          9
   245          1
   247         43
   248          3
   249          1
   254          0
   255          0
   256          1
   257          0
   258          0
   259          0
   261         34
   262          3
   263          1
   264          0
   287          1
   288          0
   291          0
   297          0
   298          1
   299          3
   303        509
   304         54
   305         25
   306          2