##TITLE=Library Entry 85720
##JCAMP-DX=Revision 4.10 
##DATA TYPE=MASS SPECTRUM
##SAMPLE DESCRIPTION=A.A.Kutin, Moscow, Russia
##NAMES=HP
##CAS NAME=Furane-2-carbohydrazide, 5,N2,N2-trimethyl-
##MOLFORM=C8H12N2O2
##CAS REGISTRY NO=299921-26-9
##MP= -300
##BP= -300
##MW= 168
##$RETENTION INDEX=0
##$CONDENSED SPECTRUM=NO
##NPOINTS= 81
##XYDATA=(XY..XY) 1 
    33          0
    35          0
    36          5
    37         12
    38         25
    39         24
    40         22
    42        245
    43        194
    44        109
    45          9
    46          0
    50         65
    51         87
    52         69
    53        196
    54          9
    55          5
    57         30
    59        840
    60         11
    61          0
    62          0
    63          1
    65          2
    66          5
    67          2
    68          5
    69          2
    70          2
    71          0
    72          0
    73          0
    77          2
    78          7
    79          8
    80          8
    81         20
    82          5
    83          6
    84          3
    85          2
    86          1
    92          0
    93          1
    95         21
    96          8
    97          3
    98          2
   105          0
   106          2
   109        999
   110         60
   111          5
   112          0
   113          0
   119          0
   122          0
   123          2
   125        551
   126        194
   127          6
   128          0
   130          0
   135          1
   136          2
   137          2
   138          1
   139          3
   149          1
   150          0
   151          1
   152          0
   153          9
   154          4
   165          3
   166          1
   168        113
   169          8
   170          0
   171          0