##TITLE=Library Entry 31984
##JCAMP-DX=Revision 4.10 
##DATA TYPE=MASS SPECTRUM
##SAMPLE DESCRIPTION=V.A.KOPTYUG, ATLAS OF MASS SPECTRA OF ORGANIC COMPOUNDS
##NAMES=HP
##CAS NAME=1,1-Dichloro-1-silacyclo-2,4-hexadiene
##MOLFORM=C5H6Cl2Si
##CAS REGISTRY NO=2999-78-2
##MP= -300
##BP= -300
##MW= 164
##$RETENTION INDEX=0
##$CONDENSED SPECTRUM=NO
##NPOINTS= 31
##XYDATA=(XY..XY) 1 
    39        150
    40         70
    41         30
    51         10
    63        150
    64         10
    65         60
    66        999
    67         70
    98         30
    99         40
   100         20
   101         30
   112         60
   114         40
   125         40
   127         30
   128        150
   129         60
   130         70
   131         20
   138         90
   139         20
   140         60
   141         10
   142         10
   164        120
   165         20
   166         80
   167         10
   168         20