##TITLE=Library Entry 61426
##JCAMP-DX=Revision 4.10 
##DATA TYPE=MASS SPECTRUM
##SAMPLE DESCRIPTION=A.A.Kutin, Moscow, Russia
##NAMES=HP
##CAS NAME=[1,2,5]Oxadiazolo[3,4-E][1,2,4]triazolo[4,3-a]pyrazine-8-acetic a
cid, 5-[(2-methylphenyl)amino]-, ethyl ester
##MOLFORM=C16H15N7O3
##CAS REGISTRY NO=299970-83-5
##MP= -300
##BP= -300
##MW= 353
##$RETENTION INDEX=0
##$CONDENSED SPECTRUM=NO
##NPOINTS= 230
##XYDATA=(XY..XY) 1 
    36          0
    37          1
    39         77
    40         48
    41         41
    42         20
    43         26
    44         17
    45         12
    50         12
    51         52
    52         55
    53         45
    54         12
    55         20
    56          5
    57          6
    59          4
    61          1
    63         59
    64         30
    65        322
    66         26
    67         17
    68         31
    69         14
    70          3
    71          2
    72          0
    73          2
    74          2
    75         10
    76         20
    77        152
    78         74
    79         37
    80         13
    81          7
    82         19
    83          4
    84          9
    85          4
    86          7
    87          3
    88          8
    89        140
    90         82
    91        999
    92         84
    93         11
    94          3
    95          1
    96          2
    97          1
    98          3
    99          1
   100          1
   101         24
   102         49
   103         46
   104        129
   105        224
   106        211
   107         65
   108          9
   109         14
   110         33
   111          4
   112          5
   113          1
   114         14
   115         40
   116        425
   117        151
   118         94
   119         13
   120          1
   121          1
   123          7
   124          1
   125          1
   126          2
   127          7
   128         48
   129        120
   130         55
   131         88
   132         38
   133         13
   134          6
   135         14
   136          1
   137          1
   138          0
   139          3
   140         23
   141         26
   142         78
   143        419
   144         69
   145         11
   146          5
   147          3
   148          0
   149          0
   151          0
   152          1
   153         28
   154         21
   155         39
   156        110
   157         36
   158         68
   159         15
   160          4
   161          0
   166          1
   167         17
   168         85
   169         69
   170         29
   171         14
   172          5
   173          2
   175          1
   176          5
   177          0
   178          6
   179          3
   180         19
   181         45
   182         58
   183         34
   184         21
   185          5
   186          1
   187          0
   193          4
   194         26
   195         59
   196         37
   197         55
   198         41
   199          8
   200          1
   203          1
   206          5
   207         14
   208         10
   209         27
   210        165
   211         41
   212         18
   213         14
   214          1
   217          0
   219          1
   220          2
   221         43
   222         83
   223         21
   224         25
   225         21
   226         10
   227          5
   228          4
   234          6
   235          9
   236          6
   237          4
   238          8
   239         20
   240         54
   241          9
   242          2
   243          3
   248          2
   249        104
   250         30
   251          7
   252          5
   253          1
   255          2
   256          6
   257          1
   259          0
   262          5
   263          1
   264          5
   265          7
   266         19
   267          3
   268          8
   269          4
   270          8
   271          9
   272          0
   277         12
   278          6
   279          3
   280          9
   281         27
   282          4
   284        186
   285         38
   286          3
   292          2
   295          3
   296         40
   297          7
   306          0
   307          6
   308         21
   309          7
   310         25
   311          4
   317          0
   322          2
   323         11
   324          6
   325          0
   336          0
   337         50
   338        415
   339         75
   340          8
   352         55
   353        380
   354         74
   355          9