##TITLE=Library Entry 27050
##JCAMP-DX=Revision 4.10 
##DATA TYPE=MASS SPECTRUM
##SAMPLE DESCRIPTION=A.A.Kutin, Moscow, Russia
##NAMES=HP
##CAS NAME=4H-Cyclopenta[b]thiophene-3-carboxylic acid, 5,6-dihydro-2-[[2,2,
2-trifluoro-1-[(1-oxopropyl)amino]-1-(trifluoromethyl)ethyl]amino]-, methyl
 ester
##MOLFORM=C15H16F6N2O3S
##CAS REGISTRY NO=299922-96-6
##MP= -300
##BP= -300
##MW= 418
##$RETENTION INDEX=0
##$CONDENSED SPECTRUM=NO
##NPOINTS= 230
##XYDATA=(XY..XY) 1 
    33         13
    34          2
    37          2
    38         16
    39         69
    40         47
    41         45
    42         31
    43         51
    44        131
    45         91
    46          2
    47         11
    50         30
    51         66
    52         52
    53         36
    54         14
    55         50
    57        999
    58         82
    59         84
    60         14
    61          6
    62          5
    63         28
    64         27
    65         79
    66         38
    67         17
    69        166
    70         31
    71        145
    72         25
    73         57
    74         39
    75         23
    76         33
    77        104
    78        125
    79         29
    80         15
    81         14
    82         43
    83         23
    84         24
    85         16
    86          4
    87          8
    88          4
    89          3
    90         13
    91         22
    92         39
    93         26
    94         24
    95         25
    96         50
    97         56
    98         10
    99          6
   100          3
   102         25
   103         28
   104         84
   105         30
   106         30
   107         11
   108         38
   109        144
   110         63
   111         22
   112          8
   113          7
   114          3
   115          2
   116          2
   118          4
   119         10
   120         25
   121         81
   122         58
   123         17
   124          8
   125          6
   126          4
   127          6
   128          4
   129          3
   130         18
   131          7
   132         21
   133          8
   134         29
   135         34
   136        196
   137         85
   138         31
   139         11
   140          5
   141          1
   142         12
   145          3
   146         15
   147         19
   148         13
   149         14
   150         10
   151          6
   152          9
   153          3
   154          4
   155          3
   157         14
   158         10
   159          3
   160          2
   162         14
   163         23
   164        311
   165        530
   166         83
   167         29
   168          6
   169          2
   170          7
   171          7
   172          8
   173          5
   174          6
   175          5
   176         11
   177          3
   178         12
   179          3
   180          5
   181         15
   182         13
   183          4
   184          7
   185          2
   188          3
   189          5
   190         15
   191         11
   192         57
   193          8
   194          8
   196        156
   197        298
   198         40
   199         17
   200          2
   201          2
   202          3
   207          1
   208          7
   209          1
   211          1
   212          3
   213          2
   214         17
   215          4
   216         70
   217         15
   218         36
   219          5
   220          3
   221          2
   222          3
   225          3
   226          3
   227         12
   228         16
   231          2
   232          5
   233          8
   234          3
   236          2
   239          9
   240          3
   241          9
   242          2
   243         15
   244         22
   245          6
   246          6
   259         21
   260         24
   261        139
   262         26
   263          7
   264         23
   265          2
   266          3
   274          5
   275          1
   276        291
   277         35
   278         11
   282          2
   285        286
   286         41
   287         18
   288          1
   291         14
   292         13
   293          6
   295          2
   311          4
   312         27
   313        331
   314        122
   315         26
   316          5
   323          2
   326         14
   327          2
   330         22
   331         28
   332          2
   343          1
   345        522
   346         75
   347         31
   348          1
   356          2
   418        175
   419         28
   420          9