##TITLE=Library Entry 14865
##JCAMP-DX=Revision 4.10 
##DATA TYPE=MASS SPECTRUM
##SAMPLE DESCRIPTION=A.A.Kutin, Moscow, Russia
##NAMES=HP
##CAS NAME=Furo[2,3-H]coumarine, 1,2-dihydro-2-(3-acetoxy-4-nitrobenzylideno
)-6-methyl-1-oxo-
##MOLFORM=C21H13NO8
##CAS REGISTRY NO=299923-33-4
##MP= -300
##BP= -300
##MW= 407
##$RETENTION INDEX=0
##$CONDENSED SPECTRUM=NO
##NPOINTS= 189
##XYDATA=(XY..XY) 1 
    33         17
    34          1
    36          9
    37          2
    38          9
    39         31
    40         59
    43        999
    44        140
    45        132
    46          1
    50         32
    51         43
    52         46
    53         13
    54          1
    55         13
    56          3
    57         11
    60         90
    62         10
    63         33
    64          8
    65         11
    66          2
    67          4
    68          0
    69          8
    70          3
    71          6
    73          1
    74          9
    75         17
    76         49
    77         23
    78         13
    79         44
    80          3
    81          3
    82          0
    83          4
    84          1
    85          1
    86          3
    87         10
    88          9
    89         31
    90         20
    91          6
    92          7
    93          6
    95          2
    98          3
    99          2
   100          2
   101         10
   102         26
   103          9
   104          6
   105         13
   106          2
   110          0
   111          1
   112          3
   113          2
   114          2
   116         13
   117          8
   118         18
   119          3
   120          0
   125          2
   126          2
   127          2
   128          1
   129         10
   130         14
   131          7
   132          1
   133          1
   134          2
   137          9
   138          2
   139          5
   140          0
   143          1
   144          4
   145         22
   146         21
   147          3
   149          1
   150          3
   151         10
   152         11
   153          2
   157          0
   158          1
   159          4
   160          0
   163          4
   164          3
   165          5
   166          2
   171          4
   172          0
   173         16
   174         62
   175          9
   176         12
   177          7
   178          9
   179          2
   187          1
   188          2
   189          4
   190          4
   191          2
   192          2
   193          1
   195          1
   202         30
   203          5
   204          0
   205         11
   206          4
   207          2
   208          3
   209          0
   216          3
   218          2
   219          4
   220          0
   221          4
   222          0
   224          3
   232          0
   233         14
   234         10
   235          5
   236          2
   237          0
   245          1
   246          7
   247          4
   248          3
   249          5
   250          1
   252          4
   260          1
   261         25
   262         28
   263         16
   264          3
   274          3
   275          4
   276          1
   277          4
   278          4
   289          9
   290         23
   291         18
   292          4
   302          3
   303         25
   304          7
   305          2
   308          1
   309          3
   317          7
   318         13
   319         23
   320         17
   321          2
   332          2
   336         14
   337         66
   338         16
   339          1
   347         12
   348          7
   349          3
   362          1
   364         46
   365        482
   366        107
   367         19
   368          1
   407          8
   408          1