##TITLE=Library Entry 59023
##JCAMP-DX=Revision 4.10 
##DATA TYPE=MASS SPECTRUM
##SAMPLE DESCRIPTION=Asinex Ltd, Moscow, Russia
##NAMES=HP
##CAS NAME=1,2,4-Triazine, 2,3,4,5-tetrahydro-4-benzyl-6-nitro-2-(2-nitrophe
nyl)-
##MOLFORM=C16H15N5O4
##CAS REGISTRY NO=299929-87-6
##MP= -300
##BP= -300
##MW= 341
##$RETENTION INDEX=0
##$CONDENSED SPECTRUM=NO
##NPOINTS= 151
##XYDATA=(XY..XY) 1 
    36          1
    37          2
    38          7
    39         46
    40         23
    41         25
    42        173
    43          7
    44          5
    45          2
    46          4
    50         24
    51        154
    52         34
    53          7
    54          4
    55          2
    56          1
    57          1
    60          0
    61          1
    62          7
    63         42
    64         31
    65        121
    66         11
    67          9
    68          1
    69          1
    70          0
    71          0
    73          0
    74          5
    75         10
    76         46
    77         49
    78        136
    79         17
    80          2
    81          0
    83          0
    84          0
    86          0
    87          0
    88          4
    89         27
    90         75
    91        999
    92        101
    93         15
    94          3
    95          0
   101          2
   102         19
   103         13
   104         18
   105         21
   106         55
   107          7
   108          0
   109          0
   111          0
   112          0
   113          0
   115          3
   116         12
   117         10
   118         37
   119         12
   120         60
   121          6
   122          0
   123          0
   125          0
   126          0
   127          0
   128          0
   129          2
   130          5
   131          7
   132         31
   133         12
   134         27
   136         33
   137          3
   138          2
   139          1
   140          0
   143          2
   144          6
   145          8
   146          5
   148        153
   149         15
   150          4
   151          1
   152          2
   153          0
   154          0
   157          0
   158          1
   159          3
   160         17
   161          2
   165          1
   166          0
   167          1
   168          1
   171          4
   172          1
   174          0
   175          5
   176          2
   179          1
   180         14
   181          3
   182          0
   193          1
   194          2
   195          0
   196          0
   204          1
   205          0
   206          0
   207          0
   208          4
   209          1
   210          0
   219          1
   220          0
   221          3
   222          0
   226          5
   227          0
   246          0
   247          0
   248          3
   249          1
   250          1
   261          0
   266          0
   278          2
   279          0
   295          2
   296          0
   324         46
   325          9
   326          0
   341         49
   342          9
   343          0