##TITLE=Library Entry 79780
##JCAMP-DX=Revision 4.10 
##DATA TYPE=MASS SPECTRUM
##SAMPLE DESCRIPTION=Chemical Concepts
##NAMES=HP
##CAS NAME=3-Benzoyl-5-(9'-methylidenanthracen) thiazolidine-4-one-2-thione
##MOLFORM=C25H15NO2S2
##CAS REGISTRY NO=299929-16-1
##MP= -300
##BP= -300
##MW= 425
##$RETENTION INDEX=0
##$CONDENSED SPECTRUM=NO
##NPOINTS= 131
##XYDATA=(XY..XY) 1 
    29          3
    32         17
    37          1
    38          2
    39          6
    40          2
    41          3
    42          1
    43          4
    44          9
    45          3
    46          1
    50         20
    51         70
    52          4
    53          1
    55          3
    56          1
    57          3
    58          1
    59          2
    60          2
    61          1
    62          2
    63          4
    64          1
    65          1
    66          1
    67          1
    69          3
    70          1
    71          2
    73          2
    74          6
    75          7
    77        359
    78         22
    79          1
    81          1
    82          2
    83          1
    84          1
    85          2
    86         10
    87          4
    88          3
    89          2
    91          1
    93          2
    94          5
    95          1
    98          3
    99          2
   100          4
   101          3
   102          1
   103          3
   105        999
   106         72
   107          4
   109          1
   110          1
   111          1
   113          1
   115          2
   116          4
   117          8
   121          2
   122          6
   123          1
   125          1
   126          1
   127          1
   135          1
   137          1
   138          1
   139          3
   149          3
   150          7
   151          4
   152          2
   161          2
   162          3
   163          9
   164          3
   165          2
   174          5
   175          4
   176          6
   177          1
   178          1
   186          2
   187         18
   188         13
   189         57
   190         10
   191          2
   198          3
   199          5
   200         29
   201         23
   202        113
   203         18
   204          2
   206          1
   207          2
   208          2
   217          1
   218          1
   221          1
   227          1
   229         23
   230          6
   232         49
   233         63
   234        225
   235         39
   236         10
   237          1
   261          1
   262          1
   287          8
   288          2
   289          1
   319          3
   320         10
   321          6
   322          2
   425         64
   426         17
   427          8