##TITLE=Library Entry 82546
##JCAMP-DX=Revision 4.10 
##DATA TYPE=MASS SPECTRUM
##SAMPLE DESCRIPTION=A.A.Kutin, Moscow, Russia
##NAMES=HP
##CAS NAME=4H-Cyclohepta[b]thiophene-3-carboxylic acid, 5,6,7,8-tetrahydro-2
-[1-(4-pyridylcarbonylamino)-2,2,2-trifluoro-1-trifluoromethylethylamino]-,
 methyl ester
##MOLFORM=C20H19F6N3O3S
##CAS REGISTRY NO=299922-93-3
##MP= -300
##BP= -300
##MW= 495
##$RETENTION INDEX=0
##$CONDENSED SPECTRUM=NO
##NPOINTS= 230
##XYDATA=(XY..XY) 1 
    33         26
    37         13
    38         26
    39         99
    40         52
    41         82
    42         32
    43         16
    44         66
    45         55
    46          3
    47          9
    48          2
    49         28
    50        234
    51        482
    52         95
    53         55
    54         17
    55         23
    56          3
    57         12
    58         27
    59         61
    60         22
    61          8
    62          9
    63         27
    64         19
    65         54
    66         31
    67         28
    69        172
    70         20
    71         45
    72          6
    73          6
    75         37
    76         48
    77        101
    78        767
    79        103
    80         18
    81         18
    82         21
    83         22
    84         20
    85         13
    86          3
    87          6
    88          4
    89         11
    90          9
    91         59
    92         26
    93         23
    94         17
    95         25
    96         34
    97         51
    98          7
    99          6
   100          4
   101          2
   102          9
   103         34
   104         32
   106        999
   107         69
   108         19
   109         34
   110         28
   111         20
   112          9
   113          6
   114          2
   115         31
   116         18
   117         13
   118          9
   119          7
   120         10
   121         39
   122        215
   123         42
   124         16
   125         26
   126          8
   127          5
   128          4
   129          3
   130         26
   131         15
   132         20
   133         12
   134         27
   135         36
   136         47
   137         45
   138         40
   139         73
   140         14
   141          6
   142         10
   143          4
   144          4
   145          4
   146         12
   147         33
   148         22
   149         29
   150         21
   151         46
   152         28
   153          9
   154          4
   155          3
   156          2
   157          4
   158         16
   159          7
   160         12
   161          6
   162         19
   163         16
   164         67
   165         77
   166         35
   167          9
   168          2
   169          2
   170          8
   171         34
   172          7
   173          4
   174          5
   175         10
   176          9
   177         11
   178         16
   179          3
   180          2
   181          3
   182          8
   183          6
   184          6
   185          2
   186          1
   189          1
   190         16
   191         11
   192         51
   193        331
   194         54
   195         21
   196         11
   197         36
   198          6
   199          3
   200          2
   201          1
   202          4
   203          3
   204          4
   208          3
   210          6
   211          2
   214          1
   215          1
   216         14
   217          4
   218          4
   219          2
   220          4
   222          1
   223          4
   224         27
   225        188
   226         27
   227         12
   228          3
   232          3
   233          2
   234          3
   238          1
   242          1
   244         23
   245          4
   246          4
   247          2
   250         10
   251          4
   252          4
   253          3
   259          3
   260          3
   261          1
   262          5
   270         14
   271          3
   272         37
   273         11
   274          3
   280          6
   284          2
   285         15
   286          2
   287          7
   288          4
   292          1
   298          6
   300          9
   304         26
   305          2
   310          3
   312         11
   313        140
   314         20
   315          6
   326          3
   340          8
   341        122
   342         32
   343          9
   354          6
   373         82
   374         12
   375          4
   495         21
   496          5