##TITLE=Library Entry 99290
##JCAMP-DX=Revision 4.10 
##DATA TYPE=MASS SPECTRUM
##SAMPLE DESCRIPTION=A.A.Kutin, Moscow, Russia
##NAMES=HP
##CAS NAME=Pyrazole-4,5(4H)-dione, 3-(4-methylbenzoyl)-1-phenyl-, 4-(O-methy
loxime)-
##MOLFORM=C18H15N3O3
##CAS REGISTRY NO=299922-00-2
##MP= -300
##BP= -300
##MW= 321
##$RETENTION INDEX=0
##$CONDENSED SPECTRUM=NO
##NPOINTS= 143
##XYDATA=(XY..XY) 1 
    33          0
    34          4
    36          2
    37          4
    38         17
    39         82
    40         79
    41         36
    43         14
    44         28
    45          4
    46          0
    47          3
    48          1
    50         21
    51         85
    52         17
    53         12
    54          5
    55          6
    56          2
    57          5
    59          2
    60          0
    61          1
    62         11
    63         58
    64         65
    65        198
    66          9
    67          2
    69          3
    70          3
    71          2
    73          0
    74          4
    75          8
    77        280
    78         23
    79          5
    80          3
    81          3
    82          0
    83          4
    84          1
    87          1
    88          3
    89         41
    91        588
    92         64
    93         10
    94          1
    97          0
   101          2
   102          5
   103          9
   104          4
   105         73
   106          6
   107          2
   108          2
   109          1
   110          1
   112          1
   113          1
   114          2
   115          3
   116          3
   117          7
   119        999
   120         87
   121          7
   122          0
   123          0
   125          1
   127          0
   128          5
   129          8
   130          3
   131          0
   132          0
   133          1
   134          0
   135         10
   136          1
   139          1
   140          4
   141          6
   142          2
   143          8
   144          4
   145          7
   146          2
   148          0
   149          3
   150          3
   151          1
   152          2
   153          0
   156          1
   157          9
   158          1
   161          2
   165          1
   167          3
   168          1
   170          0
   171          2
   172          1
   176          2
   178          0
   179          2
   180          0
   182          0
   183          1
   190          1
   191          1
   199          3
   202          3
   215          0
   233          0
   234          2
   235         14
   236          1
   244          1
   247          0
   260          0
   261          2
   262         10
   263          2
   278          0
   290        107
   291         21
   292          6
   293          7
   294          6
   295          1
   306          7
   307          1
   320         18
   321        217
   322         44
   323          4