##TITLE=Library Entry 99204
##JCAMP-DX=Revision 4.10 
##DATA TYPE=MASS SPECTRUM
##SAMPLE DESCRIPTION=Chemical Concepts
##NAMES=HP
##CAS NAME=3-(4-Methylbenzoyl)-2-thioxo-4-thiazolyl 4-methylbenzoate
##MOLFORM=C19H15NO3S2
##CAS REGISTRY NO=299929-13-8
##MP= -300
##BP= -300
##MW= 369
##$RETENTION INDEX=0
##$CONDENSED SPECTRUM=NO
##NPOINTS= 38
##XYDATA=(XY..XY) 1 
    33          2
    39         39
    41         14
    43          2
    45         27
    46          2
    47          1
    50          7
    51         14
    52          3
    53          1
    57          1
    58          2
    59          2
    60          1
    62          9
    63         21
    65        105
    69          1
    70          1
    71          1
    73          1
    74          2
    75          2
    76          2
    77          3
    85          1
    86          3
    87          3
    89         27
    91        255
   105          3
   119        999
   124          1
   136          1
   369          9
   370          2
   371          1