##TITLE=Library Entry 4104
##JCAMP-DX=Revision 4.10 
##DATA TYPE=MASS SPECTRUM
##SAMPLE DESCRIPTION=A.A.Kutin, Moscow, Russia
##NAMES=HP
##CAS NAME=1,3-Dioxane, 5-methyl-5-nitro-2-(3-nitrophenyl)-
##MOLFORM=C11H12N2O6
##CAS REGISTRY NO=299931-06-9
##MP= -300
##BP= -300
##MW= 268
##$RETENTION INDEX=0
##$CONDENSED SPECTRUM=NO
##NPOINTS= 152
##XYDATA=(XY..XY) 1 
    33          5
    34          5
    37         16
    39        534
    40        160
    41        999
    42        240
    43        654
    44         45
    45         10
    46         33
    48         10
    50        199
    51        379
    52         45
    53         49
    54         48
    55        183
    56         16
    57         65
    58         26
    59         33
    60         15
    61          6
    62         25
    63         63
    64         26
    65         64
    66         20
    69        522
    70        108
    71        259
    72         25
    74         61
    75         81
    76        190
    77        491
    78        133
    79         20
    80          2
    81          2
    82          1
    83          2
    84          2
    85          3
    86         12
    87         13
    88         19
    89         28
    90         12
    91         25
    92         29
    93         20
    94         42
    95          4
    97          0
    98          0
    99          3
   100          8
   101          2
   102          4
   104        162
   105        332
   106        107
   107        516
   108         32
   109          3
   110          1
   112          1
   113          0
   115         20
   116          7
   117          8
   118          7
   119          7
   120         23
   121         82
   122         24
   123          6
   124         16
   125          1
   127          2
   128          2
   129          2
   130          3
   131          3
   132          4
   134         79
   135        125
   136        142
   137         11
   138          2
   141          0
   143          0
   144          3
   146         96
   147          8
   148         14
   150        816
   151        139
   152        360
   153         27
   154          3
   158          0
   159          0
   160          2
   161          3
   162          2
   163          1
   165          1
   166          1
   168         17
   169          1
   170          0
   171          0
   173          0
   174          1
   175          5
   176          7
   177          1
   178          0
   179          0
   180          0
   181          0
   190          6
   191         11
   192          7
   193          2
   204          5
   205          4
   206          1
   207          7
   208          1
   210          0
   218          3
   219          1
   221         97
   222         22
   223          3
   233          0
   236          2
   237          1
   238         11
   239          1
   251          5
   252          8
   253          1
   265          2
   267        136
   268         99
   269         14
   270          1