##TITLE=Library Entry 82206
##JCAMP-DX=Revision 4.10 
##DATA TYPE=MASS SPECTRUM
##SAMPLE DESCRIPTION=A.A.Kutin, Moscow, Russia
##NAMES=HP
##CAS NAME=Isoxazol-5(4H)-one, 4-(3,4,5-trimethoxybenzylideno)-3-phenyl-
##MOLFORM=C19H17NO5
##CAS REGISTRY NO=299922-50-2
##MP= -300
##BP= -300
##MW= 339
##$RETENTION INDEX=0
##$CONDENSED SPECTRUM=NO
##NPOINTS= 213
##XYDATA=(XY..XY) 1 
    33         22
    34          0
    37          1
    38          4
    39         15
    40          9
    41          2
    43          6
    44          5
    45          5
    46          0
    49          1
    50         19
    51         25
    52          5
    53         11
    55          3
    56          1
    57          0
    59          2
    61          1
    63         53
    65         11
    66          6
    67          2
    69          6
    70          5
    71          1
    74         10
    75         21
    76         42
    77         69
    78         12
    79          7
    80          1
    81          9
    83         18
    84          0
    85          1
    87         10
    88         12
    89         17
    90          7
    91         13
    92          3
    93          8
    94          4
    95          7
    96          3
    97          4
    98          3
    99          3
   100          3
   101          6
   102         14
   105        999
   107          7
   108          2
   110         14
   111          4
   112          1
   113          3
   114          4
   115          6
   117         29
   119         24
   120         13
   121          6
   122          5
   123          3
   125         39
   126         19
   127          3
   128          4
   129          4
   130          2
   131          5
   132         14
   133         11
   134         27
   135          7
   136          3
   137          5
   138          6
   139         13
   140          9
   141          9
   143          2
   144          3
   145          4
   146          3
   147          8
   149         47
   150         16
   151         17
   152         27
   153         10
   154          9
   155          2
   156          0
   157          0
   158          1
   159          2
   160          4
   161          9
   162         13
   163         13
   164         12
   165         28
   166         11
   167          4
   168          4
   169          4
   171          0
   172          1
   173          2
   175         11
   177        110
   178         21
   179         10
   180         12
   181         18
   182          3
   183          1
   184          0
   186          0
   187          2
   188          4
   189         13
   190          8
   191          9
   192         15
   193         18
   194         12
   195         20
   196         51
   198          0
   201          0
   202          3
   203          5
   204         10
   205         23
   206         21
   207         10
   208          8
   209          7
   211         27
   212          2
   216          1
   217          1
   218          6
   219          6
   220         12
   221         22
   222         20
   223          7
   224          2
   225          7
   226          4
   227          0
   230          0
   231          7
   232          2
   233          4
   234         10
   235          8
   236         21
   237         20
   238          5
   239          0
   245          0
   246          1
   248         19
   249          7
   250          5
   251          6
   252          4
   253          1
   260          0
   261          1
   262          6
   263          5
   264         14
   265         11
   266          4
   267          0
   270          1
   276          0
   277          0
   278          2
   280         17
   281          8
   282          1
   292          1
   294         10
   296          4
   297          0
   305          0
   306          0
   308         21
   309          2
   310          0
   322          0
   323          0
   324          5
   325          0
   333          0
   334          4
   335         18
   339        587
   340         84
   341         10
   342          1