##TITLE=Library Entry 64680
##JCAMP-DX=Revision 4.10 
##DATA TYPE=MASS SPECTRUM
##SAMPLE DESCRIPTION=A.A.Kutin, Moscow, Russia
##NAMES=HP
##CAS NAME=Pyrimidine-5-carboxylic acid, 1,2,3,4-tetrahydro-4-(5-bromo-2-thi
enyl)-1,6-dimethyl-, benzyl ester
##MOLFORM=C18H17BrN2O3S
##CAS REGISTRY NO=299919-47-4
##MP= -300
##BP= -300
##MW= 420
##$RETENTION INDEX=0
##$CONDENSED SPECTRUM=NO
##NPOINTS= 226
##XYDATA=(XY..XY) 1 
    33          8
    39         89
    41         32
    42         16
    43          8
    45         22
    46          1
    47          0
    50         21
    51         50
    52         21
    53          9
    54         15
    56        288
    57         19
    58          6
    59          1
    60          0
    63         52
    65        184
    66         47
    67         13
    68          8
    69         17
    70          5
    71          3
    72          0
    73          0
    74          3
    75          7
    76          7
    77         72
    78         19
    79         15
    81         32
    82         51
    83          7
    84          4
    85          1
    86          1
    87          2
    89         51
    91        999
    92         50
    93          7
    94          8
    95         28
    96         15
    98          7
    99          1
   100          1
   102          1
   103          5
   104          9
   105         18
   106          7
   107         10
   108          8
   109         11
   110          5
   111          2
   112          1
   113          0
   114          1
   115          2
   117         14
   118          8
   119         11
   121         28
   122         15
   124         66
   125          6
   126          0
   128          1
   129          4
   130          5
   131          4
   132          3
   133         11
   134         13
   135          9
   136          6
   137          2
   138          2
   139          1
   140          0
   141          0
   143          2
   144          1
   145          5
   146          3
   147          6
   148         16
   149         29
   150          7
   151         16
   152          4
   153          0
   156          0
   157          0
   158          1
   159          0
   161         20
   162         16
   163         12
   164         14
   165          1
   167          4
   168          1
   169          7
   170          0
   171          2
   172          2
   173          4
   174          2
   175          7
   176          3
   177          7
   178          3
   179          1
   180          0
   181          0
   182          0
   183          1
   184          0
   186          5
   188         10
   189          6
   190         12
   191         12
   192          3
   193          4
   194          0
   196          0
   199          2
   200          2
   201          2
   202          2
   203          2
   205         62
   206         15
   207         13
   208          4
   209          0
   211          1
   213          5
   214          2
   215          4
   216          7
   218          9
   219          2
   220          0
   221          1
   222          1
   226          1
   227          1
   228          2
   229          2
   230          1
   231          1
   232          1
   233          3
   235          0
   238          0
   240          0
   242          3
   243          0
   244          3
   245          0
   248          0
   249          1
   250          2
   251          9
   252          1
   254          4
   255          1
   256          4
   257          1
   258          2
   259         52
   260          7
   261          0
   265          3
   266          0
   267          0
   269          0
   271          5
   272          2
   273          4
   274          0
   275          0
   283          0
   284          6
   285         90
   286         20
   287         90
   288         12
   289          4
   290          0
   295          0
   296          0
   297          0
   298          1
   301          0
   311          8
   312          1
   313         13
   314          2
   315          4
   316          0
   329        287
   330         41
   331        294
   332         37
   333         16
   334          1
   341         34
   342          7
   343          2
   344          0
   364          0
   420         35
   421         10
   422         33
   423          6
   424          1