##TITLE=Library Entry 65083
##JCAMP-DX=Revision 4.10 
##DATA TYPE=MASS SPECTRUM
##SAMPLE DESCRIPTION=A.A.Kutin, Moscow, Russia
##NAMES=HP
##CAS NAME=1H-Purine-2,6-dione, 3,7-dihydro-8-chloro-1,3-dimethyl-7-(4-pyrid
ylmethyl)-
##MOLFORM=C13H12ClN5O2
##CAS REGISTRY NO=299923-21-0
##MP= -300
##BP= -300
##MW= 305
##$RETENTION INDEX=0
##$CONDENSED SPECTRUM=NO
##NPOINTS= 106
##XYDATA=(XY..XY) 1 
    33          7
    37          6
    38         35
    39        283
    40         70
    41         37
    42         38
    44          4
    47          2
    49          8
    50         46
    51         83
    52         97
    53         34
    54         17
    56         69
    57         19
    58         38
    61         15
    63         90
    64         80
    65        320
    67        565
    68         15
    70         27
    73          3
    75         27
    76        104
    77         33
    78         83
    79        104
    80         45
    81         30
    82          1
    87         33
    88          5
    89         12
    92        999
    93         85
    94          5
   101          7
   103          9
   104         20
   105         10
   106          8
   108          1
   111          1
   115          7
   117         38
   118         46
   119         16
   121          2
   122          1
   127          4
   128        282
   130        104
   131         19
   132          1
   142          6
   143         19
   144         21
   145          3
   151          9
   152        246
   154          5
   156         41
   157         28
   158         36
   159          6
   170         11
   172          9
   183          2
   184         18
   185         28
   186          7
   188          5
   190          2
   191          1
   192         11
   197          2
   201          1
   204          1
   205          5
   211          3
   212         14
   213         51
   214         12
   215         15
   218          1
   219         33
   220         13
   221         12
   227         80
   228          3
   229         22
   231          2
   247         18
   249         12
   251          3
   270        193
   271         20
   288         12
   289          2
   305        526
   307        157
   308         63