##TITLE=Library Entry 9350
##JCAMP-DX=Revision 4.10 
##DATA TYPE=MASS SPECTRUM
##SAMPLE DESCRIPTION=A.A.Kutin, Moscow, Russia
##NAMES=HP
##CAS NAME=1,2,4-Triazolidine-3-thione, 1,4-diacetyl-5-(2,4-dichlorophenyl)-
##MOLFORM=C12H11Cl2N3O2S
##CAS REGISTRY NO=299918-82-4
##MP= -300
##BP= -300
##MW= 331
##$RETENTION INDEX=0
##$CONDENSED SPECTRUM=NO
##NPOINTS= 212
##XYDATA=(XY..XY) 1 
    33          7
    34          1
    35          2
    36          7
    37          2
    38          6
    39          5
    40          9
    43        999
    45         22
    46          2
    47          2
    48          1
    50         11
    51          3
    52          1
    53          0
    54          0
    55          1
    57          5
    60         41
    61          5
    62         11
    63         10
    64          0
    66          0
    67          0
    69          8
    70          2
    71          1
    73         19
    74         23
    76        206
    78         13
    79          0
    81          1
    82          1
    85         88
    86          8
    87          8
    89          6
    90         10
    91          2
    92          1
    93          2
    94          0
    95          0
    96          1
    97          5
    99          6
   100          8
   102         55
   103          3
   104          2
   105          0
   107          1
   108          2
   109         10
   110          3
   111          8
   112          1
   113          1
   114          0
   115          0
   116          2
   118        112
   119          8
   120          6
   121          2
   123         31
   124          4
   125          9
   126          2
   127          0
   128          1
   129          0
   130          0
   131          0
   132          0
   133          2
   134          1
   136         10
   137          3
   138          3
   139          1
   140          0
   142          2
   144         42
   145          7
   146          8
   147          4
   148          3
   149          1
   150          1
   151          2
   153         40
   154          8
   155         15
   156          3
   157          3
   158          5
   159         13
   160          5
   161          8
   162          1
   163          1
   164          0
   165          0
   166          1
   167          0
   168          1
   169          1
   170          3
   171          8
   172         34
   173         12
   174         30
   175          6
   176          9
   177          2
   178          1
   179          1
   180          2
   181          0
   182          1
   183          5
   184          1
   185          4
   186          4
   187          9
   188          5
   189         25
   190          9
   191         15
   192          5
   193          4
   195         20
   196          2
   197          6
   198          0
   199          0
   200          0
   201          0
   202          0
   203          0
   204          1
   205          0
   206          0
   207          0
   209          0
   210          0
   212         15
   213          2
   214          9
   215          1
   216          3
   217          0
   218          1
   219          0
   220          0
   221          0
   222          0
   227          0
   230          9
   232          7
   233          1
   234          1
   238          0
   242          0
   243          0
   245          8
   246         14
   247         43
   248         11
   249         26
   250          3
   251          5
   252          1
   253          0
   254          4
   255          1
   256          1
   257          0
   258          0
   272          0
   273          0
   274          0
   275          0
   276          0
   283          0
   288         24
   289         87
   290         21
   291         58
   292          9
   293         11
   294          1
   295          0
   296          1
   297          0
   298          0
   299          0
   327          0
   328          0
   329          1
   331         61
   332         11
   333         34
   334          6
   335          7
   336          1
   337          0