##TITLE=Library Entry 63648
##JCAMP-DX=Revision 4.10 
##DATA TYPE=MASS SPECTRUM
##SAMPLE DESCRIPTION=Chemical Concepts
##NAMES=HP
##CAS NAME=9-[2-(Dibenzylamino)ethyl]-6-nitro-3,4-dihydrocarbazol-1(2H)-one
##MOLFORM=C28H27N3O3
##CAS REGISTRY NO=299962-26-8
##MP= -300
##BP= -300
##MW= 453
##$RETENTION INDEX=0
##$CONDENSED SPECTRUM=NO
##NPOINTS= 157
##XYDATA=(XY..XY) 1 
    33         26
    34          5
    36          2
    37          3
    39         45
    40         69
    41         32
    42         43
    43         16
    44         32
    45          3
    46          2
    48          1
    49          1
    50         11
    51         22
    52          7
    53          4
    54          5
    55         17
    56          7
    57         10
    58          2
    59          1
    61          4
    62          5
    63         16
    65         99
    66          6
    67          3
    69          8
    70          5
    71          4
    72          1
    73          2
    74          4
    75          6
    76          7
    77         20
    78          8
    79          5
    80          2
    81          1
    82          2
    83          4
    84          3
    85          2
    87          5
    88          6
    89         25
    91        999
    92         75
    93          4
    94          3
    95          1
    96          1
    97          2
    98          1
    99          2
   100          3
   101          5
   102          5
   103          5
   104          6
   105         10
   106          6
   107          2
   108          1
   111          1
   112          3
   113          5
   114          8
   115          9
   116          4
   117          6
   118         17
   119          3
   120          2
   121          1
   125          1
   126          3
   127          9
   128          7
   129          5
   130          4
   131          3
   132         13
   133          2
   134          1
   135          3
   138          1
   139          5
   140          9
   141          8
   142          3
   143          2
   144          1
   146          1
   149          2
   150          1
   151          2
   152          3
   153          5
   154          8
   155          4
   156          3
   157          1
   164          1
   165          3
   166          6
   167         10
   168          7
   169          3
   170          1
   171          3
   172          1
   173          1
   174          1
   178          1
   179          1
   181         26
   182          5
   183          1
   184          1
   185          1
   188          1
   191          1
   194          1
   195          2
   197         34
   198          5
   199          1
   200          1
   201          1
   202          1
   203          1
   204          1
   205          1
   206          2
   207          6
   210        608
   211         90
   212          7
   213          1
   214          1
   215          1
   222          1
   223          2
   228          1
   230          1
   241          1
   243         11
   244          2
   255          1
   256          1
   257          2
   258          1