##TITLE=Library Entry 16531
##JCAMP-DX=Revision 4.10 
##DATA TYPE=MASS SPECTRUM
##SAMPLE DESCRIPTION=Chemical Concepts
##NAMES=HP
##CAS NAME=3-(2,3,3a,4,5,6-Hexahydro-10-methyl-1H-pyrazino[3,2,1-j,k]carbazo
l-4-yl)propionamide
##MOLFORM=C18H23N3O
##CAS REGISTRY NO=299930-28-2
##MP= -300
##BP= -300
##MW= 297
##$RETENTION INDEX=0
##$CONDENSED SPECTRUM=NO
##NPOINTS= 109
##XYDATA=(XY..XY) 1 
    39        238
    40        282
    41        234
    42        301
    44        999
    50         80
    51         96
    52         73
    53         53
    54         92
    55        165
    56         84
    57         77
    59        142
    63        133
    65         75
    66         16
    67         18
    68         31
    69         32
    70         43
    71         56
    73        162
    74         35
    75         60
    76         57
    77        134
    78         52
    79         25
    80         22
    82         32
    84         76
    85         15
    86         18
    87         20
    89         94
    91        126
    97         34
    98         40
    99         27
   101         32
   102         30
   103         35
   104         32
   106         53
   111         45
   112         48
   113         25
   115        161
   116         38
   117         22
   118         25
   119         46
   126         33
   127         86
   128         79
   129         48
   130         28
   139         48
   140         52
   141         58
   142         40
   143         40
   144         20
   151         29
   152         42
   153         38
   154         90
   155         44
   156         46
   157         24
   165         42
   166         46
   167        157
   168        110
   169         51
   170         54
   171         18
   178         30
   180        143
   181        164
   182        173
   183         64
   184         26
   193         43
   194         69
   195         94
   196        163
   197        226
   198         89
   199         14
   206         14
   207         21
   208         29
   209         56
   210         35
   211        127
   212         16
   222         23
   223         67
   225        516
   226         77
   237         42
   238         50
   249         14
   269        515
   270         72
   296         36
   297         67