##TITLE=Library Entry 38052
##JCAMP-DX=Revision 4.10 
##DATA TYPE=MASS SPECTRUM
##SAMPLE DESCRIPTION=A.A.Kutin, Moscow, Russia
##NAMES=HP
##CAS NAME=Oxane-3-carboxylic acid, 6-(4-bromophenyl)-3,5,5-trimethyl-2,4-di
oxo-, ethyl ester
##MOLFORM=C17H19BrO5
##CAS REGISTRY NO=299918-94-8
##MP= -300
##BP= -300
##MW= 382
##$RETENTION INDEX=0
##$CONDENSED SPECTRUM=NO
##NPOINTS= 201
##XYDATA=(XY..XY) 1 
    33          0
    37          0
    39         39
    41         94
    42         81
    43         48
    45         13
    46          0
    50         15
    51         18
    53         20
    54         13
    55         29
    56         13
    57          2
    58          2
    59          2
    61          0
    62          3
    63         16
    64          4
    65          9
    66          2
    67          5
    70        999
    72         59
    74         10
    75         23
    76         26
    77         38
    78         10
    79          6
    80          2
    81          4
    83        297
    85         14
    87          3
    89         37
    90         16
    91         53
    92          3
    93          0
    95          1
    97         13
    99         11
   100         52
   101         33
   102         16
   103         15
   104         13
   105          7
   106          1
   107          0
   110         10
   111          1
   113          5
   115        151
   116        134
   117         19
   118          9
   119          2
   123          0
   124          2
   125          6
   126          9
   127         22
   128         58
   129        177
   130         66
   131         76
   132          9
   133          1
   139          2
   140          0
   141          4
   142          3
   143          5
   145          3
   146          4
   147          3
   148          0
   149          0
   151          0
   152          1
   153          2
   155         57
   157         75
   158         10
   159          3
   160          4
   161          0
   165          0
   166          0
   169         33
   170        107
   171         33
   172          4
   175         45
   176          4
   177          0
   181          2
   183        104
   184         18
   185        101
   186         13
   187          6
   188          0
   193          2
   195         15
   197         46
   198        516
   199         69
   200         10
   201          1
   202          0
   207          0
   209         56
   210         77
   211         55
   212         73
   213          9
   214          1
   216          0
   223          1
   224          0
   225          2
   226         11
   227          2
   228         10
   229          2
   230          0
   232          0
   236        172
   237        162
   238        178
   239        157
   240         18
   241          7
   242          0
   249          0
   251          0
   253          7
   254         31
   255         10
   256         33
   257          5
   258          0
   259          0
   263          0
   264          2
   265          2
   266          2
   267         12
   268          2
   269         11
   270          1
   276          0
   277          0
   280          7
   281          1
   282          7
   283          1
   284          1
   285          0
   286          1
   291          0
   292          0
   293          1
   294          2
   295          3
   296          1
   297          2
   298          0
   305          0
   307          0
   308          9
   309          4
   310         10
   311          3
   312          1
   320          0
   321          0
   323          6
   324          1
   325          5
   326          0
   337         27
   338         22
   339         27
   340         20
   341          3
   342          0
   354          0
   356          0
   367          0
   369          0
   382         53
   383         11
   384         49
   385          9
   386          1