##TITLE=Library Entry 87578
##JCAMP-DX=Revision 4.10 
##DATA TYPE=MASS SPECTRUM
##SAMPLE DESCRIPTION=A.A.Kutin, Moscow, Russia
##NAMES=HP
##CAS NAME=2-Oxaspiro[5.5]undecane-1,5-dione, 3-(4-methoxyphenyl)-4,4-dimeth
yl-
##MOLFORM=C19H24O4
##CAS REGISTRY NO=299918-93-7
##MP= -300
##BP= -300
##MW= 316
##$RETENTION INDEX=0
##$CONDENSED SPECTRUM=NO
##NPOINTS= 107
##XYDATA=(XY..XY) 1 
    33          1
    39         97
    41        162
    42         56
    43         29
    44          2
    45          3
    50          8
    51         21
    53         69
    54         71
    55         53
    56          4
    57          2
    59          0
    63         16
    64         12
    65         33
    67        219
    68         18
    70        150
    71          9
    72          1
    73          0
    75          3
    77         91
    78         26
    79         69
    81        110
    82         70
    83          9
    84          2
    89          9
    91         48
    92         79
    93         10
    94         10
    95         10
    97          3
    98          6
    99          8
   100          0
   101          0
   102          3
   103         17
   104         25
   105         13
   106          3
   107         27
   108         17
   110        999
   111         69
   112          4
   114          0
   115         40
   116         15
   117         24
   119         26
   121         36
   122         25
   124         79
   125          6
   126          2
   127          6
   128         12
   129         12
   131         34
   132         11
   133          5
   135        106
   136         28
   137         76
   139          0
   141          0
   144          2
   145         11
   147        148
   148         14
   149         18
   150          1
   152         59
   153          4
   154          0
   158          0
   159          3
   160          4
   161         41
   162        100
   163         19
   164          0
   171          0
   175          2
   177          1
   178          4
   180        524
   181         62
   182          7
   190          0
   191          0
   201          0
   202          1
   218          0
   288          3
   301          0
   316        127
   317         26
   318          3