##TITLE=Library Entry 73075
##JCAMP-DX=Revision 4.10 
##DATA TYPE=MASS SPECTRUM
##SAMPLE DESCRIPTION=A.A.Kutin, Moscow, Russia
##NAMES=HP
##CAS NAME=Ethanone, 2-[2-(4-amino-3-furazanyl)-1-benzimidazolyl]-1-(4-morph
olyl]-
##MOLFORM=C15H16N6O3
##CAS REGISTRY NO=299923-09-4
##MP= -300
##BP= -300
##MW= 328
##$RETENTION INDEX=0
##$CONDENSED SPECTRUM=NO
##NPOINTS= 155
##XYDATA=(XY..XY) 1 
    37          4
    38         16
    39         28
    40         44
    41         93
    42        319
    43        101
    45         62
    50         61
    51         96
    52         35
    53         58
    54         87
    56        629
    58        152
    59          4
    61          2
    62         22
    63         49
    64         38
    65         21
    66          9
    67         16
    68         15
    70        465
    72         44
    74         18
    75         73
    76        157
    77        238
    78         49
    80          8
    82          6
    83         12
    85         34
    86        257
    87         30
    88         23
    90         81
    91         30
    92         18
    94          7
    95          1
    97          3
    98         52
   100        999
   102        181
   103        104
   104         51
   105         19
   106          3
   109          3
   110         19
   111         33
   112         74
   114        255
   115         33
   116         21
   117         17
   118         53
   119         25
   120         26
   122          1
   127        141
   128        465
   129        187
   131        166
   132         56
   133          5
   134         14
   135          3
   136         10
   138          6
   140          4
   141          2
   143        122
   144        209
   145         47
   146          7
   147         11
   149          4
   151          4
   152          3
   154          5
   156        452
   157        274
   158         80
   159         19
   160          3
   168          1
   170         40
   171         49
   172         68
   173         19
   175          5
   177          1
   181          8
   182         18
   183         54
   184        143
   185         39
   186         18
   187         11
   188          1
   190          3
   191          1
   195          2
   196          2
   197         25
   198         45
   199         45
   200         20
   202         14
   205          1
   209          2
   211         12
   212         26
   213        168
   214         56
   215         16
   216          6
   217          3
   223          7
   225          4
   226         10
   227          5
   228         35
   229          6
   240          4
   241          5
   242         16
   243          2
   244         28
   246         16
   253          2
   256         20
   257          2
   268          4
   269         12
   270         48
   271        609
   273         62
   282          2
   283          2
   284         50
   285          6
   297          2
   298         90
   299         15
   311          1
   321          2
   326          3
   328        328
   329         51
   330          3