##TITLE=Library Entry 13546
##JCAMP-DX=Revision 4.10 
##DATA TYPE=MASS SPECTRUM
##SAMPLE DESCRIPTION=A.A.Kutin, Moscow, Russia
##NAMES=HP
##CAS NAME=Acetamide, N-[4-(1-diacetylamino)-2-benzimidazolyl)-3-furazanyl]-
##MOLFORM=C15H14N6O4
##CAS REGISTRY NO=299923-18-5
##MP= -300
##BP= -300
##MW= 342
##$RETENTION INDEX=0
##$CONDENSED SPECTRUM=NO
##NPOINTS= 125
##XYDATA=(XY..XY) 1 
    33          0
    38          2
    39          8
    40          1
    41         15
    43        999
    44         21
    45          4
    50         12
    51         11
    52          4
    53          3
    54          2
    55          2
    56          1
    58          2
    60          4
    61          1
    62          6
    63         16
    64         11
    65          9
    69          4
    70          2
    74          9
    75         15
    76         38
    77         13
    78          6
    80          4
    86          1
    88          8
    89          8
    90         27
    91         15
    92          8
    93          1
    95          1
    98          0
   100          4
   102         20
   103         19
   104         14
   105         11
   106          8
   107          7
   114          5
   115          5
   116         19
   117         33
   118         42
   119          5
   123          0
   127          1
   128          2
   129          8
   130          4
   131         20
   132         18
   133          9
   134          2
   141          1
   142          8
   143         80
   144         51
   145         24
   146          6
   148          2
   156          7
   157         30
   158         43
   159        203
   160         25
   161          1
   169          1
   171         18
   172          9
   173         10
   174          6
   175          4
   183          0
   185         39
   186          8
   187          1
   191          0
   197          1
   198          3
   201        413
   202         46
   203          2
   210          5
   211          3
   212          5
   213          6
   214          3
   215          9
   216         17
   217          7
   226          0
   228         13
   229          2
   241          3
   242          6
   243         58
   256          0
   258        120
   259         13
   269          0
   270         40
   271          6
   282          0
   285        165
   286         19
   287          1
   297          0
   299          9
   300        234
   301         36
   302          1
   327          6
   328          4
   340          1
   342         62
   343          6
   344          0