##TITLE=Library Entry 14405
##JCAMP-DX=Revision 4.10 
##DATA TYPE=MASS SPECTRUM
##SAMPLE DESCRIPTION=A.A.Kutin, Moscow, Russia
##NAMES=HP
##CAS NAME=Acetamide, N-(7,8,9,10,11,13-hexahydro-13-oxo[1]benzothieno[2',3'
:4,5]pyrimido[1,2-a]azepin-4-yl)-
##MOLFORM=C17H17N3O2S
##CAS REGISTRY NO=299962-41-7
##MP= -300
##BP= -300
##MW= 327
##$RETENTION INDEX=0
##$CONDENSED SPECTRUM=NO
##NPOINTS= 229
##XYDATA=(XY..XY) 1 
    35          9
    36          2
    37          5
    38          7
    39         47
    40         11
    41         70
    42         69
    43        999
    44         26
    45         20
    46          1
    47          3
    48          2
    49          1
    50          3
    51          4
    52          6
    53         10
    54         17
    55         26
    56          3
    57          1
    58          1
    59          1
    60          0
    61          0
    62          2
    63          4
    64          3
    65          4
    66          3
    67          9
    68          8
    69         14
    70          4
    71          1
    72          0
    73          0
    74          1
    75          2
    76          2
    77          2
    78          2
    79          2
    80          2
    81          1
    82          2
    83          3
    84          1
    85          2
    86          0
    87          1
    88          2
    89          2
    90          4
    91          2
    92          1
    93          4
    94          5
    95          2
    96          6
    97          0
    99          0
   100          1
   101          1
   102          2
   103          1
   104          1
   105          0
   106          1
   107          2
   108          2
   109          1
   110          0
   112          0
   113          0
   114          1
   115          2
   116          2
   117          1
   118          2
   119          4
   120          3
   121          3
   122          1
   123          0
   124          0
   126          0
   127          1
   128          1
   129          3
   130          0
   131          0
   132          2
   133          9
   134         17
   135          6
   136          3
   137          0
   140          0
   141          0
   142          0
   143          0
   144          1
   145          5
   146         10
   147          5
   148          2
   149          1
   150          0
   152          0
   153          0
   154          0
   155          0
   156          0
   157          0
   158          1
   159          4
   160          4
   161          9
   162         12
   163          3
   164          1
   165          0
   166          0
   167          0
   168          0
   169          0
   171          2
   172          2
   173          3
   174          3
   175          3
   176          2
   177          0
   178          0
   180          0
   183          0
   184          1
   185          1
   186          2
   187          4
   188          3
   189          4
   190          5
   191          3
   192          0
   193          0
   194          0
   195          0
   196          0
   197          0
   198          1
   199          2
   200          2
   201          4
   202          4
   203          8
   204          1
   205          0
   206          0
   208          0
   210          0
   211          1
   212          1
   213          1
   214          1
   215          6
   216          2
   217          2
   218          0
   219          0
   221          0
   223          0
   224          0
   225          0
   226          1
   227          3
   228          6
   229          7
   230          2
   231         23
   232          3
   233          1
   238          0
   239          0
   240          1
   241          2
   242          3
   243          6
   244          2
   245          1
   246          0
   251          0
   252          0
   253          0
   254          1
   255          3
   256         27
   257         29
   258          8
   259          2
   260          0
   266          0
   267          0
   268          3
   269          1
   270         10
   271          2
   272          1
   273          1
   278          0
   282          1
   283          1
   284         28
   285         97
   286         18
   287          5
   288          0
   298          0
   299          0
   310          0
   312          0
   326          1
   327         42
   328          8
   329          2
   330          0