##TITLE=Library Entry 90132
##JCAMP-DX=Revision 4.10 
##DATA TYPE=MASS SPECTRUM
##SAMPLE DESCRIPTION=A.A.Kutin, Moscow, Russia
##NAMES=HP
##CAS NAME=Ethanone, 2-(4-methyl-1-piperazinyl)-1-(4-phenyl-1-piperazinyl)-
##MOLFORM=C17H26N4O
##CAS REGISTRY NO=299923-30-1
##MP= -300
##BP= -300
##MW= 302
##$RETENTION INDEX=0
##$CONDENSED SPECTRUM=NO
##NPOINTS= 126
##XYDATA=(XY..XY) 1 
    33         61
    34          0
    38          0
    39         12
    40         19
    42        235
    43        101
    44         46
    45          1
    51         21
    52          3
    54         17
    56        182
    57         24
    58         36
    59          1
    63          3
    65         11
    66          1
    68          8
    70        463
    71         43
    72         36
    73          1
    77         73
    78          9
    79          5
    80          0
    82         15
    83         22
    84         20
    85          8
    86          1
    87          0
    89          1
    91         54
    92          6
    93          4
    94          3
    95          2
    99        289
   100         12
   102          0
   104         86
   105         74
   106         37
   107          5
   108          0
   111         45
   113        999
   114         58
   115          3
   116          1
   117          9
   118         16
   119         28
   120         51
   121          5
   122          1
   125          2
   126          1
   127          5
   130         18
   131          4
   132         73
   133         10
   134         14
   135          1
   138         10
   139          3
   140          5
   141          4
   143         10
   144          4
   145         20
   146          5
   147         10
   148          2
   151          4
   153          3
   157          0
   159         22
   160         67
   161         63
   162         23
   163          8
   168          5
   169          0
   170         16
   171          1
   173          5
   174          0
   175          9
   176          1
   183          1
   184          1
   187          0
   188          0
   189         14
   190          2
   201          3
   202         20
   203          3
   204          6
   217         24
   218          3
   219         14
   220          4
   229          6
   230          3
   231          4
   232         43
   233          6
   245         49
   246         19
   247          2
   258          3
   259         12
   260          6
   272          1
   287          5
   300          1
   301          1
   302        103
   303         21
   304          1