##TITLE=Library Entry 76921
##JCAMP-DX=Revision 4.10 
##DATA TYPE=MASS SPECTRUM
##SAMPLE DESCRIPTION=A.A.Kutin, Moscow, Russia
##NAMES=HP
##CAS NAME=Ethanone, 1-(4-nitrophenyl)-, (6-methyl-2-phenylpyrimidin-4-yl)hy
drazone
##MOLFORM=C19H17N5O2
##CAS REGISTRY NO=299967-73-0
##MP= -300
##BP= -300
##MW= 347
##$RETENTION INDEX=0
##$CONDENSED SPECTRUM=NO
##NPOINTS= 230
##XYDATA=(XY..XY) 1 
    34          1
    36          4
    37         14
    38         54
    39        346
    40        157
    41        258
    42        199
    43        172
    44         32
    45         81
    46         16
    50        277
    51        247
    52        117
    53         71
    54        159
    55         42
    56         29
    57         12
    58          2
    59          3
    60          3
    61          8
    62         32
    63        108
    64         84
    65         78
    66        237
    67        195
    68         30
    69         12
    70          3
    71          4
    72          1
    73          9
    74         62
    75        155
    76        428
    77        533
    78         63
    79         22
    80         16
    81         55
    82         29
    83          7
    84          2
    85          4
    86          5
    87          8
    88         14
    89         69
    90         56
    91         90
    92         61
    93         12
    94          3
    95         14
    96          7
    97          4
    98          3
    99          4
   100          4
   101         19
   102        109
   103        234
   104        999
   105         98
   106          9
   107          5
   108          3
   109          3
   111          2
   112          4
   113          3
   114         11
   115         23
   116         61
   117        113
   118         32
   119         26
   120         19
   121          6
   122         42
   123          5
   126          4
   127         11
   128         49
   129         65
   130         28
   131         39
   132         27
   133          8
   134          3
   135          2
   136          2
   137          2
   138          1
   140          9
   141          8
   142         16
   143         29
   144          9
   145          3
   146          2
   147          2
   148          6
   149         12
   150        137
   152          4
   153          4
   154         10
   155         21
   156         19
   157         44
   158         42
   159         10
   160          2
   161          2
   162         12
   163         61
   164          9
   165         31
   166          7
   167          7
   168         13
   169        132
   170         65
   171         32
   172          7
   173         52
   175          2
   177          2
   178          4
   179          2
   180          2
   181          6
   182         12
   183         37
   184         49
   185        107
   186         25
   187          2
   190          1
   194          1
   195          3
   196          9
   197         38
   198        230
   199         72
   200         58
   201          8
   202          6
   203         13
   204          3
   205          1
   208          1
   209          1
   210          7
   211         16
   212          3
   213          2
   216          1
   217          1
   218          2
   219          4
   220          4
   221          1
   223          8
   224         14
   225        233
   226         35
   227          6
   228          2
   229         13
   230          4
   231          2
   240          2
   243         13
   244          4
   245          4
   246          1
   256          4
   257          5
   258          7
   259          8
   260          4
   261          2
   265          3
   266          3
   269          2
   270         31
   271         12
   272          7
   273          6
   274          1
   283          1
   284          4
   285         27
   286         39
   287         10
   288          1
   291          2
   299          9
   300         62
   301         19
   302          5
   303          2
   304          2
   305         11
   306          5
   307          3
   312          1
   316          9
   317          8
   318          4
   319          2
   329          4
   330         13
   331         62
   332        165
   333         34
   334          3
   341          2
   342          4
   343          4
   346        353
   347        327
   348         68
   349          7