##TITLE=Library Entry 47951
##JCAMP-DX=Revision 4.10 
##DATA TYPE=MASS SPECTRUM
##SAMPLE DESCRIPTION=A.A.Kutin, Moscow, Russia
##NAMES=HP
##CAS NAME=Pyridazine-3,4,5-trione, 2,3,4,5-tetrahydro-6-(4-methoxyphenyl)-,
 5-phenylhydrazone
##MOLFORM=C17H14N4O3
##CAS REGISTRY NO=299921-96-3
##MP= -300
##BP= -300
##MW= 322
##$RETENTION INDEX=0
##$CONDENSED SPECTRUM=NO
##NPOINTS= 123
##XYDATA=(XY..XY) 1 
    33         25
    36          0
    37          7
    38         25
    39        107
    40         27
    41         16
    42         15
    44         71
    45          8
    46          3
    48          0
    51        162
    52         15
    53         11
    54          5
    55          5
    57          4
    61         15
    63         91
    64         58
    65         72
    66         13
    67          3
    68          3
    69          4
    70          0
    71          1
    73         14
    77        999
    79          9
    80          2
    86          2
    87          5
    88         16
    89         30
    90         27
    92         92
    93         34
    94          6
    95          2
   100          0
   102         25
   103         19
   105        245
   106         19
   107         14
   108          5
   114          3
   115         17
   116         15
   117          9
   118         15
   119         30
   120          2
   122          2
   123          8
   128          0
   129          3
   130          9
   131         18
   132         13
   133         29
   134         18
   135         16
   136          0
   139          1
   140          0
   144         28
   146         96
   147          9
   149         15
   150          3
   152          4
   153          0
   159         81
   161         38
   162          9
   163          0
   164          1
   165          5
   166          3
   167          0
   171          5
   172          3
   174         69
   176          1
   177          0
   178          1
   179          1
   180          2
   191          0
   194          1
   199          1
   201          0
   202          6
   206          0
   207          0
   217         17
   218          4
   223         16
   224          1
   231          1
   232          5
   233          9
   234          1
   237          1
   250          4
   251          3
   266          2
   278          0
   279          1
   280          2
   291         39
   292          7
   293          5
   294          2
   298          0
   307         14
   308          2
   322        451
   323         72
   324          5