##TITLE=Library Entry 47027
##JCAMP-DX=Revision 4.10 
##DATA TYPE=MASS SPECTRUM
##SAMPLE DESCRIPTION=A.A.Kutin, Moscow, Russia
##NAMES=HP
##CAS NAME=Pyridazine-3,4,5(2H)-trione, 6-(4-chlorophenyl)-, 5-phenylhydrazo
ne
##MOLFORM=C16H11ClN4O2
##CAS REGISTRY NO=299921-97-4
##MP= -300
##BP= -300
##MW= 326
##$RETENTION INDEX=0
##$CONDENSED SPECTRUM=NO
##NPOINTS= 205
##XYDATA=(XY..XY) 1 
    33          1
    34          4
    35          3
    36         16
    37          7
    38         22
    39         82
    40         56
    41         22
    42          6
    43         21
    44         57
    45         17
    46          3
    47          5
    48          3
    49          2
    50         34
    51        111
    52         20
    53          7
    54          8
    55         11
    56          6
    57         12
    58          1
    59          1
    60          2
    61          9
    62         13
    63         52
    64         31
    65        120
    66         29
    67          6
    68          6
    69          9
    70          7
    71          7
    73         13
    74         16
    75         54
    77        999
    78         75
    79          7
    80          4
    81          4
    82          3
    83          5
    84          3
    85          7
    86          4
    87          9
    88          9
    89         12
    90         10
    91         31
    92         37
    93         69
    94         13
    95          2
    96          1
    97          4
    98          5
    99         18
   100          7
   101         17
   102         21
   103          8
   105        373
   106         27
   107          7
   108          3
   109          4
   111         61
   112         10
   113         20
   114         27
   115          8
   116          3
   117          4
   118          4
   119          7
   120          3
   121          2
   122          1
   123         15
   124          3
   125         10
   126          3
   127          3
   128          3
   129          5
   130          3
   131          1
   132          1
   133          1
   134          1
   135         10
   136          6
   137         10
   138         12
   139         13
   140          5
   141          4
   142          2
   143          3
   144          1
   145          2
   146          1
   147          1
   148          1
   149         10
   150         19
   151          8
   152         13
   153          6
   154          2
   155          1
   156          1
   157          1
   158          2
   159          0
   161          0
   163         34
   164          7
   165         16
   166          4
   167          4
   168          1
   169          0
   170          1
   171          4
   172          1
   175          0
   176          2
   177          4
   178         19
   179          4
   180          6
   181          1
   182          2
   183          1
   186          0
   187          0
   189          0
   190          2
   191          2
   192          4
   193          0
   194          1
   195          0
   199          4
   200          0
   201          2
   202          1
   203          1
   204          0
   205          2
   206          0
   207          0
   213          0
   214          0
   215          1
   216          0
   217          1
   218          0
   220          1
   221         10
   222          2
   223          3
   224          0
   226          0
   229          0
   234          0
   235          0
   236          8
   237         13
   238          4
   239          4
   241          0
   249          1
   254          0
   262          0
   277          0
   283          0
   290          1
   291          8
   292          2
   293          4
   294          4
   295          0
   297          1
   299          0
   301          0
   305          0
   306          5
   307          1
   308          0
   324          0
   325          2
   326         83
   327         16
   328         27
   329          5