##TITLE=Library Entry 87575
##JCAMP-DX=Revision 4.10 
##DATA TYPE=MASS SPECTRUM
##SAMPLE DESCRIPTION=A.A.Kutin, Moscow, Russia
##NAMES=HP
##CAS NAME=2-Oxaspiro[5.5]undecane-1,5-dione, 3-(4-bromophenyl)-4,4-dimethyl
-
##MOLFORM=C18H21BrO3
##CAS REGISTRY NO=299918-90-4
##MP= -300
##BP= -300
##MW= 364
##$RETENTION INDEX=0
##$CONDENSED SPECTRUM=NO
##NPOINTS= 157
##XYDATA=(XY..XY) 1 
    33          2
    38          5
    39        113
    41        196
    42         65
    43         31
    44          5
    45          2
    50         17
    51         28
    53         88
    54         93
    55         46
    56          4
    57          4
    59          0
    61          0
    62          3
    63         14
    64          6
    65         25
    67        264
    68         24
    70        131
    71          9
    72          1
    74          2
    75         22
    76         20
    77         65
    79         92
    81         84
    82        127
    83          9
    84          1
    85          1
    87          1
    88          6
    89         22
    90         15
    91         77
    92         14
    93          5
    95          7
    96          7
    97          8
    98          4
    99          8
   101          2
   102          6
   103         17
   104          9
   105          9
   106          0
   107          4
   108         15
   110        999
   111         66
   112          7
   115        136
   116        150
   117         17
   118          3
   119          3
   120          0
   121          1
   124         85
   125          9
   126          8
   127         11
   128         31
   129         57
   130         65
   131         88
   132         10
   133          1
   135          0
   136          0
   137         10
   138          7
   139          1
   140          0
   141          2
   143          2
   144          0
   145          1
   146          1
   147          1
   152         57
   153          8
   155         30
   156          5
   157         29
   158          5
   159          3
   165          3
   166          0
   169         25
   171         22
   172          2
   177          0
   180        894
   181        102
   183         55
   184          8
   185         43
   186          5
   187          2
   193          1
   194          0
   195         19
   197         22
   198          2
   199          1
   210        189
   211         29
   212        176
   213         21
   214          1
   223          4
   225          3
   226          1
   235          0
   237          1
   238          1
   239          2
   240          1
   241          1
   251          0
   277          0
   279          0
   291         10
   292          4
   293         10
   294          6
   295          0
   303          0
   304          1
   306          1
   309          6
   310          1
   311          6
   312          0
   320          0
   322          0
   336          0
   346          0
   348          2
   349         20
   350          4
   351         17
   352          2
   364         61
   365         15
   366         60
   367         12
   368          1