##TITLE=Library Entry 63434
##JCAMP-DX=Revision 4.10 
##DATA TYPE=MASS SPECTRUM
##SAMPLE DESCRIPTION=A.A.Kutin, Moscow, Russia
##NAMES=HP
##CAS NAME=2-Azaspiro[4.5]deca-1,6,9-trien-8-one, 1-benzylthio-3,3-dimethyl-
##MOLFORM=C18H19NOS
##CAS REGISTRY NO=299921-79-2
##MP= -300
##BP= -300
##MW= 297
##$RETENTION INDEX=0
##$CONDENSED SPECTRUM=NO
##NPOINTS= 144
##XYDATA=(XY..XY) 1 
    33          2
    34          0
    37          1
    39        120
    41        135
    42          7
    43          2
    45         40
    47          2
    51         73
    52         31
    53          9
    55         27
    56          3
    58         11
    60         10
    63         51
    65        139
    66          6
    67          1
    69          8
    70          8
    72         35
    73          1
    74          2
    75          3
    77         84
    78         54
    79         29
    80          3
    81          1
    82          1
    84          7
    85          2
    86          1
    89         26
    91        999
    93          6
    94          4
    95          1
    96          1
    97          1
   100        121
   101          7
   103         23
   105        102
   106         50
   107         33
   108          3
   109          0
   110          0
   112          0
   114          2
   115          3
   116          2
   117          4
   120         45
   121         16
   122          4
   123          3
   124          0
   127          0
   128          1
   130          4
   131          7
   133        137
   134          8
   135          1
   136          0
   138          0
   140          0
   141          0
   143          0
   144          0
   145          1
   148        240
   151          0
   153          2
   154          0
   155          0
   160          0
   162          0
   163          0
   165          0
   166          1
   167          0
   169          0
   170          0
   171          0
   173          0
   174          0
   175          1
   176          1
   177          0
   178          1
   179          1
   180          0
   181          2
   182          4
   183          0
   185          0
   186          0
   188          0
   190          0
   191          0
   192          0
   194          1
   197        279
   198         35
   200          0
   205          0
   206          2
   207          1
   208          0
   210          0
   211          0
   212          0
   213          0
   214          0
   223          0
   224          0
   229          0
   236          3
   237          1
   238          1
   239          1
   240          0
   241          0
   242          1
   243          0
   254          4
   255          0
   268          1
   269          5
   270          0
   271          0
   282          2
   283          0
   294          0
   295          0
   297         88
   298         13
   299          5
   300          0