##TITLE=Library Entry 44704
##JCAMP-DX=Revision 4.10 
##DATA TYPE=MASS SPECTRUM
##SAMPLE DESCRIPTION=Japan AIST/NIMC Database- Spectrum MS-NW-2502
##NAMES=HP
##CAS NAME=3,5-Dibromo-L-tyrosine
##MOLFORM=C9H9Br2NO3
##CAS REGISTRY NO=300-38-9
##MP= -300
##BP= -300
##MW= 337
##$RETENTION INDEX=0
##$CONDENSED SPECTRUM=NO
##NPOINTS= 138
##XYDATA=(XY..XY) 1 
    15          4
    16          1
    17          2
    18          5
    26          3
    27          9
    28        159
    29         20
    30         47
    32          2
    36          1
    37          5
    38          8
    39         11
    40          2
    41          5
    42         17
    43         20
    44         28
    45          6
    46         63
    47          1
    49          3
    50         32
    51         58
    52         21
    53         31
    54          4
    55          3
    56          8
    57         52
    58          2
    59          1
    60          1
    61          6
    62         15
    63         17
    64          3
    65          3
    66         10
    67         16
    68          1
    69          1
    73          3
    74        999
    75        175
    76         54
    77         72
    78         32
    79         10
    80         16
    81          5
    82         15
    85          1
    86          2
    87          5
    88          4
    89          9
    90          5
    91          5
    92          2
    93          1
    94          1
   102          3
   103          6
   104         26
   105         39
   106         15
   107         20
   108          3
   115          1
   116          5
   117          3
   118          3
   119          1
   129          2
   130          1
   131          3
   132          6
   133         43
   134         22
   135         10
   136          1
   141          1
   142          1
   143          2
   145          1
   146          4
   147          8
   148          4
   155         18
   156         11
   157         18
   158         11
   159          2
   167          1
   168          1
   169          2
   170          2
   172          2
   183         10
   184         14
   185         88
   186         28
   187         77
   188         14
   189          1
   196          3
   197          1
   198          4
   199          1
   200          1
   210          3
   211          4
   212          9
   213         36
   214         10
   215         31
   216          4
   259          1
   261          1
   263         85
   264         30
   265        165
   266         55
   267         82
   268         26
   269          2
   278          1
   291          5
   292          7
   293          9
   294         11
   295          5
   296          5
   337          3
   339          6
   341          2