##TITLE=Library Entry 86458
##JCAMP-DX=Revision 4.10 
##DATA TYPE=MASS SPECTRUM
##SAMPLE DESCRIPTION=J. SHAW, BORRISTON RESEARCH, ROCKVILLE, MD, USA
##NAMES=HP
##CAS NAME=Naled
##MOLFORM=C4H7Br2Cl2O4P
##CAS REGISTRY NO=300-76-5
##MP= -300
##BP= -300
##MW= 378
##$RETENTION INDEX=1650
##$CONDENSED SPECTRUM=NO
##NPOINTS= 140
##XYDATA=(XY..XY) 1 
    33          6
    34          2
    35         17
    36         12
    37          5
    38          4
    39          5
    40         22
    41         19
    42          7
    43         37
    44          6
    45         28
    47        389
    48         88
    49         63
    50         20
    51          5
    53          1
    55          5
    56          2
    57          4
    58          1
    59          8
    60         92
    61          9
    62         36
    63         31
    64         10
    65         49
    66         11
    67          3
    68          1
    69          2
    70          2
    71          2
    72          1
    73          1
    75          1
    76         16
    77         26
    79        492
    80         29
    81         47
    82         54
    83        107
    84         24
    85         66
    86         11
    87         11
    89          1
    91         12
    92          8
    93         85
    94         16
    95        151
    96         26
    97         41
    98          2
    99         11
   101          1
   103          2
   104         10
   105          2
   106          9
   107          3
   109        999
   110         57
   111         64
   112         10
   113         67
   114          6
   115         16
   116          1
   119          1
   120          1
   121          1
   122          1
   123          1
   126         23
   127         88
   128         29
   129         79
   130          6
   131         19
   138          5
   139         14
   140          6
   141         25
   143          9
   145        695
   147        251
   148          5
   149          4
   151          1
   155         34
   157         61
   158          3
   159         27
   161         13
   163         19
   164          2
   165          7
   166          1
   167          1
   170          1
   171          1
   173          7
   174         20
   176         34
   178         15
   179          2
   185         43
   187         16
   189         86
   191         83
   192          2
   193          1
   195          1
   203          3
   204          1
   207          1
   217          4
   218          1
   219          4
   220          5
   221          5
   223          1
   235          8
   253          1
   254          3
   256          2
   273          1
   299         38
   301         62
   303         29
   304          4
   378          1
   380          2
   382          2