##TITLE=Library Entry 1332
##JCAMP-DX=Revision 4.10 
##DATA TYPE=MASS SPECTRUM
##SAMPLE DESCRIPTION=Japan AIST/NIMC Database- Spectrum MS-IW-3541
##NAMES=HP
##CAS NAME=DL-Tyrosine, O-(4-hydroxy-3,5-diiodophenyl)-3,5-diiodo-
##MOLFORM=C15H11I4NO4
##CAS REGISTRY NO=300-30-1
##MP= -300
##BP= -300
##MW= 777
##$RETENTION INDEX=0
##$CONDENSED SPECTRUM=NO
##NPOINTS= 163
##XYDATA=(XY..XY) 1 
    16          5
    17          2
    18          7
    27          3
    28         19
    29          3
    30        999
    31         16
    37          2
    38          2
    39          9
    41          4
    42          2
    43          5
    44        148
    45          3
    50         15
    51         21
    52          7
    53         38
    54          3
    55          3
    57          3
    61          9
    62         40
    63         44
    64         12
    65          6
    66          2
    69          4
    70          2
    73          2
    74         57
    75         11
    76         49
    77         13
    78          4
    79         10
    83          4
    84          3
    86          5
    87          9
    88         19
    89         20
    90         12
    91         51
    92         18
    93          2
    97          2
    98          4
    99          3
   100          4
   101          3
   102          4
   104          8
   105          6
   106          3
   107          2
   113          7
   114          7
   115          7
   116          4
   117          3
   126          3
   127        127
   128        167
   137          5
   138         11
   139         49
   140         12
   141          5
   150          4
   151          4
   152          5
   153          3
   161          3
   166          3
   167         11
   168         16
   169         13
   176          2
   177          3
   178          2
   179          3
   180          3
   181          3
   188          2
   189          8
   190          3
   195          9
   196         18
   197          9
   198          3
   203         12
   204          2
   205          2
   208          4
   209          2
   215          8
   216          4
   217          4
   218         25
   219          2
   223          3
   224          3
   225          2
   231         13
   232          9
   233          4
   234          2
   244          3
   254        124
   294         12
   295         10
   296          3
   307          6
   321          3
   322         26
   323         35
   324         17
   325          3
   335          5
   336          5
   342          2
   346          2
   350          2
   351          3
   359         19
   360          3
   361          5
   366          3
   386          3
   421          8
   422         10
   449         31
   450         24
   451          7
   452          6
   462          7
   477          2
   479          2
   481          6
   487          5
   548          2
   576          2
   577         11
   578         14
   579          2
   605          8
   606          2
   607         34
   608          7
   615          3
   651          3
   703         11
   704         19
   705          3
   731          7
   732          2
   733         88
   734         12
   741          4
   777          6