##TITLE=Library Entry 97435
##JCAMP-DX=Revision 4.10 
##DATA TYPE=MASS SPECTRUM
##SAMPLE DESCRIPTION=Exported from NIST MS Search
##NAMES=HP
##CAS NAME=Benzene, 2-propenyl-
##MOLFORM=C9H10
##CAS REGISTRY NO=300-57-2
##MP= -300
##BP= -300
##MW= 118
##$RETENTION INDEX=934
##$CONDENSED SPECTRUM=NO
##NPOINTS= 94
##XYDATA=(XY..XY) 1 
     2          2
    12          1
    13          2
    14          6
    15         18
    16          1
    24          1
    25          2
    26         29
    27         95
    28          9
    29          6
    30          1
    36          1
    37         17
    38         44
    39        247
    40         22
    41         42
    42          2
    43          6
    44          3
    45          6
    46          1
    48          1
    49          7
    50         81
    51        165
    52         43
    53         13
    54          1
    55          6
    56          3
    57         20
    58         91
    59          6
    60          1
    61         13
    62         38
    63         98
    64         22
    65        140
    66         13
    67          2
    68          1
    69          1
    70          1
    71          1
    72          7
    73         24
    74         24
    75         19
    76         16
    77         68
    78        102
    79         11
    80          1
    81          1
    82          1
    83          1
    84          1
    85          4
    86          8
    87          9
    88          4
    89         55
    90         27
    91        405
    92         37
    93          2
    94          1
    95          1
    96          1
    97          1
    98          1
    99          1
   101          2
   102         18
   103         78
   104         10
   105          1
   108          1
   109          1
   110          1
   111          1
   112          1
   113          3
   114          6
   115        253
   116         74
   117        999
   118        805
   119         73
   120          3