##TITLE=Library Entry 17903
##JCAMP-DX=Revision 4.10 
##DATA TYPE=MASS SPECTRUM
##SAMPLE DESCRIPTION=A.A.Kutin, Moscow, Russia
##NAMES=HP
##CAS NAME=5,5'-Bis(1,2,4-triazole), 3,3'-dinitro-
##MOLFORM=C4H2N8O4
##CAS REGISTRY NO=30003-46-4
##MP= -300
##BP= -300
##MW= 226
##$RETENTION INDEX=0
##$CONDENSED SPECTRUM=NO
##NPOINTS= 176
##XYDATA=(XY..XY) 1 
    33          7
    34          7
    35          8
    36         37
    38        334
    39        232
    40        128
    41        183
    42        264
    43         92
    44        241
    46        999
    48         41
    50         70
    51        154
    52        119
    53        511
    54        158
    55         47
    56         17
    57         21
    58         13
    59          6
    60         10
    61          6
    62         10
    63         31
    64         83
    65        245
    66         55
    67        364
    68        152
    69         36
    70         12
    71         12
    72          7
    73          8
    74          7
    75         14
    76         94
    77        270
    78        107
    79         62
    80         24
    81         23
    82         26
    83         14
    84         10
    85          7
    86          4
    87          4
    88          3
    89         14
    90         18
    91         98
    92         30
    93         46
    94        204
    95         31
    96          7
    97          8
    98          5
    99          3
   100          2
   101          3
   102         11
   103         13
   104         25
   105         33
   106         75
   107         19
   108          9
   109         22
   110         16
   111         21
   112         11
   113         10
   114         13
   115          9
   116          4
   117          4
   118          5
   119          9
   120          8
   121         10
   122         11
   123         17
   124         49
   125          9
   126          3
   127          8
   128          7
   129          8
   130          4
   131          8
   132          3
   133          4
   134          6
   135         12
   136          6
   137          5
   140        488
   141        109
   142         12
   143          3
   144          1
   145          1
   146          2
   147          2
   148          2
   149          9
   151         57
   152        400
   153         29
   154          6
   155          4
   156          5
   157          3
   158          0
   160          1
   161          1
   163          1
   164          2
   165         13
   166          5
   167          3
   168          3
   169          1
   170          1
   171          3
   172          0
   174          0
   175          0
   176          0
   177          1
   178          2
   179          7
   181        131
   182         13
   183          5
   184          3
   185          2
   186          3
   187          3
   188          0
   189          1
   190          0
   192          1
   194          6
   195         10
   196         18
   197          4
   198          2
   199          1
   200          0
   201          1
   203          1
   206          1
   207          0
   209          1
   210          4
   211          1
   212          1
   213          0
   214          0
   215          1
   217          1
   219          1
   220          1
   221          2
   222          3
   223         10
   226        355
   227         24
   228          4
   229          0