##TITLE=Library Entry 31460
##JCAMP-DX=Revision 4.10 
##DATA TYPE=MASS SPECTRUM
##SAMPLE DESCRIPTION=NIST Mass Spectrometry Data Center, 1998.
##NAMES=HP
##CAS NAME=Thiophene, 3,4-dichlorotetrahydro-, 1,1-dioxide
##MOLFORM=C4H6Cl2O2S
##CAS REGISTRY NO=3001-57-8
##MP= -300
##BP= -300
##MW= 188
##$RETENTION INDEX=0
##$CONDENSED SPECTRUM=NO
##NPOINTS= 101
##XYDATA=(XY..XY) 1 
    14          1
    15          1
    25          3
    26         44
    27        251
    28         31
    29          8
    32          3
    33          2
    34          1
    35          6
    36          7
    37         14
    38         23
    39        162
    40          9
    41         79
    42          4
    43          4
    44          2
    45         23
    46          7
    47          6
    48         43
    49         54
    50         79
    51        138
    52         46
    53        411
    54         69
    55          4
    56          1
    57          7
    58          9
    59          5
    60          9
    61         49
    62        999
    63         55
    64        376
    65         18
    66          2
    68          2
    69          6
    70          1
    71          2
    72          2
    73         14
    74          1
    75        286
    76         10
    77        101
    78         11
    79          4
    80          1
    81          1
    82          1
    83          8
    84          7
    85          9
    86          3
    87         20
    88        230
    89        175
    90         82
    91         55
    92          3
    93          1
    95          1
    96          4
    97          1
    98          3
    99          1
   100          1
   103          1
   104          1
   105          8
   106          1
   107          3
   109          7
   110          5
   111          5
   112          2
   113          1
   117          1
   121          1
   123         36
   124         20
   125         23
   126         19
   127          4
   128          5
   139          3
   141          1
   153          3
   155          1
   188         14
   189          1
   190          9
   191          1
   192          2