##TITLE=Library Entry 54707
##JCAMP-DX=Revision 4.10 
##DATA TYPE=MASS SPECTRUM
##SAMPLE DESCRIPTION=Japan AIST/NIMC Database- Spectrum MS-NW-3312
##NAMES=HP
##CAS NAME=2,4-Heptanedione, 6-methyl-
##MOLFORM=C8H14O2
##CAS REGISTRY NO=3002-23-1
##MP= -300
##BP= -300
##MW= 142
##$RETENTION INDEX=1033
##$CONDENSED SPECTRUM=NO
##NPOINTS= 71
##XYDATA=(XY..XY) 1 
    14          4
    15         31
    26          6
    27         78
    28          9
    29         75
    30          2
    31         19
    32          2
    36          6
    37          2
    38          8
    39         76
    40         13
    41        161
    42         34
    43        649
    44         14
    45          5
    50          3
    51          5
    52          1
    53         11
    54          2
    55         18
    56         18
    57        244
    58        100
    59          9
    60          2
    61          1
    62          1
    63          1
    65          2
    66          1
    67         15
    68          3
    69         41
    70          2
    71         27
    72         21
    73          2
    77          1
    79          3
    81          9
    82          3
    83          8
    84         12
    85        999
    86         46
    87          6
    97          2
    98          1
    99          2
   100        242
   101         14
   102          1
   109         11
   110          1
   111          3
   113          3
   114          4
   119          1
   124          3
   125          2
   127        141
   128         11
   129          1
   142        107
   143         10
   144          1