##TITLE=Library Entry 27963
##JCAMP-DX=Revision 4.10 
##DATA TYPE=MASS SPECTRUM
##SAMPLE DESCRIPTION=Chemical Concepts
##NAMES=HP
##CAS NAME=1-Heptadecanamine, N,N-dimethyl-
##MOLFORM=C19H41N
##CAS REGISTRY NO=3002-57-1
##MP= -300
##BP= -300
##MW= 283
##$RETENTION INDEX=0
##$CONDENSED SPECTRUM=NO
##NPOINTS= 86
##XYDATA=(XY..XY) 1 
    26          0
    27          4
    29         16
    30          3
    31          1
    39          3
    40          0
    41         28
    42         14
    43         39
    44         15
    45         28
    46         11
    47          0
    51          0
    53          1
    54          1
    55         22
    56          7
    57         22
    58        999
    59         38
    60          0
    65          0
    67          1
    68          1
    69          9
    70          4
    71          7
    72          6
    73          5
    75          0
    77          0
    79          0
    81          0
    82          1
    83          3
    84         16
    85          3
    86          0
    87          2
    88          0
    89          4
    91          0
    95          0
    96          0
    97          1
    98          1
    99          0
   100          1
   101          0
   103          1
   109          0
   110          0
   111          0
   112          0
   113          0
   114          1
   117          0
   119          0
   121          0
   124          0
   125          0
   126          0
   127          0
   128          1
   131          0
   133          0
   140          0
   142          0
   154          0
   156          0
   168          0
   170          0
   182          0
   184          0
   212          0
   226          0
   240          0
   254          0
   268          1
   280          0
   281          0
   282          6
   283          9
   284          2