##TITLE=Library Entry 59539
##JCAMP-DX=Revision 4.10 
##DATA TYPE=MASS SPECTRUM
##SAMPLE DESCRIPTION=Chemical Concepts
##NAMES=HP
##CAS NAME=N-(4-Hydroxy-2,5-dimethyl-3-(p-toluenesulfonyl)phenyl)-p-toluenes
ulfonamide
##MOLFORM=C22H23NO5S2
##CAS REGISTRY NO=300360-27-4
##MP= -300
##BP= -300
##MW= 445
##$RETENTION INDEX=0
##$CONDENSED SPECTRUM=NO
##NPOINTS= 110
##XYDATA=(XY..XY) 1 
    39        708
    40        100
    41        174
    42         99
    43         46
    44         40
    45         50
    48         38
    50        103
    51        155
    52         95
    53         96
    54         36
    55         26
    56          8
    57          9
    63        277
    65        769
    66        220
    67        193
    68         38
    69         28
    70         11
    71         14
    74         15
    77        473
    78        118
    79        207
    80         57
    81         11
    82          8
    84          8
    86          8
    87         15
    89        220
    91        999
    92        177
    93         63
    94        148
    95         20
    96          9
    97          9
   104         56
   106        248
   107        140
   108         36
   109         10
   111         17
   115         15
   116         13
   117          9
   119         11
   120         28
   121         15
   122         28
   123         26
   124         13
   128         11
   129         12
   132         10
   134        191
   135         74
   136         31
   137         10
   139        121
   140         14
   141         11
   150         16
   151         12
   152         15
   153         14
   155         74
   156         25
   157          9
   165         50
   166         45
   167         19
   168         15
   178          9
   179         15
   180         28
   181         69
   182         34
   183         14
   192         11
   193         30
   194         53
   195         34
   196         91
   197         17
   198         21
   208        189
   209        269
   210        184
   211        290
   212         45
   224         64
   225         43
   226         38
   227         10
   241         19
   242         77
   243         13
   257          9
   272         11
   290        665
   291        126
   292         39
   445         47
   446          9