##TITLE=Library Entry 7245
##JCAMP-DX=Revision 4.10 
##DATA TYPE=MASS SPECTRUM
##SAMPLE DESCRIPTION=Exported from NIST MS Search
##NAMES=HP
##CAS NAME=1,3-Oxathiane, 2-ethyl-2,6-dimethyl-, cis-
##MOLFORM=C8H16OS
##CAS REGISTRY NO=30032-10-1
##MP= -300
##BP= -300
##MW= 160
##$RETENTION INDEX=0
##$CONDENSED SPECTRUM=NO
##NPOINTS= 39
##XYDATA=(XY..XY) 1 
    26         60
    27        300
    28        110
    29        310
    39        220
    40         30
    41        240
    42         70
    43        999
    44         50
    45        180
    46        280
    47        180
    53        110
    54        370
    55        930
    56         80
    57        220
    58         40
    59        180
    60        580
    61         60
    62         40
    69         80
    71         40
    72        150
    73        560
    74         30
    85         60
    87         90
    88        480
    89        130
    90         40
   101         40
   131        410
   132         30
   133         20
   160         67
   161         10