##TITLE=Library Entry 4367
##JCAMP-DX=Revision 4.10 
##DATA TYPE=MASS SPECTRUM
##SAMPLE DESCRIPTION=Chemical Concepts
##NAMES=HP
##CAS NAME=2,4-Bis(4-butoxyphenyl)-6-methylpyridine
##MOLFORM=C26H31NO2
##CAS REGISTRY NO=300385-05-1
##MP= -300
##BP= -300
##MW= 389
##$RETENTION INDEX=0
##$CONDENSED SPECTRUM=NO
##NPOINTS= 109
##XYDATA=(XY..XY) 1 
    34         24
    36         15
    37         14
    39        370
    40        325
    41        999
    43        151
    44         93
    50         15
    51         39
    52         17
    53         34
    55        187
    57        486
    63         29
    64         11
    65         16
    69         21
    70         23
    71         20
    75         14
    76         17
    77         31
    83         17
    84         13
    89         39
    91         14
   101         16
   102         22
   112         15
   113         13
   114         15
   115         39
   118         20
   120         11
   121         12
   126         14
   127         37
   128         40
   129         15
   130         15
   131         13
   139         21
   140         14
   144         14
   145         12
   151         15
   152         24
   153         14
   154         22
   155         13
   165         13
   166         15
   171         13
   176         16
   177         16
   178         24
   182         13
   183         11
   184         18
   188         10
   189         31
   190         18
   191         15
   202         24
   203         20
   204         25
   205         22
   207         16
   215         24
   216         19
   217         29
   218         40
   219         34
   220         14
   228         21
   229         15
   230         30
   231         38
   232         29
   233         43
   234         15
   244         10
   245         17
   246         48
   247         78
   248         91
   249         29
   258         14
   259         27
   260         80
   261         47
   262        129
   263         22
   276        487
   277        753
   278        129
   279         13
   306         11
   307         15
   331         21
   332         82
   333        153
   334         30
   385         13
   386         17
   389        925
   390        164
   391         22