##TITLE=Library Entry 100845
##JCAMP-DX=Revision 4.10 
##DATA TYPE=MASS SPECTRUM
##SAMPLE DESCRIPTION=Asinex Ltd, Moscow, Russia
##NAMES=HP
##CAS NAME=4-Methyl-N-(2,2,2-trichloro-1-phenylamino-ethyl)-benzamide
##MOLFORM=C16H15Cl3N2O
##CAS REGISTRY NO=300382-08-5
##MP= -300
##BP= -300
##MW= 356
##$RETENTION INDEX=0
##$CONDENSED SPECTRUM=NO
##NPOINTS= 158
##XYDATA=(XY..XY) 1 
    35          0
    36          0
    37          0
    38          1
    39         11
    40          1
    41          2
    42          0
    43          0
    44          1
    47          1
    49          0
    50          3
    51         13
    52          3
    53          0
    54          0
    55          0
    58          0
    60          0
    62          2
    63         16
    64          8
    65         71
    66         11
    67          1
    69          0
    71          0
    74          2
    75          3
    76          5
    77         50
    78          8
    79          1
    82          4
    83          2
    84          3
    85          1
    86          0
    87          1
    89         38
    90         29
    91        231
    92         47
    93         98
    94          7
    95          0
    97          0
    99          0
   101          0
   102          1
   104         50
   105         35
   106          4
   107          1
   108          0
   109          1
   110          0
   111          2
   112          1
   113          0
   114          1
   115          1
   117         76
   119        999
   120         82
   122         39
   123          5
   124          2
   125          7
   126          1
   127          5
   128          0
   129          1
   130          1
   131          4
   132          2
   133          1
   134          1
   135          2
   136         36
   137          3
   138          1
   139          0
   140          5
   141          0
   142          1
   144          0
   145          3
   146          0
   147          1
   150          6
   151          8
   152          7
   153          3
   154          1
   155          0
   158          1
   159          1
   161          0
   164          0
   165          3
   166          1
   167          3
   168          0
   169          1
   171          0
   173          3
   174          1
   175          0
   176          0
   180          0
   181          0
   182          0
   183          0
   184          0
   185          1
   186          2
   187          4
   188          1
   189          1
   190          0
   193          0
   194          0
   202          0
   209          0
   210          1
   211          0
   221          1
   222          1
   223          1
   225         16
   226          3
   227          0
   230          0
   231          0
   232          0
   235          0
   237          3
   239        364
   240         58
   241          4
   242          0
   249          0
   251          1
   284          3
   285         10
   286          3
   287          3
   288          0
   301          0
   320          2
   321          0
   322          1
   356          5
   358          6
   359          0
   360          1