##TITLE=Library Entry 2120
##JCAMP-DX=Revision 4.10 
##DATA TYPE=MASS SPECTRUM
##SAMPLE DESCRIPTION=Chemical Concepts
##NAMES=HP
##CAS NAME=1,1,3,3-Tetra-tert-butyl-2-phenylsulfonylthiaguanidine
##MOLFORM=C22H41N3O2S2
##CAS REGISTRY NO=300381-92-4
##MP= -300
##BP= -300
##MW= 443
##$RETENTION INDEX=0
##$CONDENSED SPECTRUM=NO
##NPOINTS= 109
##XYDATA=(XY..XY) 1 
    35          1
    36          3
    37         29
    38         58
    39        565
    40         81
    41        999
    42        524
    43        516
    44         60
    45         23
    46         68
    47         17
    48         51
    49         14
    50        113
    51        215
    52         24
    53         38
    54         34
    55        155
    56        129
    57        452
    58         36
    59         10
    60         22
    61         20
    62         63
    63         21
    64         31
    65         37
    66         10
    67         11
    68         41
    69         25
    70         60
    71         11
    72         21
    73          9
    74         32
    75         19
    76         22
    77        288
    78         31
    79          3
    80         16
    81          6
    82         26
    84        168
    85         20
    86        140
    87         11
    88          4
    89          8
    90          2
    91          4
    92          6
    93         25
    94          9
    95          2
    96          3
    97         12
    98          3
    99          1
   100          2
   101          1
   102          9
   103          2
   104          3
   105          1
   106          1
   108          3
   109         14
   110          6
   111          2
   112          5
   113          1
   114          2
   115          1
   116          7
   117          3
   118         81
   119          7
   120          5
   124          1
   125         11
   126          6
   127          5
   128          6
   129          4
   131          4
   132          1
   133          2
   136          1
   137          2
   138          1
   141         27
   142          3
   143          2
   149          1
   157          2
   158          1
   160          7
   161          1
   175          6
   176          2
   192          2
   203          1
   315          2