##TITLE=Library Entry 60157
##JCAMP-DX=Revision 4.10 
##DATA TYPE=MASS SPECTRUM
##SAMPLE DESCRIPTION=Chemical Concepts
##NAMES=HP
##CAS NAME=3-(2,4-Dimethoxyphenyl)-5-(5-methyl-2-furyl)-1-phenyl-2-imidazoli
ne
##MOLFORM=C22H22N2O3
##CAS REGISTRY NO=300385-13-1
##MP= -300
##BP= -300
##MW= 362
##$RETENTION INDEX=0
##$CONDENSED SPECTRUM=NO
##NPOINTS= 110
##XYDATA=(XY..XY) 1 
    34         20
    38        132
    39        233
    40        241
    41        162
    43        666
    44         95
    50        176
    51        377
    52        114
    53        111
    55        116
    56         21
    57         24
    63        234
    64        302
    65        179
    66         39
    69         38
    74         26
    75         77
    77        721
    78        112
    79         88
    80         29
    81         39
    82         20
    88         28
    89        102
    91        999
    92        100
    93         51
    95        137
    99         20
   102         34
   103         49
   104         68
   105         49
   107        172
   108        111
   109         21
   115         51
   116         29
   117         51
   118         33
   119         43
   120         39
   121         42
   127         32
   128         44
   129         22
   131         19
   132         27
   133         56
   134         72
   135         21
   138         24
   139         26
   140         30
   141         19
   148         19
   149         47
   151         35
   152         33
   153         29
   154         30
   155         25
   156         34
   161         21
   162         32
   163         59
   165         32
   166         21
   167         36
   168         50
   180         35
   181         83
   182         36
   183         19
   184         30
   188         20
   193         31
   194         32
   198         20
   209         25
   210         62
   211         35
   212         23
   223         39
   224         30
   225         27
   226         30
   227         62
   228         87
   235         24
   239         58
   251         29
   253         59
   254         72
   255         57
   259         37
   270        286
   271         33
   279         34
   280         64
   302        102
   319         71
   360         42
   362        549
   363         87