##TITLE=Library Entry 21280
##JCAMP-DX=Revision 4.10 
##DATA TYPE=MASS SPECTRUM
##SAMPLE DESCRIPTION=Zaikin V.G., TIPS RAS, Moscow, Russia
##NAMES=HP
##CAS NAME=Undecyl 5-bromovalerate
##MOLFORM=C16H31BrO2
##CAS REGISTRY NO=300381-07-1
##MP= -300
##BP= -300
##MW= 334
##$RETENTION INDEX=2122
##$CONDENSED SPECTRUM=NO
##NPOINTS= 113
##XYDATA=(XY..XY) 1 
    25          3
    26         30
    27        106
    28          3
    29        187
    30          4
    31          5
    36          4
    37          3
    38          6
    39         88
    40         21
    41        403
    42        170
    43        531
    44         34
    45         13
    50          4
    51          6
    52          4
    53         41
    54         89
    55        999
    56        502
    57        551
    58         26
    59         38
    60          4
    65          4
    66          7
    67         94
    68        151
    69        479
    70        492
    71        266
    72         14
    73         77
    74          6
    77          3
    79         20
    80         29
    81         53
    82        225
    83        566
    84        370
    85        172
    86         10
    87          8
    93          6
    95         24
    96         87
    97        423
    98        204
    99         45
   100         28
   101        634
   102         39
   103          6
   106          3
   107         18
   108          3
   109         24
   110         34
   111        209
   112        123
   113         20
   115          4
   123          3
   124         15
   125        106
   126        210
   127         23
   129          4
   134          3
   135        203
   136         11
   137        196
   138          8
   139         10
   143          3
   152          5
   154        293
   155         40
   157         32
   158          3
   162          8
   163        285
   164         25
   165        282
   166         15
   169          5
   171         10
   180         70
   181        613
   182        101
   183        587
   184         34
   185          2
   193          3
   199         44
   200          5
   207          6
   209          6
   220          3
   221          6
   223          6
   225          4
   227          2
   236         12
   237          6
   238         12
   255         32
   256          5