##TITLE=Library Entry 78389
##JCAMP-DX=Revision 4.10 
##DATA TYPE=MASS SPECTRUM
##SAMPLE DESCRIPTION=A.A.Kutin, Moscow, Russia
##NAMES=HP
##CAS NAME=4-(3-Acetylphenyliminomethyl)phenyl benzoate
##MOLFORM=C22H17NO3
##CAS REGISTRY NO=300361-47-1
##MP= -300
##BP= -300
##MW= 343
##$RETENTION INDEX=0
##$CONDENSED SPECTRUM=NO
##NPOINTS= 76
##XYDATA=(XY..XY) 1 
    34          2
    38          4
    39         17
    40         34
    41          6
    43         88
    44         14
    50         20
    51         73
    52          6
    53          2
    55          4
    57          4
    62          2
    63          9
    64          6
    65         39
    66          2
    69          2
    71          2
    74          3
    75          6
    76         22
    77        304
    78         23
    79          3
    89          3
    90          2
    91         32
    92          4
    93          4
   105        999
   106         84
   107          5
   115          3
   120          2
   139          6
   140          5
   141          2
   149          4
   150          0
   151          1
   152          1
   153          0
   154          0
   164          0
   165          1
   166          6
   167          8
   168          5
   169          1
   171          0
   178          0
   179          0
   180          0
   182          0
   191          0
   194          0
   195          0
   196          5
   197          0
   209          0
   210          0
   222          0
   223          0
   224          1
   225          0
   238          1
   239          1
   240          0
   251          7
   252          1
   253          0
   343         36
   344          8
   345          0