##TITLE=Library Entry 14364
##JCAMP-DX=Revision 4.10 
##DATA TYPE=MASS SPECTRUM
##SAMPLE DESCRIPTION=Chemical Concepts
##NAMES=HP
##CAS NAME=Bis[3-(acetylthio)phenyl] sulfone
##MOLFORM=C16H14O4S3
##CAS REGISTRY NO=300360-58-1
##MP= -300
##BP= -300
##MW= 366
##$RETENTION INDEX=0
##$CONDENSED SPECTRUM=NO
##NPOINTS= 139
##XYDATA=(XY..XY) 1 
    33          4
    34          1
    37          1
    38          4
    39         18
    43        999
    45         30
    46          1
    47          1
    50          7
    51          9
    52          2
    53          2
    55          5
    57          6
    58         17
    59          4
    60          2
    62          5
    63         24
    65         19
    66          1
    67          1
    69         53
    70          7
    71          4
    73          2
    74          2
    75          5
    76          5
    77          4
    78          1
    79          1
    82         29
    83          3
    84          3
    85          3
    86          1
    87          1
    89          1
    90          1
    91          1
    92          1
    93          4
    95          4
    96          6
    97          5
    98          1
   100          1
   102          1
   104          1
   105          1
   106          2
   108         47
   109         17
   110          9
   111          2
   112          2
   113          1
   114          1
   115          2
   116          1
   119          1
   121          3
   122          1
   123          1
   124          1
   125          5
   127          4
   128          1
   129          1
   134          1
   135          1
   136          1
   137          1
   138          1
   139          6
   140          4
   141          2
   142          1
   144          1
   145          1
   147          1
   149          2
   150          1
   151          1
   152          3
   153          1
   154          2
   155          1
   156          1
   157          6
   158          2
   159          1
   168          1
   170          1
   171          7
   172          4
   173          2
   182          1
   183          3
   184         15
   185          4
   186          1
   187          1
   190          1
   198          1
   199          1
   200          3
   201          1
   202          1
   203          1
   214          1
   215          1
   216          2
   217          1
   218          1
   230          1
   232          1
   246          1
   248          1
   266          1
   278          1
   279          2
   282         94
   283         12
   284         11
   285          2
   286          1
   320          1
   322          3
   324         43
   325          7
   326          6
   327          1
   364          1
   366         10
   367          2
   368          1