##TITLE=Library Entry 5205
##JCAMP-DX=Revision 4.10 
##DATA TYPE=MASS SPECTRUM
##SAMPLE DESCRIPTION=A.A.Kutin, Moscow, Russia
##NAMES=HP
##CAS NAME=Urea, 1,1-dimethyl-3-(hexahydro-3,6-dimethyl-2-oxo-4-pyrimidyl)-
##MOLFORM=C9H18N4O2
##CAS REGISTRY NO=300390-02-7
##MP= -300
##BP= -300
##MW= 214
##$RETENTION INDEX=0
##$CONDENSED SPECTRUM=NO
##NPOINTS= 100
##XYDATA=(XY..XY) 1 
    33          1
    37          0
    39         55
    42        999
    43        172
    44        351
    46         82
    50          1
    51          6
    52          7
    53         13
    54         34
    56        250
    57         91
    58        149
    59         13
    60          6
    61          0
    63          1
    64          3
    65          2
    66          5
    68         63
    70        148
    72        779
    73         28
    75         19
    76          1
    77          2
    78          2
    79          5
    81          5
    82         44
    84        215
    85         62
    87          9
    89        477
    90         15
    91          1
    93          0
    95          4
    97         31
    99        104
   101         27
   102          3
   103          3
   104          1
   105          0
   108          0
   109          3
   111        282
   112         21
   113         30
   114         16
   115         16
   116          2
   117          0
   118          1
   122          0
   123          2
   125        146
   127        788
   128         42
   129          4
   130          3
   131          0
   132          0
   133          0
   138          0
   139          0
   142        197
   143          9
   144          2
   145          0
   149          0
   152          0
   154          8
   156         31
   157          3
   165          0
   168          3
   169          6
   170          9
   171          1
   172          0
   175          0
   182          1
   183          6
   184          2
   185          0
   186          0
   197          1
   199         23
   200          3
   201          0
   207          0
   212          0
   214        109
   215         12
   216          1