##TITLE=Library Entry 86848
##JCAMP-DX=Revision 4.10 
##DATA TYPE=MASS SPECTRUM
##SAMPLE DESCRIPTION=A.A.Kutin, Moscow, Russia
##NAMES=HP
##CAS NAME=Dimethylphosphonamide, N-(3-trifluoromethyl-4-nitrophenyl)-
##MOLFORM=C9H10F3N2O5P
##CAS REGISTRY NO=300381-27-5
##MP= -300
##BP= -300
##MW= 314
##$RETENTION INDEX=0
##$CONDENSED SPECTRUM=NO
##NPOINTS= 208
##XYDATA=(XY..XY) 1 
    33          0
    37          0
    38          2
    40          1
    42          1
    43          0
    44          1
    46         30
    47         15
    49          4
    50          3
    51          6
    52          6
    53          1
    55          0
    56          2
    57          5
    58          0
    59          0
    62         47
    63         90
    64         11
    65         10
    66          2
    67          1
    68          3
    69         17
    70          1
    71          0
    72          0
    73          1
    74          4
    75         22
    76          7
    77         16
    79        163
    81         56
    83          9
    84          0
    85          0
    87         13
    88         22
    89         13
    90         10
    91          6
    93         63
    94         25
    95         69
    97         11
    98          3
    99          8
   100          8
   101         15
   102          5
   104         11
   105         10
   106         16
   109        999
   112         41
   113         39
   114         12
   115          3
   116          2
   117          4
   119         25
   120         24
   121          8
   122          9
   123          7
   124          9
   126         33
   127         35
   128         46
   129         31
   132        180
   133         27
   134         10
   135          6
   136         18
   138         60
   139         64
   140         40
   142          9
   143          8
   144          5
   145          9
   146         17
   147         17
   148          6
   149          2
   150          5
   151          6
   152          9
   153          8
   154         12
   155         18
   156         47
   158        110
   159         38
   160         31
   161          9
   162          6
   164          1
   165          0
   166          3
   167          3
   169          4
   170          7
   171          6
   173         20
   174         23
   175         14
   176         39
   178          1
   179          0
   180          1
   181          2
   182          1
   184          4
   185          4
   186          8
   187          7
   188          6
   189          8
   190         11
   191          1
   193          3
   195          1
   196          1
   197          2
   198          9
   199          4
   200          2
   201          2
   202          2
   203          9
   205         16
   206         22
   207          3
   209          3
   210          0
   211          0
   212          0
   213          0
   214          0
   215          1
   216         12
   218          8
   219          6
   220          4
   221          4
   222          9
   223          2
   224          1
   225          0
   226          0
   228          1
   229          0
   230          1
   231          1
   233         10
   236        302
   237         34
   239          7
   240          0
   241          1
   242          0
   244          1
   245          3
   246          1
   248         27
   249          4
   250          5
   252         79
   253         14
   255          0
   256          0
   257          0
   262          1
   263          5
   264          9
   267        105
   268         57
   269          6
   270          0
   277          0
   278          0
   279          1
   281          2
   282          4
   284        262
   286          2
   287          0
   292          0
   293          1
   295         31
   297          8
   298         19
   299          1
   300          0
   307          0
   308          0
   310          1
   311          9
   314        315
   315         16
   316          3
   317          0