##TITLE=Library Entry 4507
##JCAMP-DX=Revision 4.10 
##DATA TYPE=MASS SPECTRUM
##SAMPLE DESCRIPTION=A.A.Kutin, Moscow, Russia
##NAMES=HP
##CAS NAME=Cyclopentene-1-carbonitrile, 2-(2,3,4,5,6,7-hexahydro-1-methylaze
pin-2-ylidenamino)-
##MOLFORM=C13H19N3
##CAS REGISTRY NO=300359-69-7
##MP= -300
##BP= -300
##MW= 217
##$RETENTION INDEX=0
##$CONDENSED SPECTRUM=NO
##NPOINTS= 119
##XYDATA=(XY..XY) 1 
    33          5
    34          5
    37         28
    39        755
    40        329
    41        928
    42        999
    43        222
    44        381
    45         19
    50         44
    51        112
    52        136
    53        221
    54        290
    55        507
    56        129
    57         81
    58         15
    62          3
    63         99
    64        173
    65        343
    66        255
    67        191
    68        436
    69        117
    70        121
    71         20
    72          6
    74          6
    75          9
    77        110
    78         72
    79         74
    80         79
    81         72
    82        108
    83         72
    84         62
    85          6
    90         34
    91        158
    92        121
    93         42
    94         57
    95         36
    96        101
    97         32
    98         41
   102         12
   103         39
   104         51
   105         34
   106         31
   107         71
   108         36
   109         32
   110         76
   111         63
   112          3
   115         32
   116          4
   117         23
   118         34
   119         59
   120         35
   121         94
   122         21
   123         12
   124         11
   125         18
   127          7
   128         24
   129         26
   130         22
   131         64
   132         73
   133         44
   134         18
   135         52
   136         26
   137          7
   141         12
   143         25
   144         69
   145         94
   146         68
   147         32
   149        104
   150         46
   151        144
   152          7
   157          9
   158         18
   159         52
   160         36
   161         42
   163        223
   164         64
   165         63
   171         14
   172          7
   173         44
   174        130
   175         31
   176         13
   177         55
   185          2
   186         19
   188        867
   189        345
   190         41
   191         11
   202         32
   214          4
   216        589
   217        704
   218         90