##TITLE=Library Entry 23772
##JCAMP-DX=Revision 4.10 
##DATA TYPE=MASS SPECTRUM
##SAMPLE DESCRIPTION=Asinex Ltd, Moscow, Russia
##NAMES=HP
##CAS NAME=2,2-Dimethyl-N-[2,2,2-trichloro-1-(4-chloro-phenylamino)-ethyl]-p
ropionamide
##MOLFORM=C13H16Cl4N2O
##CAS REGISTRY NO=300382-21-2
##MP= -300
##BP= -300
##MW= 356
##$RETENTION INDEX=0
##$CONDENSED SPECTRUM=NO
##NPOINTS= 205
##XYDATA=(XY..XY) 1 
    35          1
    36          3
    37          0
    38          4
    39         63
    41        400
    42         54
    43         22
    44          2
    45          2
    46          1
    47          0
    48          1
    49          3
    50         10
    51         12
    52          4
    53          8
    54          3
    55         32
    56         32
    57        999
    58        139
    59          7
    60          1
    61          1
    62          4
    63         24
    64         28
    65         31
    66          9
    67          1
    68          1
    69         23
    70         10
    71          6
    72          3
    73         17
    74          5
    75         43
    76         12
    77         10
    78          1
    79          0
    81          0
    82          3
    83         15
    84         12
    85        193
    86         34
    87          4
    88          1
    89          5
    90          8
    91          9
    92         14
    93          7
    94          0
    95          0
    96          0
    97          1
    98          1
    99         26
   100          8
   101          9
   102         72
   103          6
   104          1
   105          0
   106          0
   107          0
   108          0
   109          1
   110          3
   111         54
   112          8
   113         22
   114          3
   115          3
   116          3
   117          8
   118          1
   119          8
   120          3
   121          2
   122          0
   123          8
   124          4
   125          5
   126         28
   127        231
   128         29
   129         68
   130          9
   131          2
   132          0
   133          0
   135          0
   136          0
   137          3
   138         94
   139          9
   140         33
   141          2
   142          0
   144          0
   145          0
   146         10
   147          2
   148         14
   149          3
   150         12
   151         72
   152          9
   153         67
   154         25
   155        214
   156        115
   157         78
   158         33
   159         12
   160          2
   161          6
   162          0
   163          1
   164          1
   165          8
   166          7
   167          4
   168          3
   169          0
   170          0
   172          0
   174          6
   175          0
   176          4
   177          0
   178          0
   181         21
   182          1
   183          7
   184         13
   185         16
   186         18
   187         10
   188          8
   189          2
   190          0
   192          0
   193          1
   194          0
   195          2
   196          0
   197          0
   199          0
   200          1
   201          7
   202          1
   203          4
   204          6
   205          1
   219          1
   220          3
   221         11
   222          4
   223         10
   224          2
   225          2
   226          0
   227          0
   229          0
   235          0
   236          0
   237          1
   238          0
   239        220
   240         31
   241         76
   242         10
   243          0
   253          0
   255          0
   256          5
   257          0
   258          5
   259          0
   260          2
   261          0
   262          0
   267          0
   273          0
   284          0
   285          4
   286          1
   287          3
   288          0
   289          0
   322          1
   324          0
   356         13
   357          1
   358         17
   359          2
   360          7
   361          0