##TITLE=Library Entry 60152
##JCAMP-DX=Revision 4.10 
##DATA TYPE=MASS SPECTRUM
##SAMPLE DESCRIPTION=Chemical Concepts
##NAMES=HP
##CAS NAME=N-Benzyl-3-(4-bromoanilinosulfonyl)benzamide
##MOLFORM=C20H17BrN2O3S
##CAS REGISTRY NO=300384-37-6
##MP= -300
##BP= -300
##MW= 444
##$RETENTION INDEX=0
##$CONDENSED SPECTRUM=NO
##NPOINTS= 110
##XYDATA=(XY..XY) 1 
    34         13
    35          9
    36         20
    37         49
    38        105
    39        189
    40        170
    41         80
    43        104
    44         83
    45         22
    46         13
    48         21
    50        205
    51        124
    52         61
    53         21
    54         13
    55         30
    56         15
    57         23
    58          6
    60          9
    61         27
    62         85
    63        211
    64        172
    65        201
    66         21
    67          9
    69         27
    70         20
    71         15
    72          7
    73         14
    74         44
    75        123
    76        404
    77        173
    78         45
    79         73
    80         27
    81         20
    82         23
    83          8
    85          7
    86          8
    87          9
    88         24
    89         68
    91        999
    92        113
    93         17
    95         11
    96         12
    97          7
   102         16
   103         75
   104        298
   105         69
   106        113
   107         19
   108          9
   115          7
   117         21
   118          8
   119         15
   124          9
   139         12
   140         12
   141         30
   143         56
   144         10
   145         42
   151         10
   152         28
   153         10
   154          6
   164          8
   165         52
   166         53
   167         51
   168         41
   169         98
   170        235
   171        126
   172        214
   173         67
   174          8
   180         22
   181         31
   182         11
   184         65
   185          8
   193          6
   209         86
   210         21
   248         11
   249          6
   259          8
   260         17
   274          7
   338         14
   340         13
   441          9
   443         29
   444         86
   445         45
   446         62
   447         11