##TITLE=Library Entry 53416
##JCAMP-DX=Revision 4.10 
##DATA TYPE=MASS SPECTRUM
##SAMPLE DESCRIPTION=Div. of Experiment Therapeutics WRAIR, WRAMC, Washingto
n DC 20307
##NAMES=HP
##CAS NAME=3,4,5,6,7,9-Hexahydro-3,3,6,6-tetramethyl-9-[2-nitrophenyl]-1H-xa
nthene-1,8(2H)-dione
##MOLFORM=C23H25NO5
##CAS REGISTRY NO=30038-64-3
##MP= -300
##BP= -300
##MW= 395
##$RETENTION INDEX=0
##$CONDENSED SPECTRUM=NO
##NPOINTS= 232
##XYDATA=(XY..XY) 1 
    41        419
    43        308
    44         17
    45         12
    46         10
    47         46
    48         28
    49         23
    50          3
    51         15
    52         25
    53        120
    54         27
    55        521
    56        120
    57         30
    59         14
    62          9
    63         59
    64         28
    65         62
    66         49
    67         66
    69        105
    70         22
    71         11
    74         11
    75         31
    76         62
    77        210
    78         65
    79         44
    81         36
    83        999
    84        149
    86         37
    87         12
    88         29
    89         64
    90         24
    91         77
    92         36
    93         18
    94         15
    95         17
    97         17
   101         37
   102         38
   103         34
   104         27
   105         46
   106         15
   107         13
   109         17
   111         11
   113         21
   114         26
   115        115
   116         30
   117         27
   118         14
   119         16
   120          9
   121         14
   122         18
   123         11
   125         14
   126         32
   127         57
   128         51
   129         32
   130         28
   131         21
   132         17
   133        108
   134         16
   135         10
   137         21
   138         21
   139         61
   140         40
   141         40
   142         23
   143         25
   144         19
   145         16
   146         37
   147         15
   150         12
   151         36
   152        116
   153         47
   154         31
   155         22
   156         13
   157         14
   158         17
   159         12
   161        212
   162         19
   163         13
   164         12
   165         53
   166         34
   167         54
   168         27
   169         24
   170         21
   171         37
   172         10
   175          9
   176         12
   177         10
   178         38
   179         25
   180         59
   181         41
   182         25
   183         28
   184         16
   185         11
   189         25
   190         10
   191         15
   192         13
   193         14
   194         25
   195         40
   196         23
   197         17
   198         13
   201         16
   202         12
   204         10
   205         19
   206         14
   207         14
   208         35
   209         24
   210         20
   211         80
   212        135
   213         38
   214         11
   215         10
   217        210
   218         39
   219         16
   220         11
   221         23
   222         41
   223         16
   224         14
   225         11
   226         23
   227         34
   228         10
   229         10
   232         11
   233         21
   234         18
   235         19
   236         37
   237         19
   238         15
   239         13
   240         15
   241         13
   242         10
   243         33
   248         12
   249         20
   250         18
   251         13
   252         25
   253         22
   254         12
   257         26
   261         26
   262         16
   263         14
   264         59
   265         34
   266         55
   267         23
   268         14
   271         11
   273        876
   274        170
   275         27
   276         13
   277         18
   278        152
   279         94
   280         30
   281          9
   282         10
   289         71
   290         38
   291         21
   292        221
   293         77
   294         70
   295         78
   296         38
   303         12
   306         10
   309         14
   312         11
   316         38
   317         27
   318        147
   319         47
   320         12
   321         13
   332         15
   333         77
   334        271
   335        101
   336         36
   347         11
   348         49
   349        335
   350        112
   351         20
   365        117
   366         28
   378        228
   379         57
   380         36
   395         27
   396          7