##TITLE=Library Entry 78959
##JCAMP-DX=Revision 4.10 
##DATA TYPE=MASS SPECTRUM
##SAMPLE DESCRIPTION=Chemical Concepts
##NAMES=HP
##CAS NAME=2-(Dibenzoylmethyl)-4-p-toluenesulfonylimino-1-naphthalenone
##MOLFORM=C32H23NO5S
##CAS REGISTRY NO=300360-29-6
##MP= -300
##BP= -300
##MW= 533
##$RETENTION INDEX=0
##$CONDENSED SPECTRUM=NO
##NPOINTS= 45
##XYDATA=(XY..XY) 1 
    36         38
    39         74
    40        122
    42         39
    43         22
    44         67
    46          8
    49          8
    51        144
    53         14
    54          3
    55         23
    57         32
    63         30
    65         99
    67          9
    69         10
    70          9
    71          8
    75         12
    77        553
    78         39
    79          5
    83          3
    84          3
    89         18
    91        204
    92         31
   102         24
   103         12
   105        999
   106         62
   107         13
   113          6
   114          5
   115         10
   130         35
   139         10
   140          3
   155         13
   156          7
   171          4
   189          3
   300          5
   378          4