##TITLE=Library Entry 16727
##JCAMP-DX=Revision 4.10 
##DATA TYPE=MASS SPECTRUM
##SAMPLE DESCRIPTION=A.A.Kutin, Moscow, Russia
##NAMES=HP
##CAS NAME=6-Bromo[1,2,4]triazolo[1,5-a]pyrimidine-2-carboxylic acid
##MOLFORM=C6H3BrN4O2
##CAS REGISTRY NO=300361-78-8
##MP= -300
##BP= -300
##MW= 242
##$RETENTION INDEX=0
##$CONDENSED SPECTRUM=NO
##NPOINTS= 139
##XYDATA=(XY..XY) 1 
    35         16
    36         52
    37        338
    38        808
    39        225
    40        150
    41         64
    42         41
    43         45
    44        203
    45        999
    47         43
    48         32
    49         16
    50         39
    51        180
    52        210
    53        246
    54        113
    55         18
    56         16
    57         13
    58          3
    60         74
    61          6
    62         37
    63         58
    64        306
    65        128
    66         48
    67         54
    68         78
    69         21
    70         23
    71          7
    73         51
    74         65
    75         20
    76         26
    77         53
    78         22
    79         65
    80         42
    81         62
    82         37
    83          5
    84          8
    86         29
    87         10
    88          6
    89          1
    90         17
    91         62
    92        496
    93         70
    94         39
    95          6
    97          2
    98          7
    99         11
   100         23
   101          4
   102          6
   103          5
   104         79
   105         26
   106         84
   107         17
   108          4
   109          0
   110          3
   113         46
   115         20
   116          5
   117         54
   118        111
   119        100
   120        134
   121         25
   122          1
   124          1
   125          1
   126         12
   127        101
   128         12
   129         34
   130         19
   131          9
   132         24
   133          8
   135          3
   136          0
   139          3
   140          7
   141          2
   142          5
   143          3
   144         36
   145          6
   146         37
   147          5
   148          7
   149          4
   152          4
   153          1
   154        189
   155         17
   156         61
   157         53
   158          1
   159         43
   160          1
   164          2
   165          2
   169          4
   170         21
   171        185
   172         31
   173        194
   174         10
   180          1
   181         38
   182          0
   183         16
   185          1
   197          4
   198        529
   199         46
   200        475
   201         36
   202          1
   225         67
   226          2
   227         63
   228          4
   242        173
   243         15
   244        174
   245         14