##TITLE=Library Entry 80126
##JCAMP-DX=Revision 4.10 
##DATA TYPE=MASS SPECTRUM
##SAMPLE DESCRIPTION=A.A.Kutin, Moscow, Russia
##NAMES=HP
##CAS NAME=2-Chloro-1,4-dibenzamido benzene
##MOLFORM=C20H15ClN2O2
##CAS REGISTRY NO=300360-38-7
##MP= -300
##BP= -300
##MW= 350
##$RETENTION INDEX=0
##$CONDENSED SPECTRUM=NO
##NPOINTS= 140
##XYDATA=(XY..XY) 1 
    50         22
    51         95
    52         14
    53          6
    54          1
    55          8
    56          4
    57         11
    58          0
    60          1
    61          0
    62          1
    63          5
    64          2
    65          3
    66          1
    67          1
    68          0
    69          5
    70          4
    71          5
    72          0
    73          3
    74          4
    75          5
    76         18
    77        498
    78         36
    79          6
    80          1
    81          2
    82          1
    83          2
    84          2
    85          2
    86          1
    87          3
    88          1
    89          1
    90          1
    91          6
    92          1
    93          0
    94          0
    96          2
    97          2
    98          1
    99          0
   100          0
   101          0
   102          0
   104         14
   105        999
   106         82
   107          5
   108          0
   109          0
   110          1
   111          2
   112          2
   113          1
   114          2
   115          1
   116          1
   118          0
   119          1
   120          1
   121          1
   122          1
   124          0
   125          3
   126          1
   127          2
   128          1
   129          2
   130          0
   131          2
   134          0
   135          1
   138          0
   139          1
   140          1
   141          3
   142          0
   143          3
   144          0
   145          0
   146          0
   148          0
   149          5
   150          0
   151          1
   152          2
   153          0
   154          2
   155          1
   156          0
   164          0
   165          1
   167          2
   169          0
   171          4
   178          0
   179          0
   181          2
   182          1
   183          2
   191          0
   194          0
   199          0
   205          0
   209          1
   210          1
   211          0
   212          1
   213          0
   217          0
   228          0
   231          0
   232          0
   233          0
   241          0
   244          0
   245          1
   246         15
   247          4
   248          5
   249          0
   279          0
   283          0
   288          0
   290          0
   315        110
   316         23
   317          2
   350        138
   351         28
   352         44
   353          9
   354          1