##TITLE=Library Entry 8675
##JCAMP-DX=Revision 4.10 
##DATA TYPE=MASS SPECTRUM
##SAMPLE DESCRIPTION=Asinex Ltd, Moscow, Russia
##NAMES=HP
##CAS NAME=Docosanoic acid 1-methyl-butyl ester
##MOLFORM=C27H54O2
##CAS REGISTRY NO=300382-72-3
##MP= -300
##BP= -300
##MW= 410
##$RETENTION INDEX=0
##$CONDENSED SPECTRUM=NO
##NPOINTS= 52
##XYDATA=(XY..XY) 1 
    35          5
    39         13
    40          9
    41        231
    42        162
    43        999
    44        419
    45         50
    54         10
    55        297
    56        116
    57        587
    58        107
    60        219
    61        144
    62          3
    67         11
    69         75
    70        600
    71        455
    72        144
    73         81
    74         37
    81          1
    82          0
    83         29
    84         44
    85         84
    86         10
    87         44
    93          0
    95          4
    96          8
    97         45
    98          0
    99          3
   102          7
   111          4
   129         28
   130         11
   133          4
   241          1
   246          0
   305          0
   323         47
   324         25
   325          0
   339          2
   340        181
   341        218
   342        100
   343          9