##TITLE=Library Entry 51235
##JCAMP-DX=Revision 4.10 
##DATA TYPE=MASS SPECTRUM
##SAMPLE DESCRIPTION=B. Derendyaev, Novosibirsk Institute of Organic Chemist
ry
##NAMES=HP
##CAS NAME=4,4-Dinitro-4,5,6,7-tetrahydrobenzofurazan
##MOLFORM=C6H6N4O5
##CAS REGISTRY NO=300359-23-3
##MP= -300
##BP= -300
##MW= 214
##$RETENTION INDEX=0
##$CONDENSED SPECTRUM=NO
##NPOINTS= 56
##XYDATA=(XY..XY) 1 
    40        185
    41        256
    42        111
    43         34
    44         23
    45          8
    46        238
    50         46
    51        236
    52        648
    53        378
    54        128
    55        139
    56        146
    57         31
    62         27
    63        146
    64        595
    65        943
    66        392
    67         94
    68        138
    69         80
    70        104
    71          9
    74          9
    75          5
    76         48
    77         43
    78        207
    79         54
    80        235
    81          9
    82        999
    83         42
    85          5
    90         38
    91        393
    92        173
    93         79
    94         11
    95         88
    96         17
   103         19
   105         26
   107         20
   108          5
   109          9
   120          8
   121        231
   122        285
   123         57
   124          9
   154          9
   168        105
   214          9