##TITLE=Library Entry 23827
##JCAMP-DX=Revision 4.10 
##DATA TYPE=MASS SPECTRUM
##SAMPLE DESCRIPTION=Asinex Ltd, Moscow, Russia
##NAMES=HP
##CAS NAME=2,2-Dimethyl-N-[2,2,2-trichloro-1-(4-nitro-phenylamino)-ethyl]-pr
opionamide
##MOLFORM=C13H16Cl3N3O3
##CAS REGISTRY NO=300382-26-7
##MP= -300
##BP= -300
##MW= 367
##$RETENTION INDEX=0
##$CONDENSED SPECTRUM=NO
##NPOINTS= 206
##XYDATA=(XY..XY) 1 
    35          0
    36          2
    38          1
    39         29
    40          4
    41        257
    42         22
    43          8
    44         12
    45          1
    46          2
    48          0
    49          0
    50          6
    51          4
    52          5
    53          5
    54          0
    55         17
    56         14
    57        999
    58         88
    59          4
    60          0
    61          0
    62          1
    63         12
    64         19
    65         20
    66          6
    67          0
    68          0
    69          9
    70          4
    71          4
    72          0
    73          1
    74          1
    75          5
    76         11
    77          3
    78          1
    79          1
    80          3
    81          0
    82          1
    83          5
    84          3
    85        120
    86         22
    87          1
    88          0
    89          4
    90          1
    91          3
    92          9
    93          2
    94          0
    95          0
    96          0
    97          0
    98          0
    99          0
   100          0
   101          0
   102         13
   103          7
   104          2
   105          0
   106          0
   107          0
   108         14
   109          1
   110          1
   111          7
   112          2
   113          3
   114          1
   115          2
   116          3
   117          4
   118          1
   119          5
   120          9
   121          2
   122         10
   123          5
   124          2
   125          2
   126          0
   127          0
   128          0
   129          0
   130          0
   131          0
   132          0
   133          2
   134          0
   135          0
   136          0
   137          2
   138         35
   139         15
   140          1
   141          1
   144          0
   145          0
   146         12
   147          3
   148          9
   149         18
   150         17
   151         24
   152          6
   153          8
   155          0
   157          0
   158          0
   159          1
   161          0
   162          0
   164         19
   165          5
   166        186
   167         22
   168          3
   173          0
   174          0
   175          1
   176          0
   177          0
   179          0
   180          1
   182          0
   183          0
   184          1
   185         10
   186          8
   187          6
   188          4
   189          1
   190          0
   192          7
   193          0
   194          0
   195          1
   196          0
   197          0
   198          0
   199          0
   202          2
   204          3
   205          0
   211          0
   212          5
   213          0
   214          3
   215          0
   216          1
   217          0
   218          0
   220          0
   221          0
   223          3
   224          0
   225          0
   230          1
   232          5
   233          0
   234          3
   235          0
   236          0
   239          0
   245          0
   247          1
   248          0
   249          1
   250        128
   251         20
   252          2
   253          0
   254          0
   267          2
   268          0
   269          2
   271          0
   274          0
   284          0
   295          0
   296          2
   297          0
   298          0
   331          1
   332          0
   333          1
   334          0
   335          0
   351          0
   366          1
   367         22
   368          4
   369         21
   370          3
   371          6
   372          0
   373          0