##TITLE=Library Entry 45437
##JCAMP-DX=Revision 4.10 
##DATA TYPE=MASS SPECTRUM
##SAMPLE DESCRIPTION=Chemical Concepts
##NAMES=HP
##CAS NAME=3-(4-Bromophenyl)-2-(4-nitrostyryl)-4(3H)-quinazolinone
##MOLFORM=C22H14BrN3O3
##CAS REGISTRY NO=300359-46-0
##MP= -300
##BP= -300
##MW= 447
##$RETENTION INDEX=0
##$CONDENSED SPECTRUM=NO
##NPOINTS= 170
##XYDATA=(XY..XY) 1 
    36         25
    39        578
    40        134
    41         31
    43        104
    44         50
    45         42
    46         20
    48          4
    50        786
    51        348
    52         97
    53         25
    55         12
    57         11
    60         27
    63        664
    64        203
    65         55
    66          7
    69         10
    75        999
    76        907
    77        299
    78         34
    79         26
    80         50
    81         31
    82         44
    86         19
    89        789
    91         80
    92        119
    93          9
    94          4
    95         11
    98         20
   101        319
   102        367
   103         60
   104         25
   105          9
   107          9
   108          4
   110          4
   111          4
   112          6
   113         22
   114         35
   115         38
   116         57
   117         51
   119        208
   120         68
   121          8
   125          8
   126         29
   127         50
   128         62
   129         19
   130         25
   131          7
   133         32
   137          8
   139         57
   140         43
   141          8
   142          8
   143         33
   144         32
   145         37
   146        145
   149          8
   150         27
   151         54
   152         35
   153         13
   155        203
   157        198
   158         11
   161         98
   163         20
   164         40
   165         55
   166         50
   167          8
   168          6
   169         24
   171         28
   173         13
   174         10
   176        112
   177         55
   178         33
   179         10
   180         10
   181          9
   182          8
   183         14
   184          9
   188          6
   190         58
   191         52
   192         46
   193         11
   194         19
   196          4
   199          7
   201         44
   202         70
   203        150
   204         76
   205         17
   206          8
   208          5
   216         25
   217         25
   218         31
   219         22
   220         27
   221          3
   229         40
   230         27
   231         24
   232          7
   233          9
   234          6
   244          4
   245         21
   246         31
   247          8
   253          4
   266          5
   271          4
   277        144
   278         22
   279          4
   281          6
   282          8
   283          5
   284          6
   285          4
   291          9
   292         21
   293         17
   294          6
   299         15
   301         11
   309         10
   313          6
   319          5
   320          8
   321         28
   322         20
   325         13
   327         15
   338          8
   368          8
   369          5
   373          4
   399          7
   400         19
   401         12
   402         21
   403          6
   446         57
   447         62
   448         62
   449         60
   450          9