##TITLE=Library Entry 95554
##JCAMP-DX=Revision 4.10 
##DATA TYPE=MASS SPECTRUM
##SAMPLE DESCRIPTION=S.M. Lee, CA Export Lab. Services, CA, USA
##NAMES=HP
##CAS NAME=Urea, N-[5-(ethylsulfonyl)-1,3,4-thiadiazol-2-yl]-N,N'-dimethyl-
##MOLFORM=C7H12N4O3S2
##CAS REGISTRY NO=30043-49-3
##MP= -300
##BP= -300
##MW= 264
##$RETENTION INDEX=0
##$CONDENSED SPECTRUM=NO
##NPOINTS= 120
##XYDATA=(XY..XY) 1 
    51          4
    52          4
    53         13
    54         10
    55        316
    56        741
    57        787
    58         97
    59        324
    60         96
    61         49
    62         20
    63          9
    64         32
    65         19
    66         34
    67          6
    68          3
    69          5
    70         34
    71         25
    72         82
    73         96
    74        421
    75         25
    76         31
    77         33
    78         10
    79          3
    80          4
    81          3
    82          8
    83          3
    84          5
    85         59
    86         40
    87        285
    88        152
    89         27
    90         10
    91          5
    92          4
    93         19
    94         13
    95          5
    96          4
    97          3
    98          3
    99          4
   100          2
   102          2
   103          3
   104          4
   106          8
   107          4
   108          3
   109          5
   111          3
   114        228
   115        999
   116         57
   117         49
   118          5
   119          3
   120          7
   122          2
   124          2
   126          3
   128          5
   130          3
   131          7
   132          3
   133          3
   135          2
   137          4
   138          2
   139          2
   142         85
   143         71
   144         12
   145          5
   147          4
   149          3
   152          3
   154          3
   159          2
   161          3
   162         20
   163          6
   164          7
   165          3
   176          3
   177          3
   178         33
   179         25
   180          5
   181          5
   182          2
   183          3
   185          3
   186          3
   191          4
   192          2
   193          3
   194          2
   197          3
   199          4
   200          2
   201          5
   202          3
   206         13
   207        813
   208         64
   209         82
   210         10
   211          4
   215          2
   225          2
   228          2
   229          2