##TITLE=Library Entry 44718
##JCAMP-DX=Revision 4.10 
##DATA TYPE=MASS SPECTRUM
##SAMPLE DESCRIPTION=James Little, Eastman Chemical Co.
##NAMES=HP
##CAS NAME=Octanoic acid, 2-methyl-
##MOLFORM=C9H18O2
##CAS REGISTRY NO=3004-93-1
##MP= -300
##BP= -300
##MW= 158
##$RETENTION INDEX=1304
##$CONDENSED SPECTRUM=NO
##NPOINTS= 71
##XYDATA=(XY..XY) 1 
    29         92
    30         17
    31         11
    35          2
    36         11
    37          1
    38          7
    39         90
    40         19
    41        292
    42         73
    43        264
    44         15
    45         97
    46          3
    47          3
    49          4
    50          1
    51          5
    52          2
    53         19
    54          8
    55        138
    56         64
    57         73
    58          7
    59         32
    65          2
    66          1
    67          9
    68          5
    69         49
    70         11
    71         24
    72          4
    73        122
    74        999
    75         36
    76          5
    77          2
    79          2
    80          3
    81          3
    82          4
    83         20
    84          5
    85          9
    86         10
    87        301
    88         19
    89          2
    95          1
    96          2
    97          8
    98         19
    99          4
   100          3
   101         82
   102          5
   103          1
   111          3
   112          2
   113          1
   114          1
   115         46
   116          4
   128          1
   129         38
   130          3
   143          4
   158          4