##TITLE=Library Entry 38963
##JCAMP-DX=Revision 4.10 
##DATA TYPE=MASS SPECTRUM
##SAMPLE DESCRIPTION=Chemical Concepts
##NAMES=HP
##CAS NAME=N'-(3,4-Dimethoxybenzylidene)-3,5-dinitrobenzohydrazide
##MOLFORM=C16H14N4O7
##CAS REGISTRY NO=300406-47-7
##MP= -300
##BP= -300
##MW= 374
##$RETENTION INDEX=0
##$CONDENSED SPECTRUM=NO
##NPOINTS= 110
##XYDATA=(XY..XY) 1 
    37         63
    39        561
    41        872
    42        597
    43        178
    44        122
    46        118
    50        114
    51         36
    52         30
    53         40
    54         62
    55         62
    56         95
    57         33
    59         15
    62        183
    63        136
    64         21
    65         15
    66          8
    67          5
    68          8
    71        999
    72         43
    74        645
    75        998
    76        113
    77         21
    78         14
    79         13
    80          5
    81          3
    82          2
    83          4
    84          3
    85          4
    86          4
    87          9
    88         14
    89          9
    90         25
    91         29
    92          9
    93          4
    94          3
    95          3
    96          3
    97          3
    99         69
   100          7
   101          8
   103        150
   104         16
   105          6
   106          8
   107          7
   115          6
   116          5
   118         48
   119          7
   120         16
   121          7
   123          2
   129          3
   130          6
   131          4
   132          2
   133          6
   134          6
   135          2
   136          8
   137          4
   145          4
   146          3
   147          6
   149        169
   150         19
   151          2
   157          3
   159         36
   160          2
   162          4
   163          9
   164          4
   165          9
   166          4
   167          2
   174          3
   179         14
   180          2
   181          3
   191          3
   193          3
   195         95
   196          7
   204          2
   205         38
   206          4
   208          3
   209          7
   221          2
   235          5
   247          2
   248          2
   251        339
   252         39
   253          4
   266         40
   267          4