##TITLE=Library Entry 60449
##JCAMP-DX=Revision 4.10 
##DATA TYPE=MASS SPECTRUM
##SAMPLE DESCRIPTION=Chemical Concepts
##NAMES=HP
##CAS NAME=4-(4-Bromobenzylidene)-1-(4-nitrophenyl)-3-phenyl-2-pyrazolin-5-o
ne
##MOLFORM=C22H14BrN3O3
##CAS REGISTRY NO=300404-04-0
##MP= -300
##BP= -300
##MW= 447
##$RETENTION INDEX=0
##$CONDENSED SPECTRUM=NO
##NPOINTS= 169
##XYDATA=(XY..XY) 1 
    33          4
    37         49
    38         79
    39        314
    40         34
    41         29
    43         60
    45         72
    46         25
    50        187
    51        158
    52         39
    53         17
    55          6
    57          8
    58          5
    61         40
    62         68
    63        166
    64         48
    65        159
    66         14
    67          3
    69          7
    70          2
    71          3
    74         39
    75         76
    76         70
    77         49
    78          7
    80         17
    81          5
    82          6
    83          3
    84          4
    85          9
    86         13
    87         13
    89         82
    91        999
    92        600
    93         44
    95         15
    98          5
    99          5
   100          6
   101         23
   102          8
   103         13
   104          6
   105          7
   106          7
   110          2
   111          3
   112          2
   113          8
   114          6
   115          6
   116          2
   117          2
   119          3
   120          2
   122         14
   123          2
   126          8
   127          9
   128          8
   129          5
   131          3
   132          6
   134          6
   136          4
   137          4
   138          6
   139         10
   140          5
   141          3
   143          3
   144          5
   145          7
   147         52
   149          6
   150          6
   151          3
   152          4
   155          9
   156          2
   157          2
   161          8
   162         10
   163         21
   164          9
   165          4
   166          3
   167          3
   169         13
   171          2
   176          4
   177          3
   178          3
   179          3
   180         12
   181          3
   182         13
   183          6
   184         27
   185          9
   186          7
   187         24
   188         36
   189        156
   190         37
   191          9
   192          6
   193         14
   194          3
   202          3
   203          6
   204          4
   205          2
   207          3
   208          4
   209          5
   210          4
   216          2
   217          4
   218          3
   219          3
   243          2
   245          6
   246         34
   247          7
   265          3
   266          3
   267          6
   269         96
   270         20
   271         77
   272         11
   281          9
   282          3
   283          2
   288          3
   289          4
   292        260
   293         43
   294          7
   307          5
   309          3
   310          2
   321          3
   322          3
   368          5
   400          3
   401          2
   402          3
   417          2
   418          2
   419          2
   441          7
   442          8
   443         17
   445         82
   447        144
   448         62
   449        120
   450         24
   451          4