##TITLE=Library Entry 36282
##JCAMP-DX=Revision 4.10 
##DATA TYPE=MASS SPECTRUM
##SAMPLE DESCRIPTION=MUS263 A. Mujsce, AT&T Bell Labs., Murray Hill, N.J., U
SA
##NAMES=HP
##CAS NAME=1H,1H,2H,2H-Perfluorotetradecyl iodide
##MOLFORM=C14H4F25I
##CAS REGISTRY NO=30046-31-2
##MP= -300
##BP= -300
##MW= 774
##$RETENTION INDEX=0
##$CONDENSED SPECTRUM=NO
##NPOINTS= 238
##XYDATA=(XY..XY) 1 
    39         17
    40         10
    43          9
    45          8
    46          6
    47         75
    51        181
    53         13
    59         33
    60         15
    61         12
    62          9
    64         13
    65        386
    66         13
    69        999
    70         19
    83         16
    86          5
    87          5
    89         31
    90         11
    93         46
    95         88
    96          3
    97         39
   100        226
   101         20
   106          7
   107         12
   108         65
   109        137
   110          6
   111          6
   112         16
   113         70
   115        265
   119        547
   120         17
   124          9
   125          4
   127        467
   128        429
   129          8
   131        776
   132         28
   133         66
   134          3
   135          5
   137         10
   139         70
   140          9
   141        690
   142         11
   143         28
   145        121
   146          9
   147         51
   151         26
   153          9
   154         17
   155        422
   156         10
   157         42
   158          9
   159         59
   162         42
   163         59
   165         50
   167          3
   169        463
   170         19
   173         21
   175          6
   177         94
   181        239
   183          7
   185         11
   186          8
   187          4
   188         10
   189         26
   191          5
   193         19
   195         23
   199          4
   200          3
   201          7
   203         27
   205         98
   207         27
   209          3
   213         22
   214          3
   219        101
   220          6
   225          7
   227         33
   231         70
   232          2
   239         10
   243          6
   245          8
   246          4
   248          4
   250          7
   257          9
   261          7
   263         10
   267          4
   269         27
   270          5
   277         22
   281         31
   286          7
   287          2
   290          7
   293          6
   313          8
   319         10
   320          4
   327         18
   331         17
   337          2
   340          3
   342          5
   344          5
   350          3
   357          3
   358          3
   361          4
   365          3
   373          3
   375          3
   376          2
   377         10
   381         16
   389          3
   406          4
   407          6
   408          3
   413          9
   414          3
   427          7
   428          2
   429          3
   430          3
   431          9
   432          2
   438          5
   439          4
   446          5
   448          4
   449          3
   454          4
   462          2
   463         12
   464          2
   469          3
   470          3
   472          3
   477          5
   481          4
   485          7
   486          3
   489          3
   505          3
   507         13
   513         29
   514          3
   515          2
   517          3
   518          2
   527          4
   531         10
   534          3
   537          4
   542          4
   545          3
   557         23
   558          5
   559          2
   561          5
   562          3
   563         36
   564          4
   565          3
   566          6
   577         53
   578          7
   579          1
   580          1
   581         31
   582          8
   593          3
   595          3
   596          2
   598          4
   601          3
   607          4
   608          3
   609          2
   627        152
   628         23
   631          3
   633          2
   634          4
   637          3
   639          2
   642          3
   647          5
   648          4
   654          5
   662          3
   671          6
   673          3
   681          2
   687          2
   688          5
   697          4
   703          2
   704          3
   705          2
   711          2
   713          4
   715          4
   718          3
   719          3
   735          6
   742          3
   743          2
   745          3
   746          1
   748          1
   755         13
   756          9
   774        112
   775         14