##TITLE=Library Entry 90813
##JCAMP-DX=Revision 4.10 
##DATA TYPE=MASS SPECTRUM
##SAMPLE DESCRIPTION=Asinex Ltd, Moscow, Russia
##NAMES=HP
##CAS NAME=2,2,3,3,4,4,5,5,5-Nonafluoro-pentanoic acid dicyclohexylamide
##MOLFORM=C17H22F9NO
##CAS REGISTRY NO=300400-58-2
##MP= -300
##BP= -300
##MW= 427
##$RETENTION INDEX=0
##$CONDENSED SPECTRUM=NO
##NPOINTS= 157
##XYDATA=(XY..XY) 1 
    32          3
    33          0
    35          0
    36          1
    37          0
    39         38
    41        177
    42         66
    43        346
    44        702
    45        355
    47         13
    48          1
    50         25
    51         58
    53         11
    54          9
    55         71
    56         58
    57         52
    58         11
    59          2
    60          1
    62          5
    63          1
    64          0
    65          1
    67         25
    69        362
    70         39
    71          7
    72         13
    74          5
    75          1
    77          1
    78          4
    79          1
    80          2
    81         12
    82          7
    83          9
    84         33
    85         10
    86          6
    87          0
    89          0
    90          0
    91          0
    93         22
    95         18
    97         30
    98          8
   100        204
   101         11
   102          2
   103          0
   104          0
   105          0
   106          3
   107          0
   109         15
   112         41
   114        999
   115         78
   117          6
   119         65
   120          6
   121          0
   123          0
   124          0
   125          0
   126          1
   127          1
   128          6
   131        368
   132         11
   133          0
   134          0
   135          0
   137          1
   138          0
   140          5
   141          0
   142          2
   143          0
   144          0
   145          0
   147          2
   150         27
   151          1
   152          0
   153          0
   154          1
   156         14
   157          1
   158          0
   159          0
   162          1
   163          0
   164          0
   165          0
   166          0
   167          2
   169         97
   170         10
   171          1
   172          0
   177          0
   178          0
   179          1
   181         40
   182          3
   184         26
   185         72
   186         46
   187          5
   188          0
   191          0
   193          0
   195          1
   197          3
   198          1
   200         55
   201          2
   206          0
   209          0
   212          0
   213          0
   214          0
   215          0
   217          0
   219         33
   220          1
   221          0
   225          0
   226          0
   227          0
   228          0
   229          0
   231          2
   232          0
   234          0
   243          0
   245          6
   246          0
   247          1
   248          0
   263          0
   265          1
   266          0
   281          0
   282          0
   300          0
   319          0
   327          0
   345          1
   346          0