##TITLE=Library Entry 6738
##JCAMP-DX=Revision 4.10 
##DATA TYPE=MASS SPECTRUM
##SAMPLE DESCRIPTION=Chemical Concepts
##NAMES=HP
##CAS NAME=Ethyl 6-bromo-7-hydroxy-2-ureidobenzo[b]thiophene-3-carboxylate
##MOLFORM=C12H11BrN2O4S
##CAS REGISTRY NO=300406-12-6
##MP= -300
##BP= -300
##MW= 358
##$RETENTION INDEX=0
##$CONDENSED SPECTRUM=NO
##NPOINTS= 109
##XYDATA=(XY..XY) 1 
    33         57
    37        138
    38        159
    39        113
    40         69
    41         89
    43        999
    44        833
    45        300
    49         43
    50        101
    51         79
    52        183
    53        168
    54         35
    56         18
    57         47
    58         47
    59         62
    60         91
    61        177
    62        275
    63        277
    64        127
    65        121
    66         67
    67        112
    69        754
    70         70
    71         49
    72         39
    73         76
    74        101
    75        139
    76         86
    77         78
    78         41
    79         32
    81        187
    82        113
    83         46
    84         55
    85         32
    86         18
    88        125
    89        159
    90        177
    91         92
    92         99
    93        118
    94         67
    95         86
    96         51
    97         18
    99         40
   100         48
   101         43
   102         43
   103         27
   106        420
   108        367
   109         42
   110         19
   111         15
   117         78
   119         78
   120         20
   121         15
   122         18
   130         17
   133        274
   134        469
   135        191
   136         52
   143         16
   145         24
   151         23
   161        111
   162        235
   163        109
   164         18
   186         30
   187        100
   188         35
   189        104
   190        104
   191         32
   212         68
   213         61
   214        167
   215         96
   216        101
   217         36
   233         25
   240         60
   241         98
   242         91
   243        112
   244         29
   269        324
   270         81
   271        313
   272         78
   301         51
   303         56
   315        116
   316         16
   317        127
   318         21