##TITLE=Library Entry 61583
##JCAMP-DX=Revision 4.10 
##DATA TYPE=MASS SPECTRUM
##SAMPLE DESCRIPTION=A.A.Kutin, Moscow, Russia
##NAMES=HP
##CAS NAME=Benzamide, 3-methyl-N-(1,2,4-triazol-5-yl)-
##MOLFORM=C10H10N4O
##CAS REGISTRY NO=300402-07-7
##MP= -300
##BP= -300
##MW= 202
##$RETENTION INDEX=0
##$CONDENSED SPECTRUM=NO
##NPOINTS= 79
##XYDATA=(XY..XY) 1 
    33          5
    34          2
    36          3
    37         28
    38         66
    39        368
    40        108
    41        143
    42         84
    43         98
    44         31
    45         17
    50        110
    51        168
    52         43
    53         48
    54         34
    55         39
    56          8
    57         29
    58          2
    59          1
    60          2
    61         26
    62         88
    63        231
    64         89
    65        570
    66         40
    67          9
    68         11
    69         31
    70         21
    71          4
    73          6
    74         24
    75         30
    76         36
    77         65
    78         28
    79         15
    80          1
    81          3
    84         16
    85          6
    86          9
    87         15
    89        174
    90        130
    91        999
    92         80
    93         10
    97          1
   102          6
   103          7
   104         15
   105         11
   106          7
   107          9
   108          3
   114          1
   116          4
   118        134
   119        966
   120         83
   121         12
   132          4
   133         11
   134          9
   135          7
   136          1
   149         12
   150          1
   160         12
   164          1
   201         14
   202        106
   203         10
   204          4