##TITLE=Library Entry 24970
##JCAMP-DX=Revision 4.10 
##DATA TYPE=MASS SPECTRUM
##SAMPLE DESCRIPTION=P.A. Leclercq, Lab. Instrum. Anal., Eindhoven Univ. Tec
hnol., Netherlands
##NAMES=HP
##CAS NAME=s-Triazine, 2-chloro-4-(isopropylamino)-6-(methylamino)-
##MOLFORM=C7H12ClN5
##CAS REGISTRY NO=3004-71-5
##MP= -300
##BP= -300
##MW= 201
##$RETENTION INDEX=2761
##$CONDENSED SPECTRUM=NO
##NPOINTS= 96
##XYDATA=(XY..XY) 1 
    41        399
    42        369
    43        459
    44         69
    45          9
    50          9
    51          9
    52         19
    53        109
    54         49
    55        349
    56        149
    57        999
    58        910
    59         29
    60          9
    61         19
    62        139
    63          9
    64         29
    65          9
    66          9
    67         89
    68        299
    69        279
    70         19
    71          9
    73          9
    75          9
    76         39
    77          9
    78         29
    79          9
    80         19
    81         39
    82        419
    83        109
    84          9
    87         89
    88         19
    89         29
    91         19
    92          9
    93         89
    94         49
    96         19
    97          9
   103          9
   104         29
   105         69
   106         19
   107         39
   108        139
   109         49
   110          9
   116          9
   117         19
   118        159
   119         29
   120         39
   122          9
   123         19
   124         89
   125         19
   128          9
   129         19
   130         49
   131          9
   132         19
   143          9
   144         29
   145         19
   146         19
   147          9
   149          9
   150         19
   151          9
   155          9
   157          9
   158         19
   159        129
   160         19
   161         39
   162          9
   172          9
   173          9
   184          9
   186        259
   187         19
   188         79
   189          9
   200          9
   201        109
   202         19
   203         29
   204          9