##TITLE=Library Entry 6438
##JCAMP-DX=Revision 4.10 
##DATA TYPE=MASS SPECTRUM
##SAMPLE DESCRIPTION=A.A.Kutin, Moscow, Russia
##NAMES=HP
##CAS NAME=Heptanamide, perfluoro-N-undecyl-
##MOLFORM=C18H24F13NO
##CAS REGISTRY NO=300400-54-8
##MP= -300
##BP= -300
##MW= 517
##$RETENTION INDEX=0
##$CONDENSED SPECTRUM=NO
##NPOINTS= 205
##XYDATA=(XY..XY) 1 
    33          6
    34          1
    36          0
    37          1
    39        170
    41        912
    43        999
    44         75
    45         14
    46          6
    47          3
    48          1
    50         10
    51          3
    55        626
    56        214
    57        388
    58         99
    59          7
    60          2
    61          1
    62          1
    69        532
    70        119
    71        131
    72         63
    73          3
    74          2
    75          1
    76          4
    77          7
    83        164
    84         53
    85         76
    86         23
    87          1
    88          0
    97        102
    98         30
    99         22
   100         63
   101          3
   102          1
   103          1
   104          1
   105          1
   108         76
   109         23
   110         12
   111         27
   112         16
   113          7
   114         21
   115          1
   116          0
   119         66
   120          2
   121          2
   122          1
   123          1
   128         12
   129          2
   131         51
   132          1
   133          0
   134          1
   135          0
   136          0
   138          9
   139          1
   140          3
   142          7
   143          2
   144          0
   145          0
   147          1
   148          0
   149          0
   150          1
   151          0
   152          4
   153          1
   154          5
   156          9
   157          1
   159          2
   160          0
   162          2
   163          0
   164          0
   166          0
   167          0
   169         30
   170          3
   171          1
   172          0
   173          0
   175          0
   176          0
   178          0
   179          0
   181         12
   182          0
   184          0
   187          0
   188          0
   189          0
   190          0
   191          0
   192          0
   193          1
   194          2
   196         22
   198        696
   199         84
   200          6
   202          0
   207          0
   208          0
   209          0
   210          0
   212          0
   213          0
   219          0
   220          0
   226          0
   228          0
   231          8
   232          0
   238          0
   240          0
   244          0
   248          1
   258          0
   259          0
   260          0
   266          0
   278          1
   281          0
   288          0
   296          0
   298          0
   308          0
   309          1
   310          0
   316          1
   319          2
   326          0
   327          0
   328          1
   329          0
   330          0
   338          0
   339          0
   340          0
   342          0
   344          3
   345          0
   346          0
   348         10
   349          0
   350          0
   358          2
   359          0
   360          0
   362          1
   364         26
   365          2
   366          0
   368          0
   369          0
   370          0
   375          2
   376         67
   377         67
   378          8
   379          0
   384          0
   385          0
   390         19
   391          2
   392          0
   398          0
   400          0
   402          0
   403          0
   404          5
   405          2
   413          0
   414          0
   415          0
   416          0
   418         19
   419          2
   432          8
   433          1
   446          0
   460          0
   474          0
   488          0
   498          2
   499          0
   516          0
   517          3
   518          0