##TITLE=Library Entry 26948
##JCAMP-DX=Revision 4.10 
##DATA TYPE=MASS SPECTRUM
##SAMPLE DESCRIPTION=Japan AIST/NIMC Database- Spectrum MS-NW-9590
##NAMES=HP
##CAS NAME=s-tert-Butylmercapto-L-cysteine
##MOLFORM=C7H15NO2S2
##CAS REGISTRY NO=30044-51-0
##MP= -300
##BP= -300
##MW= 209
##$RETENTION INDEX=0
##$CONDENSED SPECTRUM=NO
##NPOINTS= 102
##XYDATA=(XY..XY) 1 
    14          1
    15         13
    16          4
    17          1
    26          3
    27         30
    28         32
    29         86
    30         29
    32          3
    33          2
    34          5
    37          1
    38          3
    39         46
    40         10
    41        344
    42         90
    43         97
    44         58
    45         20
    46         15
    47         13
    48          6
    49          9
    50          2
    51          3
    53          7
    54          5
    55         42
    56         26
    57        999
    58         51
    59         24
    60          3
    61          3
    62          1
    64         11
    65          2
    66          3
    67          1
    68          5
    69          7
    70         19
    71         24
    72          2
    73         12
    74        173
    75         61
    76         10
    77          1
    78          1
    79         18
    80          5
    81         12
    83          1
    85          2
    86          1
    87         17
    88        289
    89        106
    90         46
    91          4
    92          2
   100          1
   101          5
   103          1
   105          9
   106          1
   107         89
   108         38
   109         10
   110          3
   113          1
   114          2
   118          1
   119          2
   120          4
   121          2
   122         13
   123          1
   124          1
   133          1
   135          1
   136          9
   138          1
   153        839
   154         48
   155         77
   156          4
   157          2
   164         13
   165          1
   166          1
   178          1
   179          1
   193          2
   194          2
   209         15
   210         15
   211          3
   212          1