##TITLE=Library Entry 56063
##JCAMP-DX=Revision 4.10 
##DATA TYPE=MASS SPECTRUM
##SAMPLE DESCRIPTION=A.A.Kutin, Moscow, Russia
##NAMES=HP
##CAS NAME=N,N-Diethyl(isochroman-1-ylmethyl)amine
##MOLFORM=C14H21NO
##CAS REGISTRY NO=300589-94-0
##MP= -300
##BP= -300
##MW= 219
##$RETENTION INDEX=0
##$CONDENSED SPECTRUM=NO
##NPOINTS= 114
##XYDATA=(XY..XY) 1 
    39         46
    40         18
    41         52
    42        123
    43         57
    44         20
    45          1
    46          0
    50         24
    51         45
    52         13
    53         11
    54         14
    55         38
    56         85
    58        370
    62          9
    63         19
    64          7
    65         21
    66          2
    67          1
    68          1
    69          3
    70         13
    71          9
    72         16
    73          2
    74          5
    75          9
    76         27
    77        102
    78         37
    79         50
    80          3
    81          0
    86        999
    90         34
    91         60
    92          5
    93          1
    94          0
    95          0
    96          0
    97          0
    98          0
    99          0
   100          1
   101          6
   102         24
   103         55
   104         29
   105         43
   106          3
   107          0
   112          0
   115         76
   116         24
   117         26
   118          8
   119         12
   120          1
   121          0
   126          0
   127          5
   128          9
   129         11
   130          9
   131         13
   132         14
   133         33
   134          3
   135          0
   141          0
   142          0
   143          2
   144          4
   145          3
   146         10
   147          6
   148          1
   149          0
   151          0
   152          0
   155          0
   156          0
   157          0
   158          2
   159          1
   160          1
   161          0
   162          0
   165          0
   166          0
   167          0
   168          0
   171          0
   172          1
   173          0
   174          1
   175          0
   179          0
   180          0
   181          1
   188          1
   189          0
   194          0
   202          0
   204          4
   205          0
   217          1
   218          5
   219          4
   220          0