##TITLE=Library Entry 64181
##JCAMP-DX=Revision 4.10 
##DATA TYPE=MASS SPECTRUM
##SAMPLE DESCRIPTION=A.A.Kutin, Moscow, Russia
##NAMES=HP
##CAS NAME=4H-Pyran-3-carboxylic acid, 6-amino-5-cyano-2-methyl-4-phenyl-, b
enzyl ester
##MOLFORM=C21H18N2O3
##CAS REGISTRY NO=300589-42-8
##MP= -300
##BP= -300
##MW= 346
##$RETENTION INDEX=0
##$CONDENSED SPECTRUM=NO
##NPOINTS= 215
##XYDATA=(XY..XY) 1 
    33          1
    34          4
    36          0
    37          1
    38          5
    39         45
    40         77
    41         19
    42          6
    43        114
    44         45
    45          4
    46          0
    50         17
    51         55
    52         15
    53          6
    54          2
    55          8
    56          2
    57          8
    58          4
    59          1
    60          2
    61          2
    62          6
    63         27
    64         15
    65        103
    66         13
    67         43
    68          4
    69          6
    70          3
    71          3
    72          0
    73          2
    74          6
    75          9
    76         13
    77         64
    78         18
    79         19
    80          2
    81          2
    82          1
    83          3
    84          2
    85          6
    86          2
    87          3
    88          5
    89         25
    91        999
    92         75
    93          3
    94          2
    95          5
    96          1
    97          2
    98          1
    99          1
   100          2
   101          5
   102         12
   103         15
   104          5
   105         18
   106          5
   107         10
   108          4
   109          1
   110          0
   111          1
   112          1
   113          5
   114          5
   115         20
   116          4
   117          2
   118          1
   119          1
   120          0
   121          0
   122          0
   123         10
   124          1
   125          1
   126          3
   127         14
   128         18
   129          9
   130          2
   131         11
   132          2
   133          3
   134         14
   135          2
   137          0
   138          1
   139         15
   140         18
   141         10
   142          3
   143          3
   144          1
   145          1
   146          0
   147          3
   149          4
   150          1
   151          1
   152          3
   153          7
   154         12
   155          7
   156          2
   157          1
   158          0
   159          0
   161          7
   162          1
   163          1
   164          4
   165          3
   166         14
   167         10
   168          8
   169          5
   170          1
   171          3
   172          1
   173          2
   174          1
   176          0
   177          3
   178          4
   179         10
   180          5
   181          5
   182          6
   183          1
   184          0
   185          1
   187          0
   189          0
   190          0
   191          5
   192          2
   193          1
   194          8
   195         19
   196          4
   197          1
   199          0
   201          0
   202          0
   203          0
   206          2
   207          5
   208          3
   209          5
   210          4
   211         24
   212          4
   213          1
   214          0
   215          0
   216          0
   217          0
   219          2
   220          3
   221          1
   222          0
   223          2
   224          0
   225          0
   226          0
   227          0
   228          2
   229          1
   230          0
   234          1
   235          0
   237          4
   238          4
   239          5
   240          1
   241          0
   251          2
   252          1
   253          1
   255        344
   256         57
   257          6
   258          0
   268          0
   269        169
   270         28
   271          3
   272          0
   280          0
   283          0
   284          1
   285          0
   299          0
   301          0
   313          2
   314          1
   315          0
   344          0
   345          1
   346         29
   347          7
   348          1