##TITLE=Library Entry 85674
##JCAMP-DX=Revision 4.10 
##DATA TYPE=MASS SPECTRUM
##SAMPLE DESCRIPTION=Institute of Organic Chemistry, USSR, 1990
##NAMES=HP
##CAS NAME=5-Bromo-4-oxo-4,5,6,7-tetrahydrobenzofurazan
##MOLFORM=C6H5BrN2O2
##CAS REGISTRY NO=300574-36-1
##MP= -300
##BP= -300
##MW= 216
##$RETENTION INDEX=0
##$CONDENSED SPECTRUM=NO
##NPOINTS= 82
##XYDATA=(XY..XY) 1 
    40         56
    41        225
    42        100
    43        124
    44         14
    45        673
    46        347
    50         48
    51        224
    52        387
    53        167
    54         91
    55        459
    56         54
    57         29
    63         15
    64         29
    65          7
    66        122
    67         30
    68         42
    69         21
    70        138
    72          6
    73          5
    75         15
    76         15
    78        389
    79        187
    80        103
    81         31
    82        324
    83         13
    91         19
    92         84
    93         54
    94         29
    95        130
    96          9
   105         11
   106        121
   107        252
   108        232
   109        999
   110        210
   111         13
   119         26
   120         19
   121         19
   122         11
   128         15
   131         56
   132         21
   133         89
   135          9
   136         29
   137        602
   138         54
   139         40
   145          7
   146         26
   147         10
   148         35
   149          7
   158        302
   159         22
   160        313
   161         15
   171         47
   173         52
   174          5
   183          7
   187         52
   188         14
   189         97
   190         13
   191         37
   192          7
   216        546
   217         95
   218        568
   219         53