##TITLE=Library Entry 15028
##JCAMP-DX=Revision 4.10 
##DATA TYPE=MASS SPECTRUM
##SAMPLE DESCRIPTION=LAC, NIDDK, NIH, Bethesda, MD 20892
##NAMES=HP
##CAS NAME=5.alpha.-Ergost-7-en-3.beta.-ol acetate
##MOLFORM=C30H50O2
##CAS REGISTRY NO=3005-47-8
##MP= -300
##BP= -300
##MW= 442
##$RETENTION INDEX=0
##$CONDENSED SPECTRUM=NO
##NPOINTS= 191
##XYDATA=(XY..XY) 1 
    41        180
    43        999
    44         24
    47          7
    48          2
    49          4
    51          1
    53         23
    55        218
    57        111
    58          1
    59          5
    61         10
    65          7
    67         98
    69        138
    71        110
    72          1
    77         31
    79        132
    81        211
    83         81
    84         12
    85         41
    86          9
    88          1
    91        119
    93        127
    94         25
    95        165
    96         22
    97         48
    98          1
    99          5
   103          7
   105        171
   106         25
   107        164
   108         30
   109         63
   110          3
   111         12
   112          5
   113          3
   115         12
   116          4
   117         50
   118         18
   119         93
   120         33
   121         67
   122         27
   123         43
   124         11
   125          9
   128         11
   129         24
   130          7
   131         72
   132         22
   133        103
   134         41
   135         49
   136         17
   137         11
   139          0
   141          8
   142         10
   143         39
   144          8
   145         77
   146          6
   147        100
   148         11
   149         33
   150          7
   151          7
   152          3
   155          8
   156          1
   157         35
   159         72
   160         13
   161         75
   162         11
   163          9
   165          3
   166          4
   167          2
   169          8
   170          1
   171         27
   172          8
   173         28
   174          7
   175         17
   176          2
   177          7
   179          3
   181          1
   183          6
   185         27
   186          9
   187         26
   188          5
   189         11
   191          3
   197          9
   199         28
   200          6
   201         36
   202          4
   203          5
   205          1
   207          2
   211          7
   212          1
   213        153
   214         31
   215         23
   216          5
   217          3
   218          2
   219          0
   220         10
   221          4
   225          3
   227         18
   228         32
   229         99
   230         19
   231          5
   239          7
   241         17
   242          5
   245          2
   247          3
   253          8
   255        299
   256         65
   257          8
   259         10
   260         13
   261         13
   262          2
   267          1
   269          2
   271          3
   273         48
   274         27
   275          9
   276          4
   283         12
   284          1
   287          5
   288         27
   289          5
   290          1
   299          5
   300          3
   301          5
   302          5
   304          2
   313         61
   314         24
   315         53
   316         12
   327          6
   328          1
   339          2
   341          3
   342          6
   343          6
   365          3
   367         45
   368         11
   380          1
   381          8
   382         22
   383         25
   384          7
   399          3
   425          5
   427        103
   428         32
   429          5
   440         19
   442        498
   443        154
   444         30
   445          4