##TITLE=Library Entry 6640
##JCAMP-DX=Revision 4.10 
##DATA TYPE=MASS SPECTRUM
##SAMPLE DESCRIPTION=Div. of Experiment Therapeutics WRAIR, WRAMC, Washingto
n DC 20307
##NAMES=HP
##CAS NAME=4-[N-Methylpiperazino]-5-nitro veratrole
##MOLFORM=C13H19N3O4
##CAS REGISTRY NO=30058-29-8
##MP= -300
##BP= -300
##MW= 281
##$RETENTION INDEX=0
##$CONDENSED SPECTRUM=NO
##NPOINTS= 140
##XYDATA=(XY..XY) 1 
    41         78
    42        805
    43        999
    44        267
    45         18
    47         27
    48         14
    49         17
    50         46
    51         11
    52         44
    53         57
    54         58
    55         62
    56        180
    57        267
    58        340
    59         36
    61          4
    62         14
    63         35
    64         40
    65         56
    66         40
    67         28
    68         48
    69         34
    70        251
    71        179
    72         88
    73         17
    74          9
    75         16
    76         30
    77         83
    78         52
    79         89
    80         40
    81         24
    82         56
    83         45
    84         17
    85         32
    86        393
    87         24
    88         22
    89         14
    90         15
    91         37
    92         46
    93         43
    94         47
    95         32
    96          9
    97         21
    99         15
   103          8
   104         22
   105         20
   106         50
   107         41
   108         34
   109         44
   110         35
   117         18
   118         21
   119         23
   120         46
   121         28
   122         42
   123         20
   125         24
   132         23
   133         21
   134         50
   135         64
   136         33
   137         39
   138         23
   139         17
   140         21
   146         18
   147         53
   148         38
   149         32
   150         41
   151         40
   152         32
   153         21
   154         16
   160         17
   161         23
   162         40
   163        170
   164        111
   165        107
   166         70
   167         25
   175         18
   176         40
   177         70
   178         45
   179        411
   180         73
   181         47
   189         40
   190         32
   191        132
   192         74
   193         98
   194         21
   195          8
   203         18
   204         36
   205         38
   206         16
   207         37
   208         43
   209         15
   218        116
   219         56
   220         27
   221         43
   222          8
   223         16
   224         14
   226          4
   232         18
   233         32
   234        166
   235         34
   236        198
   237         35
   246         43
   247          4
   248         15
   264          5
   281        353
   282         67
   283          8