##TITLE=Library Entry 18303
##JCAMP-DX=Revision 4.10 
##DATA TYPE=MASS SPECTRUM
##SAMPLE DESCRIPTION=Chemical Concepts
##NAMES=HP
##CAS NAME=N-(6-Aminosulfonyl-2-benzothiazolyl)-2,4-dichlorobenzamide
##MOLFORM=C14H9Cl2N3O3S2
##CAS REGISTRY NO=300567-98-0
##MP= -300
##BP= -300
##MW= 401
##$RETENTION INDEX=0
##$CONDENSED SPECTRUM=NO
##NPOINTS= 111
##XYDATA=(XY..XY) 1 
    34         13
    35         24
    36         89
    37        134
    38        179
    39        240
    40         91
    41         20
    42          9
    43         19
    44         31
    45         45
    46         18
    48         80
    49        176
    50        536
    51        692
    52        999
    53        129
    54         12
    55          9
    56          6
    57         11
    58          6
    60         15
    61         23
    62         41
    63         85
    64         83
    65         16
    66         12
    67          9
    69         73
    70         25
    71         14
    72         14
    73         33
    74        106
    75        141
    76         64
    77         88
    78        250
    79        868
    81         16
    82         19
    83          9
    84         24
    85         18
    86         11
    87          9
    88          6
    91          5
    92         11
    93         35
    94         26
    95         26
    96          7
   100          9
   103          9
   104          7
   105         11
   106         10
   107         13
   109        140
   110         68
   111         58
   112         19
   119          9
   120         37
   121         52
   122         29
   123          8
   135          7
   136          9
   137         14
   138         21
   139         19
   140          8
   141          7
   142          5
   144         37
   145        212
   146         37
   147        127
   148         28
   149         38
   150          6
   164         27
   165         25
   169          7
   170         21
   171         58
   173        805
   174        123
   175        412
   177        102
   190          7
   213          8
   228          9
   229         21
   338         16
   340          7
   365          7
   366         23
   367          9
   368          8
   373         15
   375         11
   401         26
   403         17
   405          6