##TITLE=Library Entry 70578
##JCAMP-DX=Revision 4.10 
##DATA TYPE=MASS SPECTRUM
##SAMPLE DESCRIPTION=A.A.Kutin, Moscow, Russia
##NAMES=HP
##CAS NAME=Ethanone, 2-(1-pyrrolin-2-yl)amino-1-(2-thienyl)-
##MOLFORM=C10H12N2OS
##CAS REGISTRY NO=300694-99-9
##MP= -300
##BP= -300
##MW= 208
##$RETENTION INDEX=0
##$CONDENSED SPECTRUM=NO
##NPOINTS= 119
##XYDATA=(XY..XY) 1 
    33          8
    39        248
    41        299
    42         64
    43         46
    44         38
    45         44
    46          2
    47          3
    48          0
    49          1
    50          9
    51          9
    53         47
    54         34
    55         83
    56         44
    57         36
    58         15
    60          5
    61          1
    63          4
    64          5
    65          5
    66         10
    68        213
    69         42
    70         36
    71          6
    73          3
    74          0
    75          0
    76          1
    77          2
    78          3
    80         27
    81         25
    82         25
    83         51
    84         38
    85         14
    86          2
    87          0
    88          0
    90          1
    91          1
    92          1
    93          3
    95         23
    97        999
    98         51
    99          4
   104          1
   105          1
   106          0
   108          4
   109         11
   111        180
   112         25
   113          8
   114          1
   116          0
   117          1
   118          0
   119          2
   120          1
   121          1
   122          5
   123         10
   124          5
   126         29
   127          1
   128          1
   129          0
   130          0
   131          0
   133          3
   135         10
   136          2
   137          1
   138          1
   139          1
   140          1
   141          0
   145          1
   147         34
   148          3
   149          2
   150          4
   151          5
   152          8
   153          2
   154          0
   161          1
   162          2
   163          4
   164          2
   165          7
   166          0
   167          0
   171          0
   173          0
   175         55
   176          5
   178         19
   180        536
   181         46
   182         21
   183          2
   189          3
   190          5
   191         20
   193          4
   194          0
   207          4
   208         53
   209          6
   210          2
   211          0