##TITLE=Library Entry 48390
##JCAMP-DX=Revision 4.10 
##DATA TYPE=MASS SPECTRUM
##SAMPLE DESCRIPTION=Asinex Ltd, Moscow, Russia
##NAMES=HP
##CAS NAME=1,2,4-Triazolo[4,3-b]pyridazine, 3-trifluoromethyl-6-(2-pyridylth
io)-
##MOLFORM=C11H6F3N5S
##CAS REGISTRY NO=300689-10-5
##MP= -300
##BP= -300
##MW= 297
##$RETENTION INDEX=0
##$CONDENSED SPECTRUM=NO
##NPOINTS= 126
##XYDATA=(XY..XY) 1 
    33          8
    34         12
    37         89
    38         81
    39        319
    40        145
    41          8
    42          1
    43          9
    44         43
    45        161
    46          9
    47          6
    50        104
    51        493
    52        195
    53         10
    55          3
    57         73
    58         21
    59         10
    60         12
    62          9
    63         46
    64        138
    65         17
    66         29
    67         28
    69        240
    70         67
    71         18
    72          3
    74          9
    75          9
    76         42
    78        999
    79        173
    80         15
    81         26
    82         61
    83        221
    84         47
    85         10
    87         75
    88          7
    89         12
    90          4
    91          3
    92          5
    94         35
    95         18
    96        232
    97         14
    98          9
   101          3
   102          1
   103         14
   104         19
   105         14
   108          5
   109         16
   110        216
   111         91
   112         16
   113         15
   114          6
   115          5
   116          8
   118          2
   119          2
   120          8
   121          4
   122         36
   123         10
   124          2
   129         36
   130         20
   135          0
   136         47
   137          4
   138          2
   140          2
   141          7
   142         87
   143         13
   146         15
   147         48
   148         42
   149          4
   150          0
   156          7
   158          1
   161         33
   162          2
   164          3
   167          4
   168          0
   171          3
   173        162
   174        218
   175         35
   176         11
   188          3
   191         27
   193          5
   199         31
   200        731
   201         90
   202         42
   203          4
   228          2
   239          5
   248         22
   249          1
   250          0
   253          1
   264          1
   268         25
   269         15
   270          1
   278         29
   279          3
   296        154
   297        384
   298         60
   299         19