##TITLE=Library Entry 44837
##JCAMP-DX=Revision 4.10 
##DATA TYPE=MASS SPECTRUM
##SAMPLE DESCRIPTION=Institute of Chemistry, SAS, Bratislava, Slovakia
##NAMES=HP
##CAS NAME=Methyl-2,4-di-O-methyl.alpha.l-rhamnopyranoside
##MOLFORM=C9H18O5
##CAS REGISTRY NO=3006-40-4
##MP= -300
##BP= -300
##MW= 206
##$RETENTION INDEX=0
##$CONDENSED SPECTRUM=NO
##NPOINTS= 26
##XYDATA=(XY..XY) 1 
    45          8
    59         43
    61         16
    71         15
    72        349
    73        209
    74        999
    85         31
    87         83
    88        321
    99         39
   101        279
   102        401
   105         21
   114         16
   115         11
   117          5
   119          5
   129          7
   130         10
   131         15
   134         11
   143         15
   161         14
   162         36
   175         43