##TITLE=Library Entry 17674
##JCAMP-DX=Revision 4.10 
##DATA TYPE=MASS SPECTRUM
##SAMPLE DESCRIPTION=Chemical Concepts
##NAMES=HP
##CAS NAME=N'-(3,5-Dibromosalicylidene)-4-nitrobenzhydrazide
##MOLFORM=C14H9Br2N3O4
##CAS REGISTRY NO=300668-15-9
##MP= -300
##BP= -300
##MW= 441
##$RETENTION INDEX=0
##$CONDENSED SPECTRUM=NO
##NPOINTS= 170
##XYDATA=(XY..XY) 1 
    33         18
    34          7
    35         44
    37         57
    38         87
    39        108
    40        178
    41        142
    43        303
    45        999
    46          9
    48          4
    50        472
    51        121
    53        142
    55         41
    56         17
    57         12
    58          5
    59          8
    60         37
    62        101
    63        130
    64         87
    65         34
    66         11
    67          8
    69         21
    70          8
    71          9
    73         22
    74        180
    75        392
    76        600
    77        120
    78         56
    80         49
    81         16
    82         32
    83          7
    84          5
    85         11
    86          9
    87         24
    88         24
    89         18
    90         23
    91         34
    92        277
    93         24
    94          4
    95          7
    97          9
    98          6
    99          5
   100          4
   101          7
   102          9
   104        643
   105         82
   106         13
   107          9
   108          6
   109          8
   110          3
   111          4
   112          6
   113          3
   115          4
   116          5
   117         11
   118         14
   119         18
   120        133
   121         28
   122         13
   123          9
   124          6
   125          6
   126          3
   127          5
   128          4
   129          8
   130          8
   131          5
   133         11
   134         63
   135         12
   136          4
   137          5
   138          4
   139          4
   140          4
   141         26
   143         29
   144          4
   145          5
   146          5
   147          5
   150        768
   151         67
   152         11
   153          9
   154          9
   155         21
   156         24
   157         18
   158         16
   159          9
   160          3
   161          4
   162          3
   163          6
   165         20
   167        387
   168         35
   169          9
   170         13
   171          8
   172          6
   173          3
   179          4
   181         16
   182          7
   183         21
   184          9
   185         20
   186          9
   187          8
   188          3
   189          5
   192          4
   195         10
   196          7
   197          8
   198          7
   199          6
   200          2
   201         15
   202          5
   203         10
   204          3
   205          3
   212         32
   213          5
   214         25
   221          2
   222          2
   223          5
   225          2
   235          3
   238          2
   247          2
   249          5
   265          3
   272          3
   273          6
   275        101
   276         36
   277        159
   278         35
   279         79
   280         12
   281          3
   440          3
   441          9
   442          5
   443         14
   444          4
   445          7