##TITLE=Library Entry 83915
##JCAMP-DX=Revision 4.10 
##DATA TYPE=MASS SPECTRUM
##SAMPLE DESCRIPTION=A.A.Kutin, Moscow, Russia
##NAMES=HP
##CAS NAME=Propanedioic acid, monoamid, 2-cyclohexyl-N-(2-tolyl)-, ethyl est
er
##MOLFORM=C18H25NO3
##CAS REGISTRY NO=300727-59-7
##MP= -300
##BP= -300
##MW= 303
##$RETENTION INDEX=0
##$CONDENSED SPECTRUM=NO
##NPOINTS= 188
##XYDATA=(XY..XY) 1 
    33          3
    39        218
    40         63
    41        225
    42         61
    43         89
    44         71
    45         55
    47          8
    48          1
    49         10
    50         84
    51        138
    52        127
    53        154
    54         90
    55        209
    56         21
    57         20
    58          5
    59          5
    60         10
    61         12
    62         20
    63         56
    64         28
    65        103
    66         32
    67         94
    68         33
    69         39
    70         10
    71          9
    72          2
    73         18
    74         18
    75         18
    76         17
    77        195
    78         81
    79        144
    80         71
    81         75
    82         29
    83         44
    84          7
    85          5
    86         20
    87         64
    88         11
    89         62
    90         42
    91        110
    92         32
    93         22
    94          5
    95         69
    96          8
    97         19
    98          4
    99         14
   100          3
   101          2
   102          3
   103          4
   104         50
   105         30
   106        723
   107        999
   108        104
   109          6
   110          1
   111          2
   112          3
   113          4
   114         11
   115         63
   116          6
   117          4
   118         13
   119          6
   120         49
   121         46
   122          5
   123         20
   124          3
   125          8
   126          2
   127          7
   128          6
   129          3
   130          5
   131          4
   132         33
   133         32
   134         34
   135          4
   136          1
   137         25
   138          4
   139          6
   140          2
   141          7
   142          1
   143          1
   144          1
   145          2
   146         10
   147         30
   148          5
   149          6
   150          1
   151          4
   152         18
   153          5
   154          1
   155          1
   156          0
   157          1
   158          3
   159          0
   160          3
   161          1
   162          1
   163          7
   164          4
   165         37
   166         13
   167         61
   168         53
   169         12
   170          6
   171          3
   172          0
   173          1
   174          2
   175         92
   176         18
   177          1
   179          2
   180          0
   181          0
   182          0
   183          0
   184          0
   185          0
   186          0
   187          3
   188          1
   192          0
   193          1
   194          1
   195          0
   196          0
   197          3
   198          0
   200          0
   202          0
   203         46
   204          5
   205          0
   206          0
   209          0
   212          1
   213          0
   214          0
   216          0
   221         86
   222         11
   223          0
   227          1
   228          1
   229          1
   230          8
   231          1
   232          0
   240          0
   241          0
   257          0
   258          7
   259          1
   274          0
   275          0
   301          2
   302          0
   303         23
   304          4
   305          0