##TITLE=Library Entry 57210
##JCAMP-DX=Revision 4.10 
##DATA TYPE=MASS SPECTRUM
##SAMPLE DESCRIPTION=NIST Mass Spectrometry Data Center
##NAMES=HP
##CAS NAME=N,N-Dimethyldodecanamide
##MOLFORM=C14H29NO
##CAS REGISTRY NO=3007-53-2
##MP= -300
##BP= -300
##MW= 227
##$RETENTION INDEX=1504
##$CONDENSED SPECTRUM=NO
##NPOINTS= 74
##XYDATA=(XY..XY) 1 
    15         19
    18         30
    26          2
    27         52
    28         24
    29         97
    30         15
    31          1
    39         30
    40          8
    41        162
    42         69
    43        149
    44        134
    45        380
    46        113
    47          2
    51          1
    53         10
    54          8
    55        108
    56         26
    57         52
    58         23
    59          4
    65          1
    66          1
    67         10
    68          5
    69         21
    70          9
    71         17
    72        284
    73         14
    74          2
    77          1
    79          3
    80          1
    81          5
    82          2
    83         10
    84          7
    85          6
    87        999
    88         53
    89          2
    95          4
    97          5
    98          8
   100        181
   101         36
   102          2
   109          1
   111          1
   112          1
   114         37
   115          5
   126          1
   128         12
   129          5
   142         20
   143          4
   156         12
   157          2
   170          7
   171          1
   183          2
   184         10
   185          1
   198          5
   212          2
   226          4
   227         47
   228          8