##TITLE=Library Entry 86141
##JCAMP-DX=Revision 4.10 
##DATA TYPE=MASS SPECTRUM
##SAMPLE DESCRIPTION=A. Brossi, LC, NIDDK, NIH, Bethesda, MD 20892
##NAMES=HP
##CAS NAME=Phenol, 4-[.alpha.-bromopropionamido]-
##MOLFORM=C9H10BrNO2
##CAS REGISTRY NO=300707-62-4
##MP= -300
##BP= -300
##MW= 243
##$RETENTION INDEX=0
##$CONDENSED SPECTRUM=NO
##NPOINTS= 160
##XYDATA=(XY..XY) 1 
    42         32
    43         16
    44         51
    45          4
    46          1
    47          0
    48          2
    49          3
    50         22
    51         54
    52        154
    53        193
    54         39
    55        121
    56         59
    57         13
    58          0
    59          1
    60          2
    61          5
    62         16
    63         35
    64         17
    65         55
    66          9
    67          5
    68         16
    69          5
    70          2
    71          2
    72          0
    73          3
    74          2
    75          3
    76          4
    77          9
    78         15
    79         36
    80         91
    81        195
    82         18
    83          3
    84          1
    85          1
    86          1
    87          1
    88          1
    89          3
    90          4
    91         18
    92          5
    93         17
    94         12
    95          3
    96          1
    97          2
    98          0
    99          0
   101          0
   102          0
   103          2
   104          2
   105          3
   106          8
   107        127
   108        505
   109        999
   110        133
   111          8
   112          1
   115          0
   116          1
   117          2
   118          4
   119         12
   120         15
   121         21
   122          8
   123          1
   124          1
   125          0
   127          0
   128          0
   129          0
   130          0
   131          0
   132          1
   133          2
   134          9
   135         55
   136        173
   137         37
   138          3
   139          0
   140          0
   141          0
   142          0
   143          0
   144          1
   145          0
   146          4
   147          2
   148          2
   149          3
   150          1
   151          1
   153          0
   157          0
   158          0
   159          0
   160          1
   161          1
   162          4
   163          9
   164         47
   165          8
   166          1
   167          0
   168          0
   169          0
   170          0
   173          0
   174          1
   175          0
   176          0
   177          0
   178          0
   179          0
   186          0
   187          1
   188          0
   189          1
   190          0
   191          1
   192          2
   193          0
   199          8
   200          0
   201          3
   202          0
   204          0
   205          0
   211          0
   215          0
   216          0
   218          0
   222          0
   226          0
   227          1
   229          0
   230          0
   232          0
   239          0
   242          1
   243        321
   244         31
   245        319
   246         28
   247          2
   248          0