##TITLE=Library Entry 61923
##JCAMP-DX=Revision 4.10 
##DATA TYPE=MASS SPECTRUM
##SAMPLE DESCRIPTION=A.A.Kutin, Moscow, Russia
##NAMES=HP
##CAS NAME=N-(4-Chlorophenyl)-4-phenylbutyramide
##MOLFORM=C16H16ClNO
##CAS REGISTRY NO=300727-32-6
##MP= -300
##BP= -300
##MW= 273
##$RETENTION INDEX=0
##$CONDENSED SPECTRUM=NO
##NPOINTS= 179
##XYDATA=(XY..XY) 1 
    34          2
    35         15
    36         75
    37         18
    38         64
    39        214
    40         44
    41        144
    42         36
    43         22
    44         31
    45         14
    46          2
    47          1
    48          0
    49          6
    50         45
    51         96
    52         44
    53         22
    54          6
    55        111
    56         18
    57         24
    58          7
    59          6
    60          3
    61          8
    62         30
    63        114
    64         56
    65        240
    66         18
    67          4
    68          2
    69          3
    70          3
    71          3
    72          4
    73         43
    74         19
    75         62
    76         21
    77        140
    78         66
    79         50
    80          7
    81          3
    82          1
    83          3
    85          9
    86          5
    87          8
    88          5
    89         52
    90         54
    91        999
    92        117
    93         37
    94          4
    95          5
    96          1
    97          2
    98          7
    99        120
   100         29
   101         43
   102         20
   103         41
   104         58
   105         58
   106         23
   107         26
   108         10
   109          2
   110          0
   111         44
   112          7
   113         15
   114          4
   115         95
   116         29
   117        106
   118         59
   119         19
   120         23
   121         96
   122         14
   123         12
   124          2
   125         49
   126        229
   127        778
   128        134
   129        298
   130         25
   131          4
   132          5
   133         16
   134          7
   135          9
   137          9
   138          8
   139         12
   140         50
   141          7
   142         16
   143          1
   144         19
   145         10
   146          7
   147         71
   148         18
   149          3
   150          4
   151          3
   152          4
   153         15
   154         23
   155          6
   156          6
   157          0
   158          1
   159          0
   160          1
   161          0
   162          0
   164          2
   165          1
   166          2
   167          2
   168         55
   169        501
   170         65
   171        153
   172         15
   173          1
   175          0
   177          1
   178          1
   179          1
   180          4
   181          2
   182          4
   184          1
   192          0
   193          0
   194          2
   195          0
   196          1
   198          1
   199          0
   202          0
   203          1
   204          2
   210          0
   211          0
   212          0
   213          0
   214          0
   215          0
   216          1
   221          7
   222          0
   227          0
   237          0
   242          0
   244          0
   254          0
   256          0
   258          0
   271          9
   272          3
   273         84
   274         18
   275         46
   276          9
   277          6
   278          1