##TITLE=Library Entry 87993
##JCAMP-DX=Revision 4.10 
##DATA TYPE=MASS SPECTRUM
##SAMPLE DESCRIPTION=A.A.Kutin, Moscow, Russia
##NAMES=HP
##CAS NAME=2-(2-Thiophenoylamido)thiazole
##MOLFORM=C8H6N2OS2
##CAS REGISTRY NO=300716-56-7
##MP= -300
##BP= -300
##MW= 210
##$RETENTION INDEX=0
##$CONDENSED SPECTRUM=NO
##NPOINTS= 150
##XYDATA=(XY..XY) 1 
    33          4
    34          1
    35          0
    36          1
    37         22
    38         48
    39        217
    40         28
    41         10
    42          4
    43          4
    44         21
    45        253
    46         17
    47         13
    48          3
    49         12
    50         23
    51         10
    52          6
    53         39
    54          8
    55        120
    56         13
    57        122
    58         73
    59         29
    60          6
    61          2
    62          0
    63          1
    64          2
    65          2
    66          4
    67          1
    68          3
    69         14
    70         18
    71         19
    72          9
    73          2
    74          1
    75          1
    76          1
    77          6
    78          1
    79          1
    80          3
    81         37
    82         44
    83        119
    84         14
    85          7
    86          2
    87          0
    88          0
    89          0
    90          0
    91          1
    92          0
    93          1
    94          1
    95          1
    96          1
    97          1
    98          4
    99         57
   100          6
   101          3
   102          0
   103          0
   104          0
   105          0
   106          0
   107          0
   108          0
   109          3
   111        999
   112         66
   113         50
   114          4
   115          0
   116          0
   117          0
   118          0
   119          0
   121          0
   122          0
   123          0
   124          0
   125          0
   126          1
   127          2
   128          0
   129          0
   130          0
   131          0
   132          0
   133          0
   135          0
   136          0
   137          1
   138          0
   139          0
   140          0
   141          0
   142          0
   143          0
   144          0
   145          2
   146          0
   147          1
   148          0
   149          1
   150          0
   151          0
   152          0
   153          0
   154          0
   155          0
   156          0
   158          0
   163          0
   165          0
   166          0
   167          0
   169          0
   171          1
   173          1
   174          0
   175          0
   177          1
   178          0
   179          0
   180          0
   182         90
   183          9
   184          8
   185          1
   186          0
   187          0
   189          0
   193          0
   208          0
   209         11
   210        188
   211         22
   212         18
   213          2
   214          0