##TITLE=Library Entry 62939
##JCAMP-DX=Revision 4.10 
##DATA TYPE=MASS SPECTRUM
##SAMPLE DESCRIPTION=A.A.Kutin, Moscow, Russia
##NAMES=HP
##CAS NAME=4'-Bromo-4-phenylbutyranilide
##MOLFORM=C16H16BrNO
##CAS REGISTRY NO=300727-34-8
##MP= -300
##BP= -300
##MW= 317
##$RETENTION INDEX=0
##$CONDENSED SPECTRUM=NO
##NPOINTS= 121
##XYDATA=(XY..XY) 1 
    34          3
    36         40
    37         22
    38         79
    39        209
    40        158
    41        141
    42         36
    43         36
    44         55
    45         16
    46          6
    50         46
    51         90
    52         61
    53         29
    54         18
    55         60
    56         12
    57         16
    60          9
    61         17
    62         48
    63        222
    64        110
    65        350
    66         43
    67          5
    68          4
    69          4
    72          2
    73          3
    74         18
    75         20
    76         35
    77        133
    78        104
    79         82
    80         46
    82         68
    83          2
    84          4
    87          6
    88          3
    89         39
    90         70
    91        999
    92        235
    93         73
    94          9
    96          3
   102         10
   103         34
   104         91
   105         79
   106         32
   107         85
   108         18
   109          3
   112          3
   115         82
   117         54
   118         70
   119         54
   120         26
   121         72
   122         14
   123          4
   125          1
   127         19
   128          3
   129         41
   131          4
   132          8
   133         30
   134         17
   135         36
   136          3
   139          3
   143         29
   144         16
   145         38
   146         12
   147         55
   148         14
   149          4
   150          7
   155         13
   157         15
   158          2
   160          6
   161          4
   164         16
   165          2
   169         19
   170        119
   171        366
   172        114
   173        339
   174         23
   175          1
   178          1
   183          3
   184         38
   185         11
   186         36
   197          4
   198          4
   199          3
   200          2
   212         20
   213        208
   214         36
   215        202
   216         21
   239          6
   317         27
   319         32
   320          7
   321         12
   322          1