##TITLE=Library Entry 77492
##JCAMP-DX=Revision 4.10 
##DATA TYPE=MASS SPECTRUM
##SAMPLE DESCRIPTION=D.HENNEBERG, MAX-PLANCK INSTITUTE, MULHEIM, WEST GERMAN
Y
##NAMES=HP
##CAS NAME=Benzenebutanol, .alpha.-phenyl-
##MOLFORM=C16H18O
##CAS REGISTRY NO=30078-89-8
##MP= -300
##BP= -300
##MW= 226
##$RETENTION INDEX=0
##$CONDENSED SPECTRUM=NO
##NPOINTS= 105
##XYDATA=(XY..XY) 1 
    27          9
    28         41
    29          8
    30          2
    31          1
    32          3
    39          9
    41         16
    42          1
    43          7
    44         10
    46          0
    48          0
    49          0
    50          2
    51         14
    52          5
    53          6
    54          0
    55          7
    56          1
    57          2
    58          3
    59          2
    60          0
    63          2
    64          1
    65         36
    66          3
    67          0
    68          0
    69          1
    71          0
    73          0
    74          0
    75          3
    76          3
    77        144
    78         46
    79        417
    80         29
    81          1
    82          0
    89          4
    90          3
    91        264
    92         47
    93          3
    94          1
   101          0
   102          3
   103         25
   104        999
   105        138
   106         33
   107        775
   108         59
   109          2
   113          0
   115         24
   116          9
   117        100
   118         14
   119          3
   120         23
   121          2
   122          1
   127          1
   128          3
   129          5
   130          4
   131          6
   132          1
   133          7
   134          1
   141          0
   147          3
   148          0
   152          0
   153          0
   154          0
   155          0
   165          3
   166          1
   167          2
   178          1
   179          2
   180          2
   181          0
   182          0
   190          0
   192          1
   202          0
   203          0
   205          0
   206          1
   207          0
   208        182
   209         29
   210          5
   211          0
   224          0
   225          1
   226         16
   227          1