##TITLE=Library Entry 83250
##JCAMP-DX=Revision 4.10 
##DATA TYPE=MASS SPECTRUM
##SAMPLE DESCRIPTION=Japan AIST/NIMC Database- Spectrum MS-NW-5960
##NAMES=HP
##CAS NAME=Benzenamine, N-dodecyl-
##MOLFORM=C18H31N
##CAS REGISTRY NO=3007-74-7
##MP= -300
##BP= -300
##MW= 261
##$RETENTION INDEX=0
##$CONDENSED SPECTRUM=NO
##NPOINTS= 76
##XYDATA=(XY..XY) 1 
    27         10
    28          4
    29         25
    30          5
    39          9
    40          1
    41         39
    42          6
    43         36
    44          2
    50          1
    51          9
    52          2
    53          3
    54          1
    55         31
    56          5
    57         10
    63          1
    64          2
    65          9
    66          5
    67          4
    68          1
    69         12
    70          2
    71          2
    76          1
    77         44
    78         10
    79         15
    80          1
    81          1
    83          5
    84          1
    85          1
    91          5
    92          8
    93         32
    94         12
    95          1
    97          2
    98          1
   103          1
   104         10
   105          8
   106        999
   107         81
   108          3
   112          3
   117          3
   118          8
   119         11
   120          9
   121          1
   130          1
   131          1
   132          9
   133          2
   134          1
   146          1
   148          3
   162          3
   176          2
   190          1
   204          1
   218          2
   224          1
   232          1
   233          1
   246          1
   259          1
   260          5
   261        101
   262         22
   263          2