##TITLE=Library Entry 78299
##JCAMP-DX=Revision 4.10 
##DATA TYPE=MASS SPECTRUM
##SAMPLE DESCRIPTION=A.A.Kutin, Moscow, Russia
##NAMES=HP
##CAS NAME=N-(5-Isobutyl-1,3,4-thiadiazol-2-yl)benzamide
##MOLFORM=C13H15N3OS
##CAS REGISTRY NO=300727-74-6
##MP= -300
##BP= -300
##MW= 261
##$RETENTION INDEX=0
##$CONDENSED SPECTRUM=NO
##NPOINTS= 92
##XYDATA=(XY..XY) 1 
    44         17
    45        426
    46        262
    47         86
    50        390
    51        513
    52        173
    53         94
    54         57
    55        313
    56        207
    57        312
    59        342
    60        208
    61         53
    63         42
    65         88
    66         20
    67         80
    68        208
    69         73
    70         17
    71        138
    72         59
    73        114
    74        335
    75        259
    76        821
    77        512
    78         40
    80         50
    81         47
    83         79
    84        102
    85         20
    86         39
    89         23
    90         27
    91         80
    92         14
    99         34
   101        231
   103         70
   104        104
   105        999
   106        526
   107         31
   112         12
   113        104
   114        537
   115        158
   117         86
   119         43
   120         18
   122        264
   123         39
   128        131
   129        109
   131         30
   132         15
   136        124
   138         11
   141         31
   142        165
   143         48
   147         57
   148         20
   156         17
   157        111
   174        148
   182         12
   184        366
   186         35
   192         25
   213         25
   219        627
   220        486
   221        260
   222         40
   231          9
   232         59
   233        576
   234        177
   235         63
   246        504
   247        110
   248         10
   259         17
   260        511
   261        423
   262        179
   263         54