##TITLE=Library Entry 23002
##JCAMP-DX=Revision 4.10 
##DATA TYPE=MASS SPECTRUM
##SAMPLE DESCRIPTION=A.A.Kutin, Moscow, Russia
##NAMES=HP
##CAS NAME=1H-Benzo[d, E]isoquinoline-1,3-dione, 2,3-dihydro-2-(1,5-dimethyl
pyrazol-4-yl)-
##MOLFORM=C17H13N3O2
##CAS REGISTRY NO=300700-37-2
##MP= -300
##BP= -300
##MW= 291
##$RETENTION INDEX=0
##$CONDENSED SPECTRUM=NO
##NPOINTS= 199
##XYDATA=(XY..XY) 1 
    33          0
    34          1
    36          1
    37          6
    38         17
    39         53
    40         35
    41         27
    42         46
    43         70
    44         18
    45          1
    47          0
    50         63
    51         71
    52         42
    53         22
    54         54
    56        999
    57         28
    58          0
    59          0
    61          7
    62         27
    63        104
    65         14
    66         22
    67         94
    68          9
    69          5
    70          3
    71          1
    72          1
    74        101
    75         95
    76        103
    77         62
    79          9
    80          3
    81         14
    82         26
    83          7
    84          2
    85          4
    86         22
    87         40
    88         11
    89          4
    90          2
    91         11
    94        141
    95        279
    96         15
    98         43
    99         58
   100         44
   101         20
   102          6
   103          2
   104          1
   105          1
   106          0
   107          0
   108          2
   109          5
   110          6
   111         41
   112          7
   113         13
   114         10
   115          5
   116          2
   117          2
   118          1
   119          0
   120          1
   122         10
   123          8
   125        141
   126        567
   127        113
   128          9
   129          1
   131          4
   132          0
   135          1
   136         10
   137          7
   138         12
   139         18
   140         20
   141          4
   142          0
   143          0
   146         45
   149          2
   150         11
   151         53
   152        223
   153        180
   154        206
   155         34
   156          3
   157          0
   161          0
   162          1
   163          7
   164         14
   165         16
   166         12
   167         12
   168          3
   169          2
   170          0
   171          1
   174          0
   175          2
   176          6
   177         13
   178         34
   180        519
   181        139
   182         24
   183          6
   184          0
   188          1
   189          3
   190         10
   191         16
   192         15
   193          9
   194          6
   195          7
   196          4
   197          9
   198         12
   199          1
   201          1
   202          4
   203         10
   204          7
   205         13
   206          7
   208         59
   209          9
   210         22
   211          4
   212          0
   215          0
   216          2
   217          5
   218          6
   219         22
   220         11
   221         13
   222         22
   223          4
   224          0
   229          1
   230          5
   231         15
   232          6
   233          3
   234          4
   235         11
   236         32
   237          5
   238          0
   243          1
   244          7
   245         18
   246        152
   247         42
   248         16
   249          9
   250          2
   251          0
   258          1
   259          2
   260          2
   261          5
   262         15
   263          9
   264          1
   271          0
   272          7
   273          3
   274         24
   275          5
   276          9
   277          1
   283          0
   284          0
   288         20
   290        144
   291        992
   292        195
   293         22
   294          1