##TITLE=Library Entry 70965
##JCAMP-DX=Revision 4.10 
##DATA TYPE=MASS SPECTRUM
##SAMPLE DESCRIPTION=Chemical Concepts
##NAMES=HP
##CAS NAME=N,N'-Hexamethylenebis(hexahydroazepine-1-carboxamide)
##MOLFORM=C20H38N4O2
##CAS REGISTRY NO=300726-52-7
##MP= -300
##BP= -300
##MW= 366
##$RETENTION INDEX=0
##$CONDENSED SPECTRUM=NO
##NPOINTS= 210
##XYDATA=(XY..XY) 1 
    34         13
    36         57
    38         22
    39         86
    40        149
    41        400
    42        191
    43        306
    44        241
    46          5
    47          1
    48          3
    49          3
    50          9
    51         11
    53         34
    55        567
    56        303
    57        154
    58         28
    59         10
    60          9
    61          9
    62          4
    63          6
    64          5
    65          9
    66         20
    68         58
    69         77
    70        218
    71         39
    72          9
    73         14
    74          9
    75          6
    76          8
    77          9
    79         18
    80          9
    81         36
    82         41
    83         95
    84         81
    85         18
    86         19
    87         11
    88          9
    89          7
    90          2
    91          6
    92          1
    93          3
    94          4
    96         35
    98        999
    99        110
   100        154
   101         14
   102          4
   103          2
   104          2
   105          5
   106          2
   107          2
   108          2
   109          4
   110          4
   111          9
   112         24
   113         15
   114          7
   115          6
   116          3
   117          3
   118          2
   119          2
   120          2
   121          2
   122          2
   123          3
   124          7
   126        271
   127         45
   128          6
   129          6
   130          3
   131          3
   133          4
   134          3
   135          3
   136          2
   137          1
   138          2
   139          3
   141         32
   142         31
   143         37
   144          6
   145          2
   146          1
   147          1
   148          1
   149          9
   150          1
   151          3
   152          4
   153          5
   154          4
   155         22
   156         23
   157          6
   158          2
   160          1
   161          2
   162          1
   163          1
   164          1
   165          1
   166          1
   167          2
   169         24
   170         12
   171         17
   172          3
   173          1
   175          1
   176          3
   177          8
   179          6
   180          1
   181          2
   183         25
   184          9
   185          3
   186          1
   187          1
   188          1
   189          2
   191          1
   193          1
   194          1
   195          2
   196          3
   197         33
   198         15
   199          4
   200          1
   205          1
   207          1
   209          4
   211         74
   212         34
   213          5
   214          1
   219          1
   221          1
   222          3
   223          8
   225         79
   226         13
   227          4
   228          1
   235          1
   236          2
   237          6
   238          3
   239          3
   240         31
   241         36
   242         33
   243          5
   248          1
   251          1
   252          1
   254          1
   255          1
   256          1
   260          1
   262          1
   264          4
   265          5
   267          9
   268         58
   269         25
   270         27
   271          5
   282          1
   283          6
   284          2
   285          1
   291          1
   293          2
   295          2
   297          1
   301          3
   311          1
   325          1
   338          1
   352          1
   362          2
   363          3
   364          3
   365          6
   366        136
   367         30
   368          5
   369          1
   371          1
   373          1