##TITLE=Library Entry 74433
##JCAMP-DX=Revision 4.10 
##DATA TYPE=MASS SPECTRUM
##SAMPLE DESCRIPTION=Exported from NIST MS Search
##NAMES=HP
##CAS NAME=Cyclopentane, 1,2,3,4-tetramethoxy-, stereoisomer
##MOLFORM=C9H18O4
##CAS REGISTRY NO=30077-15-7
##MP= -300
##BP= -300
##MW= 190
##$RETENTION INDEX=0
##$CONDENSED SPECTRUM=NO
##NPOINTS= 53
##XYDATA=(XY..XY) 1 
    41        120
    42         30
    43         40
    45        240
    47         40
    53         20
    54         10
    55         30
    56         20
    57         30
    58         30
    59         70
    67         10
    68         10
    69         20
    70         10
    71        260
    72         40
    73         80
    74         20
    75        630
    76         20
    81         10
    83         20
    84         20
    85         40
    87         20
    88         80
    89         20
    95         20
    96         10
    97         20
    98         10
    99         10
   101        999
   102        100
   103         10
   111         10
   115         10
   117         30
   119         20
   126         10
   127        200
   128         20
   129         30
   131        170
   132         30
   143         90
   144         10
   157         10
   158        200
   175         10
   190          3