##TITLE=Library Entry 45108
##JCAMP-DX=Revision 4.10 
##DATA TYPE=MASS SPECTRUM
##SAMPLE DESCRIPTION=Chemical Concepts
##NAMES=HP
##CAS NAME=2-(4-Acetylphenylcarbamoyl)-4-nitrobenzoic acid
##MOLFORM=C16H12N2O6
##CAS REGISTRY NO=300727-78-0
##MP= -300
##BP= -300
##MW= 328
##$RETENTION INDEX=0
##$CONDENSED SPECTRUM=NO
##NPOINTS= 109
##XYDATA=(XY..XY) 1 
    34         20
    36         32
    37         97
    38        112
    39        258
    40        310
    41        186
    43        713
    44        112
    46         62
    49         33
    50        124
    51         96
    52        100
    53         52
    55        111
    56         32
    57         95
    60         24
    61         39
    62         86
    63        285
    64        136
    65        208
    66         29
    67         17
    68         10
    69         41
    70         37
    71         40
    74        281
    75        999
    76        111
    77         86
    78         26
    79         43
    80         11
    81         11
    82         21
    83         29
    84         21
    85         11
    87         21
    88         24
    90        271
    91        164
    92        175
    93         11
    97         11
    98         10
   100         14
   102         16
   103        117
   104         33
   105         24
   106         16
   111          9
   112         22
   113         15
   117         23
   118         51
   119         64
   120        296
   121         28
   125          9
   126          9
   127         11
   129         10
   132         34
   133         12
   135        151
   136         11
   137          9
   138         32
   139         16
   146         45
   147         12
   149        168
   150         16
   152         13
   153         22
   154         10
   163         12
   164         73
   165         69
   166         13
   171         29
   177         13
   181         14
   182         10
   192         11
   193         45
   194         12
   209         11
   220         13
   221         19
   222         10
   237         39
   248         25
   249        103
   250         16
   265        149
   266         28
   280         71
   281         12
   295        329
   296         52
   310         90
   311         16