##TITLE=Library Entry 1769
##JCAMP-DX=Revision 4.10 
##DATA TYPE=MASS SPECTRUM
##SAMPLE DESCRIPTION=A.A.Kutin, Moscow, Russia
##NAMES=HP
##CAS NAME=2,4,6(1H,3H,5H)-Pyrimidinetrione, 5-[(3,4-dihydroxyphenyl)methyle
ne]-1-(2-propenyl)-
##MOLFORM=C14H12N2O5
##CAS REGISTRY NO=300733-40-8
##MP= -300
##BP= -300
##MW= 288
##$RETENTION INDEX=0
##$CONDENSED SPECTRUM=NO
##NPOINTS= 90
##XYDATA=(XY..XY) 1 
    39        999
    40        188
    41        636
    42        388
    43        346
    44        258
    50        125
    51        313
    52        187
    53        223
    54        645
    55        279
    56        861
    57        136
    62        136
    63        238
    64         84
    65         57
    66         51
    67         74
    69        273
    70        198
    71         15
    73         12
    74         84
    76        189
    77        360
    78        169
    79        107
    80         46
    82        498
    83        111
    86         24
    87        115
    88        313
    89        201
    90         29
    91         48
    92         11
    93         29
    94         14
    99         47
   102         63
   103         43
   104         99
   105        295
   106         40
   108         42
   110         23
   114         10
   115         34
   116         54
   117         82
   119         32
   121         68
   122         43
   123        200
   130         44
   131         31
   132         99
   133        141
   134        784
   135         89
   137         55
   142         22
   145          6
   147         37
   148        236
   149         85
   150         34
   151         11
   153         57
   158          8
   159         30
   161        466
   162        500
   168          8
   170         32
   173          8
   174         53
   176         48
   188        112
   189        123
   202          7
   204         30
   230         25
   273         76
   287         31
   288        529
   289         79