##TITLE=Library Entry 90863
##JCAMP-DX=Revision 4.10 
##DATA TYPE=MASS SPECTRUM
##SAMPLE DESCRIPTION=Chemical Concepts
##NAMES=HP
##CAS NAME=N-(2-Bromophenyl)-N'-methylsuccinamide
##MOLFORM=C11H13BrN2O2
##CAS REGISTRY NO=300726-02-7
##MP= -300
##BP= -300
##MW= 284
##$RETENTION INDEX=0
##$CONDENSED SPECTRUM=NO
##NPOINTS= 130
##XYDATA=(XY..XY) 1 
    33          3
    34          6
    36          1
    37         12
    38         26
    39         54
    41         25
    42         35
    43         22
    44         11
    45         13
    46          1
    49          1
    50         24
    51         19
    52         25
    53          7
    55        251
    56         53
    57         29
    58        509
    59         28
    60          5
    61          6
    62         19
    63         81
    64         63
    65         92
    66         13
    67          4
    68         30
    69          9
    70          5
    71          6
    73         12
    74         14
    75         24
    76         23
    77         15
    78          6
    79         10
    80         13
    81          7
    82         14
    83          5
    84         16
    85         17
    86        253
    87         21
    88          7
    89          6
    90         53
    91         99
    92         85
    93         41
    94          5
    95          1
    96          2
    99          5
   100          1
   101          1
   102          6
   103          7
   104          8
   105          5
   106          3
   107          2
   111          3
   113         37
   114        999
   115         61
   116          9
   117         12
   118         10
   119         30
   120          6
   121          1
   122          1
   127         10
   128          3
   129          5
   130          3
   131          1
   132         12
   133          3
   143         14
   144          3
   145         18
   146         19
   147          7
   148          5
   152          1
   155         10
   156          1
   157          9
   162          1
   169          6
   170         29
   171        500
   172         63
   173        469
   174         60
   175          5
   183          1
   184          2
   185          3
   186          2
   187          9
   195          1
   197          5
   198          9
   199          4
   200          9
   203          1
   205         22
   206          4
   208          1
   210          3
   212          1
   226          7
   227          1
   228          8
   254          8
   255          2
   256          9
   257          1
   266          1
   284         10
   285          2
   286          9