##TITLE=Library Entry 56586
##JCAMP-DX=Revision 4.10 
##DATA TYPE=MASS SPECTRUM
##SAMPLE DESCRIPTION=Div. of Experiment Therapeutics WRAIR, WRAMC, Washingto
n DC 20307
##NAMES=HP
##CAS NAME=1,2-Benzenediamine, N,N-bis[(2-diethylamino)ethyl]-4,5-dimethoxy-
##MOLFORM=C20H38N4O2
##CAS REGISTRY NO=30072-70-9
##MP= -300
##BP= -300
##MW= 366
##$RETENTION INDEX=0
##$CONDENSED SPECTRUM=NO
##NPOINTS= 128
##XYDATA=(XY..XY) 1 
    42        107
    44        214
    45         20
    48         37
    49          4
    50         11
    51          4
    52         12
    53          5
    54         12
    55          2
    56         65
    58        205
    59          6
    62          1
    64         34
    65         50
    66         10
    67          7
    68         10
    69          4
    70         31
    71         23
    72        109
    73          9
    74         13
    78         73
    79        156
    81         99
    82          4
    83          4
    84         23
    86        999
    87         50
    88          1
    90          3
    92          5
    93          3
    94         12
    96        133
    97          9
    98         16
   100        660
   101         33
   103          1
   104          1
   105          3
   106          5
   107          5
   108          5
   109         12
   110          5
   113          8
   118          4
   120          1
   121          4
   122         10
   123          9
   125          5
   127          3
   129          6
   131          1
   132          1
   133          5
   134          4
   135         11
   136          6
   137          6
   138          3
   139          4
   147          8
   148          5
   149         11
   150          3
   151         10
   152          4
   153          3
   154          8
   161          5
   162          4
   163         18
   164          7
   165         12
   166         14
   167          4
   175          9
   176         18
   177         19
   178          8
   179         61
   180          9
   181         87
   182          6
   189          5
   190          4
   191         18
   192         20
   193         35
   194         17
   195          9
   196          5
   203          5
   204          4
   205          9
   207        322
   208         34
   209         29
   210          1
   219          1
   221         27
   222          3
   235         49
   236          6
   249          1
   250          2
   252          5
   263          1
   267        115
   268         15
   278         16
   280        100
   281         16
   292          1
   293         65
   294         15
   307          3
   366         44
   367         15