##TITLE=Library Entry 89174
##JCAMP-DX=Revision 4.10 
##DATA TYPE=MASS SPECTRUM
##SAMPLE DESCRIPTION=Chemical Concepts
##NAMES=HP
##CAS NAME=N-(4,5-Diphenyl-2-thiazolyl)-2-thiophenecarboxamide
##MOLFORM=C20H14N2OS2
##CAS REGISTRY NO=300852-75-9
##MP= -300
##BP= -300
##MW= 362
##$RETENTION INDEX=0
##$CONDENSED SPECTRUM=NO
##NPOINTS= 45
##XYDATA=(XY..XY) 1 
    38         91
    39        103
    44         22
    45          9
    50         26
    51         21
    52          5
    57         15
    63         10
    64          6
    65          5
    69         14
    77         90
    81          5
    83         62
    84          5
    89         11
   102          6
   103          8
   104          5
   111        999
   113         70
   115          5
   121         45
   146          4
   151          5
   152          4
   163          6
   165         40
   166          4
   176          6
   178         19
   190          9
   208         14
   210         72
   211          9
   223          4
   234          4
   251          5
   278          3
   331          9
   334          8
   362        137
   363         28
   364         12