##TITLE=Library Entry 85493
##JCAMP-DX=Revision 4.10 
##DATA TYPE=MASS SPECTRUM
##SAMPLE DESCRIPTION=A.A.Kutin, Moscow, Russia
##NAMES=HP
##CAS NAME=Quinoline-3-carboxamide, 1,2-dihydro-4-hydroxy-1-methyl-2-oxo-N-(
6-methyl-2-pyridyl)-
##MOLFORM=C17H15N3O3
##CAS REGISTRY NO=300804-87-9
##MP= -300
##BP= -300
##MW= 309
##$RETENTION INDEX=0
##$CONDENSED SPECTRUM=NO
##NPOINTS= 169
##XYDATA=(XY..XY) 1 
    37          1
    38          7
    39         21
    40          6
    41          6
    42          8
    43          2
    44          2
    45          0
    50          7
    51         11
    52          8
    53         12
    54          1
    55          1
    56          0
    57          0
    58          0
    59          0
    61          0
    62          3
    63         11
    64         10
    65         24
    66         10
    67          3
    68          2
    69          6
    70          0
    71          0
    72          0
    73          1
    74          2
    75          6
    76         19
    77         52
    78         19
    79         14
    80         53
    81         72
    82          2
    85          0
    86          1
    87          2
    88          3
    89         16
    90         18
    91         42
    92         58
    93         10
    94          4
    95          1
    97          0
    98          0
    99          0
   100          1
   101          5
   102         10
   103         24
   104         60
   105         56
   106         56
   108        999
   109         92
   110          4
   112          1
   113          3
   114         53
   115         10
   116         16
   117         19
   118          8
   119         13
   120          7
   121          3
   122          2
   123          1
   125          0
   126          1
   127          1
   128          4
   129          2
   130          5
   131          5
   132         28
   133         21
   134         44
   135         28
   139          0
   141         14
   142          0
   143          1
   144          3
   145          6
   146         13
   147          6
   148          1
   149          0
   155         29
   156          0
   158          3
   159          2
   160          1
   161          2
   162          0
   168          0
   169          0
   170          1
   171          2
   172          6
   173          8
   174          5
   175         13
   176          4
   177          0
   185          0
   186          1
   187          3
   188          6
   189          0
   190          0
   195          0
   198          0
   201         62
   202         52
   203          4
   204          0
   210          0
   212          0
   214          0
   215          0
   216          0
   217          2
   218          0
   219          0
   221          0
   224          0
   236          0
   237          0
   238          0
   249          0
   250          0
   251          0
   252          1
   254          0
   256          1
   258          3
   259          0
   263          0
   264          6
   265          3
   266          3
   267          0
   277          0
   279          0
   280          2
   281         10
   282          1
   292          0
   294          0
   295          0
   301          1
   305          1
   306          3
   309        283
   310         42
   311          4
   312          0
   315          1