##TITLE=Library Entry 56513
##JCAMP-DX=Revision 4.10 
##DATA TYPE=MASS SPECTRUM
##SAMPLE DESCRIPTION=A.A.Kutin, Moscow, Russia
##NAMES=HP
##CAS NAME=Methanone, (4-fluorophenyl)(3-pyridyl)-, o-(2-diethylaminoethyl)-
oxime
##MOLFORM=C18H22FN3O
##CAS REGISTRY NO=300812-81-1
##MP= -300
##BP= -300
##MW= 315
##$RETENTION INDEX=0
##$CONDENSED SPECTRUM=NO
##NPOINTS= 89
##XYDATA=(XY..XY) 1 
    42          5
    43          1
    44          3
    45          4
    46          0
    50          4
    51          7
    52          0
    54          0
    55          6
    56         11
    58         18
    63          0
    64          0
    69          6
    70          9
    71         14
    72          5
    73          0
    74          6
    75         17
    76         11
    77         13
    78         32
    79          3
    81          2
    82          5
    83         19
    86        999
    88          1
    92          1
    93          3
    94         18
    95         37
    96          6
    98         19
    99        112
   100         19
   101          1
   103          3
   104          3
   105          7
   106          2
   107          2
   109          2
   111          0
   113          3
   114         21
   115         18
   116          3
   120          3
   121         11
   122          2
   125          0
   126          0
   127          1
   128          0
   131          0
   132          7
   133          0
   138          0
   139          1
   140          0
   144          0
   145          1
   146          0
   152          1
   155          1
   157         19
   158          3
   168          0
   170          1
   172          1
   179          0
   181          2
   182          0
   183          2
   184          7
   185          7
   186          0
   197          2
   198          5
   199         38
   200          9
   201         10
   210          0
   226          1
   228         12
   229          1