##TITLE=Library Entry 54500
##JCAMP-DX=Revision 4.10 
##DATA TYPE=MASS SPECTRUM
##SAMPLE DESCRIPTION=A.A.Kutin, Moscow, Russia
##NAMES=HP
##CAS NAME=Benzo[h]quinazolin-4(3H)-one, 5,6-dihydro-2-(1-piperidylmethyl)-s
piro-5-cyclopentane-
##MOLFORM=C22H27N3O
##CAS REGISTRY NO=300839-52-5
##MP= -300
##BP= -300
##MW= 349
##$RETENTION INDEX=0
##$CONDENSED SPECTRUM=NO
##NPOINTS= 200
##XYDATA=(XY..XY) 1 
    36          0
    38          1
    39          9
    40          5
    41         63
    42         51
    43         15
    44         22
    45          0
    50          1
    51          2
    52          1
    53          4
    54          5
    55         60
    56         22
    57         10
    58          1
    63          1
    65          2
    66          1
    67          7
    68          6
    69         17
    70         17
    71          5
    73          1
    76          1
    77          5
    78          1
    79          2
    80          2
    81          2
    82          9
    83         22
    84        999
    85         62
    86          8
    87          1
    88          0
    89          3
    90          2
    91          4
    92          1
    93          0
    94          1
    95          1
    96         22
    97          7
    98        147
    99         11
   100          0
   101          2
   102          2
   103          3
   104          2
   105          2
   108          1
   109          2
   111          6
   112          6
   113          3
   114          2
   115         11
   116          7
   117          3
   118          4
   119          1
   122          1
   123          1
   124          2
   125          4
   126          7
   127         15
   128          8
   129          5
   130          3
   131          1
   132          3
   133          1
   137          0
   138          2
   139         13
   140         19
   141         14
   142          5
   143          2
   144          0
   145          1
   146          1
   147          1
   149          1
   150          2
   151          6
   152         22
   153         28
   154         27
   155          7
   156          7
   157          1
   158          1
   160          2
   161          1
   163          1
   164          3
   165         17
   166         19
   167         23
   168         20
   169          9
   170          6
   171          7
   175          2
   176          1
   177          4
   178         12
   179         16
   180         20
   181         18
   182         18
   183          7
   184          7
   185          1
   189          1
   190          5
   191          6
   192         14
   193         17
   194         24
   195         15
   196         13
   197          5
   198          2
   199          1
   203          1
   204          3
   205          5
   206          7
   207          7
   208          9
   209         18
   210         16
   211          8
   212          1
   216          1
   217          3
   218          5
   219          9
   220          6
   221          9
   222         30
   223         62
   224        253
   225         40
   226          4
   230          1
   231          1
   232          1
   233          1
   234          3
   235         24
   236         27
   237         74
   238         19
   239          3
   245          1
   246          1
   247          1
   248          2
   249         10
   250          4
   251          7
   252          2
   253          3
   261          1
   262          1
   263          4
   264         15
   265         26
   266        529
   267        103
   268         11
   269          1
   283          1
   292          1
   294          2
   305          1
   306          1
   307          1
   308         10
   309          2
   318          2
   319          0
   320         12
   321          3
   334          1
   347          1
   348          9
   349         11
   350          2