##TITLE=Library Entry 63325
##JCAMP-DX=Revision 4.10 
##DATA TYPE=MASS SPECTRUM
##SAMPLE DESCRIPTION=A.A.Kutin, Moscow, Russia
##NAMES=HP
##CAS NAME=N-(4-Isopropylbenzyl)-3-phenylpropionamide
##MOLFORM=C19H23NO
##CAS REGISTRY NO=300862-83-3
##MP= -300
##BP= -300
##MW= 281
##$RETENTION INDEX=0
##$CONDENSED SPECTRUM=NO
##NPOINTS= 96
##XYDATA=(XY..XY) 1 
    34          1
    36          6
    37          8
    39        274
    40         97
    41        221
    42         92
    43        368
    44        160
    45         12
    50         91
    51        222
    52         62
    53         45
    54         16
    55         56
    56         28
    57         10
    58          4
    59          3
    62         12
    63         95
    65        253
    66         14
    67          3
    69          1
    70          1
    71          0
    72          1
    73          0
    74         17
    75         28
    77        435
    78        179
    79        264
    80         12
    83          0
    84          0
    87          0
    89         75
    91        999
    92         85
    93         24
    94          0
   102         48
   103        213
   104        215
   105        618
   106        407
   107        138
   108          6
   115        104
   117        331
   118        160
   119         72
   120         13
   121          4
   122          0
   127          3
   128         15
   129         20
   130         49
   131        152
   132        191
   133        578
   134         97
   135          4
   143          0
   144          2
   145         15
   146         39
   147         87
   148        192
   149        282
   150         29
   160         14
   161          3
   162          2
   163          1
   164          2
   165          0
   174          3
   175          7
   176          1
   189         29
   190        762
   191         90
   192          4
   207          4
   222         22
   223          1
   238          6
   266          4
   281        478
   282         84
   283          7