##TITLE=Library Entry 67802
##JCAMP-DX=Revision 4.10 
##DATA TYPE=MASS SPECTRUM
##SAMPLE DESCRIPTION=FOOD RESEARCH REPORT 122, K.E. MURRAY & COLLEAGUES, DIV
 OF FOOD RESEARCH, CSIRO, AUSTRALIA
##NAMES=HP
##CAS NAME=3,5-Octadien-2-one, (E,E)-
##MOLFORM=C8H12O
##CAS REGISTRY NO=30086-02-3
##MP= -300
##BP= -300
##MW= 124
##$RETENTION INDEX=1073
##$CONDENSED SPECTRUM=NO
##NPOINTS= 53
##XYDATA=(XY..XY) 1 
    26         40
    27        350
    29        110
    31         10
    37         20
    38         50
    39        420
    40         70
    41        390
    42         40
    43        980
    44         30
    45         10
    46         10
    49         10
    50         70
    51        130
    52         70
    53        330
    54         50
    55        110
    56         10
    61         10
    62         10
    63         40
    64         10
    65        100
    66         80
    67         70
    68         10
    69         10
    73         10
    74         10
    75         10
    77        110
    78         30
    79        220
    80         40
    81        560
    82         70
    83         10
    91         30
    94         10
    95        999
    96         60
    97         10
   107         20
   109        180
   110         20
   122         10
   123         20
   124        190
   125         20