##TITLE=Library Entry 81196
##JCAMP-DX=Revision 4.10 
##DATA TYPE=MASS SPECTRUM
##SAMPLE DESCRIPTION=A.A.Kutin, Moscow, Russia
##NAMES=HP
##CAS NAME=N-Naphthalen-2-yl-2-(2-oxo-2-phenyl-ethylsulfanyl)-acetamide
##MOLFORM=C20H17NO2S
##CAS REGISTRY NO=300808-97-3
##MP= -300
##BP= -300
##MW= 335
##$RETENTION INDEX=0
##$CONDENSED SPECTRUM=NO
##NPOINTS= 195
##XYDATA=(XY..XY) 1 
    34          0
    35          2
    36          0
    37          0
    38          4
    39         27
    40         14
    41          8
    42         11
    43         12
    44          7
    45         27
    46         13
    47         14
    48          0
    49          1
    50         28
    51        113
    52         12
    53          3
    54          0
    55          4
    56          1
    57          4
    58          1
    59         12
    60          6
    61          6
    62         10
    63         37
    64          9
    65         47
    66          3
    67          0
    68          0
    69          3
    70          2
    71          3
    72          0
    73          1
    74         11
    75         18
    76         28
    77        452
    78         60
    79          5
    80          0
    81          1
    82          0
    83          1
    84          1
    85          0
    86          3
    87         13
    88         17
    89         51
    90         12
    91        156
    92         14
    93          1
    94          0
    95          0
    96          0
    97          0
    98          1
    99          1
   100          2
   101         12
   102          8
   103         10
   105        999
   106         78
   107          5
   108          1
   109          0
   110          0
   111          1
   112          2
   113         27
   114         61
   115        477
   116         78
   117          7
   118          1
   119          3
   120         38
   121          8
   122          2
   123          2
   124          0
   125          2
   126         25
   127        114
   128         57
   129         44
   130         13
   131          2
   132          0
   133          0
   134          1
   135          4
   136          2
   137         16
   138          2
   139          8
   140         65
   141        110
   142        105
   143        517
   144         70
   145          4
   146          1
   147         17
   148          2
   149          2
   150          1
   151          2
   152          3
   153          3
   154         14
   155         15
   156        162
   157         25
   159        123
   160         15
   161          2
   163          1
   164          1
   165         16
   166          6
   167         62
   168         17
   169        109
   170         18
   171          6
   172          4
   173         25
   174         81
   175          9
   176          4
   177          0
   180          0
   182        110
   183         49
   184        132
   185        374
   186         54
   187          7
   188          5
   189          1
   190          0
   191          0
   192          2
   193          0
   196          1
   197          0
   198          2
   199          1
   200          1
   201          0
   202          1
   203          0
   204          0
   213          8
   214          3
   215         46
   216         13
   217          8
   218          1
   219          0
   228          0
   229          0
   230          5
   231          1
   232          2
   233          0
   243          0
   246          0
   247          5
   248          0
   260          1
   261          4
   262          0
   278          0
   283          0
   289          4
   290          0
   302         24
   303          5
   304          0
   333          2
   335        286
   336         59
   337         17
   338          2