##TITLE=Library Entry 19898
##JCAMP-DX=Revision 4.10 
##DATA TYPE=MASS SPECTRUM
##SAMPLE DESCRIPTION=Chemical Concepts
##NAMES=HP
##CAS NAME=1,2-Cyclooctanedione
##MOLFORM=C8H12O2
##CAS REGISTRY NO=3008-37-5
##MP= -300
##BP= -300
##MW= 140
##$RETENTION INDEX=0
##$CONDENSED SPECTRUM=NO
##NPOINTS= 75
##XYDATA=(XY..XY) 1 
    25          5
    26        117
    27        573
    29        242
    30          1
    31         19
    37          6
    38         24
    39        248
    40         59
    41        444
    42        157
    43        159
    44          5
    45          3
    50         28
    51         29
    52         11
    53        119
    54         41
    55        999
    56        877
    57        216
    58         26
    61          4
    62          2
    63          8
    64          2
    65         15
    66         21
    67        106
    68        314
    69        178
    70         62
    71         51
    72         17
    73          4
    74          4
    77         12
    78          8
    79         62
    80          8
    81         21
    82         12
    83        393
    84        405
    85         58
    86          3
    90          3
    91         18
    92          3
    93         18
    94         24
    95         93
    96         14
    97        586
    98         53
    99          4
   103          2
   105          6
   106          3
   107          6
   108          2
   109          3
   111         78
   112        613
   113         54
   114          3
   121          3
   122          6
   123          2
   124         14
   125          3
   140         27
   141          3