##TITLE=Library Entry 56172
##JCAMP-DX=Revision 4.10 
##DATA TYPE=MASS SPECTRUM
##SAMPLE DESCRIPTION=LAC, NIDDK, NIH, Bethesda, MD 20892
##NAMES=HP
##CAS NAME=Imidazole, 4-fluoro-
##MOLFORM=C3H3FN2
##CAS REGISTRY NO=30086-17-0
##MP= -300
##BP= -300
##MW= 86
##$RETENTION INDEX=0
##$CONDENSED SPECTRUM=NO
##NPOINTS= 30
##XYDATA=(XY..XY) 1 
    41         35
    42          8
    43         10
    44         17
    45          7
    46          6
    49          1
    50          2
    51          4
    52          2
    53          9
    54          0
    55         38
    56          2
    57         27
    58         88
    59        275
    60          8
    64          1
    65          0
    66          6
    67          7
    69          7
    70          2
    71          1
    83          1
    85          4
    86        999
    87         57
    88          1