##TITLE=Library Entry 99794
##JCAMP-DX=Revision 4.10 
##DATA TYPE=MASS SPECTRUM
##SAMPLE DESCRIPTION=Chemical Concepts
##NAMES=HP
##CAS NAME=2-(4-Methoxyphenyl)-3-(p-toluoyl)-1,3-benzoxazin-4-one
##MOLFORM=C23H19NO4
##CAS REGISTRY NO=300802-13-5
##MP= -300
##BP= -300
##MW= 373
##$RETENTION INDEX=0
##$CONDENSED SPECTRUM=NO
##NPOINTS= 110
##XYDATA=(XY..XY) 1 
    38         38
    39         62
    40         13
    41         21
    42          4
    43          5
    44          4
    45          1
    50         32
    51         34
    52          8
    53          9
    54          2
    55          4
    56          2
    57          4
    63        125
    64         90
    65        160
    66          9
    67          1
    69          3
    70          4
    71          2
    72          1
    74          7
    75         10
    77        120
    78         11
    79          4
    80          1
    83          1
    84          1
    85          1
    86          2
    89         53
    91        581
    92        102
    93         13
    94          2
    95          1
    97          1
    98          1
    99          1
   101          2
   102          3
   103          5
   105         70
   106          9
   107         14
   108          2
   112          1
   113          1
   114          1
   115          3
   116          4
   119        999
   120         80
   121         34
   122          4
   123          1
   126          5
   128          2
   129          1
   133         11
   134         15
   135          9
   136          1
   139          3
   140          1
   141          1
   147          1
   149          1
   151          1
   152          2
   153          2
   154          2
   155          1
   156          1
   162         10
   163          2
   165          1
   166          1
   167          2
   168          2
   169          1
   171          1
   180          1
   181          1
   182          1
   183          3
   195          1
   197          1
   209          1
   210          1
   211          2
   212          1
   223          1
   225         14
   226          6
   227          1
   235          1
   239        104
   240         12
   241          2
   252         14
   254        228
   255         24
   256          3
   373          2