##TITLE=Library Entry 2612
##JCAMP-DX=Revision 4.10 
##DATA TYPE=MASS SPECTRUM
##SAMPLE DESCRIPTION=Chemical Concepts
##NAMES=HP
##CAS NAME=9-Borabicyclo[3.3.1]nonane, 9-octyl-
##MOLFORM=C16H31B
##CAS REGISTRY NO=30089-00-0
##MP= -300
##BP= -300
##MW= 234
##$RETENTION INDEX=0
##$CONDENSED SPECTRUM=NO
##NPOINTS= 116
##XYDATA=(XY..XY) 1 
    26         16
    27        256
    28         21
    29        216
    30         16
    31         13
    35         22
    36         17
    37         74
    38         60
    39        186
    40        272
    41        999
    42        109
    43          4
    45          5
    50         46
    51        136
    52        267
    53        945
    54        295
    55        431
    56        117
    57         70
    60         20
    61          4
    62         17
    63         57
    64        143
    65        458
    66        302
    67        700
    68         45
    69        161
    70         88
    71         27
    72          2
    73         15
    75         12
    76         50
    77        121
    78        203
    79        439
    80        481
    81        573
    82        212
    83         86
    84         80
    88         23
    89         50
    90         56
    91        208
    92        290
    93        707
    94        588
    95        336
    96         84
    97        160
    99         13
   102         17
   103         19
   104          0
   105         67
   106         26
   107        157
   108        313
   109        170
   110         87
   111        293
   112         35
   113          2
   115          0
   118         10
   119         41
   120        196
   121        540
   122        430
   123         96
   124         54
   125         51
   126         17
   129         18
   133         45
   134         37
   135         82
   136         40
   137         40
   139         53
   140         20
   143          8
   144         18
   146         25
   149         27
   150         32
   151         18
   152         17
   158         15
   159         24
   160          1
   163         24
   174         13
   178         18
   179         15
   188         20
   191         23
   193         28
   201         18
   203         28
   205         22
   206         18
   208         10
   209          1
   233        180
   234        769
   235        108
   236          1