##TITLE=Library Entry 3554
##JCAMP-DX=Revision 4.10 
##DATA TYPE=MASS SPECTRUM
##SAMPLE DESCRIPTION=SHELL RESEARCH LIMITED THORNTON RESEARCH CENTRE
##NAMES=HP
##CAS NAME=Oxirane, 2-ethyl-2-methyl-
##MOLFORM=C5H10O
##CAS REGISTRY NO=30095-63-7
##MP= -300
##BP= -300
##MW= 86
##$RETENTION INDEX=634
##$CONDENSED SPECTRUM=NO
##NPOINTS= 28
##XYDATA=(XY..XY) 1 
    26         77
    27        362
    28        363
    29        535
    30         30
    31         49
    37         25
    38         39
    39        364
    40        103
    41        999
    42         99
    43        332
    50         38
    51         38
    52         19
    53         76
    54         81
    55        476
    56        532
    57        237
    58         99
    59         67
    71        636
    72         40
    85        260
    86        552
    87         40