##TITLE=Library Entry 63604
##JCAMP-DX=Revision 4.10 
##DATA TYPE=MASS SPECTRUM
##SAMPLE DESCRIPTION=A.A.Kutin, Moscow, Russia
##NAMES=HP
##CAS NAME=4-Amino-2-benzyl-2,4-dihydro-[1,2,4]triazole-3-thione
##MOLFORM=C9H10N4S
##CAS REGISTRY NO=30094-49-6
##MP= -300
##BP= -300
##MW= 206
##$RETENTION INDEX=0
##$CONDENSED SPECTRUM=NO
##NPOINTS= 90
##XYDATA=(XY..XY) 1 
    33          2
    38         22
    39         99
    40         15
    41         36
    42         19
    43         83
    44         36
    45         32
    46          9
    47          6
    50         71
    51        129
    52         24
    53          5
    54          1
    55         15
    56         10
    57          6
    58         33
    59         33
    60         30
    62         47
    63        130
    64         75
    65        362
    66         12
    70         97
    71         42
    72         14
    74         55
    75         31
    76         37
    77        129
    78         28
    79         25
    84          3
    85         13
    86          4
    87         16
    89        121
    91        999
    92         77
    93          6
    95          4
    96          8
   101         21
   102        127
   103         28
   104         93
   106        439
   107         27
   108          1
   115          1
   116         21
   117         35
   118          4
   119          8
   120         12
   121         50
   122          4
   123         10
   128         10
   129         12
   131         15
   134          4
   135          2
   146         41
   148         79
   149          4
   150          2
   152          3
   157          1
   160          1
   161          3
   162          9
   165         13
   166          1
   167         16
   173         20
   178         68
   179         13
   180          6
   189         34
   190         70
   191          9
   192          2
   206        653
   207         66
   208         26