##TITLE=Library Entry 76265
##JCAMP-DX=Revision 4.10 
##DATA TYPE=MASS SPECTRUM
##SAMPLE DESCRIPTION=Exported from NIST MS Search
##NAMES=HP
##CAS NAME=1,3-Oxathiane, 2-ethyl-
##MOLFORM=C6H12OS
##CAS REGISTRY NO=30098-77-2
##MP= -300
##BP= -300
##MW= 132
##$RETENTION INDEX=0
##$CONDENSED SPECTRUM=NO
##NPOINTS= 40
##XYDATA=(XY..XY) 1 
    26         40
    27        180
    28         80
    29        180
    31         70
    39        180
    40         30
    41        780
    42         60
    43         30
    44         20
    45        260
    46        560
    47        200
    48         30
    53         20
    55         20
    56         20
    57        140
    58         50
    59         80
    60         20
    61         20
    67         10
    69         10
    71         30
    72         20
    73         80
    74        390
    75        210
    76         40
    85         20
    86         10
    87         10
   103        999
   104         50
   105         50
   132        322
   133         20
   134         20