##TITLE=Library Entry 44857
##JCAMP-DX=Revision 4.10 
##DATA TYPE=MASS SPECTRUM
##SAMPLE DESCRIPTION=Exported from NIST MS Search
##NAMES=HP
##CAS NAME=1,3-Oxathiane, 2-ethyl-2-methyl-
##MOLFORM=C7H14OS
##CAS REGISTRY NO=30098-80-7
##MP= -300
##BP= -300
##MW= 146
##$RETENTION INDEX=0
##$CONDENSED SPECTRUM=NO
##NPOINTS= 42
##XYDATA=(XY..XY) 1 
    26         60
    27        250
    28         80
    29        240
    31         80
    39        220
    40         30
    41        700
    42         70
    43        950
    44         30
    45        240
    46        720
    47        150
    48         40
    53         80
    54         40
    55        280
    56         40
    57        260
    58         50
    59        260
    60         40
    61         50
    67         40
    69         50
    71         60
    72        170
    73        380
    74        999
    75        210
    76         70
    87         70
    88        130
    89         70
   117        999
   118         50
   119         50
   131         70
   146        217
   147         20
   148         10