##TITLE=Library Entry 30133
##JCAMP-DX=Revision 4.10 
##DATA TYPE=MASS SPECTRUM
##SAMPLE DESCRIPTION=Japan AIST/NIMC Database- Spectrum MS-NW- 733
##NAMES=HP
##CAS NAME=9-Octadecenamide, (Z)-
##MOLFORM=C18H35NO
##CAS REGISTRY NO=301-02-0
##MP= -300
##BP= -300
##MW= 281
##$RETENTION INDEX=2386
##$CONDENSED SPECTRUM=NO
##NPOINTS= 180
##XYDATA=(XY..XY) 1 
    17          2
    18         14
    27         31
    28         18
    29         74
    30          5
    32          4
    39         31
    40          6
    41        213
    42         33
    43        187
    44         93
    45          4
    46          1
    51          2
    52          2
    53         20
    54         48
    55        226
    56         49
    57         93
    58          6
    59        999
    60        104
    61          4
    65          6
    66          4
    67         72
    68         27
    69        130
    70         31
    71         29
    72        502
    73         66
    74          4
    77          6
    78          2
    79         17
    80         10
    81         58
    82         29
    83         77
    84         32
    85         14
    86         65
    87          9
    91          6
    92          1
    93          9
    94          9
    95         42
    96         31
    97         54
    98         57
    99         12
   100         38
   101         14
   102          1
   105          4
   106          1
   107          8
   108          9
   109         23
   110         23
   111         23
   112         48
   113         15
   114         59
   115         16
   116          1
   119          4
   120          2
   121          8
   122         27
   123         22
   124         16
   125         10
   126         54
   127         11
   128         51
   129          7
   133          4
   134          4
   135          6
   136         23
   137         16
   138         12
   139          7
   140         22
   141          6
   142         16
   143          3
   147          5
   148          3
   149          4
   150         10
   151         10
   152         10
   153          4
   154         20
   155          5
   156         12
   157          3
   161          3
   162          1
   163          2
   164          8
   165          6
   166          9
   167          3
   168          9
   169          3
   170         12
   171          3
   175          2
   177          1
   178          7
   179          5
   180          8
   181          3
   182          7
   183          3
   184         17
   185          4
   191          1
   192          6
   193          4
   194          5
   195          2
   196          5
   197          1
   198         11
   199          4
   206          6
   207          4
   208          4
   209          2
   210          6
   211          1
   212          9
   213          2
   220         10
   221          6
   222          9
   223          2
   224          5
   225          5
   226          7
   227          9
   228          1
   234          5
   235          4
   236          6
   237          1
   238         10
   239          3
   240          4
   241          3
   246          1
   248          1
   249          1
   250          1
   252          5
   253         13
   254          4
   255          9
   256          2
   262          3
   263         10
   264         26
   265          6
   266          1
   267          3
   269          2
   279          4
   280          2
   281         84
   282         17
   283          6