##TITLE=Library Entry 53104
##JCAMP-DX=Revision 4.10 
##DATA TYPE=MASS SPECTRUM
##SAMPLE DESCRIPTION=NIST Mass Spectrometry Data Center, 1998.
##NAMES=HP
##CAS NAME=Phosphorous acid, tris(2-ethylhexyl) ester
##MOLFORM=C24H51O3P
##CAS REGISTRY NO=301-13-3
##MP= -300
##BP= -300
##MW= 418
##$RETENTION INDEX=0
##$CONDENSED SPECTRUM=NO
##NPOINTS= 104
##XYDATA=(XY..XY) 1 
    26          1
    27         14
    29         46
    30          1
    31          1
    39         15
    40          3
    41        143
    42         22
    43        201
    44          7
    45          1
    47          2
    51          1
    52          1
    53          9
    54          8
    55        124
    56         57
    57        448
    58         21
    59          1
    63          1
    65          6
    66          2
    67         13
    68          9
    69         65
    70        108
    71        423
    72         27
    73          1
    77          3
    78          2
    79          3
    80          2
    81          7
    82          1
    83        999
    84         39
    85         14
    91          1
    93          1
    94          2
    95          4
    96         23
    97         13
    98          2
    99          3
   105          2
   106          1
   107          1
   108          1
   109          7
   110          5
   111          9
   112         59
   113        637
   114         60
   115          3
   117          1
   119          3
   120          1
   121          3
   122          2
   123         16
   124          2
   125          1
   129          1
   133          2
   134          1
   135          5
   136          3
   137         22
   138          3
   139          2
   147          2
   148          1
   149          2
   150          2
   151         17
   152          3
   153          3
   161          1
   163          2
   164          1
   165         16
   166          1
   175          1
   176          1
   177         11
   178          1
   179          3
   193          5
   194          7
   195        134
   196         12
   197          1
   277          1
   289          6
   290          1
   307         24
   308          4
   309          1