##TITLE=Library Entry 48707
##JCAMP-DX=Revision 4.10 
##DATA TYPE=MASS SPECTRUM
##SAMPLE DESCRIPTION=NIST Mass Spectrometry Data Center
##NAMES=HP
##CAS NAME=9,12,15-Octadecatrienoic acid, methyl ester, (Z,Z,Z)-
##MOLFORM=C19H32O2
##CAS REGISTRY NO=301-00-8
##MP= -300
##BP= -300
##MW= 292
##$RETENTION INDEX=2098
##$CONDENSED SPECTRUM=NO
##NPOINTS= 203
##XYDATA=(XY..XY) 1 
    15          9
    26          2
    27         33
    28          9
    29         59
    30          2
    31          4
    33          1
    39         88
    40         17
    41        354
    42         38
    43        134
    44          6
    45         17
    50          4
    51         19
    52         15
    53        105
    54         89
    55        414
    56         29
    57         43
    59        153
    60          5
    61          2
    62          1
    63          5
    64          1
    65         85
    66         90
    67        603
    68        121
    69        169
    70         12
    71         20
    72          2
    73         22
    74        102
    75          9
    77        233
    78        143
    79        999
    80        430
    81        422
    82        108
    83         84
    84         15
    85         29
    87        132
    88         12
    89          4
    91        332
    92         74
    93        567
    94        256
    95        583
    96         95
    97         63
    98         15
    99         15
   100          2
   101         31
   102          5
   103         17
   104         10
   105        121
   106         45
   107        274
   108        457
   109        157
   110         27
   111         25
   112          4
   113          6
   114          3
   115         35
   116          7
   117         39
   118          8
   119         64
   120         31
   121        225
   122        131
   123         59
   124         10
   125         12
   126          2
   127          7
   128          6
   129         31
   130          5
   131         42
   132          8
   133         41
   134         19
   135        162
   136        107
   137         27
   138          5
   139          6
   140          4
   141         10
   142          2
   143         20
   144          4
   145         17
   146          5
   147         38
   148         13
   149        135
   150         61
   151         12
   152          2
   153          4
   154          4
   155          3
   156          1
   157         10
   158          2
   159          9
   160          4
   161         19
   162         12
   163         46
   164         30
   165          7
   166          2
   167          4
   168          5
   169          1
   171          7
   172          2
   173         44
   174          7
   175         17
   176          5
   177         14
   178         13
   179          4
   180          2
   181          4
   182          3
   183          1
   185          5
   186          2
   187          4
   188          1
   189          9
   190          2
   191         24
   192          8
   193          3
   194          2
   195          2
   196          2
   197          1
   199          4
   200          1
   201          1
   203          5
   204          4
   205          3
   206          3
   207          4
   208          1
   209          2
   210          3
   211          1
   213          3
   214          1
   216          1
   217          7
   218          2
   219          1
   221          3
   222          4
   223         13
   224          6
   225          1
   231          5
   232          2
   233          1
   235          5
   236         53
   237         11
   238          5
   239          1
   243          3
   244          1
   249          9
   250          4
   251          3
   260          2
   261         37
   262          8
   263         21
   264          5
   265          1
   277          1
   292         64
   293         14
   294          2