##TITLE=Library Entry 100232
##JCAMP-DX=Revision 4.10 
##DATA TYPE=MASS SPECTRUM
##SAMPLE DESCRIPTION=NIST Mass Spectrometry Data Center, 2010
##NAMES=HP
##CAS NAME=Benzoic acid, 2-amino-, pentyl ester
##MOLFORM=C12H17NO2
##CAS REGISTRY NO=30100-15-3
##MP= -300
##BP= -300
##MW= 207
##$RETENTION INDEX=1753
##$CONDENSED SPECTRUM=NO
##NPOINTS= 95
##XYDATA=(XY..XY) 1 
    15          2
    26          2
    27         30
    28         11
    29         42
    30          2
    31          2
    37          2
    38          6
    39         55
    40          8
    41         66
    42         25
    43         53
    44         12
    45          1
    46          2
    50          3
    51          6
    52         18
    53          9
    54          3
    55         21
    56          3
    57          1
    58          7
    60          1
    61          1
    62          5
    63         23
    64         30
    65        165
    66         22
    67          3
    68          1
    69          3
    70          5
    71          3
    72          1
    74          2
    75          2
    76          4
    77          4
    78          1
    79          1
    80          3
    81          1
    84          1
    85          1
    88          1
    89          2
    90         10
    91         37
    92        254
    93         49
    94          5
   103          1
   104          1
   105          1
   106          2
   107          1
   108          1
   117          2
   118          4
   119        999
   120        374
   121         38
   122          3
   128          2
   130          1
   131          1
   132          6
   133          1
   135          1
   136          6
   137        356
   138         36
   139          2
   143          1
   144          1
   146          9
   147          2
   150          1
   158          1
   160          4
   161          3
   164          1
   165          1
   170          1
   172          1
   174          5
   189          2
   207        210
   208         27
   209          2