##TITLE=Library Entry 59693
##JCAMP-DX=Revision 4.10 
##DATA TYPE=MASS SPECTRUM
##SAMPLE DESCRIPTION=A.A.Kutin, Moscow, Russia
##NAMES=HP
##CAS NAME=Acetonitrile, [(phenylmethyl)amino]-
##MOLFORM=C9H10N2
##CAS REGISTRY NO=3010-05-7
##MP= -300
##BP= -300
##MW= 146
##$RETENTION INDEX=0
##$CONDENSED SPECTRUM=NO
##NPOINTS= 49
##XYDATA=(XY..XY) 1 
    33          1
    37          3
    38         20
    39        113
    40         72
    41         79
    42         46
    43         12
    44         11
    46          4
    49          1
    50         41
    51         88
    52         21
    53          1
    57          6
    59         16
    60          1
    61          7
    62         16
    63         61
    64         16
    65        184
    66         12
    67         54
    68         10
    69         68
    70          2
    73          1
    74          6
    75          4
    76          9
    77         45
    78         33
    79         21
    89         51
    91        999
    92        160
    93          9
   104         18
   105          7
   106          8
   117          9
   118         36
   119        124
   120         11
   145        117
   146         62
   147          3