##TITLE=Library Entry 26263
##JCAMP-DX=Revision 4.10 
##DATA TYPE=MASS SPECTRUM
##SAMPLE DESCRIPTION=K. Jacobson, LBC, NIDDK, NIH, Bethesda, MD 20892
##NAMES=HP
##CAS NAME=8-Aminooctanoic acid, N-t-butoxycarbonyl-
##MOLFORM=C13H25NO4
##CAS REGISTRY NO=30100-16-4
##MP= -300
##BP= -300
##MW= 259
##$RETENTION INDEX=0
##$CONDENSED SPECTRUM=NO
##NPOINTS= 143
##XYDATA=(XY..XY) 1 
    41        328
    43        104
    44         97
    45        115
    46          3
    47          1
    49          1
    50          2
    51          5
    52          2
    53         17
    54         14
    55        174
    56        114
    57        999
    58         89
    59        261
    60         54
    62         15
    63          0
    64          0
    65          3
    66          1
    67         20
    68         14
    69         37
    70         16
    71          9
    72         24
    73         64
    74         63
    75         10
    76          1
    77          3
    78          1
    79          8
    80          5
    81         18
    82         12
    83         39
    84         13
    85         12
    86         61
    87         68
    88         10
    89          3
    91          2
    93          2
    94          2
    95         16
    96         22
    97         28
    98         41
    99         15
   100        471
   101         36
   102          6
   103          5
   105          3
   106          1
   107          3
   108          1
   109          2
   110          2
   111          6
   112         12
   113          8
   114          8
   115          3
   116         10
   117          6
   118          0
   119          1
   120          0
   121          2
   122          2
   123          7
   124         33
   125          9
   126          5
   127          1
   128          2
   129          2
   130         24
   131         14
   132          1
   133          1
   135          1
   136          0
   137          1
   138          2
   139          2
   140         21
   141         18
   142         23
   144         25
   145          2
   146          0
   149          2
   150          0
   151          0
   152          0
   156          2
   157          2
   158         46
   159         23
   160         39
   161          3
   163          1
   165          0
   166          1
   167          2
   168        309
   169         29
   170          3
   171          0
   172          0
   180          0
   182          2
   183          1
   184          1
   185          5
   186         58
   187          6
   188          1
   191          0
   192          0
   194          0
   200         40
   201          5
   202          4
   203        120
   204         17
   205          2
   207          0
   213          0
   217          0
   219          0
   228          0
   239          0
   259          4
   260          1
   262          0