##TITLE=Library Entry 39836
##JCAMP-DX=Revision 4.10 
##DATA TYPE=MASS SPECTRUM
##SAMPLE DESCRIPTION=Japan AIST/NIMC Database- Spectrum MS-NW-8666
##NAMES=HP
##CAS NAME=1,3-Cyclobutanediol, 2,2,4,4-tetramethyl-
##MOLFORM=C8H16O2
##CAS REGISTRY NO=3010-96-6
##MP= -300
##BP= -300
##MW= 144
##$RETENTION INDEX=1085
##$CONDENSED SPECTRUM=NO
##NPOINTS= 55
##XYDATA=(XY..XY) 1 
    15          4
    18          2
    26          2
    27         51
    28          9
    29         48
    30          2
    31         19
    37          1
    38          3
    39         54
    40          7
    41         72
    42         11
    43        161
    44         27
    45         15
    47          1
    50          1
    51          4
    52          1
    53         16
    54         40
    55         54
    56          5
    57        623
    58         20
    59          5
    63          1
    65          2
    66          1
    67          5
    69          8
    70          5
    71         37
    72        999
    73         47
    74          3
    77          3
    79          3
    81          3
    83          9
    84          1
    85          3
    87          1
    91          3
    93          3
    95          1
    97         78
    98          6
    99          2
   108          1
   109          1
   111          3
   126          1