##TITLE=Library Entry 36805
##JCAMP-DX=Revision 4.10 
##DATA TYPE=MASS SPECTRUM
##SAMPLE DESCRIPTION=A.A.Kutin, Moscow, Russia
##NAMES=HP
##CAS NAME=1,3,5-Triazin-2-amine, 4,6-bis[(2,2,2-trifluoro-1-trifluoromethyl
)ethoxy]-
##MOLFORM=C9H4F12N4O2
##CAS REGISTRY NO=301210-98-0
##MP= -300
##BP= -300
##MW= 428
##$RETENTION INDEX=0
##$CONDENSED SPECTRUM=NO
##NPOINTS= 145
##XYDATA=(XY..XY) 1 
    33        100
    34         19
    36          4
    37          0
    38          7
    40        231
    41         60
    42        182
    43        483
    44        103
    45          7
    46          5
    47          4
    48         10
    49          9
    50         22
    51         89
    53         39
    54         13
    55         20
    56         32
    57         13
    58         10
    59          3
    60          3
    61          1
    63         18
    64         11
    65          6
    68        388
    69        999
    70        168
    71         71
    72          5
    73          5
    74          5
    75          2
    76          2
    77          8
    78         11
    79         10
    80          5
    81          8
    82         31
    83         24
    84         50
    85         57
    86          3
    87          1
    90          4
    91         23
    92         10
    93         23
    94         32
    96        201
    97         12
    99         16
   101         10
   104          5
   105          9
   106          4
   107          2
   108          0
   111        460
   113         69
   114          1
   115          0
   117          3
   118          4
   119          4
   120          3
   121          1
   122          1
   123          4
   124          4
   125          1
   126         14
   127          1
   128          4
   129         12
   130          0
   131          6
   132          8
   133          2
   134          1
   135          3
   141          1
   142          1
   143          4
   144          2
   145          0
   147          2
   149          5
   151        110
   152          2
   153          0
   154          3
   166          3
   168          4
   169          1
   171          3
   173         13
   174          7
   175          2
   176          6
   177          0
   189          3
   192          5
   193          9
   194         36
   196         15
   197          1
   199          1
   201          1
   215          4
   216         11
   217          0
   219          4
   221          1
   234          5
   235         12
   236          0
   237          0
   242         15
   243          0
   256          0
   257         22
   259          8
   261         68
   262        523
   263         40
   264          0
   359          7
   369          1
   388          0
   389         26
   390          2
   406          0
   407          3
   409        132
   410         12
   425          2
   428        212
   429         21
   430          0