##TITLE=Library Entry 60753
##JCAMP-DX=Revision 4.10 
##DATA TYPE=MASS SPECTRUM
##SAMPLE DESCRIPTION=A.A.Kutin, Moscow, Russia
##NAMES=HP
##CAS NAME=Furan-2-carboxylic acid, 4-benzyloxyphenyl ester
##MOLFORM=C18H14O4
##CAS REGISTRY NO=301207-79-4
##MP= -300
##BP= -300
##MW= 294
##$RETENTION INDEX=0
##$CONDENSED SPECTRUM=NO
##NPOINTS= 135
##XYDATA=(XY..XY) 1 
    34          0
    36          1
    37          6
    38         23
    39        114
    40         16
    41         11
    42          1
    43          1
    44          6
    45          2
    46          0
    48          0
    49          0
    50          6
    51         16
    52          7
    53          7
    54         10
    55          2
    56          0
    57          0
    60          0
    61          0
    62          5
    63         21
    64         10
    65         80
    66          9
    67         15
    68          0
    69          1
    71          0
    73          0
    74          0
    75          1
    76          0
    77          4
    78          0
    79          0
    80          0
    81          1
    82          3
    83          0
    84          0
    85          0
    86          0
    87          0
    89         17
    91        999
    92         68
    93          3
    95        414
    96         24
    97          2
    98          0
   102          0
   105          0
   106          0
   107          0
   108          1
   109          1
   110          0
   111          0
   112          0
   115          1
   116          0
   118          0
   119          0
   120          0
   121          0
   122          0
   123          0
   126          0
   127          0
   128          1
   129          0
   130          0
   131          0
   135          0
   136          0
   139          0
   140          0
   141          1
   142          0
   143          0
   144          0
   145          0
   146          0
   152          1
   153          0
   154          0
   155          0
   156          0
   157          0
   158          0
   159          0
   160          0
   165          0
   169          0
   170          0
   171          0
   172          0
   173          0
   174          0
   175          0
   181          0
   182          0
   183          0
   184          0
   185          1
   186          1
   187          0
   191          0
   197          0
   198          0
   199          1
   200          1
   201          0
   202          0
   203          0
   204          0
   205          0
   215          0
   216          0
   217          0
   218          0
   231          0
   232          0
   276          1
   277          0
   294        191
   295         36
   296          5
   297          0