##TITLE=Library Entry 59696
##JCAMP-DX=Revision 4.10 
##DATA TYPE=MASS SPECTRUM
##SAMPLE DESCRIPTION=Japan AIST/NIMC Database- Spectrum MS-NW-4246
##NAMES=HP
##CAS NAME=Thiocyanic acid, phenylmethyl ester
##MOLFORM=C8H7NS
##CAS REGISTRY NO=3012-37-1
##MP= -300
##BP= -300
##MW= 149
##$RETENTION INDEX=1326
##$CONDENSED SPECTRUM=NO
##NPOINTS= 50
##XYDATA=(XY..XY) 1 
    26          3
    27          6
    28          6
    32          4
    37          4
    38         11
    39         62
    40          5
    41         13
    43          1
    44          2
    45         23
    46          1
    47          1
    49          2
    50         15
    51         30
    52          9
    53          2
    58          8
    59          1
    60          1
    61          5
    62         13
    63         38
    64         10
    65        127
    66          8
    69          3
    74          3
    75          2
    76          3
    77         11
    78          3
    79          3
    85          1
    86          3
    87          2
    89         29
    90         14
    91        999
    92         80
    93          3
   104          1
   121          8
   122          1
   123          2
   149         31
   150          3
   151          2