##TITLE=Library Entry 78586
##JCAMP-DX=Revision 4.10 
##DATA TYPE=MASS SPECTRUM
##SAMPLE DESCRIPTION=A.A.Kutin, Moscow, Russia
##NAMES=HP
##CAS NAME=2H-Cyclopenta[d]pyridazine, 2-benzoyl-1,4-diphenyl-
##MOLFORM=C26H18N2O
##CAS REGISTRY NO=301211-67-6
##MP= -300
##BP= -300
##MW= 374
##$RETENTION INDEX=0
##$CONDENSED SPECTRUM=NO
##NPOINTS= 158
##XYDATA=(XY..XY) 1 
    33         30
    34          1
    36          0
    37          1
    38          4
    39         17
    40         17
    41          8
    42          2
    43          9
    44          7
    45          2
    46          0
    50         18
    51         65
    52          6
    53          1
    55          6
    56          2
    57          5
    58          1
    59          0
    60          1
    61          1
    62          5
    63         14
    64          2
    65          9
    66          1
    67          1
    68          1
    69          2
    70          2
    71          3
    73          2
    74          6
    75          7
    77        372
    78         23
    79          2
    80          0
    81          1
    82          1
    83          2
    84          2
    85          1
    86          2
    87          5
    88          4
    89         11
    90          2
    91         22
    92         13
    93          1
    94          2
    95          2
    96          0
    97          1
    98          2
    99          2
   100          1
   101          1
   102          1
   103          4
   105        999
   106         62
   107          4
   109          1
   110          1
   111          2
   112          2
   113          5
   114          3
   115         10
   116          1
   119          6
   120          3
   121          1
   122          5
   123          0
   124          0
   125          1
   126          4
   128          3
   129          0
   130          0
   134          2
   135          3
   137          2
   138          2
   139          6
   140          3
   141          0
   143          0
   149          2
   150          1
   151          1
   152          1
   153          0
   161          0
   162          1
   163          4
   164          3
   165          5
   166          4
   167          2
   168          0
   171          1
   174          0
   175          0
   176          0
   177          0
   178          0
   185          0
   186          0
   187          2
   188          0
   189          2
   190          0
   191          0
   192          1
   193          0
   194          0
   198          1
   199          0
   200          1
   201          0
   202          1
   203          0
   211          1
   212          0
   213          4
   214          1
   215          3
   216          0
   224          0
   225          0
   226          3
   227          0
   235          0
   236          0
   237          6
   238          4
   239         28
   240          8
   241          8
   242          1
   243          0
   254          0
   267          0
   268          0
   269          4
   270         17
   271          3
   272          0
   374         27
   375          6
   376          1