##TITLE=Library Entry 20878
##JCAMP-DX=Revision 4.10 
##DATA TYPE=MASS SPECTRUM
##SAMPLE DESCRIPTION=A.A.Kutin, Moscow, Russia
##NAMES=HP
##CAS NAME=Benzene-1,2-diamine, N,N'-bis(cyclohexanoyl)-
##MOLFORM=C20H28N2O2
##CAS REGISTRY NO=301209-36-9
##MP= -300
##BP= -300
##MW= 328
##$RETENTION INDEX=0
##$CONDENSED SPECTRUM=NO
##NPOINTS= 168
##XYDATA=(XY..XY) 1 
    33          2
    34          1
    36          0
    37          1
    39        120
    40         48
    41        503
    42         28
    43         44
    44          9
    45          1
    46          0
    47          0
    49          0
    50          6
    51         24
    52         40
    53         95
    55        999
    56         31
    57          5
    58          2
    59          0
    60          1
    61          0
    62          2
    63          7
    64          7
    65         34
    66         13
    67         56
    68         11
    69          7
    70          1
    71          1
    72          1
    73          1
    74          1
    75          2
    76          4
    77         23
    78         22
    79         75
    80        114
    81        101
    83        862
    84         49
    85          2
    86          0
    87          0
    88          1
    89          2
    90          9
    91         11
    92         19
    93          9
    94          2
    95          2
    96          0
    97          1
    98          0
   100          0
   101          0
   102          1
   103          1
   105         31
   106         51
   107        119
   108        394
   109         57
   111         79
   112          6
   113          1
   114          0
   115          1
   116          1
   117          2
   118          5
   119         17
   120          2
   121          3
   122          0
   123          0
   124          0
   126          0
   127          0
   128          1
   129          2
   130          4
   132        145
   133         23
   134        120
   135        575
   136         43
   137          3
   139          1
   140          0
   141          0
   142          0
   143          1
   144          5
   145         66
   146         16
   147          5
   148          1
   149          0
   150          1
   151          0
   152          0
   154          0
   155          0
   156          0
   157          1
   158          4
   159          8
   160          1
   161          2
   162          2
   163          4
   164          0
   168          0
   169          1
   171          8
   172          7
   173          2
   174          0
   175          0
   177          0
   181          0
   182          0
   183          1
   185          4
   186          0
   187          0
   189          1
   190          0
   194          0
   197          0
   198          1
   199          8
   200         37
   201         76
   202         11
   203          0
   210          0
   215          1
   217         18
   218        162
   219         27
   220          3
   221          1
   227          2
   228          1
   229          0
   243          1
   245         63
   246          9
   247          0
   260          0
   273          2
   274          0
   284          0
   286          0
   325          0
   326          2
   328         60
   329         11
   330          1