##TITLE=Library Entry 5268
##JCAMP-DX=Revision 4.10 
##DATA TYPE=MASS SPECTRUM
##SAMPLE DESCRIPTION=Div. of Experiment Therapeutics WRAIR, WRAMC, Washingto
n DC 20307
##NAMES=HP
##CAS NAME=4-Hydroxy-6-methylpyrazolo[3,4-d]pyrimidine
##MOLFORM=C6H6N4O
##CAS REGISTRY NO=30129-57-8
##MP= -300
##BP= -300
##MW= 150
##$RETENTION INDEX=0
##$CONDENSED SPECTRUM=NO
##NPOINTS= 79
##XYDATA=(XY..XY) 1 
    42        999
    43        356
    44         27
    45         10
    46          2
    47         12
    48          1
    49          8
    50         24
    51        186
    52        429
    53        275
    54         50
    55         13
    56          2
    57          4
    58          1
    60          1
    61          1
    62          3
    63         11
    64         36
    65         41
    66         44
    67         57
    68         50
    69         30
    70          1
    73          1
    74          1
    75         15
    76          9
    77         28
    78         24
    79         56
    80         19
    81         26
    82          6
    83          2
    84          2
    85          0
    86          1
    90          1
    91          6
    92          2
    93         17
    94          6
    95         13
    96          1
    99          3
   103          1
   104          2
   105          4
   106         31
   107         10
   108         62
   109         69
   110        215
   111         12
   112          0
   118          1
   119          1
   120          8
   121          8
   122         22
   123          3
   126          2
   127          2
   131          1
   132          5
   133         45
   134         23
   135        216
   136         14
   137          1
   149          7
   150        888
   151         72
   152          2