##TITLE=Library Entry 26264
##JCAMP-DX=Revision 4.10 
##DATA TYPE=MASS SPECTRUM
##SAMPLE DESCRIPTION=ASES Database, Dalian Institute, P.R. China
##NAMES=HP
##CAS NAME=6-Ethyl-3,7,9-trioxabicycl(4,2,1)nonane
##MOLFORM=C8H14O3
##CAS REGISTRY NO=30120-66-2
##MP= -300
##BP= -300
##MW= 158
##$RETENTION INDEX=0
##$CONDENSED SPECTRUM=NO
##NPOINTS= 22
##XYDATA=(XY..XY) 1 
    39         60
    41        140
    43         99
    55        109
    57        999
    67         19
    69         50
    71         29
    73         29
    75         19
    83         20
    84         30
    85         89
    87         10
    99         79
   100        299
   101        120
   114         39
   115         19
   129         80
   130         39
   158         89