##TITLE=Library Entry 31706
##JCAMP-DX=Revision 4.10 
##DATA TYPE=MASS SPECTRUM
##SAMPLE DESCRIPTION=A.A.Kutin, Moscow, Russia
##NAMES=HP
##CAS NAME=Propenoic acid, 3-[5-(2-chlorophenyl)-2-furyl]-2-cyano-, 2-chloro
ethyl ester
##MOLFORM=C16H11Cl2NO3
##CAS REGISTRY NO=301339-90-2
##MP= -300
##BP= -300
##MW= 335
##$RETENTION INDEX=0
##$CONDENSED SPECTRUM=NO
##NPOINTS= 183
##XYDATA=(XY..XY) 1 
    33        182
    34         17
    35         26
    36         67
    37         25
    38        145
    39        146
    40        309
    41         25
    42         28
    43         61
    44         99
    45         21
    49        184
    50        156
    51        192
    52         65
    53         41
    54          9
    55         28
    56         22
    57         24
    61         94
    62        352
    63        999
    64        113
    65        253
    66          7
    67          3
    68         19
    69         34
    70          2
    71          9
    72          4
    73         50
    74        117
    75        277
    76         63
    77         50
    78         25
    79         18
    80         10
    82         55
    83         66
    84         10
    85         44
    86         86
    87        175
    88        194
    89        140
    90         19
    91         10
    95         15
    97         51
    98         12
    99         53
   100         26
   101         41
   102         15
   103          4
   104          2
   105         26
   106          3
   107          3
   108          6
   109          8
   111        253
   113        312
   114        412
   115         97
   116         25
   117          8
   119          2
   121         31
   122          3
   123         42
   124          7
   125         28
   126         12
   127         21
   128        120
   129         49
   131         10
   133          2
   134         19
   135          4
   136         43
   137         72
   138        136
   139        329
   140        116
   141         81
   142          7
   146          4
   147         10
   148         34
   149        371
   150         59
   151        123
   152         28
   153         19
   154         14
   155          1
   159         12
   160          4
   161         39
   162         37
   163         41
   164        412
   165        217
   166         71
   167         29
   168          5
   171         11
   173        160
   174        123
   175         61
   176         40
   177         13
   178         31
   179          3
   180         11
   181          5
   182         15
   186          4
   188          5
   189          2
   190          2
   191         16
   192         22
   193        168
   194         57
   195         12
   196          3
   198          9
   200        186
   201         40
   202        117
   203         18
   204         17
   205          3
   206         11
   207          6
   208          4
   209         16
   210         11
   216         10
   217          2
   222          2
   227         42
   228         34
   229        193
   230         45
   231         54
   232          9
   233          3
   238          9
   242        430
   243         71
   244        158
   245         24
   246         27
   256        316
   258        152
   259         12
   272         16
   273        273
   274         49
   275         79
   276          9
   291         23
   292          2
   293         13
   300          6
   301         23
   303          4
   332         10
   335        860
   336        186
   337        480
   338         99
   339         86
   340         11