##TITLE=Library Entry 22629
##JCAMP-DX=Revision 4.10 
##DATA TYPE=MASS SPECTRUM
##SAMPLE DESCRIPTION=A.A.Kutin, Moscow, Russia
##NAMES=HP
##CAS NAME=Urea, 1-[2,2,2-trifluoro-1-(trifluoromethyl)ethyl]-3-(2,3-dimethy
l-5-oxo-1-phenyl-3-pyrazolin-4-yl)-
##MOLFORM=C15H14F6N4O2
##CAS REGISTRY NO=301320-40-1
##MP= -300
##BP= -300
##MW= 396
##$RETENTION INDEX=0
##$CONDENSED SPECTRUM=NO
##NPOINTS= 201
##XYDATA=(XY..XY) 1 
    33          1
    34          0
    36          1
    37          4
    38         13
    39         28
    40         21
    42        173
    43         16
    44         22
    45          3
    46          1
    47          2
    48          2
    50         19
    51         53
    52         18
    53         17
    54         43
    56        999
    57        236
    58         11
    60          0
    61          1
    62          3
    63         17
    64         30
    65         24
    66          7
    67         13
    69         58
    70          4
    71          1
    72          0
    74         53
    75          4
    77        101
    78         10
    79          2
    80          2
    82         73
    83        238
    84        341
    85         14
    87          2
    88          0
    89          1
    91         48
    92         41
    93         32
    94          6
    95          1
    96          4
    97          2
    98          5
    99          1
   100          0
   101          4
   103          5
   104          9
   105         10
   106         19
   107          1
   108          1
   109          9
   110         10
   111          3
   112          1
   113          5
   114          0
   115          1
   116          1
   117          2
   118          9
   119         30
   120         11
   121          3
   122          1
   124         35
   126          9
   127          1
   128          1
   129          1
   130          2
   131          2
   132          5
   133          1
   134          0
   135          0
   136          2
   137          6
   138          1
   139          1
   140          0
   141          0
   142          1
   143          1
   144          2
   145          4
   146          3
   147          6
   148          2
   149          1
   150          0
   151          1
   152          2
   153          3
   154          3
   155          0
   156          0
   157          1
   158          2
   159          3
   160          1
   161          0
   162          0
   167          0
   168          0
   170          0
   171          2
   172          3
   174         32
   175          2
   176          0
   177          0
   178          0
   179          1
   181          4
   182          0
   184          2
   185          1
   186          2
   187          2
   188          2
   189          0
   190          0
   191          0
   192          7
   193          2
   194          7
   195          0
   197          0
   198          0
   200         11
   202         46
   203         73
   204         16
   205          1
   206          0
   207          0
   212          0
   214          1
   215          0
   217          0
   218          0
   219          0
   222          1
   223          0
   225          2
   229        336
   230         55
   231          6
   232          0
   233          0
   234          0
   239          0
   257          0
   258          0
   259          0
   267          0
   274          0
   275          0
   276          1
   277          8
   278          0
   279          0
   284          0
   286          0
   296          0
   305          2
   306          0
   314          0
   327          0
   348          0
   353          1
   356          0
   357          0
   367          1
   368          0
   373          0
   377         14
   378          2
   379          0
   381          4
   382          0
   391          0
   392          0
   393          0
   396         52
   397          7
   398          1