##TITLE=Library Entry 3596
##JCAMP-DX=Revision 4.10 
##DATA TYPE=MASS SPECTRUM
##SAMPLE DESCRIPTION=A.A.Kutin, Moscow, Russia
##NAMES=HP
##CAS NAME=Pyrazolo[3,4-d]pyrimidin-4(5H)-one, 5-allyl-6-methyl-1-phenyl-
##MOLFORM=C15H14N4O
##CAS REGISTRY NO=301322-65-6
##MP= -300
##BP= -300
##MW= 266
##$RETENTION INDEX=0
##$CONDENSED SPECTRUM=NO
##NPOINTS= 121
##XYDATA=(XY..XY) 1 
    33         11
    34         26
    37         30
    38         89
    39        609
    40        143
    41        999
    42        339
    43        112
    44        111
    45         17
    50        113
    51        454
    52        110
    53         76
    54        110
    55         77
    56         70
    57         45
    58          7
    62         19
    63         72
    64         67
    65         89
    66         32
    67         44
    68         25
    69         21
    70          3
    71         10
    74         20
    75         31
    76        100
    77        905
    78        102
    79         20
    80         32
    81         25
    82         48
    83         30
    84         13
    88         16
    89         20
    91        135
    92         19
    93         25
    94          6
    96         12
    97          8
   101         19
   102         42
   103         47
   104         40
   105         54
   106          9
   109          4
   111          8
   114         35
   115         39
   116         48
   117         26
   118         11
   119         60
   120          6
   126         28
   128         64
   129         36
   130         16
   131         11
   133          8
   134          3
   137          7
   141         21
   142         65
   143         95
   144         39
   154          7
   155         25
   156         29
   157         21
   158         27
   159          4
   167          3
   168         17
   169         34
   170          9
   171         23
   175         22
   182         18
   183         12
   184         35
   185         33
   186         46
   195         10
   196         51
   197          8
   198          8
   200         18
   203          8
   208          8
   209         64
   210         84
   211         38
   212         14
   223          4
   224          7
   225         10
   226         55
   227          6
   237         29
   238         12
   239         18
   249         58
   250         37
   251        512
   252         91
   253          9
   264          3
   265         97
   266        370
   267         58