##TITLE=Library Entry 58472
##JCAMP-DX=Revision 4.10 
##DATA TYPE=MASS SPECTRUM
##SAMPLE DESCRIPTION=Chemical Concepts
##NAMES=HP
##CAS NAME=N-(4-Bromo-.alpha.-phenylbenzyl)-N-(2-pyridyl)-3-coumarincarboxam
ide
##MOLFORM=C28H19BrN2O3
##CAS REGISTRY NO=301325-89-3
##MP= -300
##BP= -300
##MW= 510
##$RETENTION INDEX=0
##$CONDENSED SPECTRUM=NO
##NPOINTS= 110
##XYDATA=(XY..XY) 1 
    38        433
    40         36
    41         24
    42         14
    43          9
    44          7
    45          5
    50        505
    52        118
    53         29
    54          5
    55          5
    56          3
    57          4
    58          4
    63        588
    64         52
    65         56
    66         20
    67         12
    68          4
    69          9
    71          3
    72          5
    75        219
    78        836
    79        109
    80         13
    82         82
    86         87
    89        999
    90         91
    91         24
    92         18
    94          5
    98          7
   101        379
   102         39
   103         19
   104         20
   105         12
   111          4
   113         20
   115         86
   116         20
   117         26
   118         42
   119          7
   121         28
   126         21
   127         22
   128         23
   129          8
   130          3
   131          2
   137          9
   139         75
   140         11
   141          4
   143          9
   145         75
   146         21
   147          3
   150          8
   152         26
   154         68
   155         26
   157         18
   163         99
   165        787
   166        270
   167         45
   168          7
   169          4
   173        352
   174         27
   175          3
   178          3
   179          9
   181         53
   182          9
   192          5
   193          3
   197          2
   209          8
   210          5
   221         12
   222          2
   230          3
   237          6
   243          3
   245         55
   246          9
   247         47
   248          6
   249          4
   255          5
   256          7
   257         14
   258         13
   259          8
   261          4
   262          3
   263          5
   265        143
   266         15
   337         42
   338         10
   339         44
   340          7