##TITLE=Library Entry 5645
##JCAMP-DX=Revision 4.10 
##DATA TYPE=MASS SPECTRUM
##SAMPLE DESCRIPTION=Chemical Concepts
##NAMES=HP
##CAS NAME=1-(2,2,2-Trichloro-1-isobutyramidoethyl)-3-(4-methoxyphenyl)-thio
urea
##MOLFORM=C14H18Cl3N3O2S
##CAS REGISTRY NO=301359-50-2
##MP= -300
##BP= -300
##MW= 397
##$RETENTION INDEX=0
##$CONDENSED SPECTRUM=NO
##NPOINTS= 110
##XYDATA=(XY..XY) 1 
    34         17
    35         57
    36        374
    37         37
    38        143
    39        135
    40        246
    41        312
    43        999
    44         96
    45        101
    50         26
    51         40
    52         66
    53         56
    54         20
    55         37
    56         11
    57         21
    58          9
    59         11
    60         22
    61          8
    62         17
    63         49
    64         51
    65         39
    66          9
    67         12
    68         14
    69         27
    71        294
    72         16
    73          8
    74         10
    75         14
    76         20
    77         63
    78         28
    79         32
    80         50
    81         13
    82         13
    83         18
    84         10
    85         12
    87          9
    88          9
    90         17
    91         19
    92         40
    93         13
    95         58
    96         14
   105         24
   106         12
   108        182
   109         19
   110         14
   111         19
   112         10
   113         12
   114          8
   115         14
   117          9
   119          9
   122        150
   123        101
   124         34
   125          9
   126         22
   127        114
   128         19
   129         74
   131         12
   133         43
   134         21
   139         22
   140         37
   146         15
   148        126
   149         65
   150         64
   151         18
   153          8
   161         35
   163          9
   165        349
   166         91
   167         19
   168          8
   176         11
   181         26
   182          8
   196         13
   197         51
   198         10
   199         32
   202         11
   221         10
   255         24
   256         81
   257         18
   258         34
   325         17
   326         49
   327         14
   328         18
   397         12
   399         14