##TITLE=Library Entry 98041
##JCAMP-DX=Revision 4.10 
##DATA TYPE=MASS SPECTRUM
##SAMPLE DESCRIPTION=NIST Mass Spectrometry Data Center
##NAMES=HP
##CAS NAME=Sulfide, phenyl 3-phenylpropyl,
##MOLFORM=C15H16S
##CAS REGISTRY NO=30134-12-4
##MP= -300
##BP= -300
##MW= 228
##$RETENTION INDEX=0
##$CONDENSED SPECTRUM=NO
##NPOINTS= 102
##XYDATA=(XY..XY) 1 
    15          5
    17          1
    18          6
    25          1
    27         68
    28         10
    32          1
    37          7
    39        328
    40         23
    41        121
    42          4
    45        248
    46         11
    47         25
    50         86
    51        279
    52         43
    53         15
    57          9
    58         21
    59         44
    60          3
    61          7
    62         23
    63         97
    65        506
    66         70
    69         67
    70          5
    71         11
    72          2
    73          3
    74         19
    75         20
    77        213
    78         96
    79         61
    80          3
    81          2
    82         20
    83          9
    84         18
    85          2
    86          3
    87          3
    89         55
    91        884
    92         97
    93          8
    94          1
    95          2
    97          5
    98          1
    99          1
   101          2
   102         14
   103         67
   104         31
   105         34
   106          3
   109        303
   110        403
   111         42
   112         18
   113          3
   115         99
   117        817
   118        999
   119         95
   120          4
   121         10
   123         84
   124         16
   125          4
   126          1
   135         68
   136         18
   137        103
   138         10
   139          6
   147          1
   149          2
   150          4
   151          1
   152          3
   153          1
   154          1
   165          6
   166          4
   167          4
   168          1
   179          1
   184          4
   185          3
   186          2
   194          1
   197          1
   228        402
   229         70
   230         24
   231          3