##TITLE=Library Entry 40168
##JCAMP-DX=Revision 4.10 
##DATA TYPE=MASS SPECTRUM
##SAMPLE DESCRIPTION=TNO Volatile Compounds in Food - Chemical Concepts
##NAMES=HP
##CAS NAME=Carbamothioic acid, dimethyl-, S-methyl ester
##MOLFORM=C4H9NOS
##CAS REGISTRY NO=3013-02-3
##MP= -300
##BP= -300
##MW= 119
##$RETENTION INDEX=0
##$CONDENSED SPECTRUM=NO
##NPOINTS= 45
##XYDATA=(XY..XY) 1 
    35          0
    36          0
    38          1
    39          2
    41         16
    42        144
    43         35
    44         78
    45         57
    46         24
    47         61
    48          7
    49          3
    50          0
    54          0
    55          0
    56         49
    57          4
    58         51
    59          2
    60          5
    61         10
    62          0
    63          0
    64          0
    70          0
    71          0
    72        999
    73         69
    74          5
    75         79
    76         11
    77          3
    81          0
    85          0
    86          2
    88          1
    90         10
    91          0
    92          0
   104          1
   119        395
   120         24
   121         17
   122          0