##TITLE=Library Entry 31708
##JCAMP-DX=Revision 4.10 
##DATA TYPE=MASS SPECTRUM
##SAMPLE DESCRIPTION=A.A.Kutin, Moscow, Russia
##NAMES=HP
##CAS NAME=Propenoic acid, 2-cyano-3-[5-(3-trifluoromethylphenyl)-2-furyl]-,
 2-chloroethyl ester
##MOLFORM=C17H11ClF3NO3
##CAS REGISTRY NO=301339-88-8
##MP= -300
##BP= -300
##MW= 369
##$RETENTION INDEX=0
##$CONDENSED SPECTRUM=NO
##NPOINTS= 230
##XYDATA=(XY..XY) 1 
    33         10
    35          4
    36         13
    38         52
    39         33
    40         16
    41          2
    42          6
    43         12
    44         14
    45          7
    47          2
    49         69
    50         37
    51         58
    52         34
    53         17
    55          9
    56          2
    57         14
    63        999
    65        298
    66          7
    69         32
    71          3
    72          1
    74         20
    75         49
    76         15
    77         10
    78         12
    79         10
    80         10
    81         11
    82         15
    83          8
    86         17
    87         33
    88         59
    89         36
    90          9
    91          7
    92          5
    93          5
    94         19
    95         41
    96          3
    98          5
    99          9
   100          5
   101          5
   102          2
   103          5
   104          2
   106         38
   107         23
   109          4
   110          2
   111          6
   112          6
   113         27
   114         56
   115         10
   116         12
   117         12
   118          8
   119          6
   120         10
   122         30
   123          6
   125         32
   126         29
   127          5
   128          1
   131         88
   132         26
   133         71
   134         22
   136         16
   137         15
   138         21
   139         20
   140          8
   141          1
   143         23
   145        309
   147          1
   149          1
   151         23
   152          8
   153          6
   154          8
   155          3
   156          7
   157         25
   158         26
   159          7
   161         13
   162         22
   163         19
   164         94
   165         37
   166          8
   167          5
   168          8
   169         16
   170         13
   171          8
   173        142
   174         11
   175          5
   176          7
   177          4
   178          1
   179          2
   180          6
   181         11
   182         76
   183        168
   184         60
   185          7
   186          7
   187         33
   188         25
   189          8
   190          1
   191          2
   193         32
   194         26
   195         17
   196          8
   197          2
   198          1
   199         23
   200          4
   201          2
   202          8
   203          5
   204          2
   206         37
   207        111
   208         67
   209          9
   210          2
   211          6
   212         28
   213         40
   214         37
   215         21
   216          4
   217          3
   219          1
   220          1
   221          2
   222          4
   223          3
   224          4
   225          8
   226          3
   227          9
   228         19
   229          2
   230          4
   231          6
   232          8
   234        210
   235         32
   236         47
   237          7
   238          3
   239          4
   240          7
   241          6
   242         24
   243         45
   244         20
   245          2
   250          9
   251          3
   252          3
   258          2
   259          4
   260          3
   261         33
   262         46
   263        104
   264         17
   265          3
   267          3
   268          1
   270          2
   274          1
   276        272
   277         49
   278         14
   279          4
   280         15
   281          2
   286          1
   287          7
   288         11
   290        280
   291         46
   292          5
   293          1
   306         13
   307        158
   308         26
   309          3
   314          1
   316          1
   320          1
   324          1
   325         21
   326          4
   327          6
   328          1
   334          4
   335         23
   336          4
   350         30
   351          5
   352          9
   353          1
   365          1
   369        505
   370         93
   371        162
   372         31
   373          3