##TITLE=Library Entry 32524
##JCAMP-DX=Revision 4.10 
##DATA TYPE=MASS SPECTRUM
##SAMPLE DESCRIPTION=Chemical Concepts
##NAMES=HP
##CAS NAME=4-(3-Fluorobenzylidenehydrazino)-2-methyl-6-morpholinopyrimidine
##MOLFORM=C16H18FN5O
##CAS REGISTRY NO=301327-76-4
##MP= -300
##BP= -300
##MW= 315
##$RETENTION INDEX=0
##$CONDENSED SPECTRUM=NO
##NPOINTS= 109
##XYDATA=(XY..XY) 1 
    37         11
    39        176
    40        210
    42        941
    43        161
    44        115
    45        103
    50         81
    52        214
    53        141
    54        125
    56        337
    57         76
    58         30
    59         18
    61         11
    62         17
    63         39
    67        999
    68        368
    69        106
    70         40
    71         16
    72          9
    75        211
    76         22
    77         12
    79        115
    80        116
    81         71
    82         61
    83         34
    85         51
    86        100
    88          7
    89         11
    90          8
    93         86
    95        474
    96         66
    97         27
    98          8
   100          9
   101          5
   102          5
   105          9
   107        146
   108        118
   109        204
   110         37
   111          9
   114          5
   115          6
   119          9
   121        182
   122        174
   123         93
   124         51
   125         19
   129          4
   131         12
   133         34
   134         42
   135         73
   136        181
   137        180
   138         29
   139          7
   143          6
   146          9
   147         15
   149        211
   150         25
   151         30
   152         19
   153          8
   158          8
   160          8
   161         21
   163        263
   164         56
   165         19
   166          5
   173          5
   174          6
   175          8
   176          5
   179         83
   180          6
   188         11
   190         10
   194        531
   195         32
   219         16
   220         97
   221          9
   229          5
   230         23
   256          6
   257         34
   258         77
   259         14
   270         28
   273         12
   284         45
   285         23
   314         75
   315        177
   316         21