##TITLE=Library Entry 37796
##JCAMP-DX=Revision 4.10 
##DATA TYPE=MASS SPECTRUM
##SAMPLE DESCRIPTION=A.A.Kutin, Moscow, Russia
##NAMES=HP
##CAS NAME=Butan-2-ol, 1-hydroximino-3,3-dimethyl-1-(1,2,4-triazol-1-yl)-
##MOLFORM=C8H14N4O2
##CAS REGISTRY NO=301319-09-5
##MP= -300
##BP= -300
##MW= 198
##$RETENTION INDEX=0
##$CONDENSED SPECTRUM=NO
##NPOINTS= 106
##XYDATA=(XY..XY) 1 
    33          0
    35          0
    36          0
    37          4
    39         60
    41        186
    43         88
    45         23
    46          1
    47          1
    49          2
    50          3
    51         14
    53         54
    54         27
    57        583
    59          8
    60          0
    61          0
    62          2
    63          3
    65         10
    66         19
    68        138
    70        999
    72          8
    73          3
    74          1
    75          1
    76          2
    77          7
    78          4
    79          5
    80          4
    81          6
    82          6
    83          9
    84          6
    85          5
    86         11
    87         13
    89          1
    91          1
    95        129
    96         17
    97          7
    98          9
   100          0
   101          0
   102          0
   103          0
   104          0
   105          1
   107          0
   108          2
   110          5
   111          6
   112          4
   113          3
   114          2
   115          0
   116          0
   117          1
   118          1
   119          1
   120          2
   121          2
   123         24
   125        594
   127          2
   128          0
   129          0
   131          0
   132          0
   133          0
   134          1
   135          1
   136          1
   137          3
   141        358
   143          1
   145          0
   146          0
   147          1
   148          2
   150          3
   151          2
   152          0
   154          0
   155          0
   158          0
   160          0
   161          0
   163          1
   165         15
   167          0
   170          0
   175          0
   176          0
   178          0
   180          0
   181          2
   183          3
   197          0
   198          1
   199          0