##TITLE=Library Entry 79989
##JCAMP-DX=Revision 4.10 
##DATA TYPE=MASS SPECTRUM
##SAMPLE DESCRIPTION=A.A.Kutin, Moscow, Russia
##NAMES=HP
##CAS NAME=Benzamide, N-[4-(4-morpholylcarbonyl)-1-phenylpyrazol-5-yl]-
##MOLFORM=C21H20N4O3
##CAS REGISTRY NO=301322-35-0
##MP= -300
##BP= -300
##MW= 376
##$RETENTION INDEX=0
##$CONDENSED SPECTRUM=NO
##NPOINTS= 166
##XYDATA=(XY..XY) 1 
    33          1
    37          0
    38          5
    39         13
    40         14
    41         16
    42         33
    43          9
    44         13
    45          6
    49          2
    50         40
    51        184
    52         52
    53         17
    54         15
    56         91
    57         69
    59          1
    60          0
    61          0
    62          3
    63         15
    64         19
    65         22
    66         12
    67          6
    68          7
    69          7
    70         25
    71          1
    72          0
    74         15
    75         23
    77        941
    78         44
    79          6
    80          9
    81          2
    82          1
    83          2
    86        155
    87        200
    88         10
    89          6
    91         84
    92         18
    93          8
    94          2
    95          1
    97          0
    98          0
    99          0
   100          1
   101          6
   102          9
   105        999
   106         52
   107          6
   108          1
   109          1
   111          0
   112          0
   113          2
   114          5
   115          3
   116          3
   118          7
   119          7
   120          1
   121          1
   122          0
   125          0
   127          2
   128         13
   129          5
   130          7
   131          6
   132          2
   133          0
   134          1
   135          0
   136          0
   137          0
   139          1
   141          3
   142          2
   143          3
   144          3
   145          1
   146          0
   149          0
   150          0
   152          1
   154          0
   156         22
   157          7
   158          3
   159          1
   164          0
   165          1
   166          0
   167          0
   168          3
   169          2
   170          1
   171          1
   172          0
   179          0
   180          0
   182          1
   184         58
   186         87
   187          9
   188          1
   190          0
   191          0
   192          0
   194          0
   196          2
   198          4
   199          4
   205          0
   206          0
   207          0
   211          1
   212         12
   213          2
   217          1
   218          0
   219          0
   225          0
   228          0
   233          0
   234          0
   241          0
   242          5
   243          0
   244          1
   246         11
   247          1
   256          0
   260          1
   261          0
   262          1
   263          1
   268          0
   270          0
   271          8
   272          8
   273          1
   284          0
   285          0
   286          1
   287          1
   288          8
   290        387
   291         55
   292          7
   318          1
   348          1
   373          0
   375          6
   376         53
   377         11
   378          1