##TITLE=Library Entry 59058
##JCAMP-DX=Revision 4.10 
##DATA TYPE=MASS SPECTRUM
##SAMPLE DESCRIPTION=Chemical Concepts
##NAMES=HP
##CAS NAME=4-(4,.alpha.-Dimethylbenzylidenehydrazino)-2-methyl-6-morpholinop
yrimidine
##MOLFORM=C18H23N5O
##CAS REGISTRY NO=301327-62-8
##MP= -300
##BP= -300
##MW= 325
##$RETENTION INDEX=0
##$CONDENSED SPECTRUM=NO
##NPOINTS= 136
##XYDATA=(XY..XY) 1 
    33         27
    39        385
    40        267
    42        913
    43        169
    44        183
    45         99
    50         35
    52        286
    53        175
    54        162
    56        360
    57         45
    58         21
    63        127
    65        571
    67        894
    68        131
    69         49
    70         17
    71         12
    75         10
    77        106
    79        192
    80        157
    81         76
    82         29
    83          6
    85         75
    86         56
    89        172
    91        999
    93         63
    94         44
    95         40
    96         15
    98          5
   102         21
   103         43
   105         88
   107         61
   108         77
   109         65
   110         33
   111         14
   112         12
   115        136
   117        378
   118        206
   119         46
   120        110
   121         50
   122        118
   123         43
   124         20
   125         25
   126         11
   128          5
   131        440
   133        105
   134         81
   135         44
   137        213
   138         27
   139          9
   142         92
   145          9
   146         22
   147         43
   148         25
   149         87
   150         29
   151         51
   152         37
   155          7
   156          7
   157          9
   158          5
   159          6
   161         33
   162         48
   163        132
   164         21
   165         10
   171         12
   172         12
   173         12
   177         69
   178         16
   179         22
   180         10
   182          5
   183          9
   184         40
   193        160
   194         44
   196          9
   197         12
   198         41
   199          5
   204         10
   207         51
   208         69
   209         10
   210          6
   211         11
   212          6
   225         51
   226          8
   234        202
   235         22
   239         74
   240         72
   241          9
   252         24
   253         48
   254         12
   266         61
   267        146
   268        325
   269        171
   270         17
   280        194
   281         43
   282          9
   283          9
   294        370
   295        141
   296         50
   297          5
   310        501
   311         64
   324        911
   325        877
   326        160
   327         11