##TITLE=Library Entry 63903
##JCAMP-DX=Revision 4.10 
##DATA TYPE=MASS SPECTRUM
##SAMPLE DESCRIPTION=Chemical Concepts
##NAMES=HP
##CAS NAME=2,2'-Methylenebis(3-methyl-5,7-diphenyl[1,2,4]triazolo[1,5-a]pyri
midinium)
##MOLFORM=C37H30N8
##CAS REGISTRY NO=301540-43-2
##MP= -300
##BP= -300
##MW= 586
##$RETENTION INDEX=0
##$CONDENSED SPECTRUM=NO
##NPOINTS= 200
##XYDATA=(XY..XY) 1 
    35          3
    36         24
    37          6
    38         28
    39        146
    40         25
    41         36
    42          8
    43         15
    44         16
    45          8
    48          9
    49          3
    50         75
    51        157
    52         50
    53         22
    54          8
    55         25
    56          6
    57         31
    58          2
    60          2
    61          9
    62         38
    63        122
    64         41
    65        263
    66         21
    67          9
    68          4
    69         14
    70          6
    71          9
    73          5
    74         32
    75         54
    76        110
    77        337
    78         46
    79         88
    80         17
    81         16
    82         18
    83         11
    84          4
    85          9
    86         10
    87         20
    88         38
    89        135
    90         56
    91        999
    92        145
    93         13
    94         13
    95         31
    96         10
    97          8
    98          5
    99          6
   100          9
   101         49
   102        192
   103         73
   104         88
   105         10
   107        157
   108         54
   109         16
   110          6
   111          7
   112          2
   113          5
   114         10
   115         43
   116         71
   117         17
   118          4
   119          2
   121         20
   122         51
   123         13
   124          5
   125          4
   126          7
   127         17
   128         82
   129        330
   130        137
   133          1
   135         12
   137          3
   138          3
   139         15
   140          8
   141         13
   142         16
   143         15
   144          2
   149          7
   150          6
   151          9
   152          9
   153         25
   155        317
   156         31
   157         17
   158          4
   161          1
   163          8
   164          5
   165         20
   166          4
   167          2
   168          2
   169          3
   170          1
   171          1
   172         67
   173          5
   174          5
   175          5
   176         19
   177         15
   178         15
   179          4
   180          3
   182          2
   183          3
   184          2
   186        236
   187         24
   188         16
   189         36
   190         25
   191         54
   192         10
   193          2
   201          4
   202          6
   203         27
   204         84
   205         34
   206         11
   207          2
   208          2
   214          6
   215          5
   216          8
   217          6
   218         10
   219          9
   220          3
   222          1
   229         10
   230          6
   231        232
   232        609
   233        152
   234         18
   235          3
   243          3
   244         11
   245         35
   246         35
   247         29
   248          5
   258          2
   260        206
   261        562
   262        102
   263          9
   264          1
   269          1
   270          3
   271          8
   272          3
   274          3
   275          5
   283          2
   284          5
   285        146
   286        115
   287         23
   288          2
   297          1
   298          1
   299          1
   301          2
   310          9
   311         36
   312          8
   323          3
   324         12
   325         20
   326          5
   338          9
   339          9
   340          3