##TITLE=Library Entry 90116
##JCAMP-DX=Revision 4.10 
##DATA TYPE=MASS SPECTRUM
##SAMPLE DESCRIPTION=A.A.Kutin, Moscow, Russia
##NAMES=HP
##CAS NAME=Propan-2-ol, 1-(2-isopropyl-5-methylcyclohexyloxy)-3-(4-methyl-1-
piperazinyl)-
##MOLFORM=C18H36N2O2
##CAS REGISTRY NO=301537-94-0
##MP= -300
##BP= -300
##MW= 312
##$RETENTION INDEX=0
##$CONDENSED SPECTRUM=NO
##NPOINTS= 135
##XYDATA=(XY..XY) 1 
    39         63
    40         18
    41        299
    42        334
    43        378
    44        107
    45         13
    46          0
    48          0
    49          0
    50          5
    51         13
    53         36
    54         26
    55        258
    56        146
    57        116
    58        104
    59          6
    60          2
    61          1
    62          1
    63          4
    64          1
    65          9
    67         52
    68         21
    69         88
    70        572
    71         92
    72         43
    73          2
    74          2
    75          2
    76          2
    77         15
    78          4
    79         16
    80          6
    81         46
    82         25
    83         76
    84         18
    85         22
    86         21
    87          1
    88          0
    89          1
    91          8
    92          1
    93          6
    94          3
    95         30
    96          8
    97         31
    98         67
    99         20
   100         31
   101          3
   102          2
   103          1
   104          2
   105          3
   106          0
   107          2
   108          1
   109          5
   111         39
   113        999
   114        281
   115         18
   116          3
   117          2
   118          6
   119          1
   121          0
   122          0
   123          5
   124          1
   125          3
   126         10
   127          4
   128          2
   129          1
   130          4
   131          0
   133          0
   134          0
   135          0
   136          0
   137          0
   138          2
   139         13
   140          7
   141          3
   142          2
   143         54
   144          4
   145          0
   146          0
   149          1
   150          0
   152          0
   153          0
   155         20
   156          3
   157         14
   158          2
   159          0
   162          0
   163          0
   169          0
   170          0
   171          3
   172          3
   173         13
   174          1
   175          1
   182          0
   183          0
   184          0
   197          0
   198          0
   199          0
   209          0
   210          0
   236          0
   283          0
   294         11
   295          2
   296          0
   297          0
   311          1
   312          2
   313          0