##TITLE=Library Entry 14745
##JCAMP-DX=Revision 4.10 
##DATA TYPE=MASS SPECTRUM
##SAMPLE DESCRIPTION=A.A.Kutin, Moscow, Russia
##NAMES=HP
##CAS NAME=Benzoic acid, 2-[3-(2-chlorophenyl)-5-methyl-4-isoxazolyl]carbony
lamino-, methyl ester
##MOLFORM=C19H15ClN2O4
##CAS REGISTRY NO=301680-63-7
##MP= -300
##BP= -300
##MW= 370
##$RETENTION INDEX=0
##$CONDENSED SPECTRUM=NO
##NPOINTS= 121
##XYDATA=(XY..XY) 1 
    33         28
    36          4
    38         10
    39         72
    43        999
    44         16
    45          2
    50         40
    51         42
    52         14
    53          5
    55          3
    59         12
    61          4
    62         15
    63         65
    64         54
    65         39
    66          4
    67          1
    69          1
    73          6
    75         93
    76         30
    77         35
    78          9
    79          5
    83          1
    84          1
    85          6
    86          5
    87          9
    90        132
    91         44
    92         87
    93          6
    94          5
    97          2
    98          0
    99         12
   100          8
   101         17
   102         19
   104          9
   105         13
   106          0
   111         44
   113         17
   114         42
   115          7
   117          3
   119         72
   120         35
   121          4
   123         29
   125         15
   126          7
   127          6
   128          2
   130         19
   131          1
   132          6
   135          0
   137          5
   138          3
   139          6
   140          6
   143          0
   144          8
   146         38
   148          0
   150        100
   151         34
   152         34
   157          0
   160          1
   162          1
   163          1
   169         13
   170          4
   175          2
   178        705
   180        268
   181         12
   186          2
   189          0
   202         12
   203          4
   205          7
   218          1
   220         30
   222         13
   230          1
   232          1
   233          0
   234          1
   260          6
   261          9
   262          1
   267          0
   269          1
   275          4
   297         13
   298          0
   299          2
   300          1
   303        392
   304         75
   305          8
   311          4
   332          7
   335        865
   336        164
   337         25
   338          2
   339          4
   340          1
   370         34
   371          7
   372          9
   373          0