##TITLE=Library Entry 81747
##JCAMP-DX=Revision 4.10 
##DATA TYPE=MASS SPECTRUM
##SAMPLE DESCRIPTION=Japan AIST/NIMC Database- Spectrum MS-IW-1109
##NAMES=HP
##CAS NAME=Methanone, 1,4-phenylenebis[phenyl-
##MOLFORM=C20H14O2
##CAS REGISTRY NO=3016-97-5
##MP= -300
##BP= -300
##MW= 286
##$RETENTION INDEX=0
##$CONDENSED SPECTRUM=NO
##NPOINTS= 94
##XYDATA=(XY..XY) 1 
    27          4
    28          8
    29          1
    39          3
    41          2
    43          3
    50         18
    51         61
    52          4
    53          1
    55          2
    56          1
    57          4
    62          1
    63          4
    65          1
    69          2
    70          1
    71          3
    74          5
    75         10
    76         35
    77        366
    78         26
    79          1
    81          1
    82          1
    83          2
    85          2
    86          1
    87          1
    89          1
    91          2
    95          1
    97          2
    98          1
    99          1
   101          1
   102          1
   103          1
   104         19
   105        999
   106         80
   107          5
   109          1
   111          1
   113          1
   115          1
   119          4
   120          2
   125          1
   126          3
   127          4
   135          1
   143          3
   149          2
   150          4
   151         20
   152         92
   153         96
   154         11
   155          1
   163          1
   164          1
   165          4
   166          1
   167          4
   177          1
   179          1
   180          9
   181        159
   182         23
   183          2
   195         10
   196          1
   207          1
   208          1
   209        559
   210         86
   211          9
   212          1
   223          1
   226          1
   228          1
   229          1
   254          1
   257          5
   258          8
   259          1
   285          3
   286        557
   287        122
   288         14
   289          1