##TITLE=Library Entry 46468
##JCAMP-DX=Revision 4.10 
##DATA TYPE=MASS SPECTRUM
##SAMPLE DESCRIPTION=Chuck Anderson, Aldrich Chemical Co.
##NAMES=HP
##CAS NAME=Propane, 2-bromo-1-chloro-
##MOLFORM=C3H6BrCl
##CAS REGISTRY NO=3017-95-6
##MP= -300
##BP= -300
##MW= 156
##$RETENTION INDEX=747
##$CONDENSED SPECTRUM=NO
##NPOINTS= 99
##XYDATA=(XY..XY) 1 
    12          0
    13          0
    14          1
    15          6
    16          0
    19          0
    20          0
    24          0
    25          5
    26         43
    27        218
    28         15
    29          0
    31          0
    32          0
    35          3
    36          9
    37         44
    38         72
    39        325
    40         42
    41        707
    42         40
    43          1
    44          0
    45          0
    47          4
    48          4
    49         81
    50          3
    51         28
    52          0
    53          0
    58          0
    59          0
    60          3
    61         25
    62          4
    63          9
    64          1
    71          0
    72          1
    73          3
    74          0
    75         13
    76          7
    77        999
    78         33
    79        329
    80         14
    81          9
    82          3
    83          0
    91          2
    92          1
    93         10
    94          1
    95          9
    96          0
    97          0
   103          0
   104          1
   105         15
   106          5
   107         59
   108          5
   109         42
   110          1
   114          0
   115          0
   116          0
   117          0
   118          0
   119          2
   120          1
   121          7
   122          1
   123          6
   124          0
   127          1
   128          0
   129          1
   130          0
   131          0
   139          0
   140          0
   141          4
   142          0
   143          5
   144          0
   145          1
   154          0
   155          0
   156         14
   157          0
   158         18
   159          0
   160          4
   161          0