##TITLE=Library Entry 53760
##JCAMP-DX=Revision 4.10 
##DATA TYPE=MASS SPECTRUM
##SAMPLE DESCRIPTION=P.A. Leclercq, Lab. Instrum. Anal., Tech. Univ. Eindhov
en, Netherlands
##NAMES=HP
##CAS NAME=2-Cyclohexen-1-one, 4-hydroxy-
##MOLFORM=C6H8O2
##CAS REGISTRY NO=30182-12-8
##MP= -300
##BP= -300
##MW= 112
##$RETENTION INDEX=2277
##$CONDENSED SPECTRUM=NO
##NPOINTS= 32
##XYDATA=(XY..XY) 1 
    26        220
    27        375
    29        334
    30         31
    31         74
    37         53
    38         71
    39        265
    40        119
    41        182
    42        137
    43        155
    44         67
    50         42
    51         67
    53        116
    54        130
    55        797
    56        388
    57         76
    65         53
    66         67
    67         38
    68        278
    69         96
    70        253
    82         51
    83        164
    84        999
    85         60
   112        182
   113         14