##TITLE=Library Entry 99829
##JCAMP-DX=Revision 4.10 
##DATA TYPE=MASS SPECTRUM
##SAMPLE DESCRIPTION=Chemical Concepts
##NAMES=HP
##CAS NAME=N-[2,2,2-Trichloro-1-(1-naphthylamino)ethyl]-o-toluamide
##MOLFORM=C20H17Cl3N2O
##CAS REGISTRY NO=301815-61-2
##MP= -300
##BP= -300
##MW= 406
##$RETENTION INDEX=0
##$CONDENSED SPECTRUM=NO
##NPOINTS= 170
##XYDATA=(XY..XY) 1 
    34         13
    35         40
    36        168
    38         93
    39        103
    40        187
    41         48
    42         11
    44         99
    45          7
    46          1
    47          5
    48          3
    49          6
    50         27
    51         48
    52         12
    53          8
    55         20
    56          9
    57         18
    58         12
    60          7
    61          7
    62         24
    63         66
    64         25
    65        165
    66          9
    67          4
    68          3
    69          9
    70          9
    71         10
    72          5
    73          5
    74         13
    75         22
    76         16
    77         40
    78          8
    79          4
    80          2
    81          3
    82          8
    83         10
    84          9
    85          6
    86          9
    87         11
    89         76
    91        521
    92         32
    93          6
    94          1
    95          2
    96          1
    97          4
    98          5
    99          6
   100          9
   101         13
   102          7
   103          4
   104          5
   105          5
   106          3
   107          1
   108          1
   109          2
   111          5
   112          6
   113          9
   114         13
   115        119
   116         37
   117         33
   119        999
   120         87
   121          8
   122          1
   123          2
   124          2
   125          7
   126         25
   127         75
   128         12
   129          3
   130          4
   131          2
   132          1
   133          3
   135         33
   136         31
   137          5
   138          4
   139         10
   140         13
   141          7
   142         26
   143        146
   144         16
   145          2
   146          2
   148          1
   149          5
   150          1
   151          2
   152          8
   153         16
   154         90
   155         13
   156          1
   162          2
   163          1
   164          6
   165          5
   166         13
   167         15
   168          6
   169         16
   170          6
   171          5
   172         11
   173          2
   175          3
   176          1
   179          2
   181          6
   182          1
   190          2
   192          1
   193          1
   199          1
   200          8
   201         15
   202          9
   203          6
   204          3
   215          3
   216          1
   217          3
   219          4
   228          1
   233          1
   235          1
   236          3
   237          3
   238          2
   239          2
   247          5
   248          1
   271          4
   272          1
   273          3
   275          1
   285          2
   286          4
   287         13
   289        201
   290         38
   291          4
   334          4
   335          2
   336          2
   406          6
   407          2
   408          5
   409          1
   410          1