##TITLE=Library Entry 57718
##JCAMP-DX=Revision 4.10 
##DATA TYPE=MASS SPECTRUM
##SAMPLE DESCRIPTION=TNO Volatile Compounds in Food - Chemical Concepts
##NAMES=HP
##CAS NAME=Thiazolidine, 2-butyl-
##MOLFORM=C7H15NS
##CAS REGISTRY NO=30188-50-2
##MP= -300
##BP= -300
##MW= 145
##$RETENTION INDEX=1186
##$CONDENSED SPECTRUM=NO
##NPOINTS= 71
##XYDATA=(XY..XY) 1 
    26         10
    27         93
    28          4
    29         29
    30        133
    31          1
    33          4
    34          7
    35         16
    37          1
    38          3
    39         36
    41        107
    42         83
    43         66
    44         76
    45         41
    46          8
    47         10
    48          1
    51          2
    52          2
    53          6
    54         17
    55         17
    56        227
    57         60
    58         14
    59         42
    60         58
    61         90
    62          5
    63          3
    64          1
    67         10
    68         18
    69         35
    70         69
    71          6
    73          4
    74         11
    75          3
    80          1
    82          6
    83          2
    84         15
    85          2
    86         23
    87          6
    88        999
    89         47
    90         45
    91          1
    96          2
    98         83
    99         14
   100          1
   101         10
   102          4
   103         27
   105          1
   112          7
   114          4
   116         61
   117          5
   118          2
   143          1
   144         27
   145        149
   146         15
   147          6