##TITLE=Library Entry 99267
##JCAMP-DX=Revision 4.10 
##DATA TYPE=MASS SPECTRUM
##SAMPLE DESCRIPTION=Chemical Concepts
##NAMES=HP
##CAS NAME=N-(6-Aminosulfonyl-2-benzothiazolyl)-m-toluamide
##MOLFORM=C15H13N3O3S2
##CAS REGISTRY NO=301859-02-9
##MP= -300
##BP= -300
##MW= 347
##$RETENTION INDEX=0
##$CONDENSED SPECTRUM=NO
##NPOINTS= 110
##XYDATA=(XY..XY) 1 
    34          7
    35          4
    36          9
    37         16
    38         35
    39        103
    40         50
    41         33
    43         31
    44         20
    45         25
    46          7
    48         14
    50         79
    51         80
    52         80
    53         13
    54          4
    55          5
    57         11
    58          3
    59          4
    61         14
    62         25
    63         78
    64         87
    65        198
    66         13
    67          3
    69         29
    70         13
    71          8
    73          2
    74          8
    75         11
    76         18
    77         30
    78         17
    79         42
    80          6
    81          5
    82          9
    83          4
    84          4
    85          4
    86          4
    88         22
    89         62
    91        551
    92         38
    93         10
    94         11
    95         11
    96          3
    97          2
    98          1
   101          1
   102          1
   103          5
   104          7
   105         19
   106          5
   107          3
   109          6
   110          4
   111          9
   112          3
   113          4
   114          4
   116         18
   119        999
   120         93
   121         30
   122          7
   123          4
   124          1
   125          1
   132          1
   133          1
   134          1
   135          2
   136          3
   137          4
   139         20
   140          3
   141          6
   142          1
   147          2
   148         12
   149          3
   150          1
   152          1
   162          1
   164         15
   165          7
   166          1
   171          1
   196          1
   227          1
   228          4
   229          2
   317          1
   319         16
   320          3
   321          1
   344          1
   345          2
   347         40
   348          6
   349          3