##TITLE=Library Entry 4940
##JCAMP-DX=Revision 4.10 
##DATA TYPE=MASS SPECTRUM
##SAMPLE DESCRIPTION=A.A.Kutin, Moscow, Russia
##NAMES=HP
##CAS NAME=2-Cyclohexen-1-one, 3-hydroxy-
##MOLFORM=C6H8O2
##CAS REGISTRY NO=30182-67-3
##MP= -300
##BP= -300
##MW= 112
##$RETENTION INDEX=0
##$CONDENSED SPECTRUM=NO
##NPOINTS= 53
##XYDATA=(XY..XY) 1 
    36          0
    37         17
    38         34
    39        164
    40         43
    41        158
    42        999
    43         90
    44          3
    49          3
    50         12
    51          9
    52          3
    53         12
    55        246
    56         54
    57          3
    58          1
    60          0
    61          1
    62          2
    64          0
    65          2
    66          3
    67          2
    68          5
    69         43
    70         65
    71          5
    72          0
    73          0
    74          0
    75          0
    76          0
    77          1
    80          0
    81          0
    83         86
    84        248
    85         13
    86          0
    89          0
    90          0
    91          0
    95          0
    96          0
    97          1
   107          4
   108          3
   109          0
   112        139
   113          9
   114          0