##TITLE=Library Entry 87073
##JCAMP-DX=Revision 4.10 
##DATA TYPE=MASS SPECTRUM
##SAMPLE DESCRIPTION=J.E. DOOLEY, U.S. BUREAU OF MINES, BARTLESVILLE, OKLA.,
 USA
##NAMES=HP
##CAS NAME=Benzene, [(1,1-dimethylethyl)thio]-
##MOLFORM=C10H14S
##CAS REGISTRY NO=3019-19-0
##MP= -300
##BP= -300
##MW= 166
##$RETENTION INDEX=1208
##$CONDENSED SPECTRUM=NO
##NPOINTS= 108
##XYDATA=(XY..XY) 1 
    24          0
    25          0
    26         12
    27         91
    28         13
    29        175
    30          4
    32          1
    33          1
    34          1
    35          0
    36          0
    37          8
    38         23
    39        188
    40         15
    41        209
    42         11
    43          1
    44          1
    45         46
    46          1
    47          4
    48          0
    49          3
    50         28
    51         55
    52          6
    53          9
    54          1
    55         21
    56         10
    57        344
    58         24
    59         21
    60          1
    61          3
    62          6
    63         16
    64          3
    65        105
    66         46
    67          2
    68          1
    69         53
    70          4
    71          7
    72          0
    73         11
    74          7
    75          5
    76          4
    77         35
    78          7
    79          1
    80          0
    81          6
    82         13
    83          7
    84         19
    85          1
    86          0
    87          0
    89          0
    90          0
    91          3
    92          0
    93          1
    94          0
    95          1
    97          0
   102          0
   103          0
   104          0
   105          0
   106          0
   107          1
   108         16
   109        110
   110        999
   111         85
   112         47
   113          3
   114          0
   115          1
   116          0
   117          1
   118          0
   121          0
   122          0
   123          6
   124          0
   125          0
   134          1
   135          1
   136          0
   137          0
   147          0
   149          1
   150          0
   151         16
   152          1
   153          0
   165          0
   166        112
   167         13
   168          5
   169          0