##TITLE=Library Entry 9211
##JCAMP-DX=Revision 4.10 
##DATA TYPE=MASS SPECTRUM
##SAMPLE DESCRIPTION=LAC, NIDDK, NIH, Bethesda, MD 20892
##NAMES=HP
##CAS NAME=Galacto-heptulose
##MOLFORM=C7H14O7
##CAS REGISTRY NO=3019-74-7
##MP= -300
##BP= -300
##MW= 210
##$RETENTION INDEX=0
##$CONDENSED SPECTRUM=NO
##NPOINTS= 133
##XYDATA=(XY..XY) 1 
    41        146
    42        312
    43        999
    44        373
    45        324
    46         39
    47         54
    49         38
    50          5
    51         11
    52          6
    53         37
    54         32
    55        207
    56        189
    57        326
    58         79
    59         58
    60        529
    61        476
    62         29
    63          5
    64          1
    65          5
    66          4
    67         10
    68         27
    69        136
    70         52
    71        288
    72        148
    73        925
    74        170
    75         21
    76         26
    77         38
    78          3
    79          9
    80          2
    81         23
    82         10
    83         27
    84         33
    85        132
    86         80
    87         61
    88         10
    89         53
    90         52
    91         59
    92          2
    93          1
    94          2
    95         10
    96          8
    97         63
    98         30
    99         27
   100         10
   101         73
   102         49
   103         97
   104          9
   105          3
   106          0
   107          8
   108          1
   109          9
   110          7
   111         10
   112          7
   113         24
   114         23
   115         51
   116         23
   117          4
   118          1
   119         25
   120          6
   121          5
   122          1
   123          7
   124          3
   125         17
   126         11
   127         17
   128          6
   129          4
   130          5
   131         74
   132         27
   133         72
   134          4
   135          2
   136          1
   137          4
   138          2
   139          6
   140          4
   141          5
   142          2
   143         38
   144          8
   145          9
   146          2
   147          1
   149         34
   150          3
   151          4
   152          1
   153          2
   154          2
   155          3
   156          4
   157          5
   158          1
   159          1
   160          0
   161         31
   162          4
   163         10
   164          1
   165          1
   167          0
   173          2
   174         13
   175          4
   178          1
   179         12
   180          1
   192          0
   193          4
   200          0