##TITLE=Library Entry 87496
##JCAMP-DX=Revision 4.10 
##DATA TYPE=MASS SPECTRUM
##SAMPLE DESCRIPTION=J.E.DOOLEY ENERGY RES. CENTRE, BARTLESVILLE, OKLA., USA
##NAMES=HP
##CAS NAME=Sulfide, isopropyl phenyl
##MOLFORM=C9H12S
##CAS REGISTRY NO=3019-20-3
##MP= -300
##BP= -300
##MW= 152
##$RETENTION INDEX=1184
##$CONDENSED SPECTRUM=NO
##NPOINTS= 112
##XYDATA=(XY..XY) 1 
    24          0
    25          1
    26         19
    27        159
    28          8
    29          1
    32          2
    33          1
    34          1
    35          0
    36          0
    37         13
    38         32
    39        195
    40         15
    41        126
    42         10
    43        176
    44          6
    45         67
    46          2
    47          6
    48          0
    49          4
    50         40
    51         84
    52          9
    53          2
    54          0
    55          0
    56          0
    57         14
    58         22
    59         40
    60          4
    61          5
    62          6
    63         22
    64          4
    65        120
    66         92
    67          5
    68          1
    69         69
    70          6
    71         10
    72          0
    73          6
    74         12
    75         10
    76          7
    77         60
    78         14
    79          2
    80          1
    81          9
    82         18
    83         10
    84         39
    85          2
    86          1
    87          0
    89          0
    90          0
    91          7
    92          0
    93          2
    94          0
    95          2
    96          0
    97          1
   101          0
   102          0
   103          8
   104          8
   105          2
   106          1
   107          1
   108         20
   109        152
   110        999
   111         83
   112         45
   113          3
   114          0
   115          1
   116          0
   117          1
   118          0
   119          0
   121          2
   122          0
   123         10
   124          1
   125          0
   133          0
   134          2
   135          9
   136          1
   137         48
   138          6
   139          2
   140          0
   141          0
   149          0
   150          0
   151          2
   152        398
   153         42
   154         19
   155          1
   156          0