##TITLE=Library Entry 37777
##JCAMP-DX=Revision 4.10 
##DATA TYPE=MASS SPECTRUM
##SAMPLE DESCRIPTION=Japan AIST/NIMC Database- Spectrum MS-IW-1266
##NAMES=HP
##CAS NAME=Trichloroacetyl isocyanate
##MOLFORM=C3Cl3NO2
##CAS REGISTRY NO=3019-71-4
##MP= -300
##BP= -300
##MW= 187
##$RETENTION INDEX=0
##$CONDENSED SPECTRUM=NO
##NPOINTS= 51
##XYDATA=(XY..XY) 1 
    26          3
    28         19
    30          1
    35         10
    36          4
    37          3
    38          3
    40          2
    42         17
    43          5
    44         43
    47         47
    48          1
    49         15
    54          8
    61          9
    63         21
    65          6
    70        999
    71         29
    72          5
    73          2
    75          1
    82         55
    83          4
    84         35
    85          2
    86          6
    89          1
    96          2
    98          2
   108          1
   110         16
   112          9
   114          1
   117         94
   118          1
   119         91
   120          1
   121         29
   123          3
   124         37
   125          1
   126         24
   128          4
   145          1
   147          1
   152         31
   153          1
   154         20
   156          3