##TITLE=Library Entry 70571
##JCAMP-DX=Revision 4.10 
##DATA TYPE=MASS SPECTRUM
##SAMPLE DESCRIPTION=Japan AIST/NIMC Database- Spectrum MS-IW- 116
##NAMES=HP
##CAS NAME=3-Bromo-2-hydroxy-2-cyclopenten-1-one
##MOLFORM=C5H5BrO2
##CAS REGISTRY NO=3019-83-8
##MP= -300
##BP= -300
##MW= 176
##$RETENTION INDEX=0
##$CONDENSED SPECTRUM=NO
##NPOINTS= 112
##XYDATA=(XY..XY) 1 
    12          1
    13          2
    14         10
    15         18
    16          1
    17          1
    18          4
    24          2
    25         10
    26         60
    27         78
    28         47
    29         55
    30          2
    31          2
    32          3
    33          2
    34         11
    36          9
    37         47
    38         79
    39        330
    40         73
    41        496
    42        109
    43        223
    44         15
    45          2
    48          8
    49          9
    50         19
    51         35
    52          9
    53         55
    54         49
    55        329
    56         12
    57          8
    58          1
    59          2
    60          2
    61          1
    62          1
    63          1
    65          4
    66         17
    67         49
    68         52
    69        830
    70         40
    71         18
    72          1
    73          2
    74         12
    75         10
    76          1
    77          1
    78          1
    79         13
    80         27
    81         13
    82         26
    83          2
    84          1
    89          1
    91          7
    92          7
    93         14
    94          6
    95          9
    96          6
    97        999
    98         75
    99          7
   103          1
   104          2
   105         38
   106          8
   107         44
   108          7
   109          8
   110          1
   114          1
   116          2
   117          5
   118          3
   119         22
   120         29
   121         20
   122         28
   123          3
   124          1
   129          1
   131          3
   132          9
   133         46
   134          7
   135         44
   136          5
   137          1
   146          1
   147          9
   148         32
   149          9
   150         32
   151          2
   175          7
   176        989
   177         84
   178        966
   179         75
   180          6