##TITLE=Library Entry 51541
##JCAMP-DX=Revision 4.10 
##DATA TYPE=MASS SPECTRUM
##SAMPLE DESCRIPTION=NIST Mass Spectrometry Data Center, 1990.
##NAMES=HP
##CAS NAME=Chloral Hydrate
##MOLFORM=C2H3Cl3O2
##CAS REGISTRY NO=302-17-0
##MP= -300
##BP= -300
##MW= 164
##$RETENTION INDEX=698
##$CONDENSED SPECTRUM=NO
##NPOINTS= 55
##XYDATA=(XY..XY) 1 
    12         31
    13         39
    14          1
    16          6
    17          4
    18          3
    24         19
    25         33
    28         72
    29        492
    30          4
    32          9
    35        188
    36         23
    37         58
    38          9
    40         18
    41         10
    42          3
    44          2
    47        517
    48        160
    49        172
    50         50
    59         14
    60         34
    61          4
    62         10
    63          3
    70          8
    72          3
    82        999
    83        444
    84        646
    85        262
    86        110
    87         39
   110        133
   111        417
   112         90
   113        276
   114         19
   115         46
   116         19
   117        111
   118        111
   119        107
   120        107
   121         33
   122         31
   123          3
   124          3
   146         41
   148         39
   150         12