##TITLE=Library Entry 1578
##JCAMP-DX=Revision 4.10 
##DATA TYPE=MASS SPECTRUM
##SAMPLE DESCRIPTION=Exported from NIST MS Search
##NAMES=HP
##CAS NAME=Hydrazine
##MOLFORM=H4N2
##CAS REGISTRY NO=302-01-2
##MP= -300
##BP= -300
##MW= 32
##$RETENTION INDEX=0
##$CONDENSED SPECTRUM=NO
##NPOINTS= 11
##XYDATA=(XY..XY) 1 
    14         49
    15         81
    16        292
    17        261
    27          3
    28        214
    29        401
    30        313
    31        473
    32        999
    33          9