##TITLE=Library Entry 56483
##JCAMP-DX=Revision 4.10 
##DATA TYPE=MASS SPECTRUM
##SAMPLE DESCRIPTION=Patti Price, Georgia Bureau of Investigation, Decatur,
 Georgia
##NAMES=HP
##CAS NAME=Proadifen
##MOLFORM=C23H31NO2
##CAS REGISTRY NO=302-33-0
##MP= -300
##BP= -300
##MW= 353
##$RETENTION INDEX=2317
##$CONDENSED SPECTRUM=NO
##NPOINTS= 61
##XYDATA=(XY..XY) 1 
    41         15
    42         54
    43         24
    44         75
    51          7
    53          3
    55          3
    56         40
    57         17
    58         64
    63          2
    65          5
    70         13
    71         29
    72         16
    73          3
    77         14
    78          2
    79          2
    84         18
    86        999
    87         67
    89          2
    91         89
    92          5
    99        217
   100         34
   101          2
   102          4
   103         10
   105         33
   106          2
   115         12
   116          5
   117          2
   127          2
   128          5
   129          5
   131          9
   139          2
   149          5
   151          2
   152         14
   153          2
   163          2
   164          4
   165         52
   166         20
   167         34
   168          4
   176          1
   177          1
   178         12
   179          7
   180          2
   193          1
   194          4
   209          9
   210          1
   281          1
   338          2