##TITLE=Library Entry 82316
##JCAMP-DX=Revision 4.10 
##DATA TYPE=MASS SPECTRUM
##SAMPLE DESCRIPTION=AAFS Toxicology Section MS DB Committee, U. Alberta, Ca
nada
##NAMES=HP
##CAS NAME=Aconitine
##MOLFORM=C34H47NO11
##CAS REGISTRY NO=302-27-2
##MP= -300
##BP= -300
##MW= 645
##$RETENTION INDEX=0
##$CONDENSED SPECTRUM=NO
##NPOINTS= 115
##XYDATA=(XY..XY) 1 
    41         25
    42         22
    43         81
    45         91
    51         22
    55         38
    56         42
    57         30
    58         98
    59         33
    60         61
    67         29
    68         19
    69         41
    70         20
    71         62
    72         18
    73         28
    75         92
    76         20
    77        249
    78         27
    79         34
    81         31
    82         32
    83         45
    84         32
    85         49
    86         78
    87         46
    91         53
    93         22
    94         22
    95         33
    96         38
    97         49
    98         28
    99         21
   101         36
   103         19
   105        999
   106         94
   107         25
   108         36
   109         51
   110         24
   111         56
   112         28
   114         25
   115         44
   116         17
   117         29
   119         18
   121         38
   122         38
   123         26
   124         18
   125         19
   128         21
   129         35
   131         35
   133         22
   134         36
   135         30
   136         21
   137         25
   138         31
   139         22
   141         39
   142         16
   143         22
   144         17
   145         17
   146         22
   147         25
   148         38
   149         30
   150         32
   152         32
   153         17
   155         17
   158         26
   159         21
   160         22
   161         38
   162         22
   164         17
   165         30
   166         19
   171         21
   174         17
   178         52
   179         23
   180         26
   182         19
   185         18
   196         24
   198         23
   202         20
   236         19
   266         85
   267         28
   448         18
   480         22
   524         29
   536         58
   537         18
   538         28
   554        254
   555        102
   556         27
   570         37
   585         35
   614         70
   615         26