##TITLE=Library Entry 15104
##JCAMP-DX=Revision 4.10 
##DATA TYPE=MASS SPECTRUM
##SAMPLE DESCRIPTION=Japan AIST/NIMC Database- Spectrum MS-NW- 284
##NAMES=HP
##CAS NAME=dl-Alanine
##MOLFORM=C3H7NO2
##CAS REGISTRY NO=302-72-7
##MP= -300
##BP= -300
##MW= 89
##$RETENTION INDEX=0
##$CONDENSED SPECTRUM=NO
##NPOINTS= 29
##XYDATA=(XY..XY) 1 
    14          4
    15         25
    17          1
    18          3
    25          2
    26          9
    27         37
    28        122
    29         12
    30          6
    38          4
    39          6
    40         16
    41         28
    42        111
    43         36
    44        999
    45         31
    46         16
    53          2
    54          2
    55          8
    56          4
    57          6
    60          1
    73          4
    74         23
    75          1
    89          2