##TITLE=Library Entry 14539
##JCAMP-DX=Revision 4.10 
##DATA TYPE=MASS SPECTRUM
##SAMPLE DESCRIPTION=NIST Mass Spectrometry Data Center, 1998.
##NAMES=HP
##CAS NAME=Chlormadinone acetate
##MOLFORM=C23H29ClO4
##CAS REGISTRY NO=302-22-7
##MP= -300
##BP= -300
##MW= 404
##$RETENTION INDEX=0
##$CONDENSED SPECTRUM=NO
##NPOINTS= 225
##XYDATA=(XY..XY) 1 
    15          3
    27          4
    29         10
    36          2
    39         13
    41         49
    42          7
    43        999
    44         24
    45          9
    51          8
    53         24
    54          2
    55         73
    56          3
    57          5
    59          5
    63          4
    65         17
    66          4
    67         36
    68          4
    69         12
    71          4
    75          5
    77         46
    78          9
    79         53
    80          4
    81         27
    82          6
    83         10
    85          5
    87          3
    89          7
    90          1
    91         76
    92          8
    93         35
    94          5
    95         26
    96          3
    97         25
    98          2
    99          5
   101          7
   102          8
   103         21
   104          5
   105         35
   106          5
   107         70
   108          7
   109         17
   110          4
   111          4
   112          2
   115         55
   116         23
   117         24
   118          4
   119         16
   120          1
   121         11
   122          3
   123         10
   124          2
   125         12
   126          5
   127         20
   128         45
   129         46
   130         16
   131         34
   132          8
   133         45
   134          6
   135         16
   136          4
   137          3
   138          5
   139         12
   140          2
   141         31
   142         16
   143         23
   144         13
   145         18
   146          5
   147          7
   149         23
   150          5
   151         12
   152         14
   153         21
   154         10
   155         22
   156          6
   157         16
   158          6
   159         14
   160          6
   161          4
   163          8
   164          5
   165         38
   166         13
   167         24
   168         12
   169         14
   170         14
   171         18
   172          8
   173         18
   174          3
   175         24
   176          4
   177         11
   178         12
   179         25
   180         10
   181         26
   182          8
   183         16
   184          3
   185          7
   189          8
   190          3
   191         16
   192          8
   193         27
   194         16
   195         29
   196          9
   197         16
   198          2
   199          3
   203          7
   204          2
   205         17
   206          6
   207         97
   208         34
   209         43
   210         15
   211          6
   212          2
   213          6
   215          4
   217          7
   218          4
   219          8
   220          5
   221         12
   222          3
   223         26
   224          5
   225         17
   226          3
   227          4
   229          4
   231          4
   232          5
   233         17
   234          6
   235          4
   236          2
   237         10
   238          3
   239          8
   241          5
   243          6
   244          5
   245         13
   246          5
   247         12
   248          6
   249          8
   250         22
   251         46
   252         11
   253          4
   257          3
   259          9
   260          3
   261         20
   262          6
   263         11
   264          2
   265         40
   266         88
   267        124
   268         25
   269          6
   273          3
   276         24
   277          5
   278          5
   283          7
   285          4
   287          3
   293          5
   300         12
   301        833
   302        184
   303        283
   304         60
   305          6
   308          4
   309         33
   310          7
   319         84
   320         18
   321         32
   322          5
   329         19
   330          2
   331          5
   344         22
   345          3
   346          8
   347          2
   362          7
   404          7
   406          2