##TITLE=Library Entry 14260
##JCAMP-DX=Revision 4.10 
##DATA TYPE=MASS SPECTRUM
##SAMPLE DESCRIPTION=CARL DJERASSI DEPT OF CHEM STANFORD UNIV STANFORD CALIF
 94305
##NAMES=HP
##CAS NAME=Pregn-4-ene-3,20-dione, 17-(acetyloxy)-
##MOLFORM=C23H32O4
##CAS REGISTRY NO=302-23-8
##MP= -300
##BP= -300
##MW= 372
##$RETENTION INDEX=0
##$CONDENSED SPECTRUM=NO
##NPOINTS= 55
##XYDATA=(XY..XY) 1 
    41         80
    43        999
    53         30
    55         80
    65         10
    67         60
    77         40
    79        111
    81         40
    83         20
    91        101
    92         10
    93         80
    95         50
    97        101
   105         80
   107         50
   109         70
   110         10
   117         10
   119         40
   121         70
   122         10
   123         50
   124         30
   129         10
   131         30
   133         40
   135         20
   136         10
   137         20
   143         10
   145        121
   146         20
   147         60
   149         10
   157         10
   159         10
   161         10
   163         10
   173         40
   175         30
   189         10
   211         20
   227         10
   229        141
   244         40
   251         20
   269        888
   270        222
   287        424
   312         70
   329         70
   330        141
   371         20