##TITLE=Library Entry 56609
##JCAMP-DX=Revision 4.10 
##DATA TYPE=MASS SPECTRUM
##SAMPLE DESCRIPTION=Tox21 Consortium/NIST Mass Spectrometry Data Center, 20
12
##NAMES=HP
##CAS NAME=Benactyzine
##MOLFORM=C20H25NO3
##CAS REGISTRY NO=302-40-9
##MP= -300
##BP= -300
##MW= 327
##$RETENTION INDEX=2248
##$CONDENSED SPECTRUM=NO
##NPOINTS= 89
##XYDATA=(XY..XY) 1 
    15          1
    18          2
    26          1
    27          5
    28         12
    29         17
    30         23
    31          1
    39          3
    41          3
    42         28
    43          6
    44         41
    45          5
    50          5
    51         26
    52          4
    53          1
    54          2
    55          2
    56         29
    57         16
    58         46
    59          2
    62          1
    63          3
    64          1
    65          1
    68          1
    69          1
    70         11
    71         14
    72         15
    73         25
    74          3
    75          3
    76          7
    77        133
    78         12
    79          1
    82          1
    84         13
    86        999
    87         59
    88          3
    89          2
    91          1
    98          1
    99         73
   100         24
   101          4
   102         17
   103          2
   105        189
   106         15
   107          1
   113          1
   114          1
   115          3
   116         11
   117          2
   126          2
   127          2
   128          1
   139          2
   140          1
   144          1
   150          1
   151          3
   152         11
   153          5
   154          2
   155          1
   163          2
   164          3
   165         12
   166          3
   167          3
   168          1
   181          8
   182         22
   183         45
   184          7
   194          1
   312          7
   313          2
   326          1
   327          3
   328          1