##TITLE=Library Entry 79555
##JCAMP-DX=Revision 4.10 
##DATA TYPE=MASS SPECTRUM
##SAMPLE DESCRIPTION=ASES Database, Dalian Institute, P.R. China
##NAMES=HP
##CAS NAME=Benzenecarbothioic acid, S-chloromethyl ester
##MOLFORM=C8H7ClOS
##CAS REGISTRY NO=30216-81-0
##MP= -300
##BP= -300
##MW= 186
##$RETENTION INDEX=0
##$CONDENSED SPECTRUM=NO
##NPOINTS= 9
##XYDATA=(XY..XY) 1 
    47         46
    77        516
    91          2
   105        999
   121          2
   186        187
   187         16
   188         71
   189          6