##TITLE=Library Entry 19614
##JCAMP-DX=Revision 4.10 
##DATA TYPE=MASS SPECTRUM
##SAMPLE DESCRIPTION=D.HENNEBERG, MAX-PLANCK INSTITUTE, MULHEIM, WEST GERMAN
Y
##NAMES=HP
##CAS NAME=2-Nonenal, 2-pentyl-
##MOLFORM=C14H26O
##CAS REGISTRY NO=3021-89-4
##MP= -300
##BP= -300
##MW= 210
##$RETENTION INDEX=0
##$CONDENSED SPECTRUM=NO
##NPOINTS= 156
##XYDATA=(XY..XY) 1 
    26         40
    27        119
    28        212
    29        412
    30          9
    31          1
    32         13
    36          6
    37          3
    38          2
    39         66
    40         17
    41        744
    42        136
    43        812
    44        102
    45         37
    46          3
    47          5
    48          1
    49          2
    50          4
    51          8
    52          4
    53         59
    54         83
    55        999
    56        204
    57        573
    58         63
    59         43
    60         41
    61         14
    62          1
    64          4
    65         17
    66         24
    67        490
    68        115
    69        651
    70        222
    71        498
    72         43
    73         32
    74          6
    75         12
    76          6
    77         44
    78         16
    79        374
    80         55
    81        698
    82        201
    83        697
    84        265
    85        160
    86         21
    87         13
    88          8
    89          5
    90          4
    91         55
    92         14
    93        371
    94        102
    95        408
    96        220
    97        482
    98        158
    99        109
   100         14
   101          8
   102          5
   103         13
   106          3
   107        272
   108         48
   109        333
   110         58
   111        293
   112        203
   113         39
   114         16
   115         12
   116          4
   117          2
   118          1
   119          7
   120          2
   121        118
   122         22
   123         59
   124         19
   125        662
   126        131
   127         55
   128         14
   129         11
   130          1
   131          4
   133          6
   134          3
   135        166
   136         72
   137         26
   138         45
   139        410
   140         81
   141         20
   142          6
   143         11
   145          1
   147          2
   149         37
   150          9
   151         14
   152         24
   153        602
   154         73
   155         23
   156          7
   157          4
   159          3
   161          2
   163         51
   164          8
   165          6
   166          2
   167         51
   168          9
   169          2
   171          6
   173          1
   177          5
   178          1
   179         24
   180          7
   181         96
   182         15
   183          2
   184          4
   190          1
   192          6
   193          4
   194          4
   195          9
   196          2
   198          2
   199         28
   200          7
   201          2
   207          2
   208          4
   209          9
   210        496
   211         79