##TITLE=Library Entry 11604
##JCAMP-DX=Revision 4.10 
##DATA TYPE=MASS SPECTRUM
##SAMPLE DESCRIPTION=DKFZ HD OPFERKUCH, HEIDELBERG, GERMANY, F.R.G.
##NAMES=HP
##CAS NAME=1H-2,8a-Methanocyclopenta[a]cyclopropa[e]cyclodecen-11-one, 5,6-b
is(acetyloxy)-4-[(acetyloxy)methyl]-1a,2,5,5a,6,9,10,10a-octahydro-5a-hydrox
y-1,1,7,9-tetramethyl-, [1aR-(1a.alpha.,2.alpha.,5.beta.,5a.beta.,6.beta.,8a
.alpha.,9.alpha.,10a.alpha.)]-
##MOLFORM=C26H34O8
##CAS REGISTRY NO=30220-45-2
##MP= -300
##BP= -300
##MW= 474
##$RETENTION INDEX=0
##$CONDENSED SPECTRUM=NO
##NPOINTS= 393
##XYDATA=(XY..XY) 1 
    12          2
    13          1
    14         13
    15         25
    16          6
    17          0
    18          1
    24          0
    25          1
    26          6
    27         69
    28         97
    29         62
    30          1
    31         12
    32          5
    36          0
    37          2
    38          6
    39         97
    40         32
    41        326
    42         59
    43        999
    44         76
    45         69
    46          1
    47          0
    49          0
    50          9
    51         48
    52         20
    53        173
    54         29
    55        277
    56         15
    57         26
    58          3
    59         19
    60         47
    61         20
    62          3
    63         16
    64         10
    65        145
    66         52
    67        187
    68         18
    69        194
    70         13
    71         29
    72          2
    73          8
    74          3
    75          6
    76          6
    77        291
    78         83
    79        284
    80         46
    81        152
    82         43
    83         62
    84          5
    85         15
    86          1
    87          4
    88          1
    89         13
    90          8
    91        465
    92         83
    93        381
    94         69
    95        201
    96         76
    97         76
    98         11
    99          5
   100          1
   101          9
   102         11
   103         62
   104         29
   105        208
   106         62
   107        222
   108         69
   109        173
   110         42
   111         44
   112          7
   113          4
   114          3
   115         90
   116         41
   117         83
   118         29
   119        159
   120         69
   121        666
   122        625
   123        243
   124         41
   125         22
   126          9
   127         31
   128         76
   129         76
   130         41
   131         97
   132         48
   133        159
   134        125
   135        347
   136        215
   137        159
   138        118
   139         55
   140         11
   141         48
   142         48
   143         76
   144         55
   145        138
   146         76
   147        166
   148        159
   149        194
   150        118
   151        180
   152         69
   153         55
   154         19
   155         55
   156         41
   157         69
   158         62
   159        131
   160         83
   161        173
   162        118
   163        104
   164         76
   165        111
   166         47
   167         36
   168         18
   169         69
   170         48
   171         83
   172         69
   173        131
   174         90
   175         97
   176         76
   177        173
   178         83
   179         62
   180         34
   181        111
   182         44
   183         62
   184         36
   185         83
   186         62
   187         97
   188        125
   189        111
   190        159
   191        111
   192         90
   193        131
   194         76
   195         97
   196         40
   197         90
   198         62
   199         97
   200         55
   201        118
   202         76
   203         69
   204         51
   205         47
   206         41
   207         55
   208         41
   209         76
   210         43
   211         90
   212         42
   213         76
   214         40
   215         83
   216         62
   217         55
   218         34
   219         69
   220         32
   221         48
   222         31
   223        159
   224         76
   225        104
   226         47
   227         61
   228         32
   229         43
   230         61
   231         35
   232         62
   233        131
   234         38
   235         63
   236         34
   237         76
   238         49
   239         69
   240         38
   241        138
   242         69
   243         55
   244         34
   245         30
   246         19
   247         20
   248         35
   249         38
   250         26
   251        208
   252         76
   253        152
   254         55
   255         55
   256         36
   257         40
   258         27
   259         21
   260         22
   261         43
   262         15
   263         22
   264         19
   265         76
   266        159
   267         90
   268         31
   269         97
   270         34
   271         41
   272         14
   273          9
   274          5
   275         15
   276         55
   277         41
   278         12
   279        104
   280         23
   281         97
   282         55
   283        111
   284        187
   285         62
   286         11
   287         11
   288          5
   289          6
   290          2
   291          2
   292          6
   293         34
   294        250
   295        111
   296         27
   297         55
   298         22
   299         62
   300         20
   301         13
   302         13
   303         13
   304          3
   305          1
   306          1
   307          2
   308         55
   309         20
   310          7
   311         62
   312        263
   313        187
   314         34
   315          9
   316          2
   317         13
   318          5
   319          2
   320          2
   321          6
   322          1
   323          6
   324         13
   325         18
   326         76
   327         41
   328         11
   329         15
   330         13
   331          4
   332          1
   333          0
   334          0
   335          1
   336         41
   337         16
   338          5
   339         15
   340          4
   341         31
   342         15
   343         12
   344          8
   345          5
   346          1
   347          0
   348          0
   352         11
   353         11
   354        159
   355         83
   356         18
   357          5
   358          1
   359          1
   360          0
   361          1
   362          1
   363          0
   366          0
   367          0
   368          7
   369          2
   370          1
   371         19
   372         46
   373         11
   374          1
   375          0
   377          1
   378          0
   379          0
   381          1
   382          0
   383          1
   384          1
   385          2
   386         11
   387          2
   388          0
   389          1
   390          1
   391          0
   396         14
   397          5
   398          1
   399          4
   400          1
   401         76
   402         18
   403          2
   404          0
   405          3
   406          0
   412          0
   413          1
   414        131
   415         36
   416          8
   417          1
   430          0
   431          2
   432         13
   433          2
   434          0
   441          0
   456          5
   457          1
   458          0
   474         18
   475          5
   476          0