##TITLE=Library Entry 16920
##JCAMP-DX=Revision 4.10 
##DATA TYPE=MASS SPECTRUM
##SAMPLE DESCRIPTION=Exported from NIST MS Search
##NAMES=HP
##CAS NAME=2-Cyclopentene-1-thione, 2,3,4,4-tetramethyl-
##MOLFORM=C9H14S
##CAS REGISTRY NO=30221-54-6
##MP= -300
##BP= -300
##MW= 154
##$RETENTION INDEX=0
##$CONDENSED SPECTRUM=NO
##NPOINTS= 16
##XYDATA=(XY..XY) 1 
    39        529
    41        519
    43        779
    45        999
    46        519
    53        240
    55        230
    58        240
    59        260
    77        250
    79        270
    91        370
   105        380
   106        270
   139        689
   154        390