##TITLE=Library Entry 25016
##JCAMP-DX=Revision 4.10 
##DATA TYPE=MASS SPECTRUM
##SAMPLE DESCRIPTION=Japan AIST/NIMC Database- Spectrum MS-NW-8393
##NAMES=HP
##CAS NAME=tert-Butyl isopropyl carbonate
##MOLFORM=C8H16O3
##CAS REGISTRY NO=30221-21-7
##MP= -300
##BP= -300
##MW= 160
##$RETENTION INDEX=0
##$CONDENSED SPECTRUM=NO
##NPOINTS= 40
##XYDATA=(XY..XY) 1 
    14          1
    15         16
    18          1
    26          4
    27         44
    28         15
    29        104
    30          3
    31         20
    37          1
    38          3
    39         45
    40          9
    41        232
    42         26
    43        213
    44         18
    45         36
    50          1
    51          1
    53          3
    54          1
    55         15
    56        109
    57        999
    58         47
    59        317
    60         10
    63         30
    64          1
    65          1
    70          1
    72          1
    73          1
    91          2
   104          4
   105         23
   106          1
   112          1
   119          5