##TITLE=Library Entry 32865
##JCAMP-DX=Revision 4.10 
##DATA TYPE=MASS SPECTRUM
##SAMPLE DESCRIPTION=R.T.HOLMAN,UNIVERSITY OF MINNESOTA
##NAMES=HP
##CAS NAME=10,13-Eicosadienoic acid, methyl ester
##MOLFORM=C21H38O2
##CAS REGISTRY NO=30223-50-8
##MP= -300
##BP= -300
##MW= 322
##$RETENTION INDEX=0
##$CONDENSED SPECTRUM=NO
##NPOINTS= 269
##XYDATA=(XY..XY) 1 
    36         20
    37          6
    38         11
    39         86
    40         70
    41        495
    42         80
    43        365
    44         75
    45         30
    46          3
    47         11
    48          7
    49          5
    50          7
    51         11
    52          9
    53         79
    54        365
    55        747
    56         84
    57        191
    58         13
    59        165
    60         11
    61          6
    62          3
    63          6
    64          5
    65         45
    66         63
    67        999
    68        530
    69        521
    70         73
    71         80
    72         13
    73         44
    74        347
    75         42
    76          6
    77         93
    78         42
    79        330
    80        252
    81        982
    82        747
    83        417
    84        139
    85         94
    86         11
    87        243
    88         27
    89          6
    90          4
    91        104
    92         28
    93        173
    94        182
    95        817
    96        713
    97        295
    98        105
    99         38
   100          8
   101         52
   102          8
   103          9
   104         12
   105         48
   106         26
   107        104
   108        121
   109        443
   110        356
   111        139
   112         29
   113         27
   114         23
   115         66
   116         13
   117         17
   118         11
   119         49
   120         27
   121        147
   122        113
   123        269
   124        295
   125         88
   126         18
   127         25
   128         20
   129         54
   130         13
   131         26
   132         12
   133         44
   134         27
   135        147
   136        156
   137        173
   138        156
   139         55
   140         26
   141         59
   142         16
   143         48
   144          8
   145         25
   146         12
   147         33
   148         24
   149        130
   150        182
   151        121
   152         89
   153         34
   154         26
   155         24
   156         11
   157         30
   158          7
   159         17
   160          7
   161         24
   162         11
   163         70
   164        121
   165         73
   166         69
   167         38
   168         30
   169         23
   170          6
   171         20
   172          5
   173         24
   174          8
   175         14
   176          8
   177         46
   178         86
   179         44
   180         39
   181         27
   182         18
   183         10
   184          5
   185         14
   186          5
   187         20
   188          7
   189         11
   190          5
   191         30
   192         58
   193         29
   194         27
   195         28
   196         20
   197         11
   198          5
   199         10
   200          7
   201         12
   202          5
   203          6
   204          2
   205         21
   206         43
   207         51
   208         27
   209         26
   210         24
   211          7
   212          4
   213          6
   214          3
   215          7
   216          4
   217          6
   218          4
   219         19
   220         19
   221         17
   222          9
   223         19
   224         20
   225          6
   226          2
   227          6
   228          2
   229          3
   230          2
   231          3
   232          2
   233         12
   234         13
   235         10
   236          8
   237         17
   238         16
   239          6
   240          2
   241          4
   242          2
   243          2
   244          2
   245          3
   246          8
   247         10
   248         45
   249         15
   250         18
   251         16
   252          9
   253          5
   254          3
   255          4
   256          3
   257          3
   258          2
   259          2
   260          5
   261         12
   262         26
   263         10
   264          5
   265         11
   266          6
   267          4
   268          2
   269          2
   270          2
   271          3
   272          3
   273          6
   274          5
   275          4
   276          2
   277          2
   278          2
   279          9
   280          6
   281          8
   282          4
   283          4
   284          2
   288          4
   289          7
   290        130
   291        208
   292         85
   293         32
   294          9
   295          5
   296          2
   320         17
   321         10
   322        356
   323         80
   324         19
   325          5
   326          4
   327          3
   328          2
   329          1
   330          1