##TITLE=Library Entry 73163
##JCAMP-DX=Revision 4.10 
##DATA TYPE=MASS SPECTRUM
##SAMPLE DESCRIPTION=A.Pleshkova, Nesmeyanov Inst.Org.Elem.Cpds, Moscow
##NAMES=HP
##CAS NAME=3,3-Di(trifluoromethyl)diazirine
##MOLFORM=C3F6N2
##CAS REGISTRY NO=3024-50-8
##MP= -300
##BP= -300
##MW= 178
##$RETENTION INDEX=0
##$CONDENSED SPECTRUM=NO
##NPOINTS= 20
##XYDATA=(XY..XY) 1 
    28        481
    29         34
    31        116
    32         87
    33         12
    43         73
    50         15
    58         29
    69        715
    70          8
    81         29
    87         15
   100        999
   101         29
   131        556
   132          9
   150          7
   159         15
   178         58
   179          4