##TITLE=Library Entry 12908
##JCAMP-DX=Revision 4.10 
##DATA TYPE=MASS SPECTRUM
##SAMPLE DESCRIPTION=LAC, NIDDK, NIH, Bethesda, MD 20892
##NAMES=HP
##CAS NAME=Solasodine triacetate
##MOLFORM=C33H49NO5
##CAS REGISTRY NO=30242-85-4
##MP= -300
##BP= -300
##MW= 539
##$RETENTION INDEX=0
##$CONDENSED SPECTRUM=NO
##NPOINTS= 135
##XYDATA=(XY..XY) 1 
    41        169
    42         63
    43        999
    44         93
    45        105
    46          4
    49         20
    53         30
    54         27
    55        156
    56         39
    57         49
    58         17
    60         53
    65         16
    67         93
    68         40
    69         71
    70         25
    71         27
    72         18
    73         23
    77         42
    79         91
    80         23
    81        109
    82         43
    83         52
    84         42
    85         17
    86          4
    91        112
    92         25
    93         84
    94         42
    95         62
    96         40
    97         30
    98        126
    99         20
   100         11
   105         98
   106         28
   107         82
   108         47
   109         43
   110         49
   111         80
   112         26
   113         17
   114         30
   115         20
   117         37
   118         18
   119         50
   120         59
   121        100
   122         40
   123         34
   124         79
   125         71
   126         33
   128         20
   129         29
   130         14
   131         51
   132         18
   133         52
   134         34
   135         22
   136         43
   137         25
   138         54
   139         27
   140         61
   141         21
   142         13
   143         37
   144         25
   145         59
   146         30
   147         41
   148         47
   149         33
   150         49
   151         18
   152         58
   153         19
   154          4
   155         25
   156          4
   157         41
   158         29
   159         40
   160         28
   161         34
   162         87
   163         58
   164         63
   165        169
   166        397
   167         87
   168         20
   169         15
   171         17
   173         19
   174         17
   175         15
   176         28
   177          4
   178         18
   179         15
   180         24
   181         17
   182         14
   183         14
   188         16
   189         25
   190         19
   191          9
   192          9
   197         10
   204         44
   205         38
   206         19
   210          5
   213          4
   251          4
   252          4
   253         20
   436         99
   437         30
   464         37
   479         10
   539         18