##TITLE=Library Entry 109315
##JCAMP-DX=Revision 4.10 
##DATA TYPE=MASS SPECTRUM
##SAMPLE DESCRIPTION=Chuck Anderson, Aldrich Chemical Co.
##NAMES=HP
##CAS NAME=2,4-Decadienoic acid, ethyl ester, (E,Z)-
##MOLFORM=C12H20O2
##CAS REGISTRY NO=3025-30-7
##MP= -300
##BP= -300
##MW= 196
##$RETENTION INDEX=1479
##$CONDENSED SPECTRUM=NO
##NPOINTS= 126
##XYDATA=(XY..XY) 1 
    14          1
    15         11
    16          1
    19          2
    25          1
    26         25
    27        352
    28         59
    29        928
    30         22
    31         11
    37          3
    38         18
    39        382
    40        116
    41        622
    42        135
    43        156
    44         10
    45         41
    46          1
    47          3
    50         11
    51         43
    52         26
    53        146
    54         51
    55        197
    56         16
    57         44
    58          3
    59          1
    60          3
    61          4
    62          2
    63         14
    64          6
    65        154
    66        256
    67        652
    68         89
    69        123
    70        123
    71         27
    72          2
    73         30
    74          2
    75          1
    76          1
    77        144
    78         43
    79        299
    80        110
    81        800
    82        140
    83        107
    84         81
    85         16
    86         81
    87          8
    88         15
    89          7
    90          1
    91         73
    92         12
    93        191
    94        155
    95        177
    96        228
    97        959
    98        637
    99        304
   100         52
   101        109
   102         10
   103          5
   104          2
   105         17
   106         13
   107        123
   108        232
   109         78
   110         12
   111        141
   112         79
   113         19
   114        123
   115         16
   116          4
   117          3
   119          4
   120          1
   121        131
   122        227
   123        146
   124         14
   125        999
   126        136
   127        283
   128        186
   129         17
   130          1
   131          6
   132          3
   133          6
   135         15
   136          1
   137          1
   138          1
   139         46
   140         29
   141         11
   142         11
   149         11
   150         37
   151        323
   152         41
   153         50
   154         12
   155          6
   167         34
   168          7
   181          3
   196        224
   197         32
   198          2