##TITLE=Library Entry 8582
##JCAMP-DX=Revision 4.10 
##DATA TYPE=MASS SPECTRUM
##SAMPLE DESCRIPTION=Leung Pu, NIH, Bethesda, Maryland, U.S.
##NAMES=HP
##CAS NAME=2,5-Dimethylhexane-2,5-dihydroperoxide
##MOLFORM=C8H18O4
##CAS REGISTRY NO=3025-88-5
##MP= -300
##BP= -300
##MW= 178
##$RETENTION INDEX=0
##$CONDENSED SPECTRUM=NO
##NPOINTS= 94
##XYDATA=(XY..XY) 1 
    41        224
    42         64
    43        999
    44         25
    45         32
    46          2
    47          3
    48          2
    49          4
    50          2
    51          5
    52          2
    53         36
    54          2
    55        334
    56         45
    57         59
    58        193
    59        186
    60         12
    61          8
    62          0
    63          1
    64          0
    65          4
    66          0
    67         81
    68         10
    69        533
    70        109
    71         75
    72         32
    73         35
    75        312
    76         10
    77          8
    78          4
    79          7
    80          4
    81          7
    82          2
    83         22
    84          3
    85         25
    86          5
    87          6
    88          0
    89          6
    90          0
    91          4
    92          0
    93         21
    95        255
    96         22
    97         36
    98          3
    99          5
   100          1
   101          5
   102          3
   103          1
   104          0
   105          1
   106          2
   107          1
   108          0
   109          3
   111        377
   112         44
   113         51
   114          5
   115          2
   117          1
   119          1
   121          1
   122          0
   123          1
   124          2
   125          1
   126          0
   127         27
   128          3
   129          7
   130          1
   131          2
   144          5
   145          4
   146          0
   147          1
   149          3
   150          0
   163          0
   178          1
   179          0