##TITLE=Library Entry 29929
##JCAMP-DX=Revision 4.10 
##DATA TYPE=MASS SPECTRUM
##SAMPLE DESCRIPTION=Exported from NIST MS Search
##NAMES=HP
##CAS NAME=1,3-Oxathiane, 2,2,6-trimethyl-
##MOLFORM=C7H14OS
##CAS REGISTRY NO=30253-09-9
##MP= -300
##BP= -300
##MW= 146
##$RETENTION INDEX=0
##$CONDENSED SPECTRUM=NO
##NPOINTS= 41
##XYDATA=(XY..XY) 1 
    26         50
    27        150
    28         70
    29        140
    31         80
    39        290
    40         40
    41        310
    42        110
    43        810
    44         30
    45        260
    46        490
    47        270
    48         30
    53         80
    54        480
    55        910
    56         70
    57         30
    58        140
    59        999
    60        870
    61         70
    62         40
    71         40
    73        200
    74        170
    75         40
    76         30
    85         30
    87         60
    88        860
    89        130
    90         50
   131        250
   132         30
   133         10
   146        478
   147         40
   148         30