##TITLE=Library Entry 72033
##JCAMP-DX=Revision 4.10 
##DATA TYPE=MASS SPECTRUM
##SAMPLE DESCRIPTION=A.A.Kutin, Moscow, Russia
##NAMES=HP
##CAS NAME=Pyrrol-2(5H)-one, 4-acetyl-5-(2-chlorophenyl)-3-hydroxy-1-[2-(1-p
iperazinyl)ethyl]-
##MOLFORM=C18H22ClN3O3
##CAS REGISTRY NO=302566-40-1
##MP= -300
##BP= -300
##MW= 363
##$RETENTION INDEX=0
##$CONDENSED SPECTRUM=NO
##NPOINTS= 187
##XYDATA=(XY..XY) 1 
    33          2
    35          1
    36          9
    37          5
    38         11
    39         18
    42        241
    43        243
    44        136
    45        142
    46         31
    50         22
    51         14
    52          4
    56        375
    57         42
    58         23
    59          1
    60          1
    61          3
    62          6
    63         11
    64          8
    65          5
    66          2
    68         19
    70        180
    72         23
    74         24
    75         17
    76          8
    77         10
    78          1
    79          0
    80          1
    82          7
    84         52
    85         18
    86          7
    87          3
    88          3
    89         11
    91          6
    92          2
    93          0
    94          1
    95          1
    97         39
    99        999
   100         51
   101         18
   102         18
   103          4
   104          1
   105          1
   106          0
   108          0
   109          1
   111         18
   112         43
   113         11
   115         17
   116          4
   117          2
   119          0
   120          1
   121          2
   122          0
   123          1
   125         19
   127         21
   128         14
   129          5
   130          5
   131          3
   132          0
   134          0
   136          8
   137         20
   139         37
   141         13
   143          5
   144          6
   145         13
   146          1
   147          0
   148          1
   149          1
   150          1
   151          1
   152          2
   153          1
   154          3
   156         14
   157          2
   158          3
   159          0
   161          0
   162          3
   165         46
   167         19
   168          2
   169          1
   170          1
   171          2
   172          3
   173          5
   174          0
   177          0
   178          1
   179          2
   180          1
   181          0
   183          1
   184          0
   185          0
   186          0
   187          0
   189          0
   191          0
   192          0
   194          0
   195          1
   196          0
   197          0
   200          2
   201          0
   202          0
   204          0
   205          0
   207         14
   209          8
   210          1
   211          1
   212          0
   214          1
   215          0
   216          0
   217          3
   218          0
   220          0
   221          1
   222          1
   223          1
   224          0
   225          0
   226          0
   228          0
   229          0
   234          2
   235          1
   236          1
   237          0
   242          1
   248          0
   250          0
   251          1
   252          0
   253          0
   263          0
   264          0
   265          0
   267          0
   277          0
   278          2
   279          0
   280          0
   285          0
   291          0
   293          0
   295          0
   296          0
   307          1
   308          0
   309          0
   319          0
   320          2
   321          7
   322          2
   323          1
   333          0
   334          0
   361          0
   363         23
   364          4
   365          7
   366          0