##TITLE=Library Entry 36961
##JCAMP-DX=Revision 4.10 
##DATA TYPE=MASS SPECTRUM
##SAMPLE DESCRIPTION=A.A.Kutin, Moscow, Russia
##NAMES=HP
##CAS NAME=1,3,5-Triazine, 4,6-bis(2,2,2-trifluoro-1-trifluoromethylethoxy)-
2-propylamino-
##MOLFORM=C12H10F12N4O2
##CAS REGISTRY NO=302602-82-0
##MP= -300
##BP= -300
##MW= 470
##$RETENTION INDEX=0
##$CONDENSED SPECTRUM=NO
##NPOINTS= 147
##XYDATA=(XY..XY) 1 
    33        125
    34         11
    36          1
    37          0
    39         92
    40        189
    41        259
    42         93
    43        244
    44        134
    45          4
    46          0
    48          5
    49          8
    51         84
    53         34
    55        394
    56        113
    57         28
    58         41
    60          0
    63         12
    64          7
    66          8
    67         47
    69        999
    70        104
    71          9
    74          4
    76          0
    77          5
    78         10
    79         12
    80         69
    81         33
    82         57
    83         30
    84         18
    85          6
    91         10
    92          7
    93         22
    94         83
    95         19
    96         37
    97         12
    98          5
    99          9
   101          7
   105          3
   106          3
   108         19
   109         20
   110         20
   111         13
   112         19
   113         41
   114          1
   118          0
   120          0
   122          1
   123         20
   124         17
   125         15
   126          7
   129         10
   131          4
   132         11
   135          4
   137          0
   149          4
   151        248
   153         19
   154          4
   166          6
   174          1
   176          1
   177          3
   178          0
   181          4
   192          5
   194         81
   195          5
   196          9
   197          7
   203          3
   205          9
   208         11
   216          6
   217          9
   218          0
   219         28
   221          5
   222          8
   228          5
   233          4
   234          1
   235          1
   237         19
   242          2
   246          0
   248          1
   251          0
   260          1
   261         30
   262        109
   263          6
   271         16
   274          5
   275          6
   276          6
   287          1
   291          4
   303         13
   304          1
   317          7
   319        322
   320         33
   321          1
   332          1
   344          7
   389          7
   401          8
   409          3
   413          1
   421          3
   428         50
   429         16
   431          2
   435          2
   436          4
   437          8
   438         11
   439         14
   440         35
   441        909
   442        193
   443         15
   449          4
   451        179
   452         25
   453         14
   455        149
   456         19
   469         21
   470        121
   471         15