##TITLE=Library Entry 36295
##JCAMP-DX=Revision 4.10 
##DATA TYPE=MASS SPECTRUM
##SAMPLE DESCRIPTION=A.A.Kutin, Moscow, Russia
##NAMES=HP
##CAS NAME=1,3,5-Triazine, 2,4-bis(2,2,2-trifluoro-1-trifluoromethylethoxy)-
6-(2-methylphenylamino)-
##MOLFORM=C16H10F12N4O2
##CAS REGISTRY NO=302602-86-4
##MP= -300
##BP= -300
##MW= 518
##$RETENTION INDEX=0
##$CONDENSED SPECTRUM=NO
##NPOINTS= 207
##XYDATA=(XY..XY) 1 
    33         15
    34          0
    39         94
    40         23
    41         26
    42         10
    43         13
    44         18
    45          1
    47          1
    51        195
    52         47
    53         34
    54         12
    55          5
    56          5
    57          0
    59          2
    63         74
    65        145
    67         44
    69        999
    70         82
    72          3
    73          1
    74         14
    75         12
    77        310
    78        142
    79         90
    80         15
    82         36
    83          3
    84          4
    85          3
    86         13
    87          6
    89         80
    90         66
    91        158
    92         19
    93         12
    94         24
    95          3
    96          2
    97          7
    99         27
   100         10
   102         44
   104        278
   105         71
   106        177
   107          8
   108          1
   109          1
   110          0
   113         74
   116        121
   117         54
   118         29
   119          8
   120          1
   123          1
   124          2
   125          0
   126          0
   129        115
   131        833
   132        165
   133         21
   134          2
   135          0
   141          4
   142          6
   143         11
   144         12
   145         24
   146         21
   147         10
   148          4
   149          4
   151        132
   153          5
   154         10
   157        505
   158        224
   159        103
   160         15
   161          0
   164          3
   165          2
   166          6
   167          1
   169          7
   171         94
   172        255
   173        189
   174         90
   175          8
   176          2
   177          1
   181          0
   182         16
   184         24
   185         11
   186          9
   187          3
   188          1
   189          0
   191          1
   192          1
   193          3
   194         21
   195          0
   197         17
   198          6
   199         33
   200         21
   201         10
   202          1
   203          0
   211          0
   213          1
   214          3
   215         22
   216         68
   217         11
   219         10
   221          1
   222          3
   225          0
   229          1
   234          1
   235          0
   237         16
   238          3
   239         12
   240          0
   242          1
   248          2
   249          7
   250          3
   252          1
   254          0
   256          0
   258        107
   259         29
   261          0
   262         24
   263          1
   266          1
   279          0
   281          8
   282          2
   283          2
   284          1
   286          1
   297          2
   306          2
   312          0
   323          0
   324          9
   325          5
   326          0
   327          3
   333          0
   336          0
   337          4
   338          1
   339          0
   340          4
   344          2
   347          6
   348          1
   350         78
   351         76
   352         17
   353          2
   363          0
   364          3
   365         17
   367        387
   368         57
   369          4
   413          4
   441          3
   442          1
   455          0
   479          1
   483          0
   495          1
   496          2
   497          4
   499        209
   500         40
   503        390
   504         60
   505          7
   510          0
   511          1
   512          2
   513          3
   514          7
   517        146
   518        562
   519        103
   520         11