##TITLE=Library Entry 36969
##JCAMP-DX=Revision 4.10 
##DATA TYPE=MASS SPECTRUM
##SAMPLE DESCRIPTION=A.A.Kutin, Moscow, Russia
##NAMES=HP
##CAS NAME=1,3,5-Triazine, 2,4-bis(2,2,2-trifluoro-1-trifluoromethylethoxy)-
6-(2-methoxyphenylamino)-
##MOLFORM=C16H10F12N4O3
##CAS REGISTRY NO=302602-84-2
##MP= -300
##BP= -300
##MW= 534
##$RETENTION INDEX=0
##$CONDENSED SPECTRUM=NO
##NPOINTS= 135
##XYDATA=(XY..XY) 1 
    33         79
    34         12
    36          1
    37          3
    39        116
    40        204
    41         52
    42         46
    43         44
    44         81
    45          7
    47          3
    49          4
    50         65
    51        193
    52        155
    53         62
    54         13
    55         30
    56         29
    57          6
    63         93
    64         61
    65        142
    66         36
    67         28
    69        999
    70        117
    71          4
    74         12
    75          8
    76         17
    77        114
    78        124
    79        112
    80         40
    81         12
    82         36
    83          6
    84          1
    88         23
    90         63
    91         43
    92        120
    93         65
    94         85
    95         20
    97          3
   102          1
   103         24
   104         66
   105        178
   106         44
   108        142
   109         13
   113         86
   116          7
   118         51
   119         52
   120         84
   121         19
   122         51
   123          1
   129         36
   130         30
   131         39
   132         55
   133         70
   134         14
   135          1
   143          6
   144         27
   145         34
   146        182
   147        138
   148         37
   149          8
   151        164
   158        290
   159        188
   160         59
   161         15
   171         14
   172         25
   173         33
   174         85
   175         54
   176          4
   184         12
   185         23
   186         15
   187         11
   188         16
   189         42
   190         45
   194         17
   197          7
   200          1
   202          3
   203          2
   216          1
   217          3
   219         10
   232          4
   237         19
   248          6
   257          4
   262         29
   267         61
   324         37
   337          4
   340         18
   347          2
   352          5
   353          7
   365         26
   366          4
   367         15
   368          6
   383          3
   441         10
   442          2
   499          8
   501         12
   503        920
   504        143
   505         21
   515        129
   516         26
   517          2
   518          5
   519         14
   533         22
   534        243
   535         43