##TITLE=Library Entry 46249
##JCAMP-DX=Revision 4.10 
##DATA TYPE=MASS SPECTRUM
##SAMPLE DESCRIPTION=Chemical Concepts
##NAMES=HP
##CAS NAME=2-(2-Bromostyryl)-3-(4-nitrophenyl)-4(3H)-quinazolonone
##MOLFORM=C22H14BrN3O3
##CAS REGISTRY NO=302601-95-2
##MP= -300
##BP= -300
##MW= 447
##$RETENTION INDEX=0
##$CONDENSED SPECTRUM=NO
##NPOINTS= 110
##XYDATA=(XY..XY) 1 
    39        572
    40        272
    41         48
    43        140
    44         87
    45         28
    46         18
    50        838
    51        307
    52         87
    53         31
    55         33
    57         38
    60         18
    63        616
    64        211
    65         56
    69         14
    75        810
    76        999
    77        235
    78         43
    79         33
    80         44
    81         27
    82         46
    85         12
    88        156
    90        395
    91         64
    92        128
    96         16
    98         17
   101        490
   102        559
   104         24
   110         13
   113         27
   114         56
   115         45
   116         33
   117         25
   119        152
   120         59
   128        352
   129         31
   130         23
   133         14
   134         17
   138         14
   139         39
   140         34
   143         16
   146        158
   149         23
   150         25
   151         43
   152         30
   153         14
   155         25
   160         37
   161         73
   163         18
   164         46
   165         35
   166         25
   169         30
   171         14
   176        107
   177         53
   178         33
   179         14
   180         36
   181         14
   182         27
   183         15
   190         40
   191         39
   192         29
   193         13
   202         74
   203        139
   204         71
   216         14
   217         21
   218         27
   219         24
   220         78
   229         17
   245         24
   246         38
   247         17
   266         17
   281         18
   282         14
   292         65
   293         44
   294         13
   320         18
   321         54
   322        116
   323         25
   368        137
   369         34
   400         26
   402         30
   446         20
   447         27
   448         20
   449         25