##TITLE=Library Entry 54704
##JCAMP-DX=Revision 4.10 
##DATA TYPE=MASS SPECTRUM
##SAMPLE DESCRIPTION=R.T.HOLMAN,UNIVERSITY OF MINNESOTA
##NAMES=HP
##CAS NAME=Hexadecanoic acid, 1-[[[(2-aminoethoxy)hydroxyphosphinyl]oxy]meth
yl]-1,2-ethanediyl ester
##MOLFORM=C37H74NO8P
##CAS REGISTRY NO=3026-45-7
##MP= -300
##BP= -300
##MW= 691
##$RETENTION INDEX=0
##$CONDENSED SPECTRUM=NO
##NPOINTS= 375
##XYDATA=(XY..XY) 1 
    25          6
    26         31
    27        170
    28        248
    29        364
    30        488
    31         55
    32          8
    33          4
    36          8
    37          6
    38         12
    39        100
    40         31
    41        635
    42        224
    43        945
    44        147
    45         42
    46          3
    47         13
    48          5
    49          2
    50          6
    51         10
    52          5
    53         40
    54         71
    55        658
    56        186
    57        744
    58         61
    59         24
    60        116
    61         66
    62          6
    63          6
    64          5
    65         37
    66          9
    67        124
    68         73
    69        348
    70        108
    71        341
    72         27
    73        147
    74         58
    75         26
    76          7
    77         15
    78          8
    79         34
    80         19
    81        116
    82         56
    83        224
    84        240
    85        999
    86         79
    87         58
    88          9
    89          6
    90          3
    91         18
    92          7
    93         44
    94         17
    95        124
    96         49
    97        178
    98        651
    99         93
   100         24
   101         22
   102         15
   103          8
   104          7
   105         11
   106          8
   107         22
   108         13
   109         59
   110         27
   111        100
   112        162
   113         42
   114         10
   115         38
   116        147
   117         82
   118          9
   119          9
   120          5
   121         32
   122         37
   123         42
   124         21
   125         34
   126         43
   127         24
   128          9
   129        178
   130         19
   131          7
   132          4
   133          6
   134         31
   135         28
   136         12
   137         18
   138         15
   139         20
   140         79
   141         20
   142          8
   143         17
   144          5
   145          5
   146          3
   147         10
   148          6
   149         13
   150          4
   151          6
   152          8
   153         10
   154         59
   155         63
   156          8
   157         19
   158         21
   159          7
   160         12
   161          7
   162          4
   163          6
   164          4
   165          7
   166          8
   167         10
   168         28
   169         13
   170          5
   171         41
   172         10
   173          6
   174          7
   175          3
   176          8
   177          6
   178          4
   179          4
   180          5
   181          7
   182         25
   183         13
   184          6
   185         44
   186         10
   187          4
   188          3
   189          5
   190          5
   191          7
   192          6
   193          5
   194          9
   195          8
   196         30
   197         10
   198          3
   199         10
   200          5
   201          3
   202          3
   203          4
   204          4
   205          3
   206          3
   207          3
   208          5
   209         34
   210         17
   211         27
   212          6
   213         25
   214          6
   215          5
   216          3
   217          6
   218          7
   219         14
   220          6
   221          4
   222          4
   223          6
   224         11
   225          9
   226          4
   227         19
   228          6
   229          4
   230          2
   231          3
   232          3
   233          3
   234          3
   235          3
   236         10
   237         13
   238         56
   239        364
   240         64
   241         17
   242          6
   243          3
   244          2
   245          3
   246          2
   247          2
   248          1
   249          2
   250          3
   251          3
   252         17
   253          9
   254          5
   255          9
   256         33
   257         20
   258          5
   259          3
   260          1
   261          1
   262          1
   263          2
   264          3
   265          6
   266          6
   267          7
   268          4
   269         16
   270          9
   271          7
   272          2
   273          1
   274          2
   275          3
   276          1
   278          1
   279          3
   280         16
   281         12
   282          4
   283          9
   284          8
   285         16
   286          4
   287          3
   288          2
   290          2
   291          2
   292          2
   293          1
   294          3
   295          3
   296          5
   297         10
   298          5
   299         71
   300         13
   301          3
   302          2
   303          3
   304          2
   305          1
   306          1
   307          3
   308          3
   309          3
   310          3
   311         13
   312         47
   313        186
   314         36
   315          8
   316          3
   317          2
   318          2
   319          1
   321          1
   322          1
   323          2
   324          3
   325          3
   326          5
   327          4
   328          1
   329          3
   330          3
   331         38
   332         10
   333          3
   334          1
   335          1
   339          6
   340          4
   341          4
   342          2
   344          1
   345          1
   346          6
   347          3
   349          3
   350          2
   351          1
   352          2
   353          3
   354         35
   355         12
   356          3
   357          4
   358          2
   359          2
   360          1
   367         34
   368         10
   369          3
   370          3
   371          1
   372          3
   373          2
   381          4
   382          3
   383          1
   392          3
   393          2
   395          4
   396          2
   397          1
   409          6
   410          3
   411          1
   423          9
   424          3
   425          1
   426          1
   437          3
   438          3
   451          3
   452          3
   453          1
   465          3
   466          2
   479          3
   480          2
   493          3
   494          2
   495          1
   507          5
   508          3
   509          2
   521          3
   522          4
   523          2
   524          1
   536          2
   537          3
   549          3
   550         24
   551         10
   552          3
   564          2
   578          2