##TITLE=Library Entry 36445
##JCAMP-DX=Revision 4.10 
##DATA TYPE=MASS SPECTRUM
##SAMPLE DESCRIPTION=A.A.Kutin, Moscow, Russia
##NAMES=HP
##CAS NAME=1,3,5-Triazine, 2,4-bis(2,2,2-trifluoro-1-trifluoromethylethoxy)-
6-(4-iodophenylamino)-
##MOLFORM=C15H7F12IN4O2
##CAS REGISTRY NO=302602-74-0
##MP= -300
##BP= -300
##MW= 630
##$RETENTION INDEX=0
##$CONDENSED SPECTRUM=NO
##NPOINTS= 229
##XYDATA=(XY..XY) 1 
    33          5
    34          1
    35          1
    36          1
    37         13
    38         41
    39         54
    40         26
    41         21
    42          9
    43         15
    44         15
    45          4
    47          5
    50         95
    51        100
    52         25
    53         13
    54          8
    55          2
    56          3
    57          4
    58          0
    63        257
    64        135
    65         55
    67         35
    69        999
    70        125
    71          9
    72          7
    74         43
    75         44
    76         95
    77         29
    78         14
    79         10
    81          1
    82         36
    83          6
    84          4
    85          4
    88         18
    90        312
    91        123
    92         19
    93         11
    94         32
    95          5
    96          2
    97          4
    99          1
   100          5
   101          8
   102         13
   103         16
   104         24
   105         12
   106          4
   108          1
   110          0
   113         61
   116         79
   117         70
   118         27
   119          6
   120          0
   122          3
   123          1
   124          2
   127        114
   128         18
   129         11
   130         36
   131         41
   132         22
   133         13
   135         21
   142         13
   143         33
   144         24
   145         12
   146          3
   147          2
   151        148
   154          6
   158        361
   159        231
   160         24
   161          1
   163          1
   164          2
   165          4
   166          1
   167          1
   169          8
   170          2
   171          2
   172          1
   173          6
   174          3
   175          0
   176          2
   177          3
   184         34
   185         44
   186         64
   187          7
   189          2
   191         32
   192          3
   194         30
   195          2
   197          2
   199          3
   200          5
   201         23
   203         44
   204          3
   212          3
   215          3
   216          7
   218         78
   219         24
   220          1
   222          4
   229         12
   230          5
   232          7
   239          1
   240          5
   241          4
   243         48
   244        243
   245         37
   246          5
   247          3
   250          2
   252         66
   253          0
   254          2
   255          2
   256          0
   258          3
   259          0
   260          1
   261          2
   262         10
   263          0
   265          0
   266          0
   267          4
   269         22
   270         45
   271         37
   272          3
   279          1
   281          1
   282          7
   283         19
   284         58
   285         55
   286         24
   287          3
   290          0
   291          0
   293          1
   294          1
   296         14
   297         10
   298          1
   306          9
   308          1
   309          2
   310          3
   311          5
   312          9
   313          8
   314          0
   324          0
   328          2
   332          1
   333          1
   336          6
   337         13
   338          2
   344          1
   351         11
   352         44
   353          7
   365          2
   369          1
   379          1
   392          1
   409          0
   417          1
   418          2
   433          2
   443          0
   459          1
   463         30
   464          6
   478          6
   479          5
   483          1
   484          2
   485          1
   500          1
   501          2
   502         28
   503         74
   504         16
   505          1
   561          1
   607          1
   609          2
   610          5
   611         57
   612          7
   613          0
   620          1
   621          1
   622          2
   623          4
   624          7
   629        236
   630        325
   631         46
   632          4