##TITLE=Library Entry 25038
##JCAMP-DX=Revision 4.10 
##DATA TYPE=MASS SPECTRUM
##SAMPLE DESCRIPTION=Div. of Experiment Therapeutics WRAIR, WRAMC, Washingto
n DC 20307
##NAMES=HP
##CAS NAME=p-Nitrobenzaldehyde valerhydrazone
##MOLFORM=C12H15N3O3
##CAS REGISTRY NO=302604-54-2
##MP= -300
##BP= -300
##MW= 249
##$RETENTION INDEX=0
##$CONDENSED SPECTRUM=NO
##NPOINTS= 67
##XYDATA=(XY..XY) 1 
    41        355
    42         32
    43         38
    44         24
    49          1
    50         37
    51         26
    52         16
    53         11
    54          6
    55         73
    56         18
    57        999
    58         44
    59        821
    60         20
    61          1
    62         16
    63         71
    64         28
    65         34
    66          5
    72        146
    73         20
    74          8
    75         23
    76         49
    77         14
    78          5
    79          1
    80          3
    83          6
    84          8
    85        663
    86         59
    87          6
    88          3
    89         46
    90         21
    91         29
    92         20
    93          1
   101        114
   102         11
   103         25
   104          4
   105          1
   117         10
   118         48
   119         12
   120          5
   122          1
   132          1
   135         19
   148          7
   149         23
   150          1
   164         19
   165        209
   166         24
   176         11
   207         21
   220          6
   248         16
   249         30
   250          5
   251          1