##TITLE=Library Entry 36977
##JCAMP-DX=Revision 4.10 
##DATA TYPE=MASS SPECTRUM
##SAMPLE DESCRIPTION=A.A.Kutin, Moscow, Russia
##NAMES=HP
##CAS NAME=1,3,5-Triazine, 2,4-bis(2,2,2-trifluoro-1-trifluoromethylethoxy)-
6-(1-naphthylamino)-
##MOLFORM=C19H10F12N4O2
##CAS REGISTRY NO=302602-76-2
##MP= -300
##BP= -300
##MW= 554
##$RETENTION INDEX=0
##$CONDENSED SPECTRUM=NO
##NPOINTS= 138
##XYDATA=(XY..XY) 1 
    33        132
    34         18
    36          5
    37          1
    38          6
    40        414
    41         33
    42         30
    43         64
    44        136
    45          8
    47          5
    48          1
    50         54
    51        139
    52         16
    53         11
    54          9
    55         17
    56         11
    57         20
    58          5
    63        109
    64         20
    65         24
    66         13
    69        999
    70         95
    71         10
    74         25
    75         28
    76         24
    77         51
    78         14
    79          4
    82         28
    83         37
    84         17
    86          4
    87         14
    88         16
    89         59
    90         13
    91         15
    92          8
    93         12
    94         19
    95          5
    96          1
    98         69
    99         11
   101         40
   102          6
   104         13
   105         65
   111          2
   112         19
   113        120
   114        103
   115        411
   116         37
   118         32
   125          3
   126         60
   127        130
   128         42
   129         11
   130          1
   132         36
   133          2
   138         11
   139         47
   140        192
   141        101
   142         40
   143         17
   149          3
   151        118
   152         31
   153         35
   154         48
   155         17
   156          2
   164          1
   165         24
   166        123
   167        137
   168        407
   169         82
   170          4
   171          1
   174          6
   178          1
   179         15
   180          9
   181         14
   182         36
   183          3
   192         12
   193         66
   194        160
   195         71
   196          7
   202         12
   206          2
   207         28
   208        145
   209        259
   210        134
   211         13
   219         25
   220          4
   234          6
   235          3
   236         12
   237         17
   252         72
   253          6
   257          1
   262          5
   267          3
   277         43
   347          1
   387         46
   388          6
   402         32
   403         15
   534          2
   535         73
   536         12
   538          1
   548          1
   549         14
   551         10
   553        197
   554        483
   555         92
   556          8