##TITLE=Library Entry 15505
##JCAMP-DX=Revision 4.10 
##DATA TYPE=MASS SPECTRUM
##SAMPLE DESCRIPTION=Asinex Ltd, Moscow, Russia
##NAMES=HP
##CAS NAME=1,2,5-Oxadiazole-3-carbohydroxymic acid, 4-amino-
##MOLFORM=C3H4N4O3
##CAS REGISTRY NO=302796-65-2
##MP= -300
##BP= -300
##MW= 144
##$RETENTION INDEX=0
##$CONDENSED SPECTRUM=NO
##NPOINTS= 37
##XYDATA=(XY..XY) 1 
    33         68
    38         87
    39         64
    40         64
    41        189
    42        409
    43        272
    44        999
    45         31
    51          1
    52         90
    53        725
    54        403
    55        471
    56          7
    57          8
    58        119
    59         18
    60         47
    67         35
    68         54
    69         47
    70        138
    71         57
    73          1
    76          1
    82          1
    85        351
    86         25
    87         61
   100         15
   103          1
   112         74
   114         19
   128         99
   144        161
   145          4