##TITLE=Library Entry 11620
##JCAMP-DX=Revision 4.10 
##DATA TYPE=MASS SPECTRUM
##SAMPLE DESCRIPTION=NIST Mass Spectrometry Data Center, 1994
##NAMES=HP
##CAS NAME=3-Methoxyphenyl acetone
##MOLFORM=C10H12O2
##CAS REGISTRY NO=3027-13-2
##MP= -300
##BP= -300
##MW= 164
##$RETENTION INDEX=0
##$CONDENSED SPECTRUM=NO
##NPOINTS= 64
##XYDATA=(XY..XY) 1 
    13          1
    14         10
    15         86
    18          2
    26          7
    27         22
    29         10
    30          2
    31          2
    37          5
    38         21
    39         92
    40          9
    41         17
    42          2
    43        999
    44         21
    45          3
    50         46
    51         96
    52         65
    53         19
    54          2
    55          8
    61          6
    62         22
    63         57
    64         20
    65         85
    66          7
    67          3
    74          9
    75          8
    76         12
    77        132
    78        125
    79         28
    80          3
    86          4
    87          3
    89         39
    90         39
    91        219
    92         30
    93          6
   102          2
   103          5
   104          1
   105         12
   106         18
   107         36
   108          3
   115          1
   118          1
   119          2
   121        318
   122        161
   123         15
   124          1
   148          1
   149          3
   164        234
   165         26
   166          2