##TITLE=Library Entry 55838
##JCAMP-DX=Revision 4.10 
##DATA TYPE=MASS SPECTRUM
##SAMPLE DESCRIPTION=CARL DJERASSI DEPT OF CHEM STANFORD UNIV STANFORD CALIF
 94305
##NAMES=HP
##CAS NAME=1-Hexanamine, N-butyl-
##MOLFORM=C10H23N
##CAS REGISTRY NO=30278-08-1
##MP= -300
##BP= -300
##MW= 157
##$RETENTION INDEX=1146
##$CONDENSED SPECTRUM=NO
##NPOINTS= 39
##XYDATA=(XY..XY) 1 
    27        100
    28         70
    29        220
    30        600
    39         40
    40         10
    41        210
    42         80
    43        330
    44        810
    45         20
    53         10
    54         10
    55         90
    56        110
    57        180
    58         20
    68         10
    69         10
    70         50
    71         10
    72         30
    73         20
    82         10
    83         10
    84        110
    85         10
    86        999
    87         60
    98         10
    99         20
   100         20
   112        100
   113         10
   114        480
   115         40
   156         10
   157         80
   158         10