##TITLE=Library Entry 2553
##JCAMP-DX=Revision 4.10 
##DATA TYPE=MASS SPECTRUM
##SAMPLE DESCRIPTION=A.A.Kutin, Moscow, Russia
##NAMES=HP
##CAS NAME=Pyridine, 1,4-dihydro-1-decyl-4-imino-
##MOLFORM=C15H26N2
##CAS REGISTRY NO=302785-80-4
##MP= -300
##BP= -300
##MW= 234
##$RETENTION INDEX=0
##$CONDENSED SPECTRUM=NO
##NPOINTS= 185
##XYDATA=(XY..XY) 1 
    33          9
    35          4
    36         18
    37         21
    38         68
    39        407
    40        209
    41        999
    42        221
    43        585
    44         45
    45          6
    47         11
    49          8
    50         23
    51         45
    52         89
    53        129
    54        113
    55        500
    56        259
    57        266
    58         13
    60          4
    61          1
    62          3
    63          9
    64         14
    65         39
    66         87
    67        256
    68         57
    69        152
    70        167
    71        139
    72          8
    73          2
    74          2
    75          4
    76          6
    77         20
    79        186
    80        302
    81        168
    82        231
    83         51
    84         31
    85         63
    86         10
    87          1
    88          1
    89          3
    90          3
    91         12
    93        130
    94        452
    95        192
    96         18
    97         46
    98         22
    99         15
   101          4
   102          1
   103          2
   104          6
   105         18
   107        341
   108        442
   109         51
   110          9
   111         17
   112         10
   113          3
   114          2
   115          6
   116          2
   117          3
   118          4
   119         15
   121        406
   122        191
   123         20
   124          2
   125          7
   126          4
   127          9
   128          4
   129          3
   130          2
   131          3
   132          6
   135        535
   136         76
   137        133
   138          8
   139          3
   140         11
   141          4
   142          1
   143          3
   144          7
   145          3
   146          3
   147         13
   149        226
   150         33
   151         25
   152          4
   153          3
   154          8
   155          2
   156          2
   157          2
   158          2
   159          4
   160          2
   161          5
   163        146
   164         22
   165          4
   166          1
   167          1
   168          2
   169          2
   170          1
   171          4
   172          1
   173          0
   174          2
   175          5
   177        116
   178         18
   179          3
   180          2
   181          2
   182          3
   183          2
   184          1
   185          1
   186          0
   187          0
   189          4
   190          6
   191        102
   192         17
   193          2
   194          1
   195          1
   196          1
   197          1
   198          1
   200          2
   201          2
   202          2
   203          2
   205         62
   206          9
   207          1
   208          1
   209          1
   210          1
   211          1
   212          1
   213          0
   214          0
   216          1
   217          2
   219         59
   220         10
   221          1
   222          3
   223          1
   224          1
   225          1
   226          0
   227          0
   229          1
   230          2
   233         95
   234        110
   235         21
   236          3
   237          1
   238          0
   239          0