##TITLE=Library Entry 98934
##JCAMP-DX=Revision 4.10 
##DATA TYPE=MASS SPECTRUM
##SAMPLE DESCRIPTION=C. W. HINMAN - E. J. EISENBRAUN
##NAMES=HP
##CAS NAME=Butyric acid, 3-methyl-4-(2,5-xylyl)-
##MOLFORM=C13H18O2
##CAS REGISTRY NO=30275-76-4
##MP= -300
##BP= -300
##MW= 206
##$RETENTION INDEX=0
##$CONDENSED SPECTRUM=NO
##NPOINTS= 163
##XYDATA=(XY..XY) 1 
    12          0
    13          1
    14          7
    15         37
    16          7
    17         16
    18         57
    19          1
    25          0
    26          9
    27        126
    28         24
    29         43
    30          2
    31         13
    32          0
    35          0
    36          2
    37          2
    38         10
    39        140
    40         18
    41        194
    42         22
    43         31
    44         18
    45         67
    46          2
    47          1
    49          0
    50         18
    51         66
    52         23
    53         50
    54          4
    55         22
    56          4
    57          8
    58          6
    59          4
    60          5
    61          1
    62          7
    63         34
    64         16
    65         53
    66          7
    67          7
    68          2
    69        345
    70         20
    71         10
    73          4
    74         64
    75         11
    76         10
    77        113
    78         43
    79         43
    80          4
    81          2
    82          1
    83          2
    84          1
    85          2
    86          3
    87         16
    88          3
    89         13
    90          7
    91        172
    92         18
    93         12
    94          1
    95          1
    96          0
    97          0
    98          1
    99          1
   100          0
   101          4
   102         17
   103         59
   104         65
   105         94
   106         30
   107          6
   108          0
   109          0
   110          0
   111          0
   112          0
   113          3
   114          3
   115         80
   116         32
   117         85
   118         43
   119        999
   120        162
   121         12
   122          1
   125          1
   126          2
   127         14
   128         38
   129         33
   130         20
   131         69
   132        121
   133        133
   134         14
   135          2
   139          2
   140          1
   141          9
   142          6
   143         11
   144          9
   145         53
   146        318
   147         45
   148          3
   149          0
   151          0
   152          1
   153          1
   154          0
   155          1
   156          1
   157          4
   158          2
   159         13
   160         16
   161          2
   162          0
   163          0
   165          0
   167          0
   168          0
   169          1
   170          4
   171          5
   172          3
   173          4
   174          2
   175          1
   183          0
   184          0
   185          1
   187          3
   188         36
   189         12
   190          9
   191          1
   197          0
   202          0
   203          0
   204          1
   205          0
   206        173
   207         25
   208          2