##TITLE=Library Entry 56024
##JCAMP-DX=Revision 4.10 
##DATA TYPE=MASS SPECTRUM
##SAMPLE DESCRIPTION=Japan AIST/NIMC Database- Spectrum MS-NW-2838
##NAMES=HP
##CAS NAME=N,N-Diethylglycine methyl ester
##MOLFORM=C7H15NO2
##CAS REGISTRY NO=30280-35-4
##MP= -300
##BP= -300
##MW= 145
##$RETENTION INDEX=0
##$CONDENSED SPECTRUM=NO
##NPOINTS= 60
##XYDATA=(XY..XY) 1 
    14          3
    15         41
    16          3
    17          1
    18          3
    26          8
    27         50
    28         62
    29         77
    30        191
    31         40
    32         12
    33          2
    39          4
    40          4
    41         16
    42        116
    43         21
    44         53
    45         49
    46          1
    47          1
    50          2
    52          2
    54          7
    55          5
    56         81
    57         17
    58        243
    59         15
    60          8
    61          1
    68          1
    70         10
    71          9
    72         49
    73         20
    74          9
    75          5
    77          3
    84         13
    85          5
    86        999
    87         63
    88          2
    89          2
    93          4
    95          2
   100          1
   102         20
   103          1
   114          2
   116          3
   128          2
   130         31
   131          2
   144          7
   145         60
   146          5
   147          1