##TITLE=Library Entry 28367
##JCAMP-DX=Revision 4.10 
##DATA TYPE=MASS SPECTRUM
##SAMPLE DESCRIPTION=A.A.Kutin, Moscow, Russia
##NAMES=HP
##CAS NAME=Imidazolidine-2,4-dione, 5-(4-ethoxyphenyl)-5-methyl-4-(2-dimethy
laminoethyl)-
##MOLFORM=C16H23N3O3
##CAS REGISTRY NO=302809-28-5
##MP= -300
##BP= -300
##MW= 305
##$RETENTION INDEX=0
##$CONDENSED SPECTRUM=NO
##NPOINTS= 147
##XYDATA=(XY..XY) 1 
    33          4
    34          1
    35         11
    36         50
    38         21
    39         10
    40         20
    41         10
    42         50
    43         18
    44         25
    45          1
    50          5
    51         12
    52          2
    53          1
    54          1
    55          5
    56         21
    58        999
    59         26
    61          0
    62          1
    63          4
    64          4
    65         15
    66          1
    67          0
    68          1
    69          2
    70         17
    71         51
    72         11
    73          1
    75          3
    76          6
    77         22
    78          6
    79          2
    80          0
    82          5
    83          5
    84          1
    85          1
    86          3
    87          2
    89          4
    90          4
    91         12
    92          3
    93          3
    94          1
    95          1
    96          0
    97          0
    98          1
    99          0
   100          1
   101          1
   102          2
   103          4
   104         18
   105          3
   106          1
   107          4
   108          0
   110          0
   111          1
   112          2
   113          3
   115          2
   116          0
   117          1
   118          2
   119          9
   120         26
   121          3
   122          0
   126          0
   127          0
   128          0
   130          2
   131          1
   132          1
   133          1
   134          2
   135          5
   136          1
   137          1
   138          0
   139          1
   140          0
   141          0
   144          0
   145          1
   146          1
   147          8
   148         12
   149          1
   151          0
   152          1
   153          0
   154          0
   162          5
   163          4
   164          2
   165          6
   166          0
   167          0
   168          0
   169          1
   171          0
   174          0
   175          1
   176          1
   177          0
   178          0
   180         24
   181          5
   182          0
   183          1
   188          0
   189          0
   190          2
   191          0
   205          0
   208          3
   209          6
   210          0
   211          0
   215          0
   217          0
   218          0
   219          0
   223          7
   224          1
   232          0
   233          0
   245          0
   252          7
   253          2
   261          0
   268          0
   303          0
   304          2
   305          9
   306          1