##TITLE=Library Entry 45977
##JCAMP-DX=Revision 4.10 
##DATA TYPE=MASS SPECTRUM
##SAMPLE DESCRIPTION=Chemical Concepts
##NAMES=HP
##CAS NAME=N-[2,2,2-Trichloro-1-(4-chloroanilino)ethyl]-3,5-dinitrobenzamide
##MOLFORM=C15H10Cl4N4O5
##CAS REGISTRY NO=302820-08-2
##MP= -300
##BP= -300
##MW= 466
##$RETENTION INDEX=0
##$CONDENSED SPECTRUM=NO
##NPOINTS= 170
##XYDATA=(XY..XY) 1 
    35        176
    36        495
    37        114
    38        263
    40        456
    41        107
    42         33
    43         71
    44        188
    46        116
    47         40
    48         22
    49         49
    50        138
    51         86
    52         65
    53         31
    54         19
    55         25
    56         12
    57         41
    58          5
    60         34
    61         66
    62        114
    63        274
    64        139
    65        235
    66         29
    67         12
    68          7
    69         18
    70         14
    71         17
    72         26
    73        119
    74        310
    75        999
    76        101
    77         26
    78          9
    79         12
    80          8
    81          6
    82         36
    83         44
    84         27
    85         41
    86         14
    87         20
    88         20
    89         21
    90         50
    91         92
    92        128
    93         17
    95         12
    97         11
    98         12
    99        115
   100         70
   101         50
   102         59
   103        177
   104         21
   105          7
   107         13
   108          9
   109         12
   111        190
   112         24
   113         57
   114         10
   115          6
   117         35
   119         57
   120         36
   121         17
   122          5
   123         13
   124          9
   125         18
   127        624
   128         72
   129        175
   130         14
   131          5
   133          7
   134          3
   135          6
   138        641
   139         66
   140        183
   141         12
   146          5
   147          8
   149        410
   150         39
   151         35
   152          9
   153         27
   154         13
   155         18
   156         91
   157         14
   158         31
   159          9
   160          6
   161          9
   163          3
   164          4
   165         33
   166         20
   167          8
   168          4
   171          6
   172          3
   173          6
   174          4
   176          8
   178          4
   179         18
   180          4
   181          7
   182          4
   183          4
   184         17
   185         13
   186         14
   187         13
   188          5
   192          7
   193         17
   195        675
   196         56
   197         10
   201          4
   202          6
   211         43
   212         36
   213          4
   219          6
   220         14
   221         12
   222         17
   223          8
   224          5
   229          3
   239          6
   255          9
   256          4
   257         12
   259         10
   270         31
   272         12
   303          7
   304          4
   305          7
   307          4
   314          4
   344          4
   345          6
   346          9
   347         16
   349        286
   350         49
   351         86
   352         12
   466          4
   468          6