##TITLE=Library Entry 47138
##JCAMP-DX=Revision 4.10 
##DATA TYPE=MASS SPECTRUM
##SAMPLE DESCRIPTION=Asinex Ltd, Moscow, Russia
##NAMES=HP
##CAS NAME=Phenoxy-acetic acid (5-nitro-2-oxo-1,2-dihydro-indol-3-ylidene)-h
ydrazide
##MOLFORM=C16H12N4O5
##CAS REGISTRY NO=302805-27-2
##MP= -300
##BP= -300
##MW= 340
##$RETENTION INDEX=0
##$CONDENSED SPECTRUM=NO
##NPOINTS= 173
##XYDATA=(XY..XY) 1 
    33          2
    34          7
    36          2
    37         24
    38         69
    39        192
    40         74
    41         44
    42         48
    43         73
    44        119
    45         55
    46          6
    47          3
    48          1
    50        130
    51        281
    52         67
    53         49
    54         13
    55         33
    56         14
    57         23
    58         10
    59          2
    60          7
    61         17
    62         47
    63         73
    64         47
    65        144
    66         67
    67         12
    68          8
    69         19
    70         10
    71         10
    72          1
    73         12
    74         45
    75         98
    76        206
    77        999
    78        131
    79        238
    80         27
    81         11
    82          8
    83          7
    84          6
    85          5
    86          5
    87          8
    88         17
    89         29
    90         40
    91         59
    92         20
    93         30
    94        203
    95         18
    96          2
    97          3
    98          3
    99          4
   100          7
   101         16
   102         36
   103        140
   104         41
   105         40
   107        387
   108         91
   109          9
   110          3
   111         23
   112          5
   113          9
   115         16
   116         25
   117         25
   118         11
   119         30
   120         14
   121         15
   122          5
   123          1
   125          0
   126          1
   127          1
   128          2
   129          4
   131        100
   132         40
   133         24
   134          9
   135         10
   136          3
   137          0
   139         53
   140          6
   141         16
   142          2
   144         51
   145         43
   146         15
   147         15
   148          7
   149         22
   150          6
   151         27
   152         10
   153          1
   157          0
   158          3
   159         10
   160         27
   161         14
   162          3
   163         15
   164          7
   165          7
   166          1
   167          0
   170          0
   171          5
   172          0
   173          9
   174         15
   175          7
   176         15
   177         63
   178         21
   179          2
   188         10
   189         32
   190         71
   191         55
   192         15
   193          2
   201          1
   202          2
   203          8
   204         34
   205        125
   206         33
   207          4
   215          1
   216          1
   217          5
   219        204
   220         17
   221          1
   224          2
   225          0
   233          0
   238          0
   239          1
   240          2
   246          0
   247         14
   248          1
   250          5
   252          3
   254          8
   255          0
   267          0
   295          6
   310          5
   312          4
   340        132
   341         21
   342          1