##TITLE=Library Entry 79643
##JCAMP-DX=Revision 4.10 
##DATA TYPE=MASS SPECTRUM
##SAMPLE DESCRIPTION=A.A.Kutin, Moscow, Russia
##NAMES=HP
##CAS NAME=Ethanone, 2-(5-methoxy-1-methyl-2-benzimidazolyl)thio-1-phenyl-
##MOLFORM=C17H16N2O2S
##CAS REGISTRY NO=302929-97-1
##MP= -300
##BP= -300
##MW= 312
##$RETENTION INDEX=0
##$CONDENSED SPECTRUM=NO
##NPOINTS= 129
##XYDATA=(XY..XY) 1 
    33          3
    34          3
    36         19
    37          8
    38         50
    39        171
    40        114
    41        105
    42         61
    43         61
    44         49
    45         59
    46         14
    50        139
    51        345
    52         64
    53         31
    54          5
    55         35
    56         15
    57         75
    58         25
    59         10
    60          5
    61         11
    62         38
    63        115
    64         75
    65        177
    66         81
    67         41
    68         10
    69         22
    70         26
    71         14
    72         18
    73          4
    74         29
    75         34
    77        888
    78        129
    79        136
    80        218
    81         87
    82        203
    83         22
    84          8
    85          1
    86          4
    88          4
    89         21
    90         40
    91        177
    92         86
    93         16
    94          3
    95         13
    96          7
    97         14
    98          1
   102         11
   103         18
   105        999
   106         90
   107         14
   108          6
   109         17
   110          7
   111          2
   112          3
   115          1
   116          2
   117         21
   118         54
   119         34
   120         95
   121         19
   122         17
   123         14
   129          2
   131          8
   132          5
   133         21
   134         65
   135         13
   137          3
   145         11
   146          9
   147         37
   148         37
   149         71
   150         45
   151         35
   152          9
   156         14
   159         34
   160         11
   161         44
   162         48
   163         32
   164         14
   165          5
   171          5
   174         25
   175         57
   176         14
   177         20
   178         68
   179        113
   180         11
   191          1
   192         35
   193        114
   194        139
   195         13
   196          3
   204          1
   205         10
   207        846
   208         96
   209         37
   235          2
   251         11
   269          3
   270         24
   271          2
   312        150
   313         26
   314          3