##TITLE=Library Entry 8819
##JCAMP-DX=Revision 4.10 
##DATA TYPE=MASS SPECTRUM
##SAMPLE DESCRIPTION=Chemical Concepts
##NAMES=HP
##CAS NAME=1-(2,2,2-Trichloro-1-isobutyramidoethyl)-3-(2,4,6-trichlorophenyl
)-2-thiourea
##MOLFORM=C13H13Cl6N3OS
##CAS REGISTRY NO=302953-95-3
##MP= -300
##BP= -300
##MW= 469
##$RETENTION INDEX=0
##$CONDENSED SPECTRUM=NO
##NPOINTS= 169
##XYDATA=(XY..XY) 1 
    34         10
    35         57
    36        243
    38        120
    39         80
    40        134
    41        258
    43        999
    44         70
    45         72
    47         17
    48          8
    49          9
    50          9
    51          9
    52         13
    53          9
    54          8
    55         27
    56          8
    57         11
    58          8
    59         13
    60         28
    61         16
    62         24
    63         15
    64         13
    65          6
    66          5
    67          4
    68          8
    69         13
    71        385
    73         33
    74         21
    75         11
    76         12
    77          5
    78          4
    79         10
    80          5
    81          9
    82         11
    83         22
    84         14
    85         16
    86          9
    87         17
    88         64
    89          8
    90          6
    91          9
    92          4
    93          4
    95          5
    96          6
    97         20
    98         11
    99         11
   100          6
   105          4
   106          6
   107         10
   108         10
   109         19
   110         16
   111         21
   112          9
   113         11
   114          4
   115          9
   117          8
   118          6
   119          7
   120          5
   121          4
   122          5
   123          6
   124         15
   125          6
   126         14
   127         42
   128          7
   129         30
   131         11
   132          7
   133         10
   134          7
   135          5
   143          8
   144          6
   145          7
   146         14
   147          4
   148         13
   149          6
   150          6
   153          6
   155          6
   156          6
   157          5
   158         20
   159          9
   160         16
   161         14
   162          6
   163          6
   167         37
   169         28
   170          5
   171          9
   176          3
   179          5
   180          3
   181          5
   182          4
   183          5
   184          6
   185          4
   186          4
   187          4
   188          3
   193          5
   194         12
   195         36
   196         15
   197         41
   198          8
   199         16
   201          4
   202          8
   203          9
   204          6
   205          9
   206          5
   207          5
   216          9
   218         34
   219         96
   220         34
   221         74
   222         18
   223         22
   224          5
   225          3
   229          6
   231          5
   237         37
   238         14
   239         32
   240         13
   241         12
   242          5
   328         14
   329          5
   330         16
   331          3
   332          8
   347         15
   349         20
   351         16
   353          5
   400          4
   434         10
   436         15
   437          4
   438          9
   440          3