##TITLE=Library Entry 57071
##JCAMP-DX=Revision 4.10 
##DATA TYPE=MASS SPECTRUM
##SAMPLE DESCRIPTION=Asinex Ltd, Moscow, Russia
##NAMES=HP
##CAS NAME=Butanoic acid, 4-(3-nitrophenoxy)-
##MOLFORM=C10H11NO5
##CAS REGISTRY NO=30297-87-1
##MP= -300
##BP= -300
##MW= 225
##$RETENTION INDEX=0
##$CONDENSED SPECTRUM=NO
##NPOINTS= 84
##XYDATA=(XY..XY) 1 
    33         45
    34         12
    36          1
    38         42
    39        131
    40         24
    41        247
    42         65
    43        380
    44        113
    45        327
    46          6
    48         13
    50         56
    51         29
    52         12
    53         21
    54          1
    55         22
    56          5
    57         17
    59          3
    60         14
    61          2
    62         12
    63         78
    64         80
    65        112
    66         12
    67          1
    69         86
    70          7
    71          6
    74         15
    75         45
    76         77
    77         29
    78          8
    79          5
    81         42
    82          2
    83          5
    84          1
    85         34
    87        999
    88         38
    89          5
    91         18
    92         58
    93        121
    94         24
    95          1
   103          2
   105          6
   106          2
   107          1
   108          1
   109          9
   110          1
   111          3
   113          1
   114          4
   118          2
   119          4
   120          6
   121          1
   122         23
   123         19
   124          1
   133          4
   134          3
   139         80
   140         11
   141          9
   150          1
   160         27
   161          3
   165         17
   166          9
   171          1
   186          5
   207          2
   208         12
   225         31