##TITLE=Library Entry 48199
##JCAMP-DX=Revision 4.10 
##DATA TYPE=MASS SPECTRUM
##SAMPLE DESCRIPTION=Chemical Concepts
##NAMES=HP
##CAS NAME=N-(2-Pyridyl)-4-nitrophenoxyacetamide
##MOLFORM=C13H11N3O4
##CAS REGISTRY NO=302968-04-3
##MP= -300
##BP= -300
##MW= 273
##$RETENTION INDEX=0
##$CONDENSED SPECTRUM=NO
##NPOINTS= 100
##XYDATA=(XY..XY) 1 
    35         10
    36         41
    37         34
    38        144
    39        342
    40        117
    41         73
    42         74
    43         71
    44         63
    45          8
    46         13
    47          2
    48          2
    50        212
    51        233
    52        120
    53         83
    54         25
    55         24
    56          9
    57         13
    58         11
    60          9
    61         14
    62         43
    63        146
    64        141
    65        111
    66        123
    67        144
    68         14
    69          9
    70          5
    71          5
    74         42
    75        158
    76        303
    78        999
    79        106
    80         85
    81         24
    82          9
    83         11
    84         13
    87          2
    89          4
    90          3
    91         12
    92         96
    93         43
    94        866
    95        103
    96          6
    97          2
   101          2
   102          1
   103          6
   104          6
   105         25
   106         41
   107        438
   108         41
   109         21
   110          3
   111          2
   112          2
   113          3
   115          2
   117          1
   118          3
   119          5
   120         26
   121        201
   122        130
   123         47
   124          5
   128          3
   131          3
   133          4
   134         13
   135        584
   136         65
   137          5
   139         10
   141          2
   142          1
   150          4
   151         52
   152         26
   153          4
   157          1
   165          2
   166          1
   168          2
   171          2
   195          1
   214          1
   273         30
   274          3