##TITLE=Library Entry 30501
##JCAMP-DX=Revision 4.10 
##DATA TYPE=MASS SPECTRUM
##SAMPLE DESCRIPTION=Chemical Concepts
##NAMES=HP
##CAS NAME=2-Methyl-5-(4-nitro-1,8-naphthalimido)-1,3,4-thiadiazole
##MOLFORM=C15H8N4O4S
##CAS REGISTRY NO=302955-06-2
##MP= -300
##BP= -300
##MW= 340
##$RETENTION INDEX=0
##$CONDENSED SPECTRUM=NO
##NPOINTS= 110
##XYDATA=(XY..XY) 1 
    33         49
    37         11
    38         48
    39         71
    40        123
    41         99
    42         17
    43         32
    44         72
    45         53
    46        106
    47         21
    48          9
    50         92
    51        112
    52         17
    53         17
    54          8
    55         10
    56         12
    57         60
    58        271
    59        999
    60         42
    61         91
    62        171
    63        145
    64         33
    69         17
    70         22
    72        121
    73        280
    74        292
    75        390
    77        122
    83          9
    85         36
    86        112
    87         92
    88         51
    91         10
    97         24
    98        147
    99        262
   100         51
   101         21
   110          9
   111         22
   112         54
   113        125
   114         16
   121          8
   122         37
   123         50
   124        116
   125        454
   126         62
   127         15
   138         81
   139        135
   140         40
   141         89
   142          8
   151        360
   152         59
   153        172
   154         25
   155         10
   156          4
   157          9
   165         18
   166         13
   167         17
   168          7
   169         23
   170         11
   177          5
   178         27
   179        179
   180         24
   181         13
   182         10
   183         26
   184          9
   185          6
   194         20
   195         53
   197         70
   199         89
   200          6
   207         49
   208          7
   209          7
   212          4
   223         27
   224         19
   225        236
   226         30
   239          8
   253         18
   293        223
   294         42
   295         10
   299          8
   309         17
   323         27
   339        185
   340        231
   341         44
   342          8