##TITLE=Library Entry 107702
##JCAMP-DX=Revision 4.10 
##DATA TYPE=MASS SPECTRUM
##SAMPLE DESCRIPTION=A.A.Kutin, Moscow, Russia
##NAMES=HP
##CAS NAME=Propionic acid, 3-morpholino-, 8-aza-8-methylbicyclo[3,2,1]oct-3-
yl ester
##MOLFORM=C15H26N2O3
##CAS REGISTRY NO=302941-91-9
##MP= -300
##BP= -300
##MW= 282
##$RETENTION INDEX=0
##$CONDENSED SPECTRUM=NO
##NPOINTS= 144
##XYDATA=(XY..XY) 1 
    40         79
    41        110
    42        421
    44        118
    45         13
    46          1
    47          0
    49          0
    50          3
    51         13
    52         21
    54         38
    55        106
    56        168
    57         52
    58         15
    60          3
    61          1
    63          6
    65         18
    67        125
    68         33
    70         62
    71         13
    72         13
    73          4
    74          2
    75          2
    77         17
    78          6
    79         11
    81         63
    82        194
    83         94
    84         49
    85         15
    87        109
    88          4
    89          1
    91         22
    92          5
    94        211
    95         71
    96         94
    97         37
    98         31
   100        217
   103          1
   104          1
   105          2
   106          2
   108         16
   109          5
   110          9
   112         13
   114          4
   115         36
   116          1
   117          1
   118          0
   119          1
   121         25
   124        999
   125         75
   126          7
   127          2
   128          3
   129          1
   130          2
   131          0
   132          0
   133          1
   134          1
   135          2
   136          0
   137          1
   138          1
   140         63
   141          5
   142          5
   143          0
   144          1
   145          0
   147          0
   149          3
   150          0
   152          1
   153          0
   155          1
   158         37
   159         10
   160         22
   161          1
   163          0
   164          0
   166          0
   168          0
   170          0
   171          6
   172          0
   175          0
   181          0
   182          0
   183          1
   185          0
   187          0
   188          0
   189          0
   190          0
   191          0
   195          1
   196          8
   198          8
   199          1
   200          1
   201         20
   202          2
   203          1
   205          0
   209          0
   210          0
   216          3
   217          0
   218          0
   219          0
   222          0
   223          0
   225          1
   226          0
   231          1
   232          0
   233          0
   239          1
   240          0
   241          2
   242          0
   252          1
   253          2
   254          0
   264          0
   267          0
   282         63
   283         11
   284          1