##TITLE=Library Entry 28684
##JCAMP-DX=Revision 4.10 
##DATA TYPE=MASS SPECTRUM
##SAMPLE DESCRIPTION=Tox21 Consortium/NIST Mass Spectrometry Data Center, 20
12
##NAMES=HP
##CAS NAME=Clomipramine
##MOLFORM=C19H23ClN2
##CAS REGISTRY NO=303-49-1
##MP= -300
##BP= -300
##MW= 314
##$RETENTION INDEX=2412
##$CONDENSED SPECTRUM=NO
##NPOINTS= 207
##XYDATA=(XY..XY) 1 
    15          3
    26          1
    27          4
    28          5
    29          8
    30         28
    31          1
    36          1
    38          1
    39         14
    40          2
    41         16
    42         86
    43         32
    44         72
    45          4
    46          2
    50          4
    51         16
    52          5
    53          2
    54          2
    55          2
    56         27
    57         35
    58        999
    59         50
    60          1
    62          4
    63         18
    64          5
    65         17
    66          2
    67          1
    68          3
    70         88
    71         23
    72         25
    73          3
    74          3
    75         10
    76          7
    77         27
    78          9
    79          2
    80          1
    82          4
    84         78
    85        464
    86         57
    87          9
    88          5
    89         50
    90         16
    91         40
    92          4
    93          2
    94          1
    95          6
    98          1
    99          6
   101          9
   102         13
   103         13
   104          8
   105          6
   106         30
   107          9
   108          2
   110          1
   111          3
   112          2
   113          5
   114          6
   115         21
   116         14
   117         36
   118         22
   119          6
   120          1
   123          3
   124          3
   125         15
   126          7
   127         13
   128         16
   129         33
   130         98
   131         14
   132          7
   136          1
   137          2
   138          5
   139         14
   140         21
   141         10
   142          8
   143          6
   144          5
   145          1
   146          1
   149          4
   150          9
   151         21
   152         26
   153         11
   154          8
   155          2
   156          1
   157          5
   158          3
   161          1
   162          4
   163         16
   164         59
   165         59
   166         34
   167         16
   168          3
   173          1
   174          2
   175          3
   176         16
   177         16
   178         43
   179         21
   180          9
   181          2
   186          1
   187          1
   188          3
   189          7
   190         28
   191         64
   192         81
   193         77
   194         18
   195          2
   199          4
   200          3
   201          8
   202          4
   203          6
   204         41
   205         19
   206         26
   207         14
   208          7
   209          1
   212          7
   213         16
   214         14
   215          8
   216          7
   217         11
   218         20
   219         23
   220         16
   221         14
   222          2
   224          1
   225          3
   226         21
   227         93
   228         85
   229         70
   230         34
   231         15
   232         12
   233         14
   234         10
   235          3
   238          5
   239          3
   240         32
   241         10
   242         62
   243         20
   244         19
   245          5
   246          1
   251          1
   252          6
   253          5
   254         50
   255         16
   256         31
   257          7
   258          5
   259          1
   264          1
   265          1
   266          3
   268        321
   269        323
   270        155
   271        106
   272         18
   273          1
   279          1
   299          1
   301          1
   314         74
   315         16
   316         26
   317          6
   318          1