##TITLE=Library Entry 22917
##JCAMP-DX=Revision 4.10 
##DATA TYPE=MASS SPECTRUM
##SAMPLE DESCRIPTION=J.E. WILKINSON S-CUBED, SAN DIEGO, CA.
##NAMES=HP
##CAS NAME=Norchlorcyclizine
##MOLFORM=C17H19ClN2
##CAS REGISTRY NO=303-26-4
##MP= -300
##BP= -300
##MW= 286
##$RETENTION INDEX=0
##$CONDENSED SPECTRUM=NO
##NPOINTS= 79
##XYDATA=(XY..XY) 1 
    41         35
    42        201
    43         56
    44         48
    50          4
    51         25
    54         26
    56        999
    57         61
    58        161
    59          0
    62          0
    63         30
    65         17
    71          4
    75         13
    76          1
    77         23
    82          9
    83         23
    85        758
    86         21
    87          3
    89         34
    91         59
    99          1
   104          9
   113          2
   114          0
   115         27
   117          0
   118          1
   125         37
   126          2
   127         10
   137          0
   138         11
   139         38
   140          3
   146          2
   147          3
   151          2
   152         10
   162          1
   163         60
   164         69
   165        748
   166        390
   167         33
   175         31
   179         15
   180          4
   181          6
   199         16
   201        838
   202        104
   203        255
   204          9
   206         26
   209         28
   211          3
   216         23
   218          0
   228         93
   229         46
   230        152
   231         12
   232         39
   240         43
   241        390
   242         77
   243        107
   244         17
   256         23
   258          3
   271          9
   286         51
   287          5
   288         13