##TITLE=Library Entry 36482
##JCAMP-DX=Revision 4.10 
##DATA TYPE=MASS SPECTRUM
##SAMPLE DESCRIPTION=Japan AIST/NIMC Database- Spectrum MS-NW-6808
##NAMES=HP
##CAS NAME=2-Butene, 2,3-dichloro-1,1,1,4,4,4-hexafluoro-
##MOLFORM=C4Cl2F6
##CAS REGISTRY NO=303-04-8
##MP= -300
##BP= -300
##MW= 232
##$RETENTION INDEX=0
##$CONDENSED SPECTRUM=NO
##NPOINTS= 131
##XYDATA=(XY..XY) 1 
    12          2
    19          1
    24          3
    31        108
    32          5
    35         17
    36         14
    37          6
    43          4
    47         25
    49          9
    50         25
    55         55
    56          3
    57          1
    59         12
    61          5
    62          9
    66         11
    67          1
    68          4
    69        999
    70         11
    71          6
    72          3
    73          4
    74        104
    75          6
    77          4
    78         12
    79          1
    80          5
    81          1
    82          2
    83          1
    84          1
    85         99
    86          6
    87         31
    89          2
    90         22
    91          1
    92          8
    93        328
    94         26
    95          1
    96         13
    97          9
    98          5
    99          3
   100          1
   101          5
   103          4
   105          5
   106          1
   109        229
   110          9
   111         71
   112         47
   113          5
   114          1
   115          3
   116          5
   117          2
   118          2
   119          1
   124         26
   125          8
   126          1
   127          5
   128         19
   129          2
   130          7
   131          9
   132          5
   134          3
   135          3
   136          1
   137          1
   140          1
   143         29
   144          5
   145          2
   146          4
   147        357
   148         13
   149        115
   150          5
   151          4
   153          3
   155          1
   159          2
   161          1
   162          9
   163        953
   164         34
   165        612
   166         25
   167        100
   168          6
   169          1
   175          2
   177          1
   178          2
   180          1
   182         36
   183          1
   184         25
   185          1
   186          5
   191          1
   194          4
   196          2
   197        234
   198         13
   199         77
   200          4
   210          2
   212          2
   213        159
   214          9
   215        106
   216          5
   217         19
   218          1
   232        536
   233         26
   234        343
   235         17
   236         59
   237          3