##TITLE=Library Entry 29423
##JCAMP-DX=Revision 4.10 
##DATA TYPE=MASS SPECTRUM
##SAMPLE DESCRIPTION=R RYHAGE MS-LAB KAROLINSKA INSTITUTET STOCKHOLM SWEDEN
##NAMES=HP
##CAS NAME=Prothipendyl
##MOLFORM=C16H19N3S
##CAS REGISTRY NO=303-69-5
##MP= -300
##BP= -300
##MW= 285
##$RETENTION INDEX=2339
##$CONDENSED SPECTRUM=NO
##NPOINTS= 227
##XYDATA=(XY..XY) 1 
    12          0
    15          5
    17          0
    18          9
    25          1
    26          9
    27         15
    28         33
    29         17
    30         44
    31          9
    32          4
    36          0
    38          5
    39         39
    40          5
    41         24
    42         82
    43         38
    44         38
    45         31
    46          2
    47          4
    48          1
    49          2
    50         10
    51         17
    52          7
    53          4
    54          3
    55          9
    56         13
    57         33
    58        999
    59         53
    60          2
    61          0
    62          5
    63         11
    64          6
    65          7
    66          2
    67          4
    68          5
    69         21
    70         73
    71         24
    72         53
    73          7
    74          1
    75          4
    76          9
    77         16
    78         15
    79          6
    80          3
    81          3
    82          9
    83         17
    84         74
    85        149
    86        199
    87         13
    88          2
    89         11
    90          6
    91          7
    92          0
    93          5
    94          2
    95          3
    96          1
    97          0
    98          2
    99          2
   100          6
   101          8
   102          9
   103          6
   104          4
   105          3
   106          2
   107          3
   108         11
   109          7
   110          4
   111          0
   112          2
   113          6
   114          6
   115         12
   116          5
   117          4
   119          2
   120          2
   121          3
   122          3
   123          2
   124          0
   126          4
   127          7
   128         13
   129          6
   130          3
   131          2
   132          2
   133          6
   134          5
   135          4
   136          3
   137          1
   138          2
   139          3
   140         16
   141         11
   142          2
   143          2
   144          1
   145          8
   146          5
   147          5
   148          2
   149          2
   150          0
   151          0
   152          4
   153          6
   154          6
   155         23
   156         12
   157          2
   158          4
   159          2
   160          2
   161          2
   162          0
   163          2
   165          1
   166          7
   167          9
   168         46
   169         13
   170          2
   171          4
   172         21
   173         11
   174          5
   175          2
   177          4
   178          1
   179          9
   180          7
   181         72
   182         15
   183          1
   184          7
   185         15
   186          7
   187          4
   188          1
   189          2
   190          0
   193          1
   194          3
   195          7
   196          2
   197          3
   198         21
   199        107
   200        269
   201         55
   202         17
   203          5
   204          2
   205          1
   206          1
   210          0
   211          4
   212         18
   213        121
   214        275
   215         46
   216         20
   217          4
   218          1
   219          1
   220          1
   221          1
   223          1
   224          7
   225         43
   226         15
   227        151
   228         26
   229          8
   230          0
   231          5
   232          1
   233         27
   234          5
   237          3
   238          3
   239         34
   240         26
   241         12
   242          4
   243          1
   245          0
   246          0
   247          2
   253          1
   259          2
   260          1
   261          0
   262          4
   267          1
   270          1
   271          1
   275          1
   281          2
   283          1
   284          2
   285        334
   286         71
   287         21
   288          2
   289          0