##TITLE=Library Entry 29300
##JCAMP-DX=Revision 4.10 
##DATA TYPE=MASS SPECTRUM
##SAMPLE DESCRIPTION=NIST Mass Spectrometry Data Center
##NAMES=HP
##CAS NAME=Cyclobenzaprine
##MOLFORM=C20H21N
##CAS REGISTRY NO=303-53-7
##MP= -300
##BP= -300
##MW= 275
##$RETENTION INDEX=2248
##$CONDENSED SPECTRUM=NO
##NPOINTS= 103
##XYDATA=(XY..XY) 1 
    15          1
    27          1
    28          1
    29          3
    30         14
    39          2
    41          2
    42         25
    43          8
    44          2
    50          1
    51          2
    52          1
    56          5
    58        999
    59         41
    60          1
    62          1
    63          4
    65          1
    70          1
    71          1
    74          1
    75          2
    76          2
    77          2
    82          1
    84          1
    86          1
    87          2
    88          2
    89          2
    94          4
    98          1
    99          1
   100          2
   101          4
   102          1
   106          4
   107          3
   111          1
   112          1
   113          3
   114          1
   115          4
   126          2
   127          1
   128          1
   129          1
   137          1
   138          1
   139          4
   140          1
   149          1
   150          4
   151          4
   152          5
   153          1
   161          1
   162          2
   163          7
   164          3
   165          4
   166          1
   174          2
   175          2
   176          5
   177          2
   178          3
   179          1
   186          1
   187          8
   188          6
   189         19
   190          4
   191          4
   192          1
   198          1
   199          1
   200          8
   201          6
   202         31
   203          7
   204          1
   211          2
   212          1
   213         19
   214          6
   215         69
   216         23
   217         10
   218          2
   224          1
   225          1
   226          6
   227          4
   228          6
   229          5
   230          1
   231          1
   273          2
   274          1
   275          2