##TITLE=Library Entry 59934
##JCAMP-DX=Revision 4.10 
##DATA TYPE=MASS SPECTRUM
##SAMPLE DESCRIPTION=A.A.Kutin, Moscow, Russia
##NAMES=HP
##CAS NAME=2-[(1-Benzyl-2-pyrrolidinylidene)amino]-3,5-dimethylbenzonitrile
##MOLFORM=C20H21N3
##CAS REGISTRY NO=303097-38-3
##MP= -300
##BP= -300
##MW= 303
##$RETENTION INDEX=0
##$CONDENSED SPECTRUM=NO
##NPOINTS= 165
##XYDATA=(XY..XY) 1 
    38        126
    39        247
    41        289
    42         68
    43         54
    44         35
    45          5
    50         35
    51        123
    52         46
    53         34
    54         27
    55         29
    56         35
    57         14
    58          5
    59          0
    61          0
    62         12
    63         84
    65        425
    66         38
    68         39
    69         14
    70         16
    71          7
    72          0
    75         30
    77        338
    78         68
    79         45
    80          7
    81          6
    82          4
    83         14
    84          7
    85         47
    86          1
    87          4
    88         12
    89         97
    91        999
    92         76
    93          6
    95          2
    97          2
    99         17
   100          6
   101         44
   102         80
   103        351
   104        169
   105         32
   106         56
   107          3
   109          2
   110          1
   111          0
   113         21
   114         19
   115         38
   116         64
   117         89
   118         70
   119         33
   120         32
   121          2
   123          4
   126          0
   127         14
   128         82
   129         52
   130        118
   131         83
   132         38
   133         24
   134         45
   135          6
   137         11
   140          7
   141         31
   142         63
   143         37
   144         44
   145         52
   146         40
   147          3
   149          0
   151          2
   152         73
   153          4
   154          9
   155        112
   156         85
   157        208
   158         55
   159         67
   160          8
   166          0
   167          4
   168         25
   169        102
   170        104
   171         97
   172         53
   173         38
   174          4
   175          2
   179          0
   180          0
   181          7
   182         21
   183         58
   184         37
   185         16
   186          1
   187          0
   190          0
   193          1
   194          0
   195          4
   196         11
   197         27
   198         14
   199         77
   200         16
   203          0
   204          8
   205          1
   206          0
   208          0
   209          0
   210         10
   211         14
   212         36
   213          3
   218          7
   219          8
   220          1
   221          0
   226          0
   232          0
   233         41
   234         14
   235          8
   236          0
   247          2
   249          2
   258          1
   259          5
   260         17
   261          2
   263          0
   274         60
   275         12
   276          0
   277         21
   278          2
   288        377
   289         72
   290          5
   302         51
   303        171
   304         36
   305          2