##TITLE=Library Entry 78609
##JCAMP-DX=Revision 4.10 
##DATA TYPE=MASS SPECTRUM
##SAMPLE DESCRIPTION=Chemical Concepts
##NAMES=HP
##CAS NAME=N-[5-(2,5-Xylyl)-2-thiazolyl]benzamide
##MOLFORM=C18H16N2OS
##CAS REGISTRY NO=303099-18-5
##MP= -300
##BP= -300
##MW= 308
##$RETENTION INDEX=0
##$CONDENSED SPECTRUM=NO
##NPOINTS= 49
##XYDATA=(XY..XY) 1 
    36          9
    37          8
    39         72
    40         32
    41         12
    43         12
    44         15
    45         42
    51        297
    52         16
    53         11
    62          8
    63         21
    65         20
    69         12
    70          7
    74         16
    77        816
    79         10
    89         15
    90          8
    91         13
   102         38
   103         45
   105        999
   106         22
   115         37
   116         15
   117         11
   122         32
   123         21
   127         13
   128         23
   129         23
   130         12
   142          8
   144         61
   145         33
   147         34
   159          7
   160         12
   161         24
   162         28
   187         90
   188         20
   203         79
   204          9
   308        145
   309         22