##TITLE=Library Entry 39872
##JCAMP-DX=Revision 4.10 
##DATA TYPE=MASS SPECTRUM
##SAMPLE DESCRIPTION=Japan AIST/NIMC Database- Spectrum MS-NW-4027
##NAMES=HP
##CAS NAME=1,2-Ethanediamine, N-[2-(dimethylamino)ethyl]-N,N',N'-trimethyl-
##MOLFORM=C9H23N3
##CAS REGISTRY NO=3030-47-5
##MP= -300
##BP= -300
##MW= 173
##$RETENTION INDEX=0
##$CONDENSED SPECTRUM=NO
##NPOINTS= 72
##XYDATA=(XY..XY) 1 
    14          7
    15         24
    16          3
    26          3
    27         10
    28         59
    29         13
    30         32
    31          3
    32         13
    39          3
    40          4
    41         11
    42        110
    43         45
    44         42
    45          8
    51          1
    54          6
    55          7
    56         33
    57         27
    58        637
    59         42
    60          1
    68          2
    69          1
    70        102
    71         86
    72        999
    73         52
    74          1
    78          1
    79          1
    81          1
    82          4
    83          5
    84          4
    85          6
    86          2
    89          1
    91          3
    92          1
    94          1
    97          6
    98          4
    99         14
   100          7
   101          7
   102         46
   103         41
   104          3
   105          2
   106          2
   107          1
   111          1
   112          2
   113         13
   114          4
   115        261
   116         21
   117          1
   124          1
   127          1
   128         33
   129          5
   142          3
   143          1
   148          1
   155          1
   156          2
   171          1