##TITLE=Library Entry 46630
##JCAMP-DX=Revision 4.10 
##DATA TYPE=MASS SPECTRUM
##SAMPLE DESCRIPTION=Chemical Concepts
##NAMES=HP
##CAS NAME=5,5'-Dithiobis[4-phenylsulfonyl-2-(p-tolyl)imidazole]
##MOLFORM=C32H26N4O4S4
##CAS REGISTRY NO=303024-59-1
##MP= -300
##BP= -300
##MW= 658
##$RETENTION INDEX=0
##$CONDENSED SPECTRUM=NO
##NPOINTS= 47
##XYDATA=(XY..XY) 1 
    37         45
    38         74
    39        246
    40         23
    41         18
    44         24
    45         74
    48        136
    49         45
    50        280
    51        835
    52         49
    53         38
    57         21
    62         33
    63         79
    64        109
    65        262
    66         32
    69         68
    70         79
    71         47
    73         21
    74         74
    75         59
    76         76
    77        999
    78        197
    81         25
    82         16
    89         66
    90         55
    91         96
    94         21
    97         92
   102         40
   103         23
   109         88
   116         76
   117         82
   118        125
   119         36
   121         31
   125        327
   126         18
   127         17
   141         54