##TITLE=Library Entry 100238
##JCAMP-DX=Revision 4.10 
##DATA TYPE=MASS SPECTRUM
##SAMPLE DESCRIPTION=A.A.Kutin, Moscow, Russia
##NAMES=HP
##CAS NAME=4-Methyl-benzoic acid (4-butoxy-benzylidene)-hydrazide
##MOLFORM=C19H22N2O2
##CAS REGISTRY NO=303082-91-9
##MP= -300
##BP= -300
##MW= 310
##$RETENTION INDEX=0
##$CONDENSED SPECTRUM=NO
##NPOINTS= 203
##XYDATA=(XY..XY) 1 
    34          0
    38          0
    39         10
    40          6
    41         21
    42          1
    43          4
    44          4
    45          1
    50          2
    51          6
    52          3
    53          3
    54          0
    55          4
    56         17
    57         23
    58          1
    60          0
    61          0
    62          1
    63          7
    64          4
    65         35
    66          2
    67          0
    68          3
    69          1
    70          0
    71          1
    73          0
    74          0
    75          1
    76          2
    77         13
    78         10
    79          4
    80          6
    81          4
    82          0
    83          0
    84          0
    85          0
    86          0
    87          0
    88          0
    89         12
    90         15
    91        176
    92         16
    93          4
    94          1
    95          0
    96          0
    97          0
    98          0
   102          1
   103          1
   104          2
   105         15
   106          8
   107         10
   108          7
   109          1
   110          2
   111          0
   112          0
   113          0
   114          0
   115          1
   116          1
   117          7
   118         20
   119        999
   120        216
   121         24
   122          6
   123          1
   125          0
   126          0
   127          0
   128          0
   129          0
   130          0
   131          4
   132          7
   133          8
   134          5
   135        103
   136         29
   137          3
   138          1
   139          0
   140          0
   141          0
   142          0
   143          0
   144          0
   145          0
   146          1
   147          1
   148          0
   149          2
   150          1
   151          0
   152          1
   153          0
   154          0
   155          1
   156          0
   157          0
   158          0
   159          1
   160          3
   161         19
   162          6
   163          1
   164          0
   165          0
   166          0
   167          0
   169          0
   170          0
   171          2
   172          0
   173          2
   174          5
   175        179
   176         29
   177          3
   178          4
   179          1
   180          0
   181          1
   182          1
   183          0
   184          0
   185          0
   186          0
   187          0
   189          0
   190          0
   191          3
   192          0
   193          0
   194          0
   195          0
   196          0
   197          4
   198          0
   200          0
   201          1
   202          0
   203          0
   205          0
   206          0
   207          0
   208          0
   209          0
   210          0
   211          0
   219          0
   223          0
   224          0
   225          0
   226          0
   231          0
   232          0
   234          0
   235          0
   236          4
   237          1
   238          0
   243          0
   244          0
   246          0
   249          0
   250          0
   251          0
   252          0
   253          2
   254          0
   255          0
   267          1
   268          0
   274          0
   280          0
   281          1
   282          0
   283          0
   284          0
   285          0
   287          0
   295          0
   296          0
   301          0
   307          0
   308          2
   309          7
   310        133
   311         29
   312          3
   313          0