##TITLE=Library Entry 78340
##JCAMP-DX=Revision 4.10 
##DATA TYPE=MASS SPECTRUM
##SAMPLE DESCRIPTION=Asinex Ltd, Moscow, Russia
##NAMES=HP
##CAS NAME=2-Benzoylamino-3-(4-nitro-phenyl)-acrylic acid allyl ester
##MOLFORM=C19H16N2O5
##CAS REGISTRY NO=303099-90-3
##MP= -300
##BP= -300
##MW= 352
##$RETENTION INDEX=0
##$CONDENSED SPECTRUM=NO
##NPOINTS= 191
##XYDATA=(XY..XY) 1 
    34          0
    35          0
    36          0
    37          0
    38          4
    39         54
    40         10
    41        140
    42          4
    43         10
    44        132
    45          4
    46          0
    47          1
    48          0
    50         14
    51         98
    52         12
    53         16
    54          8
    55         52
    56          5
    57         38
    58          6
    59          0
    60          4
    61          2
    62          3
    63         18
    64          5
    65          8
    66          1
    67          3
    68          6
    69          6
    70          0
    71          9
    72          1
    73          3
    74          3
    75          5
    76         17
    77        640
    78         38
    79          5
    80          0
    81         14
    82         11
    83          5
    84          0
    85          4
    86          0
    87          1
    88          1
    89         28
    90          3
    91          2
    92          0
    93          4
    94          1
    95          0
    96          0
    97          1
    98          0
    99          0
   100          0
   101          0
   102          0
   103          1
   104          8
   105        999
   106        105
   107          8
   108          1
   109          4
   110          6
   111          7
   112          0
   113          0
   114          1
   115          4
   116          9
   117          2
   118          1
   119          1
   120          1
   121          6
   122          4
   123          2
   124          0
   125          0
   126          0
   127          0
   128          0
   129          1
   130          0
   131          0
   132         11
   133          2
   134          1
   135          3
   136          1
   137          3
   138          0
   142          0
   143          2
   144          1
   146          1
   147          0
   148          0
   150          2
   151          1
   154          0
   155          0
   156          0
   158          0
   160          0
   161          0
   162         16
   163          3
   164          2
   165          6
   166          1
   167          0
   170          0
   171          0
   172          0
   174          0
   176          1
   177          4
   178          2
   180          0
   181          1
   182          0
   185          1
   187          0
   188          0
   189          4
   190          1
   191          3
   192          0
   193          0
   194          0
   196          0
   202          0
   203          0
   206          0
   211          0
   213          1
   215          1
   216          0
   217          1
   218          0
   221          0
   224          0
   227          0
   229          0
   231          0
   233          0
   235          0
   237          0
   243          1
   244          1
   245          1
   246          1
   248          0
   249          0
   267          1
   268          0
   278          0
   294         15
   295          8
   296          3
   297          0
   298          0
   301          0
   307          0
   308          2
   309          0
   310          0
   311         32
   312          5
   313          0
   322          0
   324          1
   325          0
   326          0
   327          0
   352         33
   353          9
   354          1