##TITLE=Library Entry 31647
##JCAMP-DX=Revision 4.10 
##DATA TYPE=MASS SPECTRUM
##SAMPLE DESCRIPTION=Chemical Concepts
##NAMES=HP
##CAS NAME=2-(2-Chloro-4-sulfophenoxy)acetic acid
##MOLFORM=C8H7ClO6S
##CAS REGISTRY NO=303096-94-8
##MP= -300
##BP= -300
##MW= 266
##$RETENTION INDEX=0
##$CONDENSED SPECTRUM=NO
##NPOINTS= 111
##XYDATA=(XY..XY) 1 
    35         61
    36        119
    37        138
    38        164
    39        158
    40         64
    42        356
    44        324
    45        387
    48        283
    50        434
    51        317
    52         58
    53        121
    54         19
    55         27
    56          9
    57         18
    58         16
    59         51
    60         96
    61        182
    62        417
    63        999
    64        225
    65        280
    66         29
    67         18
    69         57
    71         53
    73        335
    74        305
    75        444
    76         96
    77        152
    79        165
    80         93
    81        103
    82         26
    83         27
    84         44
    85         31
    86         41
    87         39
    88         13
    89         19
    90         14
    91         31
    92         28
    93         41
    94         30
    95         64
    96         31
    98        459
    99        269
   100        124
   101         74
   102         12
   103         11
   104         18
   105         15
   107         10
   108         17
   109         36
   110         91
   111        150
   112        107
   113         91
   114        107
   115        129
   116         31
   117         41
   118         21
   126        481
   127        148
   128        202
   129         58
   130         47
   131         10
   132          9
   139        380
   140         60
   141        145
   142         83
   143        206
   144         37
   145         64
   146         11
   147         10
   155         13
   174        239
   175         38
   176         65
   185         22
   186         60
   187         23
   188         23
   190        219
   191         69
   192         72
   193         26
   208         83
   209         10
   210         22
   220         34
   222        362
   224        147
   225          9
   266        153
   268         74
   269          3