##TITLE=Library Entry 76724
##JCAMP-DX=Revision 4.10 
##DATA TYPE=MASS SPECTRUM
##SAMPLE DESCRIPTION=Asinex Ltd, Moscow, Russia
##NAMES=HP
##CAS NAME=Benzonitrile, 2-(2,4-dichlorobenzylidenamino)-
##MOLFORM=C14H8Cl2N2
##CAS REGISTRY NO=303098-34-2
##MP= -300
##BP= -300
##MW= 274
##$RETENTION INDEX=0
##$CONDENSED SPECTRUM=NO
##NPOINTS= 186
##XYDATA=(XY..XY) 1 
    33          2
    34         10
    35         12
    36         40
    37         33
    38         68
    39         82
    40        117
    41         14
    42          6
    43         19
    44         35
    45          8
    46          2
    47          6
    48          4
    49         21
    50        214
    51        272
    52         69
    53          7
    55         11
    56          3
    57          7
    59          5
    60          9
    61         39
    62         78
    63         88
    64         59
    65         13
    66          2
    67          1
    68          0
    69          6
    70          2
    71          6
    72         13
    73         83
    74        181
    75        572
    76        383
    77         53
    78          4
    79          3
    80          4
    81          2
    82          0
    83          7
    84         37
    85         46
    86         57
    87         67
    88         41
    89         17
    90         11
    91         35
    92          9
    93          4
    94          2
    95          2
    96          8
    97         27
    98         15
    99         44
   100        101
   101         49
   102        880
   103        999
   104         72
   105          9
   106          9
   107         13
   108         14
   109        125
   110         50
   111        122
   112         25
   113         30
   114         20
   115          4
   116          0
   117          3
   118         48
   119         20
   120         10
   121          7
   122          7
   123        112
   124         20
   125         38
   126         11
   127          7
   128          6
   129        337
   130         30
   131          3
   132          1
   133          4
   134          3
   135          9
   136         95
   137         87
   138         80
   139         18
   140          3
   141          0
   145         61
   146        113
   147         49
   148         73
   149         28
   150         38
   151         18
   152          7
   153          4
   154          1
   155          0
   156          2
   157         11
   158          3
   159         15
   160          5
   161          9
   162          3
   163          9
   164          2
   165          3
   166          2
   167          0
   171         76
   172        208
   173         92
   174        160
   175         59
   176         80
   177         94
   178         19
   179          1
   184          4
   185          5
   186          6
   187          3
   188          2
   189          1
   196          0
   197          0
   198          0
   199          0
   200          0
   201          5
   202         44
   203         49
   204         12
   205          2
   209          0
   211         26
   212         23
   213         13
   214          8
   215          1
   220          1
   222          0
   233          0
   235          0
   236          0
   237          4
   238         25
   239        534
   240         88
   241        171
   242         26
   243          1
   245          0
   247         36
   248          8
   249         24
   250          4
   251          3
   273        552
   274        883
   275        493
   276        572
   277        141
   278         89
   279         12