##TITLE=Library Entry 52445
##JCAMP-DX=Revision 4.10 
##DATA TYPE=MASS SPECTRUM
##SAMPLE DESCRIPTION=W.T.RAINEY OAK RIDGE NATIONAL LABORATORY,OAK RIDGE,TN.U
SA
##NAMES=HP
##CAS NAME=2-Piperidinecarboxylic acid, 1-nitroso-, (S)-
##MOLFORM=C6H10N2O3
##CAS REGISTRY NO=30310-83-9
##MP= -300
##BP= -300
##MW= 158
##$RETENTION INDEX=0
##$CONDENSED SPECTRUM=NO
##NPOINTS= 33
##XYDATA=(XY..XY) 1 
    30        187
    31         62
    39        168
    40         48
    41        287
    42        237
    43         81
    44         99
    45         87
    53         56
    54        156
    55        768
    56        187
    57         31
    58         43
    67         24
    68         38
    69         46
    70        115
    71         53
    72         28
    82        162
    83        999
    84        312
    85         29
   100         43
   101         18
   113        499
   114         46
   128         87
   129         14
   158        111
   159          9