##TITLE=Library Entry 35532
##JCAMP-DX=Revision 4.10 
##DATA TYPE=MASS SPECTRUM
##SAMPLE DESCRIPTION=A.A.Kutin, Moscow, Russia
##NAMES=HP
##CAS NAME=4-Nitro-N-(2-oxo-2-piperidinoethyl)pyrazole-3-carboxamide
##MOLFORM=C11H15N5O4
##CAS REGISTRY NO=303194-87-8
##MP= -300
##BP= -300
##MW= 281
##$RETENTION INDEX=0
##$CONDENSED SPECTRUM=NO
##NPOINTS= 114
##XYDATA=(XY..XY) 1 
    35          0
    36          3
    37         29
    38        120
    39        180
    40         69
    41        855
    42        306
    43        157
    44        100
    45         23
    46         14
    50          9
    51         19
    52         31
    53         77
    54         61
    55        142
    56        260
    57         52
    58          7
    64          7
    65         52
    66         87
    67         52
    68         25
    69        999
    70        120
    71          7
    77          9
    79          5
    80         10
    81          7
    82         27
    83         73
    84        929
    85         93
    86         22
    93          4
    94         45
    95         11
    96         23
    97         25
    98         13
   105          5
   110          6
   111          8
   112        839
   113         68
   114          6
   123         21
   124         43
   125         26
   126          6
   127          3
   128          3
   129          3
   130         26
   131          2
   136          5
   137          2
   138         12
   139         98
   140        106
   141         11
   143          2
   151          0
   152        100
   153         13
   154          2
   155          0
   156          1
   157          0
   161          0
   162          0
   163          0
   164          3
   165          1
   166          1
   167          0
   168          1
   169         36
   170          3
   171          2
   179          0
   180         27
   181          2
   182          0
   193          0
   196          0
   197          0
   198          0
   202          0
   205          0
   207          0
   210          0
   212         12
   213          1
   218          0
   219          1
   220          0
   221          0
   223          0
   245          0
   246          3
   247          4
   248          1
   251          0
   252          0
   263          0
   264          0
   281         11
   282          1
   283          0