##TITLE=Library Entry 6979
##JCAMP-DX=Revision 4.10 
##DATA TYPE=MASS SPECTRUM
##SAMPLE DESCRIPTION=RADIAN CORP
##NAMES=HP
##CAS NAME=3-Hexyne-2,5-diol
##MOLFORM=C6H10O2
##CAS REGISTRY NO=3031-66-1
##MP= -300
##BP= -300
##MW= 114
##$RETENTION INDEX=0
##$CONDENSED SPECTRUM=NO
##NPOINTS= 56
##XYDATA=(XY..XY) 1 
    15         24
    25          5
    26         24
    27         82
    29        153
    30          2
    31         12
    37          7
    38         19
    39         89
    40         13
    41        167
    42         62
    43        999
    44        153
    45        133
    46          2
    47          1
    48          2
    49         10
    50         55
    51         72
    52         51
    53        366
    54         33
    55        163
    56         11
    57         19
    58          2
    61         13
    62          7
    63         13
    64          2
    65         20
    66          9
    67         49
    68          8
    69         73
    70         62
    71        281
    72         15
    74          3
    77         20
    78          3
    79         12
    80          2
    81        198
    82         16
    83          4
    84         15
    85         33
    95         21
    96          8
    97          5
    99        103
   100          4