##TITLE=Library Entry 5883
##JCAMP-DX=Revision 4.10 
##DATA TYPE=MASS SPECTRUM
##SAMPLE DESCRIPTION=Exported from NIST MS Search
##NAMES=HP
##CAS NAME=Hydroperoxide, 1-methylethyl
##MOLFORM=C3H8O2
##CAS REGISTRY NO=3031-75-2
##MP= -300
##BP= -300
##MW= 76
##$RETENTION INDEX=0
##$CONDENSED SPECTRUM=NO
##NPOINTS= 24
##XYDATA=(XY..XY) 1 
    14         20
    15        230
    17         10
    18         50
    19         20
    25         10
    26         40
    27        190
    28         30
    29        100
    31         30
    39         80
    40         20
    41        480
    42        100
    43        999
    44         60
    45        310
    46         10
    57         10
    58        220
    59         20
    61         30
    76         50