##TITLE=Library Entry 6278
##JCAMP-DX=Revision 4.10 
##DATA TYPE=MASS SPECTRUM
##SAMPLE DESCRIPTION=NIST Mass Spectrometry Data Center, 1994
##NAMES=HP
##CAS NAME=Pentane, 2-bromo-4-methyl-
##MOLFORM=C6H13Br
##CAS REGISTRY NO=30310-22-6
##MP= -300
##BP= -300
##MW= 164
##$RETENTION INDEX=938
##$CONDENSED SPECTRUM=NO
##NPOINTS= 54
##XYDATA=(XY..XY) 1 
    13          2
    15        111
    26         36
    27        328
    28         35
    29        126
    30          3
    37         13
    38         38
    39        319
    40         72
    41        709
    42        172
    43        999
    44         32
    49          2
    50         14
    51         21
    52         10
    53         41
    54          9
    55         76
    56         31
    57        126
    58          4
    61          1
    62          3
    63          5
    64          1
    65          8
    66          2
    67         19
    68          1
    69        296
    70         17
    74          1
    79          9
    80          8
    81         10
    82         10
    83         10
    84          1
    85        547
    86         34
    87          1
    93          4
    95          3
   105          1
   107         16
   109         15
   120          1
   121          7
   122          2
   123          5