##TITLE=Library Entry 16258
##JCAMP-DX=Revision 4.10 
##DATA TYPE=MASS SPECTRUM
##SAMPLE DESCRIPTION=Chemical Concepts
##NAMES=HP
##CAS NAME=2-(Dimethylaminomethyl)-3-nitrophenol
##MOLFORM=C9H12N2O3
##CAS REGISTRY NO=303194-49-2
##MP= -300
##BP= -300
##MW= 196
##$RETENTION INDEX=0
##$CONDENSED SPECTRUM=NO
##NPOINTS= 69
##XYDATA=(XY..XY) 1 
    37         15
    38         46
    39        178
    40         62
    42        524
    44        999
    45        487
    46        242
    50         99
    51        300
    52        100
    53         81
    55         34
    56         11
    58        333
    61         11
    62         24
    63         74
    64         33
    65         62
    66         46
    67         19
    68         11
    72          7
    74         41
    75         21
    77        269
    78         77
    79         47
    80         40
    81         13
    82          8
    89         13
    90         12
    91         20
    92         18
    93         21
    94         41
    95         10
   105         76
   106         39
   107         71
   108         40
   109          8
   116          7
   117          9
   118          9
   119          9
   120         16
   121         15
   122         12
   123          9
   132         99
   133         28
   134         63
   135         18
   136         34
   148        526
   149         72
   150         11
   151         27
   152          7
   163         11
   164          9
   179        194
   180         17
   195         19
   196         58
   197          6