##TITLE=Library Entry 17867
##JCAMP-DX=Revision 4.10 
##DATA TYPE=MASS SPECTRUM
##SAMPLE DESCRIPTION=MINISTRY OF TECH. E.R.D.E., WALTHAM ABBEY, UK
##NAMES=HP
##CAS NAME=1,3-Propanediol, 2-methyl-2-[(nitrooxy)methyl]-, dinitrate (ester
)
##MOLFORM=C5H9N3O9
##CAS REGISTRY NO=3032-55-1
##MP= -300
##BP= -300
##MW= 255
##$RETENTION INDEX=1529
##$CONDENSED SPECTRUM=NO
##NPOINTS= 27
##XYDATA=(XY..XY) 1 
    15         13
    27         39
    28         73
    29        111
    30        150
    31         71
    39         25
    40          7
    41         57
    42         23
    43        117
    44         18
    45         12
    46        999
    50          2
    51          2
    55         15
    56         19
    57         34
    58         15
    59          7
    62          6
    71         10
    72         15
    73          5
    76        116
    90          2