##TITLE=Library Entry 107440
##JCAMP-DX=Revision 4.10 
##DATA TYPE=MASS SPECTRUM
##SAMPLE DESCRIPTION=A.A.Kutin, Moscow, Russia
##NAMES=HP
##CAS NAME=Benzamide, 2-fluoro-N-[(2-morpholoyl)phenyl]-
##MOLFORM=C18H17FN2O3
##CAS REGISTRY NO=303203-24-9
##MP= -300
##BP= -300
##MW= 328
##$RETENTION INDEX=0
##$CONDENSED SPECTRUM=NO
##NPOINTS= 110
##XYDATA=(XY..XY) 1 
    37          3
    38         14
    39         48
    40         15
    41         34
    42         50
    43         27
    44         62
    45         14
    50         35
    51         30
    52         17
    53          7
    54         16
    55         26
    56         97
    57        151
    58         13
    59          2
    62          9
    63         48
    64         56
    65         74
    66          7
    67          2
    68          9
    69         20
    70         22
    71          3
    72          6
    75        154
    76         27
    77         30
    78          7
    82          3
    83          4
    84         11
    86        284
    87        711
    88         33
    90         72
    91         34
    92        131
    93         24
    95        442
    96         26
   102          7
   103          3
   104          7
   105          9
   106          4
   107          2
   111          4
   114          2
   117          5
   118         13
   119         48
   120        108
   121         24
   123        999
   124         71
   125          5
   130          5
   131          4
   132         14
   133          4
   134          2
   139          9
   140          4
   144          3
   146        216
   147         25
   148          3
   157          3
   158          4
   159          4
   164          3
   166          6
   167          7
   170          4
   171          4
   184          4
   185          8
   186          3
   187         15
   188          3
   189          5
   190          2
   195          5
   196          5
   197         14
   198          7
   205          6
   212          3
   213          4
   214         19
   215         20
   216          3
   238          3
   239          7
   240         10
   242        856
   243        131
   244         15
   258          5
   277          3
   309          4
   327         16
   328         37
   329          9