##TITLE=Library Entry 22985
##JCAMP-DX=Revision 4.10 
##DATA TYPE=MASS SPECTRUM
##SAMPLE DESCRIPTION=A.A.Kutin, Moscow, Russia
##NAMES=HP
##CAS NAME=Acetamide, N-methyl-N-[4-(5-methyl-2-furfurylidenamino)phenyl]-
##MOLFORM=C15H16N2O2
##CAS REGISTRY NO=303212-27-3
##MP= -300
##BP= -300
##MW= 256
##$RETENTION INDEX=0
##$CONDENSED SPECTRUM=NO
##NPOINTS= 144
##XYDATA=(XY..XY) 1 
    33         20
    34          3
    36          2
    39        124
    40         37
    41         15
    43        499
    44         14
    45          1
    48          0
    50         16
    51         98
    52         33
    53         89
    54         25
    56        999
    57         27
    59          1
    60          0
    61          0
    62          5
    63         45
    64         22
    65         69
    66         24
    67          6
    69          3
    70          1
    71          1
    72          0
    74          4
    76         32
    77        177
    78         54
    79         82
    81         63
    82         15
    83          8
    84          2
    85          0
    89          5
    90         50
    91         25
    92         14
    93         18
    94         20
    95          7
    96          1
    98          0
   100          3
   101          4
   102         19
   104        130
   105         60
   106         31
   107         31
   108         11
   109          4
   110          1
   111          1
   113          3
   114          4
   115         33
   116         13
   117         14
   118          9
   119         12
   120         13
   121         21
   122         27
   123          2
   125          1
   127         16
   128         22
   129         20
   131         61
   132         13
   133         13
   134          4
   135          0
   140          8
   141         22
   142         30
   143         28
   144         16
   145          7
   146          4
   147          2
   148          6
   149          1
   150          5
   152          1
   154         17
   155         16
   156         19
   157          9
   158          9
   159          6
   164         22
   166          2
   167          5
   168          4
   169         23
   170         34
   171         36
   172         10
   173          4
   175          1
   176          0
   179          0
   181          2
   182          5
   183         15
   184         34
   185         15
   186          9
   187          1
   192          3
   195          1
   197         20
   198         27
   199        139
   200         36
   201         89
   202         10
   203          1
   206          0
   209          2
   211         15
   213        430
   214        621
   215         90
   216          7
   225          1
   226          0
   228          0
   238          0
   241          1
   253          3
   254         14
   256        818
   257        132
   258         13
   259          1