##TITLE=Library Entry 31763
##JCAMP-DX=Revision 4.10 
##DATA TYPE=MASS SPECTRUM
##SAMPLE DESCRIPTION=A.A.Kutin, Moscow, Russia
##NAMES=HP
##CAS NAME=Benzenesulfonamide, 4-(2-hydroxy-5-nitrobenzylidenamino)-
##MOLFORM=C13H11N3O5S
##CAS REGISTRY NO=303214-10-0
##MP= -300
##BP= -300
##MW= 321
##$RETENTION INDEX=0
##$CONDENSED SPECTRUM=NO
##NPOINTS= 95
##XYDATA=(XY..XY) 1 
    37         11
    38        162
    39        359
    40         83
    41        119
    42         29
    43         61
    44         12
    45         38
    46        166
    48        252
    50        544
    51        599
    52        181
    53        140
    54         91
    55        110
    56        442
    57         53
    61         15
    62        143
    63        488
    64        999
    65        432
    66         90
    67         12
    69         18
    70         30
    74        122
    75        248
    76        452
    77        314
    78        414
    80        582
    81         16
    88         27
    89         63
    90        126
    91        220
    92        184
   102         36
   103         26
   104         27
   106        341
   107         61
   108        110
   113         38
   114         16
   116         16
   117         21
   118         24
   119         76
   120         10
   122         39
   127         64
   128         70
   129         59
   138         16
   139        381
   140        227
   141         73
   143         19
   153         14
   154        256
   155         76
   156         51
   159         12
   164         18
   165         54
   166        254
   167        377
   168         88
   169         13
   171         10
   172         36
   182        107
   183        115
   194        160
   195        253
   196         21
   210         79
   211         91
   212         12
   224         10
   240         98
   241         42
   256         10
   257        141
   274        171
   275         12
   291         36
   304        155
   305         12
   321        478
   322         49