##TITLE=Library Entry 82706
##JCAMP-DX=Revision 4.10 
##DATA TYPE=MASS SPECTRUM
##SAMPLE DESCRIPTION=Japan AIST/NIMC Database- Spectrum MS-IW-4061
##NAMES=HP
##CAS NAME=(S)-1-Phenyl-2-(p-tolyl)ethylamine
##MOLFORM=C15H17N
##CAS REGISTRY NO=30339-30-1
##MP= -300
##BP= -300
##MW= 211
##$RETENTION INDEX=0
##$CONDENSED SPECTRUM=NO
##NPOINTS= 66
##XYDATA=(XY..XY) 1 
    17          1
    18          4
    27          4
    28         21
    29          1
    30          1
    39          6
    41          1
    42          1
    44          1
    50          2
    51          9
    52          3
    53          4
    54          1
    63          3
    64          1
    65          7
    66          1
    75          1
    76          3
    77         73
    78         14
    79        179
    80         11
    89          4
    90          2
    91         23
    92          7
    93          1
   102          2
   103         11
   104         30
   105         40
   106        999
   107         81
   108          3
   115          4
   116          1
   117          3
   118          4
   119          1
   128          1
   130          1
   132          1
   134          1
   152          2
   165          3
   166          1
   167          1
   176          1
   177          1
   178          8
   179          5
   180          1
   189          1
   191          1
   192          1
   193          3
   194          5
   195          2
   208          1
   209          2
   210          2
   211          2
   212          1