##TITLE=Library Entry 27748
##JCAMP-DX=Revision 4.10 
##DATA TYPE=MASS SPECTRUM
##SAMPLE DESCRIPTION=Exported from NIST MS Search
##NAMES=HP
##CAS NAME=Bis(2-(Dimethylamino)ethyl) ether
##MOLFORM=C8H20N2O
##CAS REGISTRY NO=3033-62-3
##MP= -300
##BP= -300
##MW= 160
##$RETENTION INDEX=0
##$CONDENSED SPECTRUM=NO
##NPOINTS= 43
##XYDATA=(XY..XY) 1 
    25          1
    26         12
    27         53
    28         71
    29         37
    30         59
    31         23
    32          5
    36          3
    37          1
    38          2
    39          5
    40          6
    41         23
    42        147
    43         57
    44         48
    45         25
    46          2
    51          1
    52          1
    53          1
    54          6
    55          6
    56         39
    57         26
    58        999
    59         40
    60          1
    68          1
    69          1
    70         17
    71         21
    72         39
    73          2
    74          1
    82          1
    83          1
    84          1
    86          1
    87          1
   115         35
   116          2