##TITLE=Library Entry 25824
##JCAMP-DX=Revision 4.10 
##DATA TYPE=MASS SPECTRUM
##SAMPLE DESCRIPTION=M.A.FRIEDMAN FAC. SCI. ST-JEROME, MARSEILLE, FRANCE
##NAMES=HP
##CAS NAME=Thiazole, 5-bromo-
##MOLFORM=C3H2BrNS
##CAS REGISTRY NO=3034-55-7
##MP= -300
##BP= -300
##MW= 163
##$RETENTION INDEX=0
##$CONDENSED SPECTRUM=NO
##NPOINTS= 23
##XYDATA=(XY..XY) 1 
    27         30
    28         20
    29         30
    31         50
    32         50
    42         50
    43         50
    44         80
    45        100
    56         50
    57        999
    58         40
    59         50
    79         40
    84        850
    85         60
    86         30
   136         80
   138         90
   163        700
   165        830
   166         40
   167         20