##TITLE=Library Entry 33478
##JCAMP-DX=Revision 4.10 
##DATA TYPE=MASS SPECTRUM
##SAMPLE DESCRIPTION=NIST Mass Spectrometry Data Center
##NAMES=HP
##CAS NAME=Cyclobutaneethanol, 1-methyl-2-(1-methylethenyl)-, trans-
##MOLFORM=C10H18O
##CAS REGISTRY NO=30346-21-5
##MP= -300
##BP= -300
##MW= 154
##$RETENTION INDEX=1217
##$CONDENSED SPECTRUM=NO
##NPOINTS= 78
##XYDATA=(XY..XY) 1 
    26          3
    27         57
    28         13
    29         56
    30          3
    31         79
    37          1
    38          9
    39        192
    40         65
    41        268
    42         39
    43         56
    44         10
    45          6
    50         14
    51         44
    52         26
    53        225
    54         18
    55        136
    56        156
    57         29
    58          4
    59          2
    61          1
    62          4
    63         14
    64          3
    65         59
    66         28
    67        759
    68        999
    69        161
    70         34
    71         38
    72          3
    75          1
    77         75
    78         15
    79         92
    80         25
    81         89
    82         22
    83         36
    84         18
    85         33
    86          6
    89          1
    91         56
    92         11
    93        104
    94         30
    95         45
    96         14
    97         14
    98          6
    99          2
   103          3
   105         15
   106          4
   107        100
   108        112
   109        291
   110         39
   111        107
   112         11
   113          1
   119          3
   121         80
   122          9
   123         19
   124          3
   125          4
   126          4
   136          6
   139         19
   140          2