##TITLE=Library Entry 82624
##JCAMP-DX=Revision 4.10 
##DATA TYPE=MASS SPECTRUM
##SAMPLE DESCRIPTION=G. LUNN,ENVIRON. CONTROL,NATL. CANCER INST.,FREDERICK,M
D.,USA
##NAMES=HP
##CAS NAME=N-Phenylpyridine-4-carboxamide
##MOLFORM=C12H10N2O
##CAS REGISTRY NO=3034-31-9
##MP= -300
##BP= -300
##MW= 198
##$RETENTION INDEX=0
##$CONDENSED SPECTRUM=NO
##NPOINTS= 114
##XYDATA=(XY..XY) 1 
    35          2
    37          2
    38          8
    39         28
    40          3
    44          0
    49         10
    50         47
    51        260
    52         31
    53          5
    54          2
    55          1
    59          1
    60          1
    61          2
    62          6
    63         20
    64         22
    65         80
    66         22
    67          5
    68          1
    69          4
    70          1
    71          4
    72          1
    73          1
    74          4
    75          5
    76         12
    77         49
    78        684
    79         51
    80          2
    81          4
    82          2
    83          6
    84          3
    85          4
    87          1
    88          1
    89          3
    90          3
    91         15
    92         21
    93         26
    94         81
    95          8
    96          1
    97          4
    98          0
    99          2
   100          1
   101          1
   102          1
   103          2
   104          5
   105         27
   106        999
   107         78
   108          6
   109          4
   110          1
   111          3
   112          1
   113          3
   114          2
   115          6
   116          2
   117          1
   119          6
   120          1
   121          1
   122          1
   123          2
   124          1
   125          3
   126          1
   127          2
   128          1
   129          1
   133          1
   135          2
   136          1
   137          1
   139          1
   140          2
   141          3
   142          2
   143          1
   149         13
   150          1
   151          1
   152          1
   153          0
   154          0
   155          0
   156          0
   163          0
   165          0
   167          4
   168          2
   169          2
   170          0
   179          1
   181          0
   183          0
   184          0
   196          1
   197          7
   198        318
   199         49
   200          4