##TITLE=Library Entry 13853
##JCAMP-DX=Revision 4.10 
##DATA TYPE=MASS SPECTRUM
##SAMPLE DESCRIPTION=Chemical Concepts
##NAMES=HP
##CAS NAME=3,9-Epoxypregnan-14-ol, 3-methoxy-11,18,20-triacetoxy-
##MOLFORM=C28H42O9
##CAS REGISTRY NO=30344-51-5
##MP= -300
##BP= -300
##MW= 522
##$RETENTION INDEX=0
##$CONDENSED SPECTRUM=NO
##NPOINTS= 444
##XYDATA=(XY..XY) 1 
    25          2
    26          7
    27         39
    29        168
    30          8
    31         17
    33          3
    38          3
    39         30
    40         11
    41        268
    42         45
    43        999
    44         66
    45         95
    46          4
    47          4
    48          4
    49          3
    50          6
    51          8
    52          8
    53         55
    54         23
    55        324
    56         48
    57        117
    58         16
    59         58
    60         30
    61         30
    62          3
    63          5
    64          7
    65         30
    66         18
    67        139
    68         41
    69        173
    70         40
    71         91
    72         42
    73         52
    74         32
    75          9
    76          7
    77         81
    78         85
    79        150
    80         40
    81        170
    82         46
    83         91
    84         37
    85        102
    86         16
    87         44
    88          9
    89          5
    90          6
    91        164
    92         46
    93        195
    94         63
    95        178
    96         58
    97        133
    98         29
    99         29
   100         18
   101         11
   102          5
   103         20
   104         18
   105        185
   106         66
   107        155
   108         86
   109        152
   110         95
   111        180
   112         41
   113         62
   114         11
   115         45
   116         15
   117         75
   118         39
   119        160
   120        156
   121        154
   122        188
   123        217
   124        122
   125        135
   126         19
   127         23
   128         34
   129         69
   130         32
   131        119
   132         41
   133        147
   134        126
   135        167
   136         97
   137        220
   138        134
   139         67
   140        164
   141         68
   142         41
   143        116
   144         55
   145        165
   146         95
   147        174
   148        136
   149        167
   150         64
   151        161
   152         53
   153         54
   154         31
   155        135
   156         32
   157        101
   158         42
   159        101
   160         55
   161        118
   162         41
   163         56
   164         28
   165         65
   166         20
   167         35
   168         24
   169         59
   170         35
   171         85
   172         41
   173         87
   174         40
   175         66
   176         34
   177         55
   178         27
   179         38
   180         25
   181         39
   182        129
   183        107
   184         32
   185         75
   186         36
   187         73
   188         47
   189         57
   190         25
   191         44
   192         30
   193         31
   194         22
   195         72
   196         32
   197         63
   198         30
   199         60
   200         40
   201         52
   202         20
   203         36
   204         13
   205         36
   206         16
   207         39
   208         14
   209         83
   210         35
   211         92
   212         30
   213         65
   214         42
   215         31
   216         19
   217         30
   218         17
   219         25
   220         47
   221         62
   222         23
   223         88
   224         32
   225        429
   226        130
   227         92
   228         31
   229         42
   230         17
   231         17
   232         11
   233         18
   234         13
   235         42
   236         17
   237        102
   238        235
   239        113
   240         31
   241         74
   242         29
   243        119
   244         30
   245         25
   246         15
   247         19
   248         10
   249         22
   250         19
   251        108
   252         33
   253         46
   254         16
   255         93
   256        149
   257         58
   258         18
   259         15
   260         12
   261         27
   262         11
   263         21
   264         17
   265         32
   266         12
   267         32
   268         17
   269         54
   270         30
   271         24
   272         11
   273         44
   274         31
   275         18
   276          4
   277          9
   278          5
   279        108
   280         29
   281         42
   282         45
   283         67
   284         20
   285        336
   286         95
   287         33
   288         11
   289          8
   290          3
   291         13
   292         22
   293         24
   294          8
   295         45
   296         23
   297         74
   298         82
   299         40
   300         32
   301         20
   302          7
   303         10
   304          6
   305          6
   306          3
   307          6
   308          4
   309         42
   310         49
   311        344
   312        137
   313         47
   314         20
   315         30
   316         57
   317         15
   318          4
   319          4
   320          2
   321          6
   322          7
   323         16
   324        115
   325         36
   326         12
   327         19
   328         16
   329         50
   330         23
   331         10
   332          6
   333         16
   334          8
   335          1
   336          2
   337          2
   338          2
   339         48
   340         22
   341         17
   342         88
   343         40
   344          6
   345          8
   346          3
   347         13
   348          4
   349          1
   350          5
   351          4
   352         11
   353         15
   354          5
   355          8
   356          5
   357          9
   358         13
   359          9
   360         18
   361          6
   362          4
   363          1
   364          4
   365          1
   366          1
   367          2
   368          1
   369          9
   370         15
   371         50
   372         20
   373         12
   374         13
   375          6
   376        134
   377         33
   378          6
   379          1
   380          1
   381          1
   382          2
   383          4
   384         24
   385         13
   386          2
   387          7
   388         13
   389          5
   390          5
   391          2
   392          2
   393          5
   394          4
   395          2
   396          1
   397          1
   398          1
   399         11
   400          3
   401         12
   402         47
   403         31
   404          7
   405          8
   406          2
   407          5
   408          2
   409          1
   410          3
   411          1
   412         30
   413          9
   414          3
   415          6
   416          3
   417          2
   418         67
   419         40
   420         25
   421          7
   422          1
   429          3
   430         52
   431         19
   432          4
   433          5
   434          3
   435          2
   442          2
   443          2
   444        109
   445         34
   446         10
   447          4
   448         25
   449         10
   450          2
   460          3
   461          6
   462        152
   463         55
   464         11
   465          5
   466          0
   472         15
   473          6
   474          1
   475         15
   476          5
   477          2
   480          5
   481          4
   482          1
   486          2
   487          2
   488          1
   489          5
   490         53
   491         20
   492          5
   493          2
   503          1
   504         17
   505          4
   506          1
   507         23
   508          7
   509          1
   520          2
   521          2
   522        100
   523         31
   524          9