##TITLE=Library Entry 29270
##JCAMP-DX=Revision 4.10 
##DATA TYPE=MASS SPECTRUM
##SAMPLE DESCRIPTION=Penn State Mass Spectrom.Center
##NAMES=HP
##CAS NAME=Isoindoline, 6,7-dimethoxy-3-[2-(2-dimethylaminoethyl)-4,5-methyl
enedioxybenzylidene]-1-oxo-
##MOLFORM=C22H24N2O5
##CAS REGISTRY NO=30341-98-1
##MP= -300
##BP= -300
##MW= 396
##$RETENTION INDEX=0
##$CONDENSED SPECTRUM=NO
##NPOINTS= 76
##XYDATA=(XY..XY) 1 
    39          5
    41          8
    42         19
    43         43
    44          8
    45          2
    50          2
    51          2
    55          4
    56          7
    57         14
    58        999
    59         48
    62          2
    64          2
    69          8
    70          2
    71          4
    75          2
    76          4
    77          7
    78          2
    88          2
    89          5
    91          2
   102          9
   103          6
   115          2
   116          2
   130          9
   131          6
   138          2
   146         18
   147          3
   149         12
   150          2
   151          4
   152          2
   159          4
   160          4
   174         19
   178          4
   188          9
   189          9
   190          8
   191          2
   192          9
   202          6
   203          2
   204        199
   205         29
   206          2
   222          2
   235          2
   236          2
   248          5
   250          2
   264          2
   278          4
   292          4
   306          5
   307          2
   308          7
   320          4
   322          6
   323          2
   334          2
   336         11
   337          2
   349          7
   350          9
   351         14
   352          5
   394          2
   396         18
   397          2