##TITLE=Library Entry 27039
##JCAMP-DX=Revision 4.10 
##DATA TYPE=MASS SPECTRUM
##SAMPLE DESCRIPTION=MASS SPECTROMETRY CENTER, UNIV. OF UTAH ALDRICH B07437-
2
##NAMES=HP
##CAS NAME=Thiazole, 2-bromo-5-nitro-
##MOLFORM=C3HBrN2O2S
##CAS REGISTRY NO=3034-48-8
##MP= -300
##BP= -300
##MW= 208
##$RETENTION INDEX=0
##$CONDENSED SPECTRUM=NO
##NPOINTS= 79
##XYDATA=(XY..XY) 1 
    12         41
    13          6
    14          1
    16         18
    17         19
    18         65
    24         15
    25         29
    26         26
    27         44
    28         26
    29         16
    30        374
    32        175
    33          3
    34          9
    37          5
    38        144
    39        108
    40          5
    43          6
    44        196
    45        125
    46         55
    47          6
    48         14
    50         19
    51         43
    52         13
    53          2
    55         32
    56        148
    57        999
    58        104
    59         72
    60         15
    65         10
    70         70
    71         27
    72          5
    73         26
    76         18
    79         34
    80         14
    81         75
    82        173
    83        727
    84         41
    85         39
    91         37
    93         42
    97         12
    99         78
   105          8
   106          5
   107         18
   109         11
   111          3
   113        120
   118          6
   120          3
   123         91
   125         95
   134         24
   135         16
   136         25
   137         17
   162        871
   163         44
   164        863
   165         43
   166         41
   192          6
   194         10
   208        346
   209         17
   210        349
   211         18
   212         17