##TITLE=Library Entry 29169
##JCAMP-DX=Revision 4.10 
##DATA TYPE=MASS SPECTRUM
##SAMPLE DESCRIPTION=Japan AIST/NIMC Database- Spectrum MS-NW-8645
##NAMES=HP
##CAS NAME=Thiazole, 2-bromo-
##MOLFORM=C3H2BrNS
##CAS REGISTRY NO=3034-53-5
##MP= -300
##BP= -300
##MW= 163
##$RETENTION INDEX=0
##$CONDENSED SPECTRUM=NO
##NPOINTS= 59
##XYDATA=(XY..XY) 1 
    12          3
    13          1
    24          1
    25          6
    26         26
    27          3
    28          1
    32         23
    33          5
    34          1
    37          1
    38         11
    39          9
    40         18
    44         24
    45         54
    46          4
    47          2
    50          3
    51         12
    52          7
    56         13
    57        122
    58        999
    59         36
    60         45
    61          1
    70          5
    76          3
    79         13
    80          3
    81         16
    82         14
    83         24
    84          6
    85          5
    91          8
    92          1
    93          8
    94          1
   105          3
   106          8
   107          3
   108          7
   111          2
   113          2
   119          2
   123          8
   125          9
   137          1
   139          1
   156          1
   162          2
   163        586
   164         28
   165        596
   166         25
   167         25
   168          1