##TITLE=Library Entry 89836
##JCAMP-DX=Revision 4.10 
##DATA TYPE=MASS SPECTRUM
##SAMPLE DESCRIPTION=Japan AIST/NIMC Database- Spectrum MS-NW-6756
##NAMES=HP
##CAS NAME=1H-Imidazole, 4-nitro-
##MOLFORM=C3H3N3O2
##CAS REGISTRY NO=3034-38-6
##MP= -300
##BP= -300
##MW= 113
##$RETENTION INDEX=0
##$CONDENSED SPECTRUM=NO
##NPOINTS= 50
##XYDATA=(XY..XY) 1 
    14          2
    16          5
    24          5
    25          8
    26         20
    27        122
    28        137
    29         56
    30        318
    31          2
    37          1
    38        113
    39        239
    40        544
    41         46
    42         37
    43         17
    44          6
    45          1
    46         26
    50          2
    51          5
    52         12
    53         56
    54         26
    55        310
    56         27
    57          4
    58          1
    64          5
    65          8
    66         60
    67        325
    68         16
    69         45
    70         39
    71          2
    77          1
    79          1
    81          2
    83         60
    84          2
    85          1
    96          2
    97         79
    98          4
   111          1
   113        999
   114         52
   115          5