##TITLE=Library Entry 24852
##JCAMP-DX=Revision 4.10 
##DATA TYPE=MASS SPECTRUM
##SAMPLE DESCRIPTION=SHELL OIL CO., HOUSTON, TEXAS, USA
##NAMES=HP
##CAS NAME=Tridecane, 2,2,4,10,12,12-hexamethyl-7-(3,5,5-trimethylhexyl)-
##MOLFORM=C28H58
##CAS REGISTRY NO=3035-75-4
##MP= -300
##BP= -300
##MW= 394
##$RETENTION INDEX=0
##$CONDENSED SPECTRUM=NO
##NPOINTS= 161
##XYDATA=(XY..XY) 1 
    38          0
    39          8
    40          2
    41         90
    42          7
    43          8
    44          3
    45          0
    49          0
    50          0
    51          0
    52          0
    53          3
    54          4
    55         61
    56        141
    57        999
    58         44
    59          1
    63          0
    65          0
    66          0
    67          7
    68          4
    69         33
    70         13
    71         66
    72          3
    73          0
    76          0
    77          0
    78          0
    79          1
    80          0
    81          6
    82          2
    83         28
    84          3
    85         37
    86          2
    87          0
    88          0
    91          0
    92          0
    93          0
    94          0
    95          3
    96          1
    97         13
    98          5
    99         20
   100          1
   101          0
   105          0
   106          0
   107          0
   108          0
   109          1
   110          0
   111          5
   112          8
   113         17
   114          1
   115          0
   119          0
   121          0
   122          0
   123          0
   124          0
   125          2
   126          1
   127         12
   128          1
   129          0
   133          0
   135          0
   137          0
   138          0
   139          1
   140          0
   141         10
   142          1
   143          0
   151          0
   152          0
   153          0
   154          3
   155         10
   156          0
   157          0
   165          0
   166          0
   167          0
   168          3
   169          6
   170          0
   171          0
   179          0
   180          0
   181          0
   182          0
   183          4
   184          0
   185          0
   193          0
   194          0
   195          0
   196          0
   197          5
   198          0
   199          0
   200          0
   201          0
   202          0
   207          0
   208          0
   209          0
   210          3
   211          6
   212          1
   213          0
   221          0
   222          0
   223          0
   224          4
   225          4
   226          0
   227          0
   238          0
   239          1
   240          0
   241          0
   251          0
   252          0
   253          2
   254          0
   255          0
   264          0
   265          0
   266          1
   267          1
   268          0
   279          0
   280          2
   281          2
   282          0
   283          0
   294          0
   295          0
   296          0
   309          0
   321          0
   322          0
   323          0
   324          0
   336          3
   337          2
   338          0
   339          0
   379          0
   380          0