##TITLE=Library Entry 86888
##JCAMP-DX=Revision 4.10 
##DATA TYPE=MASS SPECTRUM
##SAMPLE DESCRIPTION=Div. of Experiment Therapeutics WRAIR, WRAMC, Washingto
n DC 20307
##NAMES=HP
##CAS NAME=2-[3,4-Dichloroanilino]-4,6-bis[trichloromethyl]-S-triazine
##MOLFORM=C11H4Cl8N4
##CAS REGISTRY NO=30356-55-9
##MP= -300
##BP= -300
##MW= 472
##$RETENTION INDEX=0
##$CONDENSED SPECTRUM=NO
##NPOINTS= 173
##XYDATA=(XY..XY) 1 
    41          6
    47        286
    48          7
    49        136
    50         90
    51         45
    52         53
    53        105
    59          6
    60          8
    61         76
    62        292
    63        324
    64        116
    65         26
    66         11
    67          7
    68          9
    71          8
    72         64
    73        419
    74        322
    75        410
    76         79
    77         16
    78          8
    82        551
    83        105
    84        429
    85        224
    86        117
    87        155
    88        154
    89         97
    90         96
    91          9
    94         31
    96         32
    97        162
    98         78
    99        168
   100        114
   101         42
   102          9
   103          9
   107         62
   108        888
   109        999
   110        717
   111        530
   112        150
   113         82
   114         29
   115         61
   116         21
   117        625
   119        602
   120         82
   121        196
   122         65
   123         76
   124        454
   125        157
   126        155
   127         48
   129        159
   131        219
   132         25
   133        306
   134        169
   135        219
   136        186
   137         63
   138         37
   139          7
   144        111
   145        387
   146        143
   147        294
   148        111
   149         85
   150         68
   151         96
   152         22
   153         34
   158         25
   159        160
   160         83
   161        106
   162         50
   163         24
   164          8
   167         10
   170         10
   171         83
   172         55
   173         53
   174         25
   175          6
   176          8
   177         64
   178          6
   179         12
   181         54
   183         56
   184         16
   185         93
   186        558
   187         70
   188        343
   189         34
   190         76
   192         32
   194          7
   197         49
   199         33
   201         36
   202         34
   203         46
   206         29
   208         25
   210          6
   211         33
   212         84
   213         20
   214         51
   220         17
   222          7
   224         44
   226         24
   258         44
   259         93
   260         50
   261         87
   262         16
   263         27
   269         23
   293         42
   294         27
   295         53
   296         31
   297         27
   298          7
   368          7
   369          6
   401         15
   402         29
   403         48
   404         57
   405         42
   406         46
   407         14
   408         20
   437         13
   439         26
   440          8
   441         25
   442         14
   443         15
   444          7
   472        288
   473         62
   474        761
   475        154
   476        902
   477        170
   478        599
   479        110
   480        257
   481         43
   482         59
   483          9
   484         10