##TITLE=Library Entry 20983
##JCAMP-DX=Revision 4.10 
##DATA TYPE=MASS SPECTRUM
##SAMPLE DESCRIPTION=Exported from NIST MS Search
##NAMES=HP
##CAS NAME=Nonanoic acid, 6-phenyl-, methyl ester
##MOLFORM=C16H24O2
##CAS REGISTRY NO=30368-29-7
##MP= -300
##BP= -300
##MW= 248
##$RETENTION INDEX=0
##$CONDENSED SPECTRUM=NO
##NPOINTS= 94
##XYDATA=(XY..XY) 1 
    33         30
    36         40
    37         20
    38         30
    39        250
    41        330
    42        250
    43        110
    44        570
    45         40
    50         40
    51         50
    52         20
    53         90
    54         40
    55        999
    56         50
    57         20
    58         20
    59        440
    60         20
    62         10
    63         30
    64         20
    65         20
    67         30
    68         10
    69         30
    70        360
    71         30
    73         30
    74         20
    75         30
    76         20
    77         70
    78         30
    79         20
    81         10
    85         10
    87         20
    88         10
    89         30
    90         10
    91        660
    92         60
    93         10
    95         10
   102         10
   103         20
   104         40
   105         30
   115         80
   116         30
   117        170
   118         30
   119         10
   127         20
   128         30
   129         40
   130         20
   131         60
   132         70
   133        170
   134         20
   141         20
   142         20
   143         20
   145         30
   146         10
   151         10
   152         20
   153         20
   154         60
   155         20
   157         10
   158         10
   165         10
   167         20
   168         20
   169         10
   173         90
   174         40
   175         10
   178         10
   180         10
   182         10
   184         10
   199         10
   205         40
   206         10
   216         10
   217         10
   248         70
   249         10