##TITLE=Library Entry 49790
##JCAMP-DX=Revision 4.10 
##DATA TYPE=MASS SPECTRUM
##SAMPLE DESCRIPTION=FOOD RESEARCH REPORT 122, K.E. MURRAY & COLLEAGUES, DIV
 OF FOOD RESEARCH, CSIRO, AUSTRALIA
##NAMES=HP
##CAS NAME=2,4-Undecadienal, (E,E)-
##MOLFORM=C11H18O
##CAS REGISTRY NO=30361-29-6
##MP= -300
##BP= -300
##MW= 166
##$RETENTION INDEX=1430
##$CONDENSED SPECTRUM=NO
##NPOINTS= 50
##XYDATA=(XY..XY) 1 
    26         10
    27        120
    29        120
    39        160
    40         30
    41        290
    42         70
    43        170
    51         30
    52         20
    53        100
    54         90
    55        170
    56         60
    57         20
    63         10
    65         60
    66         80
    68        220
    69         70
    70         50
    71         50
    72         10
    75         10
    77         60
    78         20
    79         80
    80         30
    81        999
    82        140
    83        150
    84         30
    91         30
    92         10
    93         20
    94         20
    95        100
    96         70
    98         30
    99         20
   107         10
   108         10
   109         40
   110         10
   119         10
   122         10
   123         30
   124         10
   137         10
   166         30