##TITLE=Library Entry 38836
##JCAMP-DX=Revision 4.10 
##DATA TYPE=MASS SPECTRUM
##SAMPLE DESCRIPTION=Exported from NIST MS Search
##NAMES=HP
##CAS NAME=Cycloheptane, 1,3-dimethoxy-, cis-
##MOLFORM=C9H18O2
##CAS REGISTRY NO=30363-90-7
##MP= -300
##BP= -300
##MW= 158
##$RETENTION INDEX=0
##$CONDENSED SPECTRUM=NO
##NPOINTS= 55
##XYDATA=(XY..XY) 1 
    39        110
    41        340
    42         60
    43        110
    45        230
    46         20
    47         20
    51         20
    52         10
    53         50
    54         40
    55         90
    56         20
    57         80
    58        430
    59        190
    60         10
    65         20
    66         20
    67        120
    68         60
    69         60
    70         10
    71        999
    72        120
    73         50
    75         80
    77         30
    78         20
    79         80
    80         20
    81         40
    82         20
    83         20
    84        180
    85        100
    86         10
    91         20
    93         20
    94        100
    95         80
    96        180
    97         70
    98         40
    99         60
   100         40
   101        180
   102         20
   111         50
   112         10
   125         20
   126         90
   127         20
   128         20
   129         10