##TITLE=Library Entry 61460
##JCAMP-DX=Revision 4.10 
##DATA TYPE=MASS SPECTRUM
##SAMPLE DESCRIPTION=Exported from NIST MS Search
##NAMES=HP
##CAS NAME=Nonanoic acid, 5-phenyl-, methyl ester
##MOLFORM=C16H24O2
##CAS REGISTRY NO=30368-28-6
##MP= -300
##BP= -300
##MW= 248
##$RETENTION INDEX=0
##$CONDENSED SPECTRUM=NO
##NPOINTS= 62
##XYDATA=(XY..XY) 1 
    31         20
    32         60
    38         50
    41        110
    42         10
    43         30
    44         10
    51         20
    52         10
    53         20
    55         30
    59         40
    63         10
    65         40
    66         10
    67         10
    69         20
    71         30
    74         50
    77         50
    78         40
    79         20
    87         10
    89         10
    90         10
    91        999
    92         90
    93         10
   101         70
   102         20
   103         40
   104        140
   105        100
   106         10
   115         50
   116         20
   117        470
   118         80
   119         10
   127         10
   128         20
   129         20
   130         10
   131         80
   132         20
   143         10
   145         10
   146         20
   147        250
   148         40
   159        130
   160        200
   161         30
   173         10
   174         10
   191        200
   192         30
   199         20
   216         20
   217         30
   248        130
   249         20