##TITLE=Library Entry 49718
##JCAMP-DX=Revision 4.10 
##DATA TYPE=MASS SPECTRUM
##SAMPLE DESCRIPTION=TNO Volatile Compounds in Food - Chemical Concepts
##NAMES=HP
##CAS NAME=2,4-Octadienal, (E,E)-
##MOLFORM=C8H12O
##CAS REGISTRY NO=30361-28-5
##MP= -300
##BP= -300
##MW= 124
##$RETENTION INDEX=1115
##$CONDENSED SPECTRUM=NO
##NPOINTS= 62
##XYDATA=(XY..XY) 1 
    25          5
    26          7
    27         74
    28         24
    29         38
    30          1
    32          2
    33         11
    34          1
    38         19
    39        190
    40         21
    41        161
    42         21
    43         20
    44          5
    47          4
    48          9
    50         14
    51         40
    52         25
    53        127
    54        117
    55         73
    57         11
    58          5
    60          2
    62          2
    63         22
    65         66
    66         53
    67        169
    68         63
    69          2
    70          3
    76          9
    77         49
    78         16
    79         49
    80         11
    81        999
    82        101
    83         24
    84         12
    91         27
    92          9
    93          3
    94          9
    95         65
    96         12
    99          1
   100          5
   101          6
   102          7
   107         11
   109          8
   112          2
   113          6
   122          8
   123          9
   124         94
   125         10