##TITLE=Library Entry 61679
##JCAMP-DX=Revision 4.10 
##DATA TYPE=MASS SPECTRUM
##SAMPLE DESCRIPTION=Exported from NIST MS Search
##NAMES=HP
##CAS NAME=Nonanoic acid, 7-phenyl-, methyl ester
##MOLFORM=C16H24O2
##CAS REGISTRY NO=30368-30-0
##MP= -300
##BP= -300
##MW= 248
##$RETENTION INDEX=0
##$CONDENSED SPECTRUM=NO
##NPOINTS= 73
##XYDATA=(XY..XY) 1 
    32         20
    39         50
    41        120
    43         30
    44         20
    51         30
    53         20
    55         60
    59         40
    65         50
    67         30
    69         40
    74         30
    77         50
    78         40
    79         30
    80         30
    81         40
    87         50
    91        999
    92        100
    93         20
    94         30
    95         20
    97         30
   101         20
   103         60
   104         70
   105         80
   106         20
   109         30
   115         50
   116         10
   117         80
   118         60
   119        720
   120        100
   121         20
   127         10
   128         10
   129         50
   130         40
   131         30
   132         20
   133         20
   141         20
   143         80
   144         10
   145         50
   146         10
   147         70
   148         10
   157         10
   158         10
   159         20
   169        200
   170         40
   172         20
   173         10
   174         10
   176         40
   187        490
   188         80
   189         10
   198         10
   199         50
   200         10
   216         80
   217         40
   218         10
   219        150
   248        230
   249         50