##TITLE=Library Entry 62470
##JCAMP-DX=Revision 4.10 
##DATA TYPE=MASS SPECTRUM
##SAMPLE DESCRIPTION=Exported from NIST MS Search
##NAMES=HP
##CAS NAME=Nonanoic acid, 2-phenyl-, methyl ester
##MOLFORM=C16H24O2
##CAS REGISTRY NO=30368-25-3
##MP= -300
##BP= -300
##MW= 248
##$RETENTION INDEX=0
##$CONDENSED SPECTRUM=NO
##NPOINTS= 49
##XYDATA=(XY..XY) 1 
    41        110
    42         20
    43        120
    44         20
    51         20
    55         70
    57         40
    59         20
    65         20
    69         40
    77         40
    78         30
    79         20
    85         20
    87         20
    89         10
    90         20
    91        999
    92        100
   103         50
   104        130
   105        170
   106         10
   115         20
   116         10
   117         80
   118         80
   119         70
   120         10
   121         40
   130         20
   131         20
   133         40
   135         10
   145         20
   147         20
   149         20
   150        850
   151        100
   160         40
   163         40
   164         20
   188         30
   189        100
   190         20
   216         20
   217         10
   248         60
   249         10