##TITLE=Library Entry 61448
##JCAMP-DX=Revision 4.10 
##DATA TYPE=MASS SPECTRUM
##SAMPLE DESCRIPTION=Exported from NIST MS Search
##NAMES=HP
##CAS NAME=Nonanoic acid, 4-phenyl-, methyl ester
##MOLFORM=C16H24O2
##CAS REGISTRY NO=30368-27-5
##MP= -300
##BP= -300
##MW= 248
##$RETENTION INDEX=0
##$CONDENSED SPECTRUM=NO
##NPOINTS= 78
##XYDATA=(XY..XY) 1 
    31        480
    32        330
    39         70
    41        170
    42         20
    43         80
    44         80
    45         20
    50         10
    51         50
    52        120
    53         20
    55         90
    57         20
    59         70
    63         20
    65         50
    67         20
    69         20
    74        220
    75         20
    76         10
    77         70
    78         60
    79         20
    81         10
    83         20
    87         40
    88         20
    89         20
    90         10
    91        999
    92        120
    93         10
   102         10
   103         60
   104        230
   105        320
   106         30
   115        130
   116         50
   117        650
   118        500
   119        130
   120         10
   121         10
   125         20
   127         20
   128         30
   129         50
   130         10
   131         60
   132         20
   133         50
   135         80
   136         20
   143         10
   145         80
   146         10
   147         10
   159         10
   160         80
   161        190
   162         50
   173         10
   174        250
   175        190
   176         40
   177        250
   178         40
   188         10
   191         20
   205         10
   216        120
   217        120
   218         20
   248        210
   249         40