##TITLE=Library Entry 58960
##JCAMP-DX=Revision 4.10 
##DATA TYPE=MASS SPECTRUM
##SAMPLE DESCRIPTION=Asinex Ltd, Moscow, Russia
##NAMES=HP
##CAS NAME=Benzonitrile, 3-(4-benzyloxybenzylidenamino)-
##MOLFORM=C21H16N2O
##CAS REGISTRY NO=303769-17-7
##MP= -300
##BP= -300
##MW= 312
##$RETENTION INDEX=0
##$CONDENSED SPECTRUM=NO
##NPOINTS= 143
##XYDATA=(XY..XY) 1 
    33          3
    34         13
    36          2
    37          2
    38          7
    40        269
    41          9
    42          2
    44         71
    46          0
    48          2
    50         12
    51         29
    52          6
    53          2
    54          1
    55          1
    56          0
    57          1
    58          0
    59          0
    60          0
    61          1
    62          5
    63         19
    64         12
    65        115
    66          6
    67          0
    68          0
    69          1
    70          0
    71          0
    73          0
    74          3
    75         12
    76         10
    77         11
    78          2
    79          2
    80          1
    81          0
    82          1
    83          0
    84          0
    85          0
    86          0
    87          0
    88          1
    89         10
    91        999
    92         73
    93         12
    94          1
    95          0
    96          0
    97          0
    98          0
    99          0
   100          0
   102         29
   103          2
   104          0
   105          3
   106          2
   107          1
   108          0
   109          0
   110          0
   111          0
   112          0
   113          0
   114          0
   115          1
   116          0
   117          0
   118          7
   119          1
   120          0
   121          0
   122          0
   123          0
   124          0
   125          0
   126          0
   127          2
   128          1
   129          3
   130          0
   135          0
   136          0
   137          0
   138          1
   139          1
   140          2
   141          0
   142          0
   144          1
   149          0
   150          0
   151          0
   152          1
   153          1
   154          0
   155          0
   163          0
   164          2
   165          2
   166          2
   167          0
   168          0
   171          0
   176          0
   177          0
   178          0
   180          0
   181          0
   183          0
   184          0
   191          1
   192          6
   193          4
   194          0
   195          0
   197          0
   203          0
   204          0
   205          0
   206          0
   208          0
   211          0
   212          1
   213          0
   221          6
   222          3
   223          0
   231          0
   247          0
   248          0
   254          0
   312         38
   313          9
   314          0