##TITLE=Library Entry 63398
##JCAMP-DX=Revision 4.10 
##DATA TYPE=MASS SPECTRUM
##SAMPLE DESCRIPTION=Asinex Ltd, Moscow, Russia
##NAMES=HP
##CAS NAME=Benzenamine, N-(2-benzyloxybenzylidene)-4-fluoro-
##MOLFORM=C20H16FNO
##CAS REGISTRY NO=303761-02-6
##MP= -300
##BP= -300
##MW= 305
##$RETENTION INDEX=0
##$CONDENSED SPECTRUM=NO
##NPOINTS= 196
##XYDATA=(XY..XY) 1 
    33          0
    34          1
    35          1
    36          1
    37          1
    38          7
    39         61
    40         20
    41         17
    42          2
    43          5
    44         11
    45          2
    46          0
    47          1
    48          0
    50         17
    51         49
    52          9
    53          3
    54          0
    55          4
    56          2
    57          8
    58          0
    59          0
    60          0
    61          1
    62          7
    63         36
    64         20
    65        156
    66          8
    67          1
    68          2
    69         12
    70          4
    71          2
    72          0
    73          1
    74          6
    75         94
    76         12
    77         25
    78          6
    79          2
    80          1
    81          3
    82          4
    83          8
    84          4
    85          1
    86          1
    87          1
    88          1
    89         21
    91        999
    92         74
    93          6
    94          7
    95        164
    96         18
    97          2
    98          0
    99          1
   100          0
   101          1
   102          4
   103          1
   104          1
   105          3
   106          3
   107          4
   108          1
   109          2
   111         55
   112          5
   113          1
   114          0
   115          2
   117          7
   118          1
   119         18
   120          7
   121          5
   122         38
   123          4
   124          1
   125          1
   126          1
   127          2
   128          2
   129          0
   130          0
   131          1
   132          2
   133         10
   134          2
   135          1
   136          0
   137          0
   138          1
   139          6
   140          3
   141          1
   144          1
   145          0
   146          2
   147          0
   148          0
   149          2
   150          1
   151          3
   152         13
   153          2
   154          0
   155          1
   156          0
   157          8
   158          5
   159          7
   160          0
   161          0
   163          0
   164          2
   165         23
   166         15
   167        246
   168         35
   169          9
   170          7
   171          3
   172          0
   173          0
   174          0
   176          1
   177          3
   178          1
   179          0
   180          0
   181          2
   182          2
   183          6
   184         18
   185         46
   186         10
   187          2
   188          0
   189          0
   190          0
   191          0
   192          0
   194        453
   195        447
   196         66
   197          8
   198         52
   199         28
   200          5
   201          4
   202          0
   205          0
   207          0
   208          0
   209          0
   210          2
   211          2
   212          5
   213          6
   214         51
   215         12
   216          1
   217          0
   221          0
   226          0
   227          0
   228          4
   229          0
   231          0
   239          0
   240          0
   246          0
   254          0
   259          0
   272          0
   274          0
   276          0
   286          0
   287          0
   288          7
   289          1
   303          0
   304         20
   305         36
   306          7
   307          0