##TITLE=Library Entry 58246
##JCAMP-DX=Revision 4.10 
##DATA TYPE=MASS SPECTRUM
##SAMPLE DESCRIPTION=Japan AIST/NIMC Database- Spectrum MS-IW-7638
##NAMES=HP
##CAS NAME=Ethyl 18-nonadecenoate
##MOLFORM=C21H40O2
##CAS REGISTRY NO=30379-25-0
##MP= -300
##BP= -300
##MW= 324
##$RETENTION INDEX=0
##$CONDENSED SPECTRUM=NO
##NPOINTS= 265
##XYDATA=(XY..XY) 1 
    14          1
    15          3
    17          7
    18          9
    25          2
    26         16
    27         59
    28         50
    29        172
    30          5
    31         28
    38          1
    39         53
    40         10
    41        421
    42         87
    43        355
    44         20
    45         67
    46          9
    47          1
    50          2
    51          4
    52          3
    53         36
    54        102
    55        777
    56        159
    57        270
    58         16
    59         19
    60        102
    61        117
    62          4
    63          2
    64          1
    65          9
    66         12
    67        201
    68        154
    69        594
    70        318
    71        147
    72         11
    73        154
    74         17
    75          5
    76          2
    77         12
    78          9
    79         47
    80         52
    81        236
    82        196
    83        540
    84        377
    85         96
    86          9
    87         33
    88        999
    89        238
    90         14
    91         24
    92         13
    93         47
    94         58
    95        222
    96        370
    97        501
    98        478
    99         63
   100          9
   101        603
   102         56
   103          7
   104          6
   105         15
   106          9
   107         41
   108         45
   109        151
   110        192
   111        268
   112        126
   113         27
   114         12
   115         92
   116         11
   117          7
   118          6
   119         32
   120         14
   121         65
   122         30
   123        136
   124        107
   125        146
   126         48
   127         27
   128         34
   129         64
   130         20
   131          7
   132          4
   133         29
   134         40
   135         67
   136         22
   137         98
   138         94
   139         99
   140         26
   141         46
   142         53
   143         74
   144         39
   145          7
   146          2
   147         24
   148         32
   149         48
   150         16
   151         73
   152        142
   153         73
   154         17
   155        130
   156         28
   157        112
   158         15
   159          3
   160          1
   161         20
   162         11
   163         33
   164         15
   165         57
   166         76
   167         45
   168         11
   169         27
   170          8
   171         30
   172          9
   173          2
   174          1
   175         18
   176          9
   177         22
   178         19
   179         43
   180         77
   181         38
   182         12
   183         37
   184          9
   185         29
   186         10
   187          2
   188          1
   189         13
   190          6
   191         13
   192         12
   193         34
   194        205
   195         60
   196         13
   197         29
   198          7
   199         30
   200         14
   201          3
   202          1
   203          9
   204          4
   205          9
   206          6
   207         38
   208         51
   209         20
   210          8
   211         12
   212          4
   213         28
   214          9
   215          3
   217          7
   218          6
   219         10
   220          7
   221         41
   222         46
   223         19
   224          7
   225         13
   226          4
   227         27
   228         14
   229          3
   230          1
   231          5
   232          2
   233          3
   234         63
   235         63
   236        296
   237         82
   238         11
   239         12
   240          4
   241         26
   242         20
   243          4
   245          1
   246          1
   247          1
   248          2
   249         41
   250         43
   251         11
   252          3
   253          9
   254          5
   255         10
   256         11
   257          2
   258          4
   259          9
   260         68
   261         35
   262          9
   263          9
   264          5
   265          2
   266          1
   267          8
   268          3
   269          9
   270          2
   277         25
   278        963
   279        510
   280         93
   281         44
   282         13
   283          9
   284          2
   292          3
   293          2
   294          2
   295         12
   296          4
   297          1
   298          1
   306         10
   307          3
   308          1
   309          1
   322          2
   323          5
   324        130
   325         64
   326         17
   327          2