##TITLE=Library Entry 59718
##JCAMP-DX=Revision 4.10 
##DATA TYPE=MASS SPECTRUM
##SAMPLE DESCRIPTION=O. THEANDER,DEP. CHEM. MOL. BIOL.,SWED. UNIV. AGRIC.,UP
Pb
##NAMES=HP
##CAS NAME=Benzyl glycolate
##MOLFORM=C9H10O3
##CAS REGISTRY NO=30379-58-9
##MP= -300
##BP= -300
##MW= 166
##$RETENTION INDEX=0
##$CONDENSED SPECTRUM=NO
##NPOINTS= 18
##XYDATA=(XY..XY) 1 
    39         60
    50         30
    51         60
    52         20
    62         20
    63         40
    65        110
    77         70
    78         20
    79         50
    89         40
    90         60
    91        999
    92         80
   105         20
   107         30
   108         60
   166         50