##TITLE=Library Entry 32998
##JCAMP-DX=Revision 4.10 
##DATA TYPE=MASS SPECTRUM
##SAMPLE DESCRIPTION=A.A.Kutin, Moscow, Russia
##NAMES=HP
##CAS NAME=Pyrimidine-2,4(1H,3H)-dione, 1,3-dimethyl-6-[2-(4-morpholyl)ethen
yl]-5-nitro-
##MOLFORM=C12H16N4O5
##CAS REGISTRY NO=303768-04-9
##MP= -300
##BP= -300
##MW= 296
##$RETENTION INDEX=0
##$CONDENSED SPECTRUM=NO
##NPOINTS= 199
##XYDATA=(XY..XY) 1 
    33          4
    34          2
    36          3
    37         15
    38         45
    39        167
    40         84
    41        355
    42        669
    43        141
    44        126
    45         83
    46         22
    47          7
    48          6
    49          4
    50         35
    51        100
    52        161
    53        234
    54        221
    55        183
    56        417
    57        301
    58        156
    59         20
    60          8
    61         10
    62          8
    63         22
    64         54
    65         95
    66        310
    67        999
    68        558
    69        131
    70        252
    71         80
    72        101
    73         11
    74          5
    75          8
    76         15
    77         51
    78         90
    79        151
    80        169
    81        150
    82        176
    83         86
    84         58
    85        124
    86        678
    87         66
    88         38
    89          5
    90          9
    91         21
    92         64
    93         88
    94         83
    95        132
    96        178
    97         68
    98         82
    99         23
   100        160
   101          8
   102          1
   103          3
   104         11
   105         31
   106         60
   107         65
   108         50
   109         77
   110         27
   111         69
   112         18
   113         16
   114         50
   115         59
   116         29
   117          5
   118          7
   119         25
   120         49
   121         28
   122         27
   123         34
   124        177
   125         67
   126         60
   127         23
   128        204
   129         14
   130          1
   131          2
   132          3
   133         12
   134         18
   135         36
   136         31
   137         52
   138         19
   139          9
   140         17
   141          7
   142          2
   143          1
   145          0
   146          2
   147          3
   148         14
   149         16
   150         18
   151         19
   152         97
   153         87
   154         22
   155         10
   156          4
   157          0
   160          0
   161          1
   162          5
   163         10
   164         11
   165         19
   166         65
   167         11
   168          5
   169          3
   170          1
   171          8
   172          0
   173          2
   174          0
   175          0
   176          1
   177          3
   178         13
   179          8
   180         13
   181         20
   182         22
   183          8
   184          1
   185          0
   186          0
   189          0
   190          2
   191          9
   192         11
   193         32
   194         90
   195         29
   196          4
   197          0
   198          0
   199         14
   200          1
   204          1
   205          2
   206          6
   207          8
   208          3
   209          3
   210          7
   211          1
   214          0
   219          1
   220          1
   221          2
   222          6
   223          4
   224          1
   233          0
   235          1
   238          1
   239          2
   240          0
   248          0
   249          0
   251         47
   252          6
   263          1
   264          4
   265          1
   266          5
   267          2
   268          0
   276          2
   277          2
   279        195
   280         29
   281          3
   296          9
   297          1