##TITLE=Library Entry 9417
##JCAMP-DX=Revision 4.10 
##DATA TYPE=MASS SPECTRUM
##SAMPLE DESCRIPTION=A.A.Kutin, Moscow, Russia
##NAMES=HP
##CAS NAME=Furan, 2-methyl-5-(2-methyl-3-nitrophenyliminomethyl)-
##MOLFORM=C13H12N2O3
##CAS REGISTRY NO=303771-40-6
##MP= -300
##BP= -300
##MW= 244
##$RETENTION INDEX=0
##$CONDENSED SPECTRUM=NO
##NPOINTS= 104
##XYDATA=(XY..XY) 1 
    39        429
    40        106
    41         66
    42         14
    43        999
    45          7
    46          3
    50        168
    51        518
    52        227
    53        262
    54         58
    55         16
    62         60
    63        155
    64        143
    65        345
    66         26
    67         24
    71          5
    74         25
    76        131
    77        358
    79        822
    80         78
    81         70
    82         28
    83         17
    86         14
    87         15
    89        240
    90        181
    91        207
    92         69
    94         49
    95        154
   101          3
   102         60
   103         49
   104         49
   105        109
   107        368
   108         50
   109         11
   113          6
   115         99
   116         87
   117         57
   118         43
   119         35
   120         53
   121         12
   125          6
   126          6
   127        108
   128        178
   129         82
   130         82
   131         15
   132         23
   134         71
   135         14
   140         26
   141         43
   142         49
   143         53
   144         39
   145        131
   146         27
   147         18
   152         33
   153         31
   154        292
   155        187
   156        134
   157         64
   158         12
   159         13
   167         57
   168         79
   169         50
   170         69
   171         66
   172         41
   173         11
   181          9
   182         50
   183        113
   184        150
   185        211
   186         34
   187          4
   196         50
   197        144
   198         67
   199         69
   201         14
   216          8
   227          3
   228         88
   229         21
   243         29
   244        425
   245         78