##TITLE=Library Entry 9387
##JCAMP-DX=Revision 4.10 
##DATA TYPE=MASS SPECTRUM
##SAMPLE DESCRIPTION=Chemical Concepts
##NAMES=HP
##CAS NAME=1-(1-Adamantyl)-1-phenylethanol
##MOLFORM=C18H24O
##CAS REGISTRY NO=303797-64-0
##MP= -300
##BP= -300
##MW= 256
##$RETENTION INDEX=0
##$CONDENSED SPECTRUM=NO
##NPOINTS= 110
##XYDATA=(XY..XY) 1 
    36          1
    39        353
    41        457
    43        999
    45          9
    46          1
    50         79
    51        240
    52         74
    53        169
    54         38
    55        178
    56         20
    57         22
    58          3
    59          1
    60         11
    63         48
    65        155
    66         52
    67        220
    68         25
    69         44
    70          4
    71          5
    74         16
    75         17
    77        603
    78        236
    79        578
    80         81
    81        129
    82         11
    83          4
    84          1
    85          2
    86          2
    87          2
    89         18
    91        344
    92        105
    93        339
    94         39
    95         15
    96          2
    97          1
    98          1
    99          1
   102         23
   103         39
   105        264
   106        105
   107        125
   108         12
   109          2
   110          1
   111          1
   113          2
   115         41
   116          9
   117         11
   120        435
   121        502
   122         41
   123          3
   126          2
   127         10
   128         24
   129         14
   130          3
   131          5
   135        596
   136         75
   137          4
   139          3
   141         10
   142          4
   143          4
   144          1
   145          2
   147          1
   150          1
   151          2
   152          7
   153          6
   154          3
   155          4
   156          1
   157          1
   159          1
   163          1
   164          1
   165          8
   166          3
   167          4
   168          1
   169          1
   171          1
   178          2
   179          2
   180          1
   181          2
   182          1
   183          1
   238          1
   239          1
   240          2
   241          1
   256          3
   257          1