##TITLE=Library Entry 99626
##JCAMP-DX=Revision 4.10 
##DATA TYPE=MASS SPECTRUM
##SAMPLE DESCRIPTION=A.A.Kutin, Moscow, Russia
##NAMES=HP
##CAS NAME=Acetic acid, 2-methoxy-4-[(3-methylbenzoylhydrazono)methyl]phenyl
 ester
##MOLFORM=C18H18N2O4
##CAS REGISTRY NO=303768-60-7
##MP= -300
##BP= -300
##MW= 326
##$RETENTION INDEX=0
##$CONDENSED SPECTRUM=NO
##NPOINTS= 126
##XYDATA=(XY..XY) 1 
    37          0
    38          4
    39         15
    40          3
    41          5
    43         78
    44          3
    45          0
    50          8
    51         13
    52          5
    53          3
    54          1
    55          1
    57          0
    61          2
    62          6
    63         18
    65         73
    66          8
    67          2
    68          1
    69          0
    74          2
    75          2
    76          5
    77         12
    78          7
    79         11
    80          3
    81          1
    82          0
    87          2
    89         37
    91        387
    92         30
    93         14
    94          7
    95          8
    96          1
    97          0
   102          0
   103          1
   104          7
   105         18
   106          8
   107          5
   108          3
   109          1
   111          3
   112          0
   115          2
   116          6
   119        999
   120         75
   121         12
   122          6
   123         13
   124          1
   126          0
   127          1
   128          0
   130          0
   131          0
   133         16
   135        168
   136        137
   137         15
   138          3
   141          0
   145          0
   149        226
   150         44
   151          8
   152          4
   153          1
   154          1
   160          0
   161          0
   162          0
   163          1
   165         16
   166          2
   167          0
   169          0
   171          0
   175          1
   177          0
   178          2
   179          0
   180          0
   183          0
   184          0
   190          0
   191          2
   192          0
   193          0
   196          0
   208          0
   209          2
   210          0
   211          0
   223          0
   224          0
   225          0
   226          0
   227          1
   239          0
   240          0
   250          0
   251          0
   252          0
   253          1
   254          0
   255          0
   267          0
   269          0
   281          1
   282          4
   284        108
   285         17
   286          1
   320          0
   326         43
   327          7
   328          1