##TITLE=Library Entry 100650
##JCAMP-DX=Revision 4.10 
##DATA TYPE=MASS SPECTRUM
##SAMPLE DESCRIPTION=Japan AIST/NIMC Database- Spectrum MS-IW-4148
##NAMES=HP
##CAS NAME=3-(4-Bromophenacyl)-3-hydroxy-2-indolinone
##MOLFORM=C16H12BrNO3
##CAS REGISTRY NO=303739-95-9
##MP= -300
##BP= -300
##MW= 345
##$RETENTION INDEX=0
##$CONDENSED SPECTRUM=NO
##NPOINTS= 151
##XYDATA=(XY..XY) 1 
    14          2
    15         14
    17         11
    18          2
    25          1
    26          8
    27         10
    28         34
    29          3
    31          5
    36          4
    37         52
    38        105
    39         79
    40         13
    41         32
    42          8
    43        156
    44         28
    45        105
    46          9
    48          1
    49         17
    50        229
    51         67
    52         73
    53         16
    54          1
    55          1
    57          2
    58          1
    59         41
    60          8
    61         31
    62         60
    63        198
    64        258
    65         57
    66          5
    67          3
    68          1
    69          1
    71          1
    72          1
    73         18
    74        106
    75        200
    76        240
    77         55
    78          6
    79          2
    80          3
    81          2
    82          4
    83          1
    84          1
    85          7
    86          9
    87          7
    88         10
    89         31
    90         92
    91        172
    92        620
    93         43
    94          3
    95          2
    97          1
    98          2
    99          2
   100          1
   101          4
   102          6
   103          4
   104         25
   105          9
   106          1
   107          2
   110          9
   115          2
   116          9
   117          4
   118          9
   119        999
   120         88
   121          6
   128          5
   129          5
   130          2
   131          6
   132          1
   133          5
   134          1
   143          2
   144         16
   145          3
   146         48
   147        757
   148         79
   149          9
   150          1
   154          2
   155        312
   156         31
   157        305
   158         28
   159          1
   161          1
   162          9
   163          1
   164          1
   165          3
   169          5
   171          5
   172          7
   173          1
   183        761
   184         58
   185        751
   186         56
   187          4
   190          1
   191          2
   192          1
   195          1
   198        301
   199         26
   200        294
   201         26
   202          2
   219          1
   220          4
   221          1
   223          1
   248          2
   249          1
   271          4
   273          4
   298          6
   299         13
   300         15
   301         17
   302          9
   303          4
   327         16
   328          3
   329         19
   330          4
   331          2
   345          2
   347          2