##TITLE=Library Entry 59565
##JCAMP-DX=Revision 4.10 
##DATA TYPE=MASS SPECTRUM
##SAMPLE DESCRIPTION=Chemical Concepts
##NAMES=HP
##CAS NAME=1-(1-Adamantyl)ethanonep-toluenesulfonylhyrazone
##MOLFORM=C19H26N2O2S
##CAS REGISTRY NO=303798-06-3
##MP= -300
##BP= -300
##MW= 346
##$RETENTION INDEX=0
##$CONDENSED SPECTRUM=NO
##NPOINTS= 105
##XYDATA=(XY..XY) 1 
    37          5
    39        231
    41        276
    42         55
    43         31
    44          4
    45          9
    46          1
    47          1
    48         10
    49          5
    50         32
    51         75
    52         27
    53        115
    54         23
    55         75
    56         32
    57         28
    58         11
    59          2
    61          5
    62         21
    63         89
    65        454
    66         38
    67         94
    68         15
    69         22
    70         74
    71          8
    72          6
    74          6
    75          6
    77        195
    78         50
    79        242
    80         39
    81         62
    82          9
    83          4
    84          5
    85          2
    86          3
    87          4
    89        108
    91        999
    92        107
    93        135
    94         32
    95         22
    96          5
    97          2
   102          2
   103         14
   104         10
   105         60
   106         29
   107         44
   108         22
   109          7
   110          2
   111          3
   113          1
   115         10
   116          4
   117         12
   118          8
   119         21
   120         11
   121          9
   122          4
   123          3
   124          1
   127          1
   128          2
   129          2
   130          1
   131          4
   132          5
   133         13
   135         80
   136          9
   137          1
   139         18
   141          1
   142          1
   144          1
   145          2
   146          1
   147          8
   148          4
   150         89
   151          7
   155        150
   156         12
   157          7
   158          1
   161          2
   162         15
   163          2
   174          1
   175          1
   191         12
   192          2