##TITLE=Library Entry 60530
##JCAMP-DX=Revision 4.10 
##DATA TYPE=MASS SPECTRUM
##SAMPLE DESCRIPTION=Asinex Ltd, Moscow, Russia
##NAMES=HP
##CAS NAME=2-(4-Benzyloxy-3-iodo-5-methoxy-benzylidene)-malononitrile
##MOLFORM=C18H13IN2O2
##CAS REGISTRY NO=303784-81-8
##MP= -300
##BP= -300
##MW= 416
##$RETENTION INDEX=0
##$CONDENSED SPECTRUM=NO
##NPOINTS= 182
##XYDATA=(XY..XY) 1 
    37          0
    38          1
    39          7
    40          3
    41          2
    42          0
    43          0
    44          0
    49          0
    50          4
    51          6
    52          2
    53          5
    54          0
    55          0
    56          0
    57          0
    61          1
    62          4
    63         10
    64          4
    65         52
    66          3
    69          0
    70          0
    71          0
    73          0
    74          2
    75          5
    76          6
    77          7
    78          1
    79          0
    81          0
    83          0
    84          0
    85          0
    86          1
    87          3
    88          3
    89         19
    91        999
    92         69
    93          3
    94          0
    95          0
    97          0
    99          5
   100         25
   101          7
   102          3
   103          1
   104          0
   105          3
   106          0
   107          0
   109          0
   110          0
   111          0
   112          4
   113          4
   114          3
   115          6
   116          1
   117          1
   118          0
   119          0
   121          0
   123          0
   124          0
   125          1
   126          4
   127         30
   128          6
   129          1
   130          0
   131          0
   135          0
   137          0
   139          5
   140          5
   141          3
   142         10
   143          2
   144          0
   149          0
   150          0
   151          0
   152          4
   153          1
   155         21
   156          2
   157          0
   163          0
   164          1
   165          1
   166          0
   167          0
   168          4
   169          2
   170          9
   171          2
   175          0
   176          1
   177          1
   178          0
   179          0
   180          0
   181          1
   183         12
   184          1
   185          0
   188          1
   189          1
   190          4
   191          1
   192          0
   193          0
   195          0
   196          0
   197          1
   198          2
   199          0
   200          0
   201          0
   202          1
   203          0
   204          0
   205          0
   206          0
   213          0
   214          0
   215          1
   216          1
   217          2
   218          2
   219          0
   220          0
   225          0
   227          3
   228          1
   229          4
   230          1
   231          0
   232          0
   234          0
   240          0
   241          0
   242          0
   243          0
   244          0
   245          2
   246          1
   247          0
   254          3
   255          0
   257          3
   258          1
   259          0
   260          0
   267          0
   268          0
   270          0
   273          3
   274          2
   275          0
   282          1
   283          0
   287          1
   288          1
   289          1
   290          0
   294          0
   297          2
   298          0
   323          0
   325          4
   326          0
   368          0
   416         23
   417          3
   418          0