##TITLE=Library Entry 15398
##JCAMP-DX=Revision 4.10 
##DATA TYPE=MASS SPECTRUM
##SAMPLE DESCRIPTION=Chemical Concepts
##NAMES=HP
##CAS NAME=7H-9,11b-Epoxy-5a,13a-propanophenanthro[2,1-f][1,4]oxazepin-3(4H)
-one, 12-(acetyloxy)-14-[1-(acetyloxy)ethyl]dodecahydro-9-methoxy-2,11a-dime
thyl-
##MOLFORM=C29H43NO8
##CAS REGISTRY NO=30384-40-8
##MP= -300
##BP= -300
##MW= 533
##$RETENTION INDEX=0
##$CONDENSED SPECTRUM=NO
##NPOINTS= 290
##XYDATA=(XY..XY) 1 
    26         56
    27        300
    29         25
    30         27
    39         47
    40         14
    41        210
    42        203
    43        872
    44        999
    45        107
    46         56
    50         15
    51         21
    52         16
    53         38
    54         13
    55        225
    56         92
    57        191
    58         59
    59         42
    60         22
    65         19
    67         90
    68         25
    69         94
    70         28
    71         43
    72         77
    73         50
    74         71
    77         68
    78         73
    79        117
    80         23
    81        112
    82         29
    83         40
    84         25
    85         74
    86         61
    87         33
    90         29
    91        140
    92         26
    93        107
    94         35
    95         88
    96         24
    97         54
    98         22
    99         19
   100        156
   101         95
   102        455
   103        203
   104         41
   105        108
   106         31
   107         96
   108         62
   109         92
   110         56
   111        154
   112         33
   113         18
   114         15
   115         32
   116         18
   117         56
   118         18
   119         87
   120         87
   121         90
   122         48
   123        109
   124         83
   125        110
   126         34
   127         18
   128         27
   129         65
   130         27
   131         69
   132         27
   133         64
   134         36
   135         79
   136         31
   137         84
   138         47
   139         26
   140         17
   141         37
   142         27
   143         49
   144         22
   145         62
   146         26
   147         49
   148         42
   149         49
   150         32
   151         90
   152         32
   153         28
   154         17
   155         58
   156         38
   157         86
   158         31
   159         51
   160         28
   161         43
   162         24
   163         31
   164         27
   165         31
   166         51
   167         28
   168         20
   169         44
   170         28
   171         57
   172         30
   173         55
   174         31
   175         36
   176         23
   177         20
   178         25
   179         23
   180         16
   181         26
   182         21
   183         48
   184         22
   185         39
   186         16
   187         27
   188         20
   189         23
   191         20
   192         28
   193         67
   194         56
   195         40
   196         16
   197         54
   198         22
   199         40
   200         16
   201         19
   205         18
   206         20
   207         21
   208         17
   209         61
   210         32
   211         58
   212         19
   213         27
   215         17
   221         19
   223         48
   224         29
   225        439
   226        121
   227         67
   228         32
   229         25
   230         12
   235         19
   237         67
   238         36
   239         46
   240         29
   241         25
   242         26
   243         44
   244         18
   245         14
   251         52
   252         30
   253         35
   254         29
   255         25
   256         16
   257         24
   258         13
   263         18
   265         18
   267         15
   268         11
   269         24
   270         19
   271         14
   272         11
   279         58
   280         25
   281         66
   282         24
   283         41
   284         30
   285         63
   286         20
   292         20
   293         16
   294         20
   295         30
   296         35
   297         59
   298         28
   299         26
   300         17
   309         15
   310         65
   311        100
   312        103
   313        101
   314         31
   321         16
   322         16
   323         20
   324         20
   325         25
   326         31
   327         27
   328         24
   329         18
   330         12
   339         13
   340         28
   341         18
   343         18
   351         12
   356         39
   357         28
   364         12
   370         15
   371         17
   372         41
   373         24
   374         15
   376         11
   382         18
   383         24
   384         28
   386         49
   387         39
   388        116
   389         64
   390         17
   392         13
   398         12
   400         14
   401         15
   404         32
   405         12
   413         14
   414         24
   415         15
   417         22
   418         21
   419         13
   430         13
   431         19
   432         21
   433         18
   441         39
   442         18
   443         30
   444         34
   447        108
   448         34
   458         18
   460         16
   473         42
   474         59
   475         17
   501         55
   502         18
   503         32
   504         20
   518         36
   519         12
   533        144
   534         59
   535         11