##TITLE=Library Entry 9149
##JCAMP-DX=Revision 4.10 
##DATA TYPE=MASS SPECTRUM
##SAMPLE DESCRIPTION=LAC, NIDDK, NIH, Bethesda, MD 20892
##NAMES=HP
##CAS NAME=n-Octyl guanidine
##MOLFORM=C9H21N3
##CAS REGISTRY NO=3038-42-4
##MP= -300
##BP= -300
##MW= 171
##$RETENTION INDEX=0
##$CONDENSED SPECTRUM=NO
##NPOINTS= 80
##XYDATA=(XY..XY) 1 
    41        369
    42        116
    43        999
    44        517
    45         53
    46          4
    48         12
    50          8
    51         16
    52          2
    53         26
    54         18
    55        203
    56        108
    57         85
    58        174
    59        759
    60        212
    61          5
    62          4
    63         14
    64         38
    65         39
    66          6
    67         16
    68          9
    69        101
    70         28
    71         28
    72        875
    73        831
    74         33
    77         11
    78          2
    79        183
    80        490
    81        182
    82        474
    83         37
    84         23
    85         14
    86        500
    87        386
    88         15
    89         10
    90          2
    91        170
    92         70
    93         12
    97         14
    98         17
    99         10
   100        478
   101        118
   102          4
   107          2
   111          8
   112          9
   113          5
   114        339
   115         69
   125          2
   126          5
   127          5
   128        338
   129         63
   134          9
   135         12
   140          2
   141          2
   142        175
   143         18
   155          4
   156         59
   157          7
   169          6
   170         50
   171        239
   172         41
   173         10