##TITLE=Library Entry 96783
##JCAMP-DX=Revision 4.10 
##DATA TYPE=MASS SPECTRUM
##SAMPLE DESCRIPTION=Chuck Anderson, Aldrich Chemical Co.
##NAMES=HP
##CAS NAME=2-(Trifluoromethyl)phenyl acetonitrile
##MOLFORM=C9H6F3N
##CAS REGISTRY NO=3038-47-9
##MP= -300
##BP= -300
##MW= 185
##$RETENTION INDEX=0
##$CONDENSED SPECTRUM=NO
##NPOINTS= 109
##XYDATA=(XY..XY) 1 
    26          5
    27         10
    28          3
    31          8
    33          1
    36          1
    37         10
    38         20
    39         39
    40          6
    41          3
    43          1
    44          2
    45          0
    49          3
    50         39
    51         31
    52          7
    53          0
    56          3
    57         19
    58          4
    59          2
    60          1
    61         14
    62         30
    63         53
    64         14
    65          7
    66          1
    68          5
    69         43
    70          4
    73          4
    74         17
    75         42
    76         13
    77          6
    78          1
    79          3
    80          2
    81         10
    82          6
    83         15
    84          1
    85          4
    86          8
    87         23
    88         30
    89         87
    90         13
    92          2
    93          4
    94          5
    95         19
    96          3
    98          1
    99         20
   100          5
   101          5
   102          1
   105          2
   106          3
   107         33
   108         14
   109         21
   110          1
   111          3
   112          6
   113          5
   114         27
   116        999
   117         75
   118          6
   119         20
   120          5
   121          1
   123          0
   124          4
   125         18
   126          9
   127          9
   132          9
   133          1
   134         35
   135          6
   137         11
   138         38
   139         13
   140          3
   143          1
   144          9
   145         32
   146          9
   152          1
   156          3
   157          6
   158         17
   159          7
   163          1
   164          7
   165         98
   166         65
   167          5
   183          1
   184         13
   185        291
   186         27
   187          1