##TITLE=Library Entry 52374
##JCAMP-DX=Revision 4.10 
##DATA TYPE=MASS SPECTRUM
##SAMPLE DESCRIPTION=Insect Chem. Ecol. Lab., USDA, Beltsville, MD 20705
##NAMES=HP
##CAS NAME=2-Methyl-4-octenal
##MOLFORM=C9H16O
##CAS REGISTRY NO=30390-58-0
##MP= -300
##BP= -300
##MW= 140
##$RETENTION INDEX=0
##$CONDENSED SPECTRUM=NO
##NPOINTS= 77
##XYDATA=(XY..XY) 1 
    41        119
    42         29
    43        118
    44         36
    45         13
    46          1
    47          0
    49          9
    50          8
    51         17
    52          7
    53         69
    54         15
    55        263
    56         27
    57         41
    58          9
    59         37
    60         10
    61          2
    62          1
    63          5
    64          3
    65         19
    66         15
    67         40
    68         11
    69         23
    70         10
    71         41
    72         10
    73         13
    74          5
    75          3
    77         14
    78          2
    79         15
    80          4
    81         15
    82         36
    83        999
    84         74
    85         24
    86          8
    87          4
    88          3
    89          2
    91          9
    92          2
    93          9
    94          6
    95        248
    96         23
    97         19
    98        193
    99         21
   100          7
   101          3
   102          1
   103          4
   105          4
   107          5
   108          2
   109          8
   110         16
   111         35
   112          4
   113          4
   123         10
   124          2
   125         39
   126          5
   138          2
   139          4
   140         30
   141          7
   142          3