##TITLE=Library Entry 76707
##JCAMP-DX=Revision 4.10 
##DATA TYPE=MASS SPECTRUM
##SAMPLE DESCRIPTION=Chemical Concepts
##NAMES=HP
##CAS NAME=Benzene, 1,4-bis(phthalimidomethyl)-
##MOLFORM=C24H16N2O4
##CAS REGISTRY NO=30391-55-0
##MP= -300
##BP= -300
##MW= 396
##$RETENTION INDEX=0
##$CONDENSED SPECTRUM=NO
##NPOINTS= 175
##XYDATA=(XY..XY) 1 
    25          2
    26         21
    27         27
    28         13
    29         16
    30          2
    31          3
    36          4
    37         32
    38         36
    39         64
    40          6
    41         33
    42          7
    43         25
    44          4
    45          8
    48          5
    49         25
    50        187
    51        110
    52         67
    53         15
    54          4
    55         23
    56         16
    57         41
    58          3
    59          2
    60          7
    61         14
    62         15
    63         39
    64         23
    65         10
    66          2
    67          6
    68         21
    69         17
    70         15
    71         22
    72          4
    73         18
    74         50
    75        105
    76        391
    77        156
    78         16
    79          4
    80          4
    81         10
    82          7
    83         14
    84          5
    85         10
    86          4
    87          4
    88         11
    89         18
    90         15
    91         18
    92          3
    93          6
    94          3
    95          7
    96          4
    97         11
    98          4
    99         15
   100          8
   101          7
   102         42
   103        999
   104        161
   105         51
   106          7
   107          3
   108          3
   109          6
   110          4
   111          7
   112          5
   113          8
   114          3
   115          6
   116         32
   117         14
   118          4
   119          8
   120          3
   121          5
   122          3
   123          4
   125         11
   126          3
   127          3
   128          3
   129          5
   130         79
   131         10
   132          9
   133         24
   134          4
   135          3
   137          3
   139          4
   140          3
   151          6
   152         10
   153          5
   154          3
   155          3
   157          3
   159          3
   160         25
   161          5
   162          2
   163          4
   164          4
   165         16
   166          6
   171          6
   176          3
   177          4
   178          9
   179          5
   180          7
   181          6
   182          3
   183          3
   184          2
   185          2
   186          3
   187          2
   188          2
   189          2
   190          5
   191          5
   192         13
   193         12
   194          5
   195          3
   196          2
   197          2
   198         13
   199          2
   202          2
   203          3
   204          9
   208          9
   209          3
   210          3
   211          2
   215          2
   216          2
   217          3
   218          4
   219          7
   221         10
   222          4
   232          6
   233          4
   234          4
   235          4
   236        345
   237         79
   238          9
   248          6
   249        450
   250        117
   251         15
   252          3
   396         37
   397         10
   398          3