##TITLE=Library Entry 52014
##JCAMP-DX=Revision 4.10 
##DATA TYPE=MASS SPECTRUM
##SAMPLE DESCRIPTION=Insect Chem. Ecol. Lab., USDA, Beltsville, MD 20705
##NAMES=HP
##CAS NAME=2,2-Dimethyl-4-octenal
##MOLFORM=C10H18O
##CAS REGISTRY NO=30390-60-4
##MP= -300
##BP= -300
##MW= 154
##$RETENTION INDEX=0
##$CONDENSED SPECTRUM=NO
##NPOINTS= 91
##XYDATA=(XY..XY) 1 
    41         67
    42         17
    43        216
    44         20
    45         10
    47          1
    49          1
    50          2
    51          7
    52          4
    53         33
    54         13
    55        166
    56         25
    57         49
    58          6
    59         53
    60          5
    61          1
    63          0
    65          5
    66          2
    67         18
    68          8
    69         30
    70         15
    71        126
    72         62
    73         22
    74          2
    75          2
    76          1
    77          8
    78          2
    79         12
    80          3
    81         15
    82         37
    83        999
    84         67
    85         52
    86          9
    87          5
    88          3
    89          6
    91          7
    92          2
    93          7
    94          2
    95         22
    96         13
    97         25
    98         10
    99        130
   100         22
   101         26
   102          3
   103          2
   104          1
   105          4
   106          0
   107          6
   108          3
   109         17
   110          8
   111         15
   112         10
   113         20
   114         34
   115         21
   116          4
   117          3
   118          0
   119          3
   120          0
   121          5
   122          3
   123         11
   124          8
   125         21
   126          7
   136          2
   137          9
   138          9
   139         15
   140          5
   141          2
   142          5
   153          1
   154         19
   155          5