##TITLE=Library Entry 12996
##JCAMP-DX=Revision 4.10 
##DATA TYPE=MASS SPECTRUM
##SAMPLE DESCRIPTION=NIST Mass Spectrometry Data Center
##NAMES=HP
##CAS NAME=Acetic acid, (2-chloro-5-nitrophenyl)methyl ester
##MOLFORM=C9H8ClNO4
##CAS REGISTRY NO=303965-18-6
##MP= -300
##BP= -300
##MW= 229
##$RETENTION INDEX=1739
##$CONDENSED SPECTRUM=NO
##NPOINTS= 129
##XYDATA=(XY..XY) 1 
    14          2
    15         16
    26          1
    27          2
    28          4
    29         10
    30         13
    31          2
    36          1
    37          4
    38          8
    39         23
    40          1
    41          2
    42         19
    43        999
    44         30
    45          4
    46          4
    47          1
    49          4
    50         40
    51         44
    52          6
    53          3
    55          1
    60          2
    61         11
    62         37
    63         81
    64          8
    65          5
    66          1
    72          2
    73         24
    74         38
    75         95
    76         23
    77         38
    78          8
    79          2
    84          7
    85         10
    86         13
    87         17
    88         10
    89        151
    90         13
    91          2
    92          2
    93          2
    94          1
    96          1
    97         11
    98          3
    99          8
   100          3
   101          2
   102          3
   103          2
   104          3
   105          7
   106          5
   107          1
   108          2
   109          7
   110         27
   111         37
   112         34
   113         14
   114          9
   115          1
   120          1
   121          2
   122          6
   123        178
   124        107
   125         65
   126         39
   127          4
   128          5
   129          2
   130          1
   134          2
   135          1
   136          5
   137          1
   138         10
   139         76
   140         36
   141         48
   142         12
   143          8
   144          1
   150          2
   152        150
   153         11
   154          3
   155         10
   156          2
   157          8
   158          3
   159          2
   160          1
   165          1
   166         24
   167          3
   169        315
   170        225
   171        119
   172         72
   173          6
   178          3
   183          1
   184          6
   185          1
   186         30
   187         19
   188         10
   189          6
   190          1
   194        249
   195         26
   196          3
   199          1
   213          2
   215          1
   229          2
   231          1