##TITLE=Library Entry 78795
##JCAMP-DX=Revision 4.10 
##DATA TYPE=MASS SPECTRUM
##SAMPLE DESCRIPTION=NIST Mass Spectrometry Data Center, 1994
##NAMES=HP
##CAS NAME=N-Benzoyl-N-phenylhydroxylamine
##MOLFORM=C13H11NO2
##CAS REGISTRY NO=304-88-1
##MP= -300
##BP= -300
##MW= 213
##$RETENTION INDEX=0
##$CONDENSED SPECTRUM=NO
##NPOINTS= 79
##XYDATA=(XY..XY) 1 
    26          4
    27         19
    28          3
    29          1
    30          5
    32          0
    37          7
    38         21
    39         44
    40          4
    41          6
    44          1
    45          0
    50         62
    51        200
    52         23
    53          7
    54          0
    61          2
    62          9
    63         29
    64         37
    65         35
    66          3
    73          2
    74         15
    75         14
    76          2
    77        520
    78         80
    79          4
    80          1
    84          0
    86          0
    87          1
    88          1
    89          1
    90          3
    91         20
    92          2
    93          9
    94          1
    98          0
    99          0
   101          0
   102          1
   103          3
   105        999
   106         75
   107          6
   108          6
   113          0
   114          0
   115          2
   119          3
   127          1
   128          1
   138          0
   139          3
   140          3
   141          1
   151          2
   152          3
   153          1
   154          0
   166          5
   167         13
   168          6
   169          0
   177          0
   178          0
   195          3
   196          8
   197         50
   198          7
   199          0
   213         50
   214          7
   215          0