##TITLE=Library Entry 18091
##JCAMP-DX=Revision 4.10 
##DATA TYPE=MASS SPECTRUM
##SAMPLE DESCRIPTION=Dennis Rohrbaugh, CBDCOM/ERDEC, Edgewood, MD
##NAMES=HP
##CAS NAME=2-Iodosobenzoic acid
##MOLFORM=C7H5IO3
##CAS REGISTRY NO=304-91-6
##MP= -300
##BP= -300
##MW= 264
##$RETENTION INDEX=0
##$CONDENSED SPECTRUM=NO
##NPOINTS= 36
##XYDATA=(XY..XY) 1 
    40         15
    45        116
    49         29
    50        999
    51        274
    52         13
    53         94
    62         31
    63        133
    64         90
    65        454
    66         68
    73         54
    74        171
    75        457
    76        812
    77        164
    78         24
    91         22
    92         95
    93        132
    94         14
   104         65
   105         52
   121        101
   122         45
   124        198
   127        243
   128         22
   177         11
   203        367
   204         26
   231        865
   232         64
   248        957
   249         84