##TITLE=Library Entry 64979
##JCAMP-DX=Revision 4.10 
##DATA TYPE=MASS SPECTRUM
##SAMPLE DESCRIPTION=Japan AIST/NIMC Database- Spectrum MS-IW-1201
##NAMES=HP
##CAS NAME=Succimer
##MOLFORM=C4H6O4S2
##CAS REGISTRY NO=304-55-2
##MP= -300
##BP= -300
##MW= 182
##$RETENTION INDEX=0
##$CONDENSED SPECTRUM=NO
##NPOINTS= 125
##XYDATA=(XY..XY) 1 
    12          2
    13          2
    14          5
    15         25
    16          8
    17          5
    18         17
    19          1
    24          2
    25         11
    26         58
    27         88
    28         96
    29         28
    30          2
    31         10
    32         88
    33         96
    34        212
    35         13
    36         12
    37          2
    38          3
    39          6
    40          2
    41         13
    42         19
    43         33
    44        272
    45        509
    46        137
    47        191
    48         20
    49         12
    50          3
    51          2
    52          4
    53         52
    54         28
    55         23
    56         14
    57         95
    58        307
    59        305
    60        113
    61         24
    62          3
    63         49
    64         83
    65         14
    66         27
    67          4
    68          4
    69         21
    70          6
    71         27
    72         17
    73         46
    74        370
    75         90
    76         48
    77         44
    78          6
    79          5
    80          7
    81         16
    82          8
    83          4
    84          7
    85        117
    86        360
    87        127
    88         29
    89         14
    90         36
    91        203
    92        999
    93         60
    94         92
    95          8
    96         49
    97          4
    98         28
    99         95
   100          7
   102        121
   103        137
   104        323
   105         72
   106         19
   107          9
   108          2
   109          3
   110          2
   111          3
   113          3
   114          2
   116          8
   117         69
   118         20
   119         51
   120          5
   121          5
   122          4
   130        175
   131        115
   132         22
   133          7
   135          6
   136         26
   137         19
   138          3
   139          2
   147         10
   148        411
   149        442
   150         46
   151         22
   152          2
   164         49
   165          8
   166          5
   182         52
   183         10
   184          6