##TITLE=Library Entry 86976
##JCAMP-DX=Revision 4.10 
##DATA TYPE=MASS SPECTRUM
##SAMPLE DESCRIPTION=TNO Volatile Compounds in Food - Chemical Concepts
##NAMES=HP
##CAS NAME=Oxazole, 4-ethyl-2,5-dimethyl-
##MOLFORM=C7H11NO
##CAS REGISTRY NO=30408-61-8
##MP= -300
##BP= -300
##MW= 125
##$RETENTION INDEX=919
##$CONDENSED SPECTRUM=NO
##NPOINTS= 60
##XYDATA=(XY..XY) 1 
    24          2
    25          6
    26         36
    27         75
    28         55
    29         19
    34          4
    37         12
    38         22
    39        128
    40         27
    41        165
    42        680
    43        965
    44          9
    45          4
    46          2
    48          3
    49          3
    50          9
    51         14
    52         25
    53         23
    54         30
    55         44
    56         19
    57          5
    58          2
    59          1
    62          5
    63          1
    64          3
    65          9
    66         16
    67         15
    68         11
    69        927
    70         22
    78          1
    80          8
    81          6
    82         55
    83         10
    84         39
    85          1
    89          1
    91          1
    96          7
    97          4
    98          2
   109          3
   110        999
   111         50
   112          2
   121          2
   122          2
   123          2
   124         46
   125        787
   126         29