##TITLE=Library Entry 70844
##JCAMP-DX=Revision 4.10 
##DATA TYPE=MASS SPECTRUM
##SAMPLE DESCRIPTION=Japan AIST/NIMC Database- Spectrum MS-NW-6403
##NAMES=HP
##CAS NAME=1-Piperidineethanol
##MOLFORM=C7H15NO
##CAS REGISTRY NO=3040-44-6
##MP= -300
##BP= -300
##MW= 129
##$RETENTION INDEX=1075
##$CONDENSED SPECTRUM=NO
##NPOINTS= 68
##XYDATA=(XY..XY) 1 
    14          1
    15         26
    17          3
    18         10
    19          1
    26          9
    27         48
    28         42
    29         25
    30         52
    31         10
    36          1
    37          1
    38          3
    39         28
    40          6
    41        146
    42        187
    43         27
    44         96
    45         20
    50          2
    51          4
    52          6
    53          8
    54         15
    55        149
    56         50
    57         18
    58          4
    60          1
    65          2
    66          1
    67          8
    68         10
    69         53
    70         56
    71          4
    72          3
    73          4
    74          3
    78          1
    79          6
    80          3
    81          2
    82          9
    83          9
    84         30
    85          3
    86          1
    88          1
    94          2
    95          1
    96         17
    97          6
    98        999
    99         76
   100          9
   108          1
   109          2
   110          5
   111          5
   112          3
   126          4
   127          2
   128         19
   129         19
   130          2