##TITLE=Library Entry 69077
##JCAMP-DX=Revision 4.10 
##DATA TYPE=MASS SPECTRUM
##SAMPLE DESCRIPTION=A.A.Kutin, Moscow, Russia
##NAMES=HP
##CAS NAME=Furan-2-carboxamide, N-[4-[3-(3-pyridyl)-1-oxo-prop-2-enyl]phenyl
]-
##MOLFORM=C19H14N2O3
##CAS REGISTRY NO=304002-57-1
##MP= -300
##BP= -300
##MW= 318
##$RETENTION INDEX=0
##$CONDENSED SPECTRUM=NO
##NPOINTS= 223
##XYDATA=(XY..XY) 1 
    33          0
    37          4
    38         17
    39         69
    40          4
    41          2
    42          1
    43          1
    44          1
    45          1
    46          0
    48          0
    50         16
    51         30
    52          6
    53          4
    55          2
    56          0
    57          0
    60          0
    61          0
    62          3
    63         14
    64         15
    65          9
    67         22
    69          1
    70          0
    71          0
    73          0
    74          4
    75          7
    76         12
    77         29
    78         16
    79          7
    81          1
    82          0
    83          1
    84          0
    86          0
    87          1
    88          2
    89          5
    90         13
    91         24
    92         14
    95        999
    97          4
    98          1
    99          0
   100          1
   101          3
   102          9
   104         61
   105          4
   106          2
   107          1
   108          1
   109          0
   110          0
   111          0
   112          0
   113          2
   114          3
   115          7
   116          3
   117          4
   118          4
   119         12
   120         11
   121         42
   122          3
   123          0
   125          1
   126          1
   127          2
   128          3
   129          4
   130          4
   132         55
   134          2
   135          2
   136          0
   137          0
   138          1
   139          7
   140          5
   141          5
   142          2
   143          2
   144          1
   146          3
   147          2
   148          0
   149          0
   150          0
   151          3
   152          4
   153          2
   154          3
   155          1
   156          1
   157          0
   158          1
   159          1
   161          0
   162          0
   163          0
   164          1
   165          2
   166          9
   167         27
   168         16
   169          7
   170          1
   171          1
   172          0
   173          0
   174          0
   175          0
   176          1
   177          1
   178          5
   179          8
   180          9
   181          2
   182          0
   183          0
   184          0
   185          4
   186          2
   187          1
   188          1
   189          0
   190          0
   191          1
   192          3
   193          5
   194         10
   195         26
   196         13
   197          9
   198          1
   199          0
   200          0
   201          0
   202          0
   203          0
   204          0
   205          1
   206          1
   207          4
   208          8
   209          2
   210          0
   212          4
   214         58
   215          7
   216          0
   217          0
   218          0
   219          0
   221          4
   222         17
   223         26
   224          8
   225          4
   226          1
   229          4
   230          0
   231          0
   233          2
   234          1
   235          0
   236          0
   240          0
   243          0
   244          0
   245          0
   246          0
   247          0
   248          0
   249          1
   250          1
   251          3
   252          0
   253          0
   258          0
   259          0
   260          0
   261          4
   262          2
   263          0
   264          1
   265          0
   271          0
   272          0
   273          0
   274          0
   275          0
   276          0
   277          0
   283          0
   285          0
   286          0
   287          2
   289         58
   290         37
   291          5
   292          1
   293          0
   301          0
   308          0
   311          0
   312          0
   313          0
   314          1
   318        260
   319         44
   320          4
   321          0
   322          0