##TITLE=Library Entry 83652
##JCAMP-DX=Revision 4.10 
##DATA TYPE=MASS SPECTRUM
##SAMPLE DESCRIPTION=Chemical Concepts
##NAMES=HP
##CAS NAME=1,4-Butanediol, 3-methyl-1-phenyl-
##MOLFORM=C11H16O2
##CAS REGISTRY NO=30414-28-9
##MP= -300
##BP= -300
##MW= 180
##$RETENTION INDEX=0
##$CONDENSED SPECTRUM=NO
##NPOINTS= 107
##XYDATA=(XY..XY) 1 
    26          8
    27         55
    29         55
    31         61
    37          5
    38         10
    39         70
    40         24
    41        131
    42         21
    43         51
    44         59
    45         15
    50         41
    51        121
    52         28
    53         30
    54          7
    55         93
    56        154
    57         94
    58         22
    59         12
    62          8
    63         25
    64         11
    65         28
    66          6
    67         14
    68          8
    69         52
    70         19
    71         29
    72         10
    73          9
    74         16
    75         17
    76         21
    77        358
    78         96
    79        455
    80         44
    81         13
    82          6
    83         21
    84          7
    85         65
    86          5
    87         10
    89         19
    90         11
    91        121
    92         18
    94          5
    95         12
    96          6
    97         15
    98         15
    99          5
   101          8
   102         13
   103         26
   104         51
   105        411
   106         68
   107        999
   108        117
   109         12
   111          5
   115         81
   116         28
   117        134
   118         21
   119          7
   120        123
   121         16
   122         71
   123         18
   126          4
   127        185
   128         56
   129         52
   130         18
   131         73
   132         33
   133         23
   134          5
   141         28
   142         16
   143         89
   144         20
   145        274
   146         34
   147         29
   148         11
   154          4
   158          6
   159         10
   160        107
   161        115
   162        108
   163         16
   164          5
   179          6
   180        208
   181         29
   183          4