##TITLE=Library Entry 94368
##JCAMP-DX=Revision 4.10 
##DATA TYPE=MASS SPECTRUM
##SAMPLE DESCRIPTION=James Little,Eastman Chem.Co.,Kingsport,TN
##NAMES=HP
##CAS NAME=Malononitrile, phenyl-
##MOLFORM=C9H6N2
##CAS REGISTRY NO=3041-40-5
##MP= -300
##BP= -300
##MW= 142
##$RETENTION INDEX=0
##$CONDENSED SPECTRUM=NO
##NPOINTS= 33
##XYDATA=(XY..XY) 1 
    27        129
    28        375
    37         68
    38        129
    39        247
    41         27
    49         34
    50        260
    51        373
    52         64
    61         78
    62        137
    63        218
    64         97
    65         48
    74         75
    75         72
    76         64
    77        286
    78         51
    87         69
    88        131
    89        190
    90         65
    91         24
   113         21
   114        156
   115        999
   116        252
   117         69
   141         94
   142        763
   143         87