##TITLE=Library Entry 54388
##JCAMP-DX=Revision 4.10 
##DATA TYPE=MASS SPECTRUM
##SAMPLE DESCRIPTION=Div. of Experiment Therapeutics WRAIR, WRAMC, Washingto
n DC 20307
##NAMES=HP
##CAS NAME=.alpha.-[2-Piperidyl]-1,2,3,4-tetrahydro-8-trifluoromethyl-4-quin
olinemethanol
##MOLFORM=C16H21F3N2O
##CAS REGISTRY NO=30412-52-3
##MP= -300
##BP= -300
##MW= 314
##$RETENTION INDEX=0
##$CONDENSED SPECTRUM=NO
##NPOINTS= 98
##XYDATA=(XY..XY) 1 
    41         20
    42         16
    43          8
    44          8
    45          2
    49          3
    51          3
    52          0
    53          3
    54          6
    55         21
    56         53
    57          6
    58          1
    59          1
    63          0
    64          0
    65          1
    67          7
    68          7
    69          5
    70          4
    72          3
    77          4
    78          0
    79          1
    80          3
    81          2
    82          9
    84        999
    85         52
    86          4
    96         11
    97          4
    98          5
   101          1
   102          1
   103          1
   108          4
   110          1
   112          2
   113          1
   114         57
   115          6
   117          2
   122          0
   126          2
   127          5
   128          2
   129          2
   130         14
   131          4
   132          3
   133          7
   134          2
   139          0
   140          3
   143          0
   145          0
   151          3
   153          0
   154          6
   158          2
   159          2
   160         14
   161          1
   162          0
   165          3
   166          4
   172          2
   174          0
   178         25
   179          8
   180         59
   181          8
   182         16
   183          0
   185          1
   186          1
   192          7
   198         21
   199          2
   200         20
   201          5
   210          2
   212          2
   224          3
   229          2
   230          3
   231          0
   239          0
   276          4
   295          2
   296         19
   297          3
   314         29
   315          6
   316          1