##TITLE=Library Entry 61499
##JCAMP-DX=Revision 4.10 
##DATA TYPE=MASS SPECTRUM
##SAMPLE DESCRIPTION=Exported from NIST MS Search
##NAMES=HP
##CAS NAME=Benzenepentanoic acid, .gamma.-methyl-.beta.-oxo-, methyl ester
##MOLFORM=C13H16O3
##CAS REGISTRY NO=30414-61-0
##MP= -300
##BP= -300
##MW= 220
##$RETENTION INDEX=0
##$CONDENSED SPECTRUM=NO
##NPOINTS= 29
##XYDATA=(XY..XY) 1 
    42        120
    51         60
    59        110
    65        110
    69         90
    74         30
    77         60
    78         40
    91        999
    92         90
   101        180
   103         30
   104         40
   105         30
   118        190
   119        110
   128         30
   131         40
   132         60
   142         40
   146        110
   147        140
   163         10
   175         10
   188         20
   189         10
   202         10
   205         10
   220        120