##TITLE=Library Entry 23153
##JCAMP-DX=Revision 4.10 
##DATA TYPE=MASS SPECTRUM
##SAMPLE DESCRIPTION=Japan AIST/NIMC Database- Spectrum MS-IW-6974
##NAMES=HP
##CAS NAME=Pentanoic acid, 3-oxo-, methyl ester
##MOLFORM=C6H10O3
##CAS REGISTRY NO=30414-53-0
##MP= -300
##BP= -300
##MW= 130
##$RETENTION INDEX=1522
##$CONDENSED SPECTRUM=NO
##NPOINTS= 62
##XYDATA=(XY..XY) 1 
    13          1
    14          9
    15        102
    16          1
    18          1
    25          1
    26         14
    27         97
    28         48
    29        473
    30         12
    31         38
    32         17
    33          7
    37          2
    38          3
    39         14
    40          2
    41         23
    42         99
    43        147
    44         14
    45          9
    50          2
    51          2
    52          1
    53          9
    54          3
    55         24
    56         46
    57        999
    58         39
    59        352
    60          8
    61          1
    68          1
    69        165
    70         12
    71          4
    72          5
    73          2
    74         28
    75          1
    81          1
    83          1
    84          2
    85          7
    86          1
    87          4
    88          9
    89          2
    97          4
    98         52
    99         96
   100          9
   101        423
   102         21
   103          3
   115          1
   130        183
   131         17
   132          2