##TITLE=Library Entry 19716
##JCAMP-DX=Revision 4.10 
##DATA TYPE=MASS SPECTRUM
##SAMPLE DESCRIPTION=Exported from NIST MS Search
##NAMES=HP
##CAS NAME=6-Heptenoic acid, 3-oxo-, methyl ester
##MOLFORM=C8H12O3
##CAS REGISTRY NO=30414-57-4
##MP= -300
##BP= -300
##MW= 156
##$RETENTION INDEX=0
##$CONDENSED SPECTRUM=NO
##NPOINTS= 18
##XYDATA=(XY..XY) 1 
    41        250
    42        230
    43        739
    54        480
    55        999
    57        180
    59        509
    69        330
    74         70
    82        579
    83        390
    85         60
    96         80
   101        460
   124        170
   125         50
   138         20
   156        110