##TITLE=Library Entry 46331
##JCAMP-DX=Revision 4.10 
##DATA TYPE=MASS SPECTRUM
##SAMPLE DESCRIPTION=Leung Pu, NIH, Bethesda, Maryland, U.S.
##NAMES=HP
##CAS NAME=2,4-Dinitroso-1,3-naphthalenediol
##MOLFORM=C10H6N2O4
##CAS REGISTRY NO=30436-87-4
##MP= -300
##BP= -300
##MW= 218
##$RETENTION INDEX=0
##$CONDENSED SPECTRUM=NO
##NPOINTS= 118
##XYDATA=(XY..XY) 1 
    48          6
    49         80
    50        581
    51        190
    52         79
    53         52
    54         23
    55         24
    56         13
    57         26
    58          3
    59          6
    60         31
    61         82
    62        121
    63        118
    64         74
    65         59
    66         25
    67          6
    68         22
    69         71
    70         15
    71          3
    72          2
    73         97
    74        372
    75        418
    76        999
    77        212
    78         52
    79         10
    81          3
    83          4
    84          8
    85         31
    86         45
    87         61
    88        172
    89         81
    90         83
    91         29
    92         30
    93         10
    95          2
    96          2
    97          3
    98         33
    99         36
   100         63
   101        186
   102        293
   103        385
   104        899
   105        150
   106         22
   107          9
   113          2
   114        381
   115         96
   116         26
   117         18
   118         10
   119         22
   120          5
   121         10
   122         41
   124          8
   126          6
   127         11
   128         55
   129         67
   130        393
   131         80
   132         72
   133         33
   134          2
   142        104
   143         25
   144         28
   145          8
   146        141
   147        397
   148        163
   149         62
   150          8
   154          2
   156         16
   157         19
   158         33
   159         16
   160         25
   161          9
   162         13
   163         16
   170        160
   171         31
   172         20
   173         27
   174         37
   175         14
   176          2
   177          9
   188         12
   189         19
   190         44
   199          3
   200         14
   201         10
   202          7
   203         14
   204          2
   205          2
   215         23
   216         34
   217         51
   218        162
   219         42