##TITLE=Library Entry 1829
##JCAMP-DX=Revision 4.10 
##DATA TYPE=MASS SPECTRUM
##SAMPLE DESCRIPTION=NIST Mass Spectrometry Data Center, 1994
##NAMES=HP
##CAS NAME=2,3-bis-(Bromomethyl)-1,4-dibromo-2-butene
##MOLFORM=C6H8Br4
##CAS REGISTRY NO=30432-16-7
##MP= -300
##BP= -300
##MW= 396
##$RETENTION INDEX=0
##$CONDENSED SPECTRUM=NO
##NPOINTS= 98
##XYDATA=(XY..XY) 1 
    13          2
    14         23
    15         53
    16          3
    17          4
    18          4
    25          7
    26         52
    27        202
    28         27
    29          0
    35          2
    36         15
    37         94
    38        230
    39        999
    40        172
    41         55
    42          3
    49         20
    50        143
    51        278
    52        161
    53        165
    54         12
    55          4
    60          2
    61         17
    62         35
    63         72
    64         17
    65        113
    66         43
    67          4
    73          6
    74         14
    75          9
    76          2
    77        584
    78        280
    79        866
    80        193
    81         71
    82         51
    83          5
    91          4
    93         59
    94          7
    95         55
   105          8
   107         10
   109          5
   117         13
   119         40
   120          6
   121         31
   130          4
   131         23
   132          7
   133         25
   134          3
   135          3
   143          7
   144         10
   145          7
   146          8
   157        109
   159        402
   160         61
   161        301
   162         23
   173          3
   197          4
   199          7
   201          3
   211          6
   213         10
   215          5
   237        164
   239        372
   240         38
   241        182
   242         20
   317         93
   319        296
   321        276
   322         21
   323        100
   324          6
   396         11
   397          0
   398         42
   399          2
   400         54
   401          3
   402         35
   403          2
   404          9