##TITLE=Library Entry 85887
##JCAMP-DX=Revision 4.10 
##DATA TYPE=MASS SPECTRUM
##SAMPLE DESCRIPTION=Chemical Concepts
##NAMES=HP
##CAS NAME=2-Cyclopenten-1-one, 3,4,4-trimethyl-
##MOLFORM=C8H12O
##CAS REGISTRY NO=30434-65-2
##MP= -300
##BP= -300
##MW= 124
##$RETENTION INDEX=1129
##$CONDENSED SPECTRUM=NO
##NPOINTS= 68
##XYDATA=(XY..XY) 1 
    26          6
    27         72
    29         52
    30          1
    31          1
    33          2
    37          7
    38         25
    39        233
    40         86
    41        184
    42         21
    43         25
    44          9
    45          1
    46          1
    47          2
    49          1
    50         16
    51         35
    52         19
    53        118
    54         28
    55         63
    56         44
    57          4
    58          1
    61          1
    62          6
    63         13
    64          3
    65         38
    66         23
    67         48
    68         27
    69         15
    70          1
    72          6
    73          0
    74          3
    77         41
    78          7
    79        176
    80         22
    81        476
    82         78
    83         39
    84          2
    86          2
    89          0
    91         13
    92          1
    93          7
    94          5
    95         19
    96         11
    97          1
   105          2
   107          6
   108          3
   109        999
   110         84
   111          6
   114          1
   123          4
   124        339
   125         41
   126          2