##TITLE=Library Entry 82215
##JCAMP-DX=Revision 4.10 
##DATA TYPE=MASS SPECTRUM
##SAMPLE DESCRIPTION=Asinex Ltd, Moscow, Russia
##NAMES=HP
##CAS NAME=Benzoic acid 4-[(2,4,6-trimethyl-phenylimino)-methyl]-phenyl este
r
##MOLFORM=C23H21NO2
##CAS REGISTRY NO=304448-58-6
##MP= -300
##BP= -300
##MW= 343
##$RETENTION INDEX=0
##$CONDENSED SPECTRUM=NO
##NPOINTS= 186
##XYDATA=(XY..XY) 1 
    33          0
    34          0
    36          0
    37          0
    38          1
    39         14
    40          7
    41         20
    42          2
    43          4
    44          7
    45          2
    50         10
    51         41
    52          4
    53          7
    54          1
    55          3
    56          4
    57          2
    58          0
    60          0
    61          0
    62          1
    63          4
    64          3
    65         23
    66          3
    67          2
    68          0
    69          1
    70          0
    71          1
    73          0
    74          2
    75          4
    77        352
    78         30
    79          8
    80          1
    81          0
    82          0
    83          1
    84          0
    85          0
    87          0
    88          0
    89          2
    90          3
    91         32
    92          4
    93          5
    94          1
    95          1
    96          1
    97          1
    98          0
    99          0
   100          0
   101          1
   102          5
   103         17
   105        999
   106         71
   107          5
   108          0
   109          0
   111          1
   112          0
   113          0
   115         11
   116          3
   117          8
   118          2
   119          7
   120          5
   121          2
   122          2
   123          1
   124          0
   125          0
   126          0
   127          1
   128          2
   129          3
   130         26
   131         10
   132          2
   133          0
   134          3
   135          5
   136          0
   138          0
   139          1
   140          1
   141          1
   142          2
   143          3
   144         19
   145         32
   146         33
   147          3
   149          2
   150          0
   151          1
   152          3
   153          2
   154          1
   155          0
   156          0
   157          0
   158          1
   159          0
   161          0
   163          0
   164          0
   165          3
   166          2
   167          2
   168          2
   169          0
   170          0
   176          0
   177          0
   178          2
   179          2
   180          5
   181          2
   182          1
   183          0
   184          0
   189          0
   190          0
   191          1
   192          2
   193          4
   194         12
   195          7
   196          1
   197          0
   204          0
   205          1
   206          1
   207          2
   208          5
   209          2
   210          2
   211          0
   220          1
   221          3
   222         11
   223          5
   224          1
   225          0
   234          0
   236          1
   237          2
   238         16
   239          7
   240          1
   241          0
   248          0
   249          0
   252          0
   253          1
   254          0
   255          0
   263          0
   264          1
   266          0
   281          0
   283          0
   297          0
   298          0
   325          0
   326          0
   327          0
   328          1
   329          1
   330          0
   340          1
   342         61
   343        421
   344        102
   345         15
   346          1