##TITLE=Library Entry 46597
##JCAMP-DX=Revision 4.10 
##DATA TYPE=MASS SPECTRUM
##SAMPLE DESCRIPTION=A.A.Kutin, Moscow, Russia
##NAMES=HP
##CAS NAME=Acethydrazide, 2-phenoxy-N2-(2,3-dihydro-6-bromo-5-methyl-2-oxo-3
-indolylideno)-
##MOLFORM=C17H14BrN3O3
##CAS REGISTRY NO=304479-96-7
##MP= -300
##BP= -300
##MW= 387
##$RETENTION INDEX=0
##$CONDENSED SPECTRUM=NO
##NPOINTS= 188
##XYDATA=(XY..XY) 1 
    33          2
    34          1
    36          2
    37         14
    38         44
    39        217
    40         47
    41         32
    42         38
    43         31
    44         16
    45          3
    50         97
    51        320
    52         83
    53         39
    55         16
    56         14
    57         10
    58          5
    59          4
    60          2
    61         12
    62         41
    63        128
    64         47
    65        125
    66         44
    67         10
    68          2
    69          3
    70          2
    71          3
    72          2
    73          5
    74         22
    75         47
    76         97
    77        999
    78        110
    79        205
    80         30
    81         10
    82         17
    83          2
    84          1
    85          3
    86          7
    87         16
    88         39
    89        231
    90        235
    91         43
    92         11
    93         15
    94         55
    95          8
    96          0
    97          1
    98          2
    99          4
   100          8
   101         14
   102         56
   103         51
   104         16
   105         12
   107        230
   108         37
   109          3
   111          1
   112          2
   113          3
   114         18
   115         36
   116        100
   117        152
   118         48
   119          8
   120          4
   121          2
   122          1
   123          0
   125          0
   126          0
   127          2
   128          8
   129         51
   130         47
   131         29
   132          7
   133          4
   134          1
   135          1
   141          1
   142          1
   143          3
   144         12
   145         50
   146         29
   147          4
   148          1
   149         33
   150          4
   151          2
   152          1
   153          0
   155          1
   156          3
   157         12
   158          9
   159         16
   160          3
   161          1
   165          0
   166          0
   167          1
   168          6
   169         12
   170          7
   171         12
   172          5
   173          6
   174         13
   175          2
   178          0
   179          0
   180          1
   181          1
   182          2
   183          1
   184          2
   186          1
   187          5
   188          6
   194          3
   195          8
   196         26
   197         19
   198         24
   199         12
   200          0
   202          0
   208          3
   209         20
   210         19
   211         23
   212         20
   213          4
   214          4
   215          0
   222          0
   223         10
   224        139
   225         31
   226        131
   227         19
   228          1
   235          0
   236          3
   237         39
   238         22
   239         49
   240         17
   241         14
   251         14
   252         78
   253         31
   254         80
   255         16
   256          1
   266         63
   267          9
   268         56
   269          6
   280          7
   281          1
   282          7
   294          3
   295          0
   296          3
   309          1
   359          2
   361          1
   387          8
   388          1
   389          9
   390          0