##TITLE=Library Entry 99248
##JCAMP-DX=Revision 4.10 
##DATA TYPE=MASS SPECTRUM
##SAMPLE DESCRIPTION=A.A.Kutin, Moscow, Russia
##NAMES=HP
##CAS NAME=Hydrazine, N-(3-methylbenzoyl)-N'-(2-nitrobenzoyl)-
##MOLFORM=C15H13N3O4
##CAS REGISTRY NO=304452-76-4
##MP= -300
##BP= -300
##MW= 299
##$RETENTION INDEX=0
##$CONDENSED SPECTRUM=NO
##NPOINTS= 190
##XYDATA=(XY..XY) 1 
    34          0
    36          0
    37          2
    38          8
    39         44
    40         12
    41         56
    43         50
    45         17
    46          0
    50         40
    51         50
    52         12
    53          7
    54          6
    55         33
    57         31
    58          1
    59          3
    60         23
    61          5
    62          7
    63         24
    64         14
    65         86
    66          5
    67          7
    68          6
    69         15
    70          5
    71         11
    73         22
    74         12
    75         11
    76         58
    77         14
    78          8
    79          6
    80          1
    81          6
    83         18
    85         13
    87          7
    89         27
    90         21
    91        272
    92         30
    93          6
    94          1
    95          4
    97         16
    98          6
    99          4
   100          0
   101          4
   102          2
   104         20
   105          6
   106          3
   107          1
   108          0
   109          3
   110          4
   111          6
   112          3
   113          5
   114          2
   115          4
   116          2
   117          1
   119        999
   120         86
   121         10
   122          3
   123          1
   124          2
   125          3
   126          2
   127          1
   128          1
   129         11
   130          1
   132          0
   133          3
   134         21
   135          8
   136         11
   137          5
   138          1
   139          2
   140          0
   141          0
   142          0
   143          3
   144          0
   146          0
   147          3
   148          1
   149          2
   150         35
   151         38
   152          7
   153          1
   154          1
   155          0
   156          1
   157          3
   158          0
   159          0
   161          1
   163          0
   164          6
   165          2
   166          2
   167          1
   168          1
   169          0
   171          7
   172          0
   173          0
   175          0
   177          0
   179          0
   180          1
   181          1
   183          0
   185          8
   186          1
   189          0
   191          0
   192          0
   193          0
   194          1
   196          1
   197          0
   199          3
   200          0
   204          0
   205          0
   207          1
   208          1
   209          1
   211          0
   213          7
   214          0
   215          0
   216          0
   218          0
   219          0
   221          1
   222          1
   223          0
   224          3
   225          0
   227          3
   228          2
   229          0
   232          0
   236          1
   237          1
   238          0
   239          0
   241          2
   242          2
   243          0
   250          0
   251          0
   252          4
   253          0
   254          3
   256         18
   257          3
   264          1
   265          0
   266          0
   267          0
   268          0
   269          3
   270          4
   280          0
   282          3
   283          1
   284          9
   285          2
   289          0
   298          1
   299         32
   300          5
   301          0
   304          0