##TITLE=Library Entry 5593
##JCAMP-DX=Revision 4.10 
##DATA TYPE=MASS SPECTRUM
##SAMPLE DESCRIPTION=A.A.Kutin, Moscow, Russia
##NAMES=HP
##CAS NAME=Propanedioic acid, (1-ethoxyethylidene)-, diethyl ester
##MOLFORM=C11H18O5
##CAS REGISTRY NO=3044-06-2
##MP= -300
##BP= -300
##MW= 230
##$RETENTION INDEX=0
##$CONDENSED SPECTRUM=NO
##NPOINTS= 75
##XYDATA=(XY..XY) 1 
    26         17
    27        168
    28        217
    29        363
    30         17
    31         26
    32         25
    38          4
    39         39
    40         33
    41         29
    43        999
    44         53
    45        108
    47          5
    54          4
    55         35
    56         12
    57          9
    58         12
    59          4
    61         76
    66         10
    67         66
    68         64
    69        139
    70         10
    71         10
    72          5
    73         63
    82         18
    83         19
    84         82
    85         66
    86         46
    87         40
    88         21
    89         38
    96         16
    97         19
    99         23
   100         37
   101        101
   102         12
   110         26
   111         82
   112        142
   113         78
   114         33
   115         31
   127         13
   128        103
   129        159
   130         15
   131         12
   133         13
   138        114
   139         83
   140         73
   141         68
   142         12
   143          8
   155         10
   156        129
   157        141
   158         15
   159         30
   160         27
   171         26
   184        184
   185        292
   186         30
   187         28
   202          7
   230         36