##TITLE=Library Entry 99562
##JCAMP-DX=Revision 4.10 
##DATA TYPE=MASS SPECTRUM
##SAMPLE DESCRIPTION=A.A.Kutin, Moscow, Russia
##NAMES=HP
##CAS NAME=Benzhydrazide, 2-methyl-N2-(3,4-dimethoxy-6-nitrobenzylideno)-
##MOLFORM=C17H17N3O5
##CAS REGISTRY NO=304479-92-3
##MP= -300
##BP= -300
##MW= 343
##$RETENTION INDEX=0
##$CONDENSED SPECTRUM=NO
##NPOINTS= 164
##XYDATA=(XY..XY) 1 
    33          1
    34          0
    35          0
    36          0
    37          2
    38          8
    39         35
    40          8
    41         14
    42          3
    43          7
    44          7
    45          5
    47          0
    50         19
    51         26
    52         13
    53         15
    55          7
    56          2
    57          4
    58          3
    59          3
    60          1
    61          3
    62         15
    63         41
    64         24
    65        107
    66         12
    67          4
    68          6
    69          7
    70          1
    71          1
    72          0
    74          5
    75          7
    76         10
    77         18
    78         11
    79         14
    80          5
    81          4
    82          4
    83          1
    84          1
    85          1
    86          1
    87          2
    89         33
    91        455
    92         39
    93         13
    94          5
    95          5
    96          1
    97          0
    98          0
    99          0
   100          0
   101          0
   102          1
   103          1
   104          7
   105          4
   106          4
   107          6
   108         10
   109          6
   110          1
   111          0
   112          0
   113          0
   115          1
   116          5
   119        999
   120         75
   121          8
   122          2
   123          1
   124          1
   125          1
   126          0
   127          0
   128          0
   129          0
   130          0
   131          0
   132          2
   135        217
   136         38
   137          4
   138          1
   139          0
   140          0
   141          0
   145          0
   146          0
   147          1
   148          1
   149          1
   150          2
   151          5
   152          2
   153          0
   154          0
   155          0
   161          0
   162          1
   163          2
   164          4
   165          2
   166          1
   167          0
   168          1
   169          0
   171          1
   172          0
   177          0
   178          2
   179          1
   180          1
   181          0
   182          0
   183          0
   189          0
   190          0
   191          0
   192          2
   193          0
   194          0
   195          2
   196          0
   197          0
   198          0
   206          0
   208         19
   209          2
   210          0
   223          0
   224          0
   226          0
   228          0
   253          0
   254          0
   265          0
   268          0
   269          0
   270          0
   281          0
   282          0
   283          0
   296          0
   297          1
   298          0
   299          0
   311          0
   313          0
   325          0
   326          4
   327          0
   343          2
   344          0