##TITLE=Library Entry 78636
##JCAMP-DX=Revision 4.10 
##DATA TYPE=MASS SPECTRUM
##SAMPLE DESCRIPTION=A.A.Kutin, Moscow, Russia
##NAMES=HP
##CAS NAME=Butanedioic acid, monohydrazide, N2-benzoyl-, methyl ester
##MOLFORM=C12H14N2O4
##CAS REGISTRY NO=304480-84-0
##MP= -300
##BP= -300
##MW= 250
##$RETENTION INDEX=0
##$CONDENSED SPECTRUM=NO
##NPOINTS= 109
##XYDATA=(XY..XY) 1 
    35          0
    36          4
    37          7
    38         12
    39         18
    40          5
    41          6
    42         16
    43         10
    44         11
    45          4
    49          8
    50         68
    51        159
    52         14
    53          5
    55         42
    56         12
    57         10
    58          0
    59         13
    60          1
    61          1
    62          3
    63          5
    64          2
    65          4
    66          0
    69          2
    70          3
    71          2
    72          0
    73          7
    74         23
    75         18
    76         43
    77        445
    78         34
    79          3
    80          0
    82          0
    83          1
    85          8
    86          4
    87          7
    88          1
    90          1
    91          2
    92          1
    93          0
    98          0
    99          1
   100          1
   101          2
   102          0
   105        999
   106         68
   107          4
   112          0
   113          2
   115         90
   116          5
   117          1
   118          1
   119          0
   121          5
   122          0
   127          0
   128          0
   130          0
   131          0
   132          0
   136        114
   137         12
   138          1
   139          1
   141          1
   142          0
   147          1
   148          0
   156          0
   163          2
   164          0
   165          0
   167          0
   169          0
   170          0
   171          0
   173          1
   174          1
   179          0
   183          0
   198          0
   201          1
   211          0
   215          0
   216          2
   217          4
   218         88
   219        107
   220         12
   221          1
   225          0
   232          2
   240          2
   241          1
   250         42
   251          5
   252          1