##TITLE=Library Entry 1738
##JCAMP-DX=Revision 4.10 
##DATA TYPE=MASS SPECTRUM
##SAMPLE DESCRIPTION=Chemical Concepts
##NAMES=HP
##CAS NAME=3,3,3-Trifluoro-N-(2-fluorophenyl)-2-(trifluoromethyl)propionamid
e
##MOLFORM=C10H6F7NO
##CAS REGISTRY NO=304444-11-9
##MP= -300
##BP= -300
##MW= 289
##$RETENTION INDEX=0
##$CONDENSED SPECTRUM=NO
##NPOINTS= 97
##XYDATA=(XY..XY) 1 
    33         93
    36         44
    39        999
    41        244
    42        186
    44        314
    47         20
    49         19
    51         29
    52         10
    53         29
    54         21
    55        162
    56         75
    57        177
    59          7
    60          5
    61          4
    62          5
    63         36
    65         12
    66          7
    67         35
    69        121
    70         73
    71         62
    73          9
    74         14
    76         19
    78          9
    79         10
    81         22
    82         20
    83         72
    84         37
    85         17
    87          4
    88          2
    89          3
    91         29
    92         12
    94          4
    95         12
    96         19
    98          8
    99          5
   100          2
   101          6
   102          2
   103          3
   105          6
   106          2
   107          2
   108          4
   109          9
   111        132
   112         33
   113         12
   115          3
   116          1
   117          2
   119          2
   120          1
   121          2
   122          2
   123          6
   125          4
   126          3
   128         14
   130          3
   131          2
   132          4
   133          2
   134          2
   135          2
   137          5
   138         10
   139          2
   141          1
   142          1
   144          3
   147          1
   149          3
   151          3
   152          2
   153          1
   155          3
   157          2
   159          2
   160          1
   163          1
   171         10
   172          2
   179          7
   200          1
   289         22
   290          2