##TITLE=Library Entry 18274
##JCAMP-DX=Revision 4.10 
##DATA TYPE=MASS SPECTRUM
##SAMPLE DESCRIPTION=Chemical Concepts
##NAMES=HP
##CAS NAME=3-Ethyl-5-(.alpha.-[(3-ethyl-6-methoxybenzothiazolin-2-ylidene)me
thyl]benzylidene)-2-(p-tolylimino)-4-thiazolidinone
##MOLFORM=C30H29N3O2S2
##CAS REGISTRY NO=304447-86-7
##MP= -300
##BP= -300
##MW= 527
##$RETENTION INDEX=0
##$CONDENSED SPECTRUM=NO
##NPOINTS= 109
##XYDATA=(XY..XY) 1 
    34         37
    35         52
    37        112
    38         79
    39        173
    40        639
    41        245
    43        210
    44        462
    45         76
    46         19
    48         34
    49         37
    50        184
    51        328
    52        999
    53         61
    55        158
    56         77
    57        108
    58         15
    60         20
    63         37
    64         47
    65         88
    67         34
    68        100
    69         71
    70         26
    71         53
    73         19
    75         18
    76         18
    77         57
    78        115
    79        427
    80         59
    82         16
    83         45
    84         26
    85         25
    87         13
    89         18
    91        185
    92         21
    94         17
    95         32
    96         17
    97         21
   102         15
   104         32
   105         40
   109         13
   111         22
   112         19
   113         12
   115         20
   117         12
   119         13
   121         40
   122         13
   124         11
   128         18
   129         12
   131         82
   132         98
   133         28
   134         19
   135         15
   145         46
   146         14
   147         14
   149         32
   150         11
   151         11
   159         15
   160         77
   161         33
   163         12
   165         13
   171         23
   178         18
   179         13
   223         22
   234         13
   262         11
   264        127
   266         61
   267         47
   278         17
   279        118
   280         38
   294         25
   295         56
   306         36
   309         21
   310        187
   311         42
   312         21
   324         72
   325         18
   336         12
   338         25
   339        286
   340         70
   341         37
   527        119
   528         86
   529         21