##TITLE=Library Entry 82222
##JCAMP-DX=Revision 4.10 
##DATA TYPE=MASS SPECTRUM
##SAMPLE DESCRIPTION=Asinex Ltd, Moscow, Russia
##NAMES=HP
##CAS NAME=Benzoic acid 4-(naphthalen-1-yliminomethyl)-phenyl ester
##MOLFORM=C24H17NO2
##CAS REGISTRY NO=304448-60-0
##MP= -300
##BP= -300
##MW= 351
##$RETENTION INDEX=0
##$CONDENSED SPECTRUM=NO
##NPOINTS= 213
##XYDATA=(XY..XY) 1 
    33          0
    34          1
    36          0
    37          1
    38          2
    39         11
    40          9
    41          8
    42          3
    43         15
    44         15
    45         47
    46          1
    47          0
    48          0
    50         12
    51         44
    52          3
    53          1
    54          1
    55          5
    56          5
    57          7
    58          2
    59          6
    60          1
    61          1
    62          3
    63         10
    64          6
    65         22
    66          2
    67          1
    68          1
    69          3
    70          2
    71          8
    72          5
    74          8
    75         11
    76         24
    77        373
    78         25
    79          2
    80          0
    81          1
    82          1
    83          2
    84          1
    85          2
    86          1
    87          2
    88          2
    89          5
    90          1
    91          2
    92          2
    93          4
    94          1
    95          2
    96          1
    97          2
    98          1
    99          1
   100          1
   101          9
   102          4
   105        999
   106         75
   107          5
   108          2
   109          1
   110          1
   111          1
   112          0
   113          2
   114          2
   115         10
   116          3
   117          1
   118          0
   119          1
   120          0
   121          1
   122          1
   123          2
   124          1
   125          3
   126         21
   127         55
   128         16
   129          2
   130          0
   131          0
   132          0
   133          0
   134          0
   135          1
   136          0
   137          1
   138          1
   139          2
   140          2
   141          1
   142          0
   143          2
   144          0
   145          0
   147          0
   149         14
   150          2
   151          2
   152          4
   153         16
   154          6
   155          1
   157          0
   159          0
   160          0
   161          0
   162          1
   163          4
   164          4
   165          5
   166          2
   167          1
   168          0
   169          0
   174          0
   175          0
   176          1
   177          1
   178          1
   179          1
   180          0
   186          0
   187          1
   188          2
   189         12
   190          7
   191          6
   192          1
   193          0
   195          0
   200          1
   201          2
   202          3
   203          3
   204          1
   205          1
   207          1
   208          0
   209          0
   213          0
   214          3
   215          6
   216         23
   217         53
   218         25
   219          5
   220          1
   221          1
   222          0
   223          1
   224          0
   225          0
   226          0
   227          1
   228          2
   229          1
   230          1
   231          1
   239          0
   243          0
   244          1
   245          2
   246         22
   247         14
   248          2
   249          0
   251          0
   252          0
   253          0
   265          0
   266          0
   267          0
   277          0
   278          0
   280          0
   281          0
   282          0
   289          0
   290          0
   291          0
   292          0
   293          0
   295          0
   303          0
   304          1
   305          0
   306          0
   320          0
   321          0
   322          1
   323          0
   325          0
   328          0
   348          1
   351        698
   352        174
   353         25
   354          2
   355          0