##TITLE=Library Entry 18163
##JCAMP-DX=Revision 4.10 
##DATA TYPE=MASS SPECTRUM
##SAMPLE DESCRIPTION=Chemical Concepts
##NAMES=HP
##CAS NAME=[.alpha.-(o-Anisidino)-4-methoxybenzyl](diphenyl)phosphine oxide
##MOLFORM=C27H26NO3P
##CAS REGISTRY NO=304444-07-3
##MP= -300
##BP= -300
##MW= 443
##$RETENTION INDEX=0
##$CONDENSED SPECTRUM=NO
##NPOINTS= 152
##XYDATA=(XY..XY) 1 
    33         12
    34         16
    36         22
    37         33
    38        104
    39        556
    41        100
    42         61
    43         75
    44        112
    45         17
    47        559
    49         19
    50        365
    51        999
    52        241
    55         85
    56         26
    57         98
    60          7
    61         77
    63        224
    64        112
    65        296
    67         21
    69         89
    70         26
    71         35
    73         25
    74         97
    75         72
    77        994
    78        489
    80         31
    81         26
    83         86
    85         15
    86         25
    88          9
    89         51
    91        193
    92        197
    95         52
    96         54
    97          9
    98          9
    99         26
   101         37
   102         29
   103         48
   104         67
   105         77
   106         30
   107         76
   108         74
   109         73
   111         14
   112         12
   113         36
   115         49
   116         13
   117         10
   118         15
   120        648
   121        498
   122         75
   124        268
   125         92
   127         60
   128         68
   129         31
   132         67
   134        456
   135         61
   136         25
   137          7
   138          6
   139         30
   140         18
   141         13
   142          5
   143          4
   144          5
   145          6
   146         12
   147          6
   149         19
   150          9
   152         85
   153         53
   154        154
   155        143
   156         22
   157         11
   158          4
   160          2
   161          1
   162          2
   165         14
   167        109
   168         32
   169          9
   170         12
   171         31
   172          6
   173          9
   174          1
   178          6
   180         37
   181         17
   182         46
   183        236
   184         52
   185          7
   186          2
   187          1
   193          3
   194          8
   195         17
   196         30
   197         16
   198         18
   199         21
   201        684
   202        352
   203         40
   205          1
   207          1
   208          6
   209          8
   210         99
   211         64
   212         38
   213          6
   217          2
   223          4
   224         11
   225         22
   226        182
   227         40
   228          6
   237          2
   238          9
   240        116
   241        555
   242        822
   243        129
   244         12
   283          4
   301          1
   443          4
   444          2