##TITLE=Library Entry 47956
##JCAMP-DX=Revision 4.10 
##DATA TYPE=MASS SPECTRUM
##SAMPLE DESCRIPTION=A.A.Kutin, Moscow, Russia
##NAMES=HP
##CAS NAME=[2-[(5-bromo-thiophen-2-ylmethylene)-amino]-5-chloro-phenyl]-phen
yl-methanone
##MOLFORM=C18H11BrClNOS
##CAS REGISTRY NO=304456-74-4
##MP= -300
##BP= -300
##MW= 403
##$RETENTION INDEX=0
##$CONDENSED SPECTRUM=NO
##NPOINTS= 222
##XYDATA=(XY..XY) 1 
    34          6
    35          3
    36         34
    37          8
    38         40
    39         80
    40        150
    41         15
    42          9
    43         24
    44         95
    45        120
    49          2
    50         98
    51        356
    52         29
    53         11
    55         18
    57         50
    58          9
    61          5
    62         20
    63         52
    64         21
    65         14
    67          1
    69         91
    70         16
    71         12
    73         16
    74         58
    75        191
    76         83
    77        999
    78         80
    79         32
    80         41
    81         53
    82        118
    83         36
    84         14
    85         13
    86          9
    87         14
    88          8
    89         16
    90          6
    91         38
    92          8
    93         23
    94         14
    95        212
    96         19
    97         19
    98         13
    99         30
   100         15
   101          7
   102          8
   105        358
   106         32
   107         23
   108         26
   109         32
   110         41
   111        122
   112         23
   113         65
   114         18
   115          9
   117         12
   118          2
   119         11
   120         12
   121         14
   122          4
   123         16
   124         10
   125         13
   126         29
   127         16
   128          7
   130         57
   131         28
   132          3
   133          2
   134          1
   136         64
   137         11
   138         33
   139         43
   140         66
   141         17
   145         15
   147          9
   148         18
   149         25
   150         58
   151        109
   152        286
   153        110
   154         19
   155          1
   156          9
   157         24
   158         12
   159          2
   160          1
   161         35
   162         82
   163        106
   164        103
   165         10
   166         29
   171          9
   174         26
   175         40
   176         19
   177         54
   178         17
   179         18
   180         13
   181        177
   182         32
   183         33
   184         49
   185         11
   186         14
   187         27
   188         21
   189         61
   190         29
   191         34
   192         69
   193         35
   194         22
   195          2
   199          6
   200          3
   201         15
   202         21
   203         25
   204          7
   206          9
   212         16
   213         25
   214        177
   215         60
   216         63
   217         25
   218         17
   219         49
   220         23
   221         17
   222          3
   227          7
   228         14
   229          6
   230         22
   231         18
   232          7
   233          3
   238          4
   240         11
   241          2
   242          5
   245          3
   246          1
   251          5
   259         14
   260         61
   261        165
   262         41
   263         19
   264         18
   265          2
   266         28
   267          2
   280         42
   281          2
   282          9
   283          2
   288          6
   289          6
   290          3
   294         36
   296        239
   297         45
   298         72
   299         17
   300          8
   307          1
   314          5
   322         29
   324        627
   325        149
   326        266
   327         52
   328         52
   329          2
   330         11
   338          4
   339          1
   340         64
   341         15
   342         54
   343         11
   344          1
   374        194
   375         49
   376        238
   377         49
   378         61
   379          9
   401          9
   403        373
   404        100
   405        422
   406         95
   407        112
   408         19
   409          1