##TITLE=Library Entry 3730
##JCAMP-DX=Revision 4.10 
##DATA TYPE=MASS SPECTRUM
##SAMPLE DESCRIPTION=A.A.Kutin, Moscow, Russia
##NAMES=HP
##CAS NAME=Benzene, 2,3,5,6-tetrafluoro-1,4-bis(1-piperidinocarbonyl)-
##MOLFORM=C18H20F4N2O2
##CAS REGISTRY NO=304507-75-3
##MP= -300
##BP= -300
##MW= 372
##$RETENTION INDEX=0
##$CONDENSED SPECTRUM=NO
##NPOINTS= 223
##XYDATA=(XY..XY) 1 
    36         25
    38         28
    39        235
    40         11
    41        999
    42        631
    43        200
    44        164
    45         72
    47         14
    49          5
    50         25
    51         48
    52         28
    53         75
    54        124
    55        475
    56        362
    57        114
    58         17
    59         13
    60          7
    61         10
    62          6
    63         14
    64         15
    65         23
    66         11
    67         79
    68         71
    69        565
    70        127
    71         49
    72          7
    73          8
    74         14
    75         21
    76          8
    77         30
    78         12
    79         26
    80         30
    81         31
    82         96
    83        107
    84        974
    85        114
    86         18
    87          5
    88          5
    89          2
    90          4
    91         13
    92         10
    93         16
    94          8
    95         20
    96          8
    97         10
    98         28
    99         55
   100         19
   101          5
   102         18
   103          4
   104          8
   105         29
   106         18
   107          9
   108          6
   109          6
   110          8
   111         16
   112        105
   113         18
   114          4
   115          4
   116          4
   117         10
   118          5
   119         16
   120         12
   121          9
   122          4
   123         34
   124         10
   125         10
   126          6
   127          7
   128          8
   129         28
   130         33
   131         47
   132          5
   133          7
   134          8
   135          5
   136          5
   137         18
   138          5
   139          4
   140          5
   141          5
   143         12
   144         10
   145          6
   146          4
   147          7
   148        118
   149        120
   150         17
   151          9
   152          5
   153          8
   154          3
   155          4
   156         21
   157         27
   158         26
   159         33
   160          3
   161          4
   162         22
   163         12
   164          7
   165          4
   166          4
   167          4
   169         11
   170          6
   171         11
   172          7
   173          4
   174         10
   175         16
   176        201
   177        646
   178         49
   179          5
   180          3
   181          6
   182          3
   183          4
   184         11
   185         12
   186         12
   187          8
   188          6
   189          5
   190         13
   191          9
   192          6
   193          8
   194         13
   195          4
   197          3
   198          3
   199          7
   200          6
   201          3
   202         10
   203         23
   204         25
   205         27
   206          5
   207          3
   212         14
   213         24
   214          9
   216          3
   217          8
   218          6
   219          7
   220         17
   221         90
   222         17
   223         14
   224          4
   226          3
   227          3
   229          3
   231         22
   232         31
   233          7
   234          4
   235          5
   239         10
   240         19
   241         92
   242        137
   243         22
   246          4
   248          5
   249         33
   250          8
   255          4
   256          2
   258          3
   259         12
   260        100
   261         42
   262         12
   263          5
   267          2
   268         19
   269          7
   270          5
   275          5
   276          4
   277          3
   284          3
   288         66
   289         11
   303          3
   304          6
   312          3
   315          3
   351          4
   352         12
   353         18
   354          3
   372         23
   373          5