##TITLE=Library Entry 23380
##JCAMP-DX=Revision 4.10 
##DATA TYPE=MASS SPECTRUM
##SAMPLE DESCRIPTION=Chemical Concepts
##NAMES=HP
##CAS NAME=4-Penten-1-ol, 2-methylene-
##MOLFORM=C6H10O
##CAS REGISTRY NO=30457-84-2
##MP= -300
##BP= -300
##MW= 98
##$RETENTION INDEX=0
##$CONDENSED SPECTRUM=NO
##NPOINTS= 60
##XYDATA=(XY..XY) 1 
    25          4
    26         55
    27        339
    28         88
    29        351
    30         18
    31        334
    32         13
    33          1
    36          1
    37         32
    38         82
    39        696
    40        135
    41        760
    42        128
    43        214
    44         46
    45         14
    47          3
    48          3
    49          5
    50         40
    51         66
    52         60
    53        139
    54        194
    55        245
    56         70
    57        999
    58         63
    59          4
    61          8
    62         16
    63         33
    64          6
    65        105
    66         36
    67        188
    68         40
    69        127
    70         59
    71         18
    73          4
    74          2
    75         10
    76          1
    77         91
    78         46
    79        484
    80        603
    81         47
    82          4
    83         92
    84          6
    95          3
    96          1
    97         28
    98         14
    99          1