##TITLE=Library Entry 5518
##JCAMP-DX=Revision 4.10 
##DATA TYPE=MASS SPECTRUM
##SAMPLE DESCRIPTION=H.J. MOECKEL & J. WEISS, HAHN-MEITNER-INST. BERLIN, W.
 G
##NAMES=HP
##CAS NAME=Ethyl n-propyl disulfide
##MOLFORM=C5H12S2
##CAS REGISTRY NO=30453-31-7
##MP= -300
##BP= -300
##MW= 136
##$RETENTION INDEX=1026
##$CONDENSED SPECTRUM=NO
##NPOINTS= 84
##XYDATA=(XY..XY) 1 
    15         21
    19          0
    22          0
    24          0
    25          2
    26         53
    27        663
    29        546
    30         11
    31          3
    33          5
    34          8
    35         41
    36          0
    37          6
    38         13
    39        142
    40         21
    41        549
    42         63
    43        999
    44         48
    45        125
    46         60
    47         67
    48          4
    49          3
    50          0
    51          0
    53          0
    55          0
    56          0
    57          6
    58         26
    59         56
    60         32
    61         28
    62          5
    63          3
    64         35
    65         26
    66        457
    67         12
    68         38
    69          2
    70          1
    71          4
    72          1
    73         25
    74         47
    75         16
    76          5
    77          1
    78          6
    79         55
    80          3
    81          4
    82          0
    83          0
    89          0
    90          0
    91          0
    92          2
    93         41
    94        565
    95         26
    96         49
    97          1
    98          1
   103          0
   105          0
   106          0
   107          5
   108          4
   109          0
   110          0
   121          0
   134          0
   135          9
   136        405
   137         33
   138         35
   139          2
   140          0