##TITLE=Library Entry 8370
##JCAMP-DX=Revision 4.10 
##DATA TYPE=MASS SPECTRUM
##SAMPLE DESCRIPTION=D.HENNEBERG, MAX-PLANCK INSTITUTE, MULHEIM, WEST GERMAN
Y
##NAMES=HP
##CAS NAME=2,7-Octadien-1-ol, acetate, (Z)-
##MOLFORM=C10H16O2
##CAS REGISTRY NO=30460-72-1
##MP= -300
##BP= -300
##MW= 168
##$RETENTION INDEX=0
##$CONDENSED SPECTRUM=NO
##NPOINTS= 99
##XYDATA=(XY..XY) 1 
    26         13
    27         54
    28         21
    29         67
    30          1
    31          5
    32          0
    36          0
    37          0
    38          2
    39        101
    40         18
    41        168
    42         20
    43        999
    44         25
    45          6
    47          0
    49          0
    50          2
    51          7
    52          6
    53         55
    54        263
    55        129
    56         11
    57         40
    58         13
    59          3
    60          3
    61         11
    62          0
    63          1
    64          1
    65         24
    66         86
    67        358
    68         43
    69         13
    70         40
    71         22
    72          5
    73          9
    74          0
    75          0
    76          0
    77         25
    78         25
    79        170
    80        118
    81         43
    82        106
    83         40
    84         26
    85          6
    86          2
    87          3
    89          0
    90          0
    91         21
    92          5
    93        152
    94         13
    95         21
    96          3
    97         12
    98         11
    99          5
   100          4
   101          9
   102          0
   103          0
   104          0
   105          2
   106          1
   107         14
   108         83
   109         15
   110          3
   111          7
   112          5
   113          4
   114          2
   121          0
   122          0
   123          0
   124          3
   125          8
   126         49
   127          5
   128          0
   135          0
   138          0
   139          0
   140          0
   147          0
   150          0
   151          0
   153          0