##TITLE=Library Entry 86444
##JCAMP-DX=Revision 4.10 
##DATA TYPE=MASS SPECTRUM
##SAMPLE DESCRIPTION=A.A.Kutin, Moscow, Russia
##NAMES=HP
##CAS NAME=Pyrazole-3-carbohydrazide, 1-methyl-N2-(1-methyl-3-phenyl-2-prope
nylidene)-
##MOLFORM=C15H16N4O
##CAS REGISTRY NO=304665-87-0
##MP= -300
##BP= -300
##MW= 268
##$RETENTION INDEX=0
##$CONDENSED SPECTRUM=NO
##NPOINTS= 175
##XYDATA=(XY..XY) 1 
    34          0
    36          3
    37          1
    38          7
    39         16
    40         20
    41         16
    42         68
    43          9
    44          3
    45          1
    50          9
    51         29
    52         24
    53         26
    54         58
    55         22
    56          8
    57          3
    58          0
    61          0
    62          3
    63         13
    64          4
    65         15
    66          5
    67          1
    68          0
    69          2
    70          0
    71          0
    73          0
    74          3
    75          5
    76          9
    77         49
    78         10
    79          5
    80          4
    81         23
    82         36
    83          6
    84          0
    85          0
    86          0
    87          1
    89         15
    90          5
    91         37
    92          5
    93          1
    94          1
    95          2
    96          3
    97          1
    98          0
    99          0
   101          3
   102         17
   103         24
   104         12
   105          6
   106          1
   107          2
   109        999
   110         60
   111          4
   112          0
   113          1
   115         61
   116         11
   117         16
   118         11
   119          3
   120          1
   121          1
   122          2
   123          1
   125         38
   126         11
   127         19
   128         41
   129         33
   130         10
   131          3
   132          4
   133          1
   134          0
   135          0
   136          0
   137          0
   138          2
   140          3
   141          1
   143        359
   144        292
   145         33
   146          3
   147          0
   148          0
   149          0
   150          0
   151          0
   152          0
   153          0
   154          0
   155          1
   156          0
   157          6
   158         33
   159        313
   160         44
   161          3
   162          1
   163          0
   165          9
   166          0
   167          0
   168          0
   169          0
   170          0
   171          1
   172          0
   173          0
   174          0
   178          0
   180          2
   181          0
   182          0
   183          2
   184          0
   185          4
   186          0
   187          1
   188          0
   189          0
   191        109
   192         11
   193          0
   194          0
   195          0
   196          0
   197          0
   199          0
   200          0
   201          0
   202          0
   208          0
   209          0
   210          0
   211          0
   222          0
   224          0
   225          0
   226          1
   227          4
   228          4
   229          0
   235          0
   237          0
   239          0
   240          0
   241          0
   247          0
   248          1
   249          1
   250          0
   251          3
   252          0
   253          9
   254          1
   267         62
   268         38
   269          6
   270          0