##TITLE=Library Entry 8371
##JCAMP-DX=Revision 4.10 
##DATA TYPE=MASS SPECTRUM
##SAMPLE DESCRIPTION=D.HENNEBERG, MAX-PLANCK INSTITUTE, MULHEIM, WEST GERMAN
Y
##NAMES=HP
##CAS NAME=2,7-Octadien-1-ol, acetate, (E)-
##MOLFORM=C10H16O2
##CAS REGISTRY NO=30460-73-2
##MP= -300
##BP= -300
##MW= 168
##$RETENTION INDEX=1388
##$CONDENSED SPECTRUM=NO
##NPOINTS= 93
##XYDATA=(XY..XY) 1 
    26         12
    27         52
    28         16
    29         60
    30          1
    31          4
    37          0
    38          2
    39         91
    40         15
    41        157
    42         18
    43        999
    44         24
    45          5
    49          0
    50          2
    51          6
    52          6
    53         49
    54        222
    55        119
    56         10
    57         37
    58         11
    59          3
    60          3
    61          9
    62          0
    63          1
    64          0
    65         21
    66         73
    67        307
    68         38
    69         12
    70         35
    71         19
    72          4
    73          7
    74          0
    75          0
    76          0
    77         21
    78         19
    79        148
    80         96
    81         37
    82         91
    83         34
    84         23
    85          5
    86          2
    87          2
    89          0
    91         17
    92          3
    93        127
    94         11
    95         18
    96          3
    97         11
    98          9
    99          4
   100          4
   101          8
   102          0
   103          0
   105          2
   106          1
   107         11
   108         75
   109         16
   110          3
   111          6
   112          4
   113          4
   114          2
   121          0
   122          0
   123          0
   124          3
   125          6
   126         45
   127          5
   128          0
   135          0
   138          0
   139          0
   140          0
   147          0
   150          0
   153          0