##TITLE=Library Entry 97888
##JCAMP-DX=Revision 4.10 
##DATA TYPE=MASS SPECTRUM
##SAMPLE DESCRIPTION=A.A.Kutin, Moscow, Russia
##NAMES=HP
##CAS NAME=N-(3-Nitro-phenyl)-2-(1-phenyl-1H-tetrazol-5-ylsulfanyl)-acetamid
e
##MOLFORM=C15H12N6O3S
##CAS REGISTRY NO=304662-55-3
##MP= -300
##BP= -300
##MW= 356
##$RETENTION INDEX=0
##$CONDENSED SPECTRUM=NO
##NPOINTS= 162
##XYDATA=(XY..XY) 1 
    34          1
    37          4
    38         17
    39         48
    40         44
    41         20
    42         20
    43         24
    44         23
    45         34
    46         60
    47         13
    48          5
    49          7
    50         31
    51         90
    52         32
    53          9
    54         10
    55          8
    56         17
    57          9
    58          5
    59          4
    60          1
    61          3
    62         13
    63         75
    64        110
    65        150
    66         18
    67          5
    68          1
    69          8
    70          6
    71          5
    72          7
    73          4
    74         11
    75         26
    76         56
    77        279
    78         53
    79         22
    80         16
    81          5
    82          3
    83          4
    84          3
    85          1
    87          1
    88          2
    89          6
    90         44
    91        235
    92        100
    93         34
    94          6
    95          4
    96         11
    97          7
    98          3
   100          0
   102          3
   103         12
   104         67
   105         81
   106         23
   107          5
   108         11
   109         12
   110          6
   111          6
   112          5
   113          0
   114          0
   115          5
   116          7
   117        159
   118        999
   119        154
   120         22
   121         13
   122         41
   123         20
   124          7
   125          2
   127          1
   128          1
   129          3
   130          0
   131         42
   132         14
   133         14
   134          9
   135         84
   136         65
   137         54
   138         79
   139         28
   140          3
   141          7
   142          0
   143          1
   145         27
   146          3
   147          1
   148          5
   149         38
   150         10
   151         31
   152          9
   153          8
   154          1
   155          1
   157          0
   162         15
   163        127
   164         39
   165         84
   166         26
   167         10
   168        117
   169         33
   170          9
   171          6
   177          2
   178         19
   179          7
   180          6
   181          3
   182         12
   183         34
   184          3
   185          3
   188          2
   189          4
   190          0
   191          1
   192          4
   193         19
   194         13
   195          2
   196          0
   207          3
   208          4
   210         58
   211         23
   212          6
   214         18
   215          0
   216          4
   219        109
   220         12
   221          5
   242          4
   243         10
   244          0
   284          1
   356        126
   357         21
   358          7