##TITLE=Library Entry 79414
##JCAMP-DX=Revision 4.10 
##DATA TYPE=MASS SPECTRUM
##SAMPLE DESCRIPTION=Chemical Concepts
##NAMES=HP
##CAS NAME=2-Benzamido-N-isopropyl-4,5-dimethyl-3-thiophenecarboxamide
##MOLFORM=C17H20N2O2S
##CAS REGISTRY NO=304688-66-2
##MP= -300
##BP= -300
##MW= 316
##$RETENTION INDEX=0
##$CONDENSED SPECTRUM=NO
##NPOINTS= 108
##XYDATA=(XY..XY) 1 
    33         23
    37          4
    38         11
    39         86
    41        154
    43        142
    44         49
    45         17
    47          4
    48          2
    50         40
    51        162
    52         14
    53         24
    54          9
    55         18
    56          9
    58         62
    59         75
    60         56
    61          4
    63         10
    65         45
    66         58
    67         18
    68          6
    69         14
    70         10
    71         11
    72          3
    73          4
    74          8
    75         11
    77        647
    78         29
    79          5
    80         10
    81          9
    82          7
    83          9
    84          9
    85          9
    86          3
    90          3
    91          4
    92         12
    93          9
    95          8
    97         24
    98          9
    99          8
   100          2
   102          3
   105        999
   106         59
   107          8
   108          5
   109          5
   110          6
   111          3
   112          3
   114          3
   115          2
   119          5
   121          3
   122          7
   123          9
   124         12
   125          9
   126          4
   127          3
   135         11
   136         17
   137          6
   138          4
   139          4
   141          6
   149          3
   152        310
   153         57
   154         32
   155          5
   167          2
   168          3
   169          6
   179          4
   180          4
   181          3
   193          2
   194         39
   195          7
   196          3
   211          6
   213          3
   228          2
   229          2
   230          4
   254          5
   257        235
   258         39
   259         12
   303          4
   312          3
   313          5
   314          9
   316        219
   317         33
   318         12