##TITLE=Library Entry 84883
##JCAMP-DX=Revision 4.10 
##DATA TYPE=MASS SPECTRUM
##SAMPLE DESCRIPTION=Chemical Concepts
##NAMES=HP
##CAS NAME=Pinocarvone
##MOLFORM=C10H14O
##CAS REGISTRY NO=30460-92-5
##MP= -300
##BP= -300
##MW= 150
##$RETENTION INDEX=1164
##$CONDENSED SPECTRUM=NO
##NPOINTS= 75
##XYDATA=(XY..XY) 1 
    26         26
    27        243
    29         67
    37          6
    38         49
    39        294
    41        435
    42         50
    43        116
    44          3
    50         36
    51         94
    52         88
    53        792
    54         75
    55        102
    56          5
    57         10
    58          8
    59         20
    61          7
    62          6
    63         18
    64          8
    65        105
    66         72
    67        121
    68         44
    69        294
    70         85
    71          1
    76          3
    77        254
    78         73
    79        522
    80        127
    81        933
    82        101
    83         79
    84         12
    89          6
    90         37
    91        178
    92         80
    93        107
    94         48
    95         60
    96         10
    97         23
    98          4
   103          9
   104          7
   105         23
   106         20
   107        433
   108        999
   109        172
   110         14
   111          4
   115         11
   117         14
   119         20
   120         13
   121         39
   122        146
   123         25
   132          1
   134         23
   135        483
   136         55
   137          3
   149          8
   150        595
   151        107
   152         13