##TITLE=Library Entry 14795
##JCAMP-DX=Revision 4.10 
##DATA TYPE=MASS SPECTRUM
##SAMPLE DESCRIPTION=A.A.Kutin, Moscow, Russia
##NAMES=HP
##CAS NAME=Acetamide, N-[4-(2-benzothiazolyl)aminosulfonylphenyl]-
##MOLFORM=C15H13N3O3S2
##CAS REGISTRY NO=304685-30-1
##MP= -300
##BP= -300
##MW= 347
##$RETENTION INDEX=0
##$CONDENSED SPECTRUM=NO
##NPOINTS= 121
##XYDATA=(XY..XY) 1 
    36         10
    37         16
    38         31
    39        109
    40         37
    41         26
    43        999
    44         27
    45         73
    50         77
    51         89
    52         93
    53         45
    54         10
    58         13
    62         25
    63        141
    64        119
    65        290
    66         30
    68          5
    69         80
    70         42
    71         10
    74          6
    75         10
    76         26
    77         53
    78         85
    79         96
    80         30
    81          3
    82         31
    85          2
    90         64
    91        107
    92        271
    93        211
    94         10
    95         54
    96         72
    97          5
   105        238
   106         36
   108        418
   109         51
   110          3
   116         10
   118         22
   120         12
   121         26
   122        145
   123         60
   124         30
   125         16
   133          3
   134        713
   135        149
   136         15
   137          3
   139         10
   140        136
   141         19
   142          5
   148          8
   149        480
   150        405
   151         59
   152         20
   153         20
   155          6
   156        401
   157         48
   158         19
   161          3
   164         14
   166          6
   167         16
   168         33
   169          8
   171          9
   173          4
   174          5
   180          9
   181          8
   182         24
   186         36
   196         15
   197         73
   198        752
   199         90
   200         40
   207          5
   213         41
   214          4
   215          3
   224          9
   225          7
   239         10
   240        181
   241        346
   242         65
   243         14
   244          2
   266          5
   268          3
   281          2
   282        500
   283        624
   284        140
   285         35
   305        142
   306         16
   307         11
   323         14
   346          7
   347        778
   348        125
   349         67
   350          5
   351         23