##TITLE=Library Entry 20832
##JCAMP-DX=Revision 4.10 
##DATA TYPE=MASS SPECTRUM
##SAMPLE DESCRIPTION=Zaikin V.G., TIPS RAS, Moscow, Russia
##NAMES=HP
##CAS NAME=Cyclobutanecarboxylic acid, phenyl ester
##MOLFORM=C11H12O2
##CAS REGISTRY NO=30466-31-0
##MP= -300
##BP= -300
##MW= 176
##$RETENTION INDEX=1381
##$CONDENSED SPECTRUM=NO
##NPOINTS= 35
##XYDATA=(XY..XY) 1 
    26         16
    27         94
    28          2
    29         69
    38         10
    39         95
    40         13
    41          3
    50         11
    51         30
    52          4
    53         35
    54         27
    55        999
    56         40
    62          4
    63         15
    64          7
    65         64
    66         35
    77         47
    78          4
    79          6
    82         29
    83        426
    84         23
    91          5
    93         10
    94        159
    95         12
   107         17
   120         14
   148          5
   176         94
   177         12