##TITLE=Library Entry 56932
##JCAMP-DX=Revision 4.10 
##DATA TYPE=MASS SPECTRUM
##SAMPLE DESCRIPTION=A.Pleshkova, Nesmeyanov Inst.Org.Elem.Cpds, Moscow
##NAMES=HP
##CAS NAME=Pyrazolo[1,5-a]pyrimidine, 2-(4-morpholyl)carbonyl-3,6-dibromo-
##MOLFORM=C11H10Br2N4O2
##CAS REGISTRY NO=304687-05-6
##MP= -300
##BP= -300
##MW= 388
##$RETENTION INDEX=0
##$CONDENSED SPECTRUM=NO
##NPOINTS= 92
##XYDATA=(XY..XY) 1 
    47          5
    50         25
    51         60
    52         68
    53         18
    54         46
    55         74
    56        273
    57         41
    58          5
    60         20
    61         17
    62         27
    63         28
    64         81
    65         24
    66         18
    76         19
    77         25
    78         31
    79         63
    80        131
    81         65
    82        128
    85         26
    86        999
    87         61
    88         24
   100         17
   101          6
   104         77
   106         86
   114         22
   116         41
   117         61
   118         31
   119         33
   120         17
   137         34
   139         33
   142         18
   143         56
   144         29
   145         58
   146         33
   147          8
   168         26
   169         28
   170         30
   171         29
   172          7
   173          9
   195         25
   196         23
   197         63
   198         25
   199         39
   222         26
   223         11
   224         85
   225         16
   226         83
   251         37
   253         34
   258         31
   259          6
   260         44
   274         34
   275         58
   276         71
   277        107
   278         43
   279         67
   280          6
   281         22
   301          6
   302        201
   303         45
   304        388
   305         61
   306        198
   307         27
   358         27
   360         55
   361          7
   362         25
   363          4
   388         45
   389          9
   390         84
   391         12
   392         41