##TITLE=Library Entry 72029
##JCAMP-DX=Revision 4.10 
##DATA TYPE=MASS SPECTRUM
##SAMPLE DESCRIPTION=A.A.Kutin, Moscow, Russia
##NAMES=HP
##CAS NAME=Piperazine, 1-methyl-4-(2,4,6-trimethylphenylsulfonyl)-
##MOLFORM=C14H22N2O2S
##CAS REGISTRY NO=304668-36-8
##MP= -300
##BP= -300
##MW= 282
##$RETENTION INDEX=0
##$CONDENSED SPECTRUM=NO
##NPOINTS= 152
##XYDATA=(XY..XY) 1 
    33          0
    35          7
    36         31
    38         13
    39         18
    40          7
    41         39
    42        131
    43         56
    44         39
    45          3
    46          0
    47          0
    48          1
    50          3
    51         12
    52          6
    53         10
    54         15
    55         24
    56        239
    57         43
    58         43
    59          2
    60          0
    61          0
    62          1
    63          7
    64          2
    65         18
    66          2
    67          2
    68          3
    69          6
    70         74
    71         17
    72         22
    73          1
    74          1
    75          2
    76          2
    77         39
    78         16
    79         13
    80          1
    81          1
    82          2
    83          4
    84          8
    85          1
    86          0
    87          0
    88          0
    89          4
    90          2
    91         78
    92          7
    93          5
    94          0
    95          2
    96          1
    97         20
    99        999
   100         55
   102          8
   103         23
   104         16
   105          9
   106          2
   107          0
   108          0
   109          0
   110          0
   111          0
   112          0
   113          0
   115         23
   116          5
   117         26
   118          6
   119         55
   120          7
   121          1
   122          0
   123          0
   124          0
   125          0
   127          0
   129          0
   130          0
   131          0
   132          1
   133          8
   134          3
   135          2
   136          1
   137          0
   139          1
   141          0
   144          0
   145          0
   146          0
   147          1
   148          0
   149          1
   150          0
   151          0
   152          0
   157          0
   158          0
   159          0
   160          0
   161          0
   162          0
   163          0
   164          0
   165          0
   166          0
   167          0
   168          0
   171          0
   172          0
   173          0
   174          1
   175          0
   176          1
   177          0
   183          2
   184          0
   185          0
   194          0
   199          0
   200          0
   203          0
   204          0
   210          0
   212          0
   217          0
   224          0
   225          0
   227          0
   238          0
   253          0
   255          0
   267          0
   269          0
   280          0
   282        125
   283         20
   284          7
   285          1
   286          0