##TITLE=Library Entry 99236
##JCAMP-DX=Revision 4.10 
##DATA TYPE=MASS SPECTRUM
##SAMPLE DESCRIPTION=A.A.Kutin, Moscow, Russia
##NAMES=HP
##CAS NAME=Benzoic acid, 4-(2-methylbenzoylamino)-, 2-methylphenyl ester
##MOLFORM=C22H19NO3
##CAS REGISTRY NO=304665-47-2
##MP= -300
##BP= -300
##MW= 345
##$RETENTION INDEX=0
##$CONDENSED SPECTRUM=NO
##NPOINTS= 108
##XYDATA=(XY..XY) 1 
    33          0
    34          0
    36          0
    37          0
    38          3
    39         28
    40          5
    41         10
    42          0
    43          1
    44          2
    45          0
    48          0
    50          5
    51         12
    52          7
    53          5
    54          0
    55          1
    56          0
    57          0
    58          0
    59          0
    62          5
    63         21
    64         13
    65        106
    66          6
    67          0
    69          0
    70          0
    71          0
    72          0
    74          1
    75          1
    76          1
    77          3
    78          1
    79          1
    80          1
    81          1
    82          0
    83          0
    85          0
    86          1
    89         39
    90         42
    91        362
    92         25
    93          1
    94          0
   101          0
   102          0
   103          0
   104          0
   105          2
   106          0
   107          0
   108          0
   109          0
   112          0
   113          0
   115          1
   119        999
   120         78
   121          5
   122          0
   127          0
   128          0
   129          0
   132          0
   133          0
   134          0
   135          0
   136          0
   139          0
   141          0
   143          0
   148          0
   149          0
   150          0
   152          0
   153          0
   154          0
   155          0
   165          0
   166          0
   167          0
   168          0
   171          0
   180          0
   181          0
   182          0
   191          0
   196          0
   197          0
   198          0
   209          0
   210          0
   226          0
   227          1
   331          0
   341          0
   342          0
   345         56
   346         12
   347          1
   348          0