##TITLE=Library Entry 107400
##JCAMP-DX=Revision 4.10 
##DATA TYPE=MASS SPECTRUM
##SAMPLE DESCRIPTION=A.A.Kutin, Moscow, Russia
##NAMES=HP
##CAS NAME=Benzoic acid, 2-iodo-, 2-(4-fluorobenzoyl)hydrazide
##MOLFORM=C14H10FIN2O2
##CAS REGISTRY NO=304667-76-3
##MP= -300
##BP= -300
##MW= 384
##$RETENTION INDEX=0
##$CONDENSED SPECTRUM=NO
##NPOINTS= 125
##XYDATA=(XY..XY) 1 
    33          0
    37          1
    38          1
    39          2
    40          0
    44          0
    45          1
    50         42
    51         11
    52          1
    53          0
    55          0
    57          3
    61          2
    62          3
    63          5
    64          2
    65          1
    66          0
    68          5
    69          8
    70          1
    71          0
    74         32
    75         80
    76        103
    77         18
    79          0
    81          1
    82          1
    83          1
    84          0
    85          0
    86          0
    87          0
    88          1
    90          5
    91          3
    92          2
    95        303
    98          0
    99          0
   100          0
   102          3
   103          4
   104         21
   105         28
   107          3
   108          0
   109          0
   110          0
   111          0
   112          0
   116          0
   117          0
   118          0
   119          2
   123        999
   127          9
   128          5
   129          0
   131          0
   133          0
   134          0
   136          0
   137          0
   139          2
   140          6
   141          0
   142          0
   144          0
   145          0
   150          0
   151          0
   152          0
   153          0
   157          0
   158          0
   164          0
   168          0
   169          0
   170          1
   171          0
   172          0
   176          0
   177          0
   181          0
   183          9
   184          1
   185          0
   197          0
   198          0
   199          1
   203         88
   204          3
   205          0
   211          0
   216          0
   222          0
   224          0
   227          2
   231        424
   232         24
   234          0
   240          0
   241          0
   247          0
   248          0
   254          0
   256          3
   257          1
   258          2
   259          0
   261          0
   262          0
   276          0
   366         11
   367          1
   378          2
   379          0
   380          0
   381          0
   384         30
   385          3
   386          0