##TITLE=Library Entry 23203
##JCAMP-DX=Revision 4.10 
##DATA TYPE=MASS SPECTRUM
##SAMPLE DESCRIPTION=NIST Mass Spectrometry Data Center, 1994
##NAMES=HP
##CAS NAME=4-Chlorocyclohexanol
##MOLFORM=C6H11ClO
##CAS REGISTRY NO=30485-71-3
##MP= -300
##BP= -300
##MW= 134
##$RETENTION INDEX=0
##$CONDENSED SPECTRUM=NO
##NPOINTS= 82
##XYDATA=(XY..XY) 1 
    12          2
    13          1
    14          9
    15         64
    16          2
    17          4
    18          2
    19          7
    26         59
    27        321
    28         81
    29        311
    30         18
    31         92
    32          2
    35          5
    36          6
    37         17
    38         46
    39        340
    40         56
    41        324
    42        159
    43        277
    44        224
    45         14
    47          4
    48          5
    49         26
    50         37
    51         60
    52         21
    53        100
    54        249
    55        232
    56          4
    57        999
    58         49
    61         11
    62         27
    63         20
    64         11
    65         30
    66          8
    67         38
    68          8
    69        119
    70        106
    71         19
    72          3
    73          5
    74          0
    75         17
    76          6
    77         40
    78         13
    79         93
    80        305
    81        206
    82         18
    83         99
    84          5
    85          3
    88         10
    89          4
    90          7
    91         33
    92          4
    93         12
    97         40
    98        180
    99         57
   100          4
   105          2
   107          2
   116         40
   117          3
   118         10
   133          3
   134          7
   135          2
   136          2