##TITLE=Library Entry 66684
##JCAMP-DX=Revision 4.10 
##DATA TYPE=MASS SPECTRUM
##SAMPLE DESCRIPTION=NIST Mass Spectrometry Data Center, 1994
##NAMES=HP
##CAS NAME=2-Amino-5-nitrobenzanilide
##MOLFORM=C13H11N3O3
##CAS REGISTRY NO=30481-54-0
##MP= -300
##BP= -300
##MW= 257
##$RETENTION INDEX=0
##$CONDENSED SPECTRUM=NO
##NPOINTS= 69
##XYDATA=(XY..XY) 1 
    14          4
    27         11
    28         32
    29          4
    30         27
    37          8
    38         30
    39        120
    40         27
    41         60
    42          7
    44          5
    50         24
    51         70
    52        165
    53         29
    54         11
    61          9
    62         35
    63        125
    64        145
    65        196
    66         64
    67         10
    74          9
    75         14
    76         13
    77         67
    78         29
    79         34
    80         14
    83          6
    88          7
    89         17
    90         73
    91        322
    92          6
    93        999
    94         78
    97          5
    99         11
   101          3
   104          5
   105         15
   106         19
   107         44
   119        452
   120         44
   127          5
   128          6
   129          6
   134         10
   135         10
   137          9
   149         19
   154          5
   163          4
   165        738
   166         71
   167         11
   181         10
   182          7
   210          8
   227         14
   240          8
   241          9
   257        518
   258         88
   259         12