##TITLE=Library Entry 64340
##JCAMP-DX=Revision 4.10 
##DATA TYPE=MASS SPECTRUM
##SAMPLE DESCRIPTION=A.A.Kutin, Moscow, Russia
##NAMES=HP
##CAS NAME=4H-Pyrane-3-carboxylic acid, 6-amino-5-cyano-4-(4-fluorophenyl)-2
-methyl-, benzyl ester
##MOLFORM=C21H17FN2O3
##CAS REGISTRY NO=304878-87-3
##MP= -300
##BP= -300
##MW= 364
##$RETENTION INDEX=0
##$CONDENSED SPECTRUM=NO
##NPOINTS= 228
##XYDATA=(XY..XY) 1 
    33          1
    34          2
    36          0
    37          1
    38          7
    39         47
    40         53
    41         16
    43        151
    44         51
    45          4
    46          1
    47          0
    48          0
    49          0
    50         15
    51         32
    52         12
    53          6
    54          2
    55          5
    56          2
    57         11
    58          8
    59          2
    60          2
    61          2
    62          7
    63         28
    64         14
    65        116
    66         18
    67         48
    68          8
    69          7
    70          6
    71          3
    72          0
    73          2
    74          6
    75         22
    76          7
    77         33
    78          9
    79         21
    80          3
    81          5
    82          1
    83          5
    84          2
    85          8
    86          2
    87          3
    88          2
    89         23
    90         28
    91        999
    92         78
    93          4
    94          7
    95         17
    96          7
    97          2
    99          6
   100          3
   101          8
   102          1
   103          0
   105         13
   106          7
   107         25
   108          6
   109          5
   110          0
   111          1
   112          1
   113          1
   115          3
   116          0
   117          1
   118          3
   119          4
   120         11
   121         14
   122          4
   123          8
   124          3
   125          2
   126          5
   127          3
   128          1
   129          1
   130          0
   131          4
   132          6
   133         18
   134         17
   135          3
   136          0
   137          0
   138          1
   139          2
   140          1
   141          0
   142          0
   143          0
   144          2
   145         16
   146         16
   147          6
   148          2
   149         12
   150          2
   151          0
   152          1
   153          1
   154          0
   155          1
   156          1
   157         11
   158         14
   159          9
   160          3
   161          8
   162          3
   163          2
   164          3
   165          2
   166          0
   167          0
   168          0
   169          0
   170          1
   171          6
   172         18
   173          7
   174          3
   175          0
   176          0
   177          1
   178          1
   179          5
   180          3
   181          0
   182          3
   183          3
   184         11
   185          6
   186          7
   187          3
   188          1
   189          1
   190          0
   191          1
   192          4
   193          0
   194          0
   195          0
   196          0
   197          0
   198          0
   199          4
   200          4
   201          1
   202          0
   203          0
   206          1
   207          0
   208          1
   209          1
   210          1
   211          1
   212          6
   213         15
   214          3
   215          0
   216          0
   219          0
   220          0
   222          0
   223          0
   224          0
   226          0
   227          4
   228          4
   229         25
   230          4
   231          1
   232          0
   233          0
   234          1
   235          0
   236          0
   237          2
   238          3
   239          0
   240          0
   241          0
   242          0
   245          0
   246          2
   247          1
   248          0
   251          0
   252          0
   253          0
   254          0
   255          3
   256          2
   257          2
   258          0
   267          0
   269         74
   270         13
   271          2
   273        279
   274         46
   275          5
   276          0
   284          0
   302          0
   308          0
   347          0
   362          0
   363          1
   364         16
   365          4
   366          0