##TITLE=Library Entry 32242
##JCAMP-DX=Revision 4.10 
##DATA TYPE=MASS SPECTRUM
##SAMPLE DESCRIPTION=Japan AIST/NIMC Database- Spectrum MS-IW-2206
##NAMES=HP
##CAS NAME=1H-Indene, 3a,4,7,7a-tetrahydro-
##MOLFORM=C9H12
##CAS REGISTRY NO=3048-65-5
##MP= -300
##BP= -300
##MW= 120
##$RETENTION INDEX=952
##$CONDENSED SPECTRUM=NO
##NPOINTS= 56
##XYDATA=(XY..XY) 1 
    26          2
    27         31
    28          4
    29          3
    37          2
    38          8
    39         86
    40         26
    41         37
    42          1
    50         12
    51         35
    52         14
    53         24
    54         11
    55          8
    57          4
    58          9
    59          2
    61          2
    62          6
    63         17
    64          4
    65         61
    66        999
    67         73
    68          5
    74          3
    75          2
    76          2
    77         89
    78         60
    79        140
    80         11
    81          1
    86          1
    87          1
    89          6
    90          1
    91        110
    92         51
    93          8
    94          1
   102          3
   103         10
   104          5
   105         39
   106          3
   115         18
   116          4
   117         11
   118          2
   119          7
   120        298
   121         29
   122          1