##TITLE=Library Entry 78980
##JCAMP-DX=Revision 4.10 
##DATA TYPE=MASS SPECTRUM
##SAMPLE DESCRIPTION=Chemical Concepts
##NAMES=HP
##CAS NAME=N-(4-Chloro-.alpha.-[(hexamethyleneimino)carbonyl]styryl)benzamid
e
##MOLFORM=C22H23ClN2O2
##CAS REGISTRY NO=304885-26-5
##MP= -300
##BP= -300
##MW= 382
##$RETENTION INDEX=0
##$CONDENSED SPECTRUM=NO
##NPOINTS= 107
##XYDATA=(XY..XY) 1 
    34          5
    36         19
    37          8
    39         89
    41        299
    42         96
    43         97
    44         82
    45         32
    50         36
    51        176
    52         24
    54         14
    55        272
    56        110
    57        185
    58         10
    59          2
    60          3
    61          8
    63         25
    64          8
    65          4
    67          9
    68         16
    69         22
    70        201
    71         20
    72         11
    74          8
    75         18
    77        785
    79          4
    80          2
    81          8
    82          9
    83         24
    84         31
    85          6
    86          5
    89         95
    90          8
    91          4
    94          2
    96         11
    98        340
    99        508
   101          7
   103          5
   105        999
   106         67
   110          2
   111          2
   112          9
   113          3
   114          5
   116         33
   117         10
   122          2
   123          9
   124         18
   125         20
   126         37
   127          9
   128          2
   136          3
   138          2
   139          4
   150         19
   151         45
   152         24
   153         15
   154          8
   163          4
   164          3
   165          5
   166          3
   171          4
   178          3
   190          2
   192          2
   207          3
   222          3
   223          3
   232          3
   249          3
   260          4
   261         16
   262          6
   263          6
   271          2
   275          2
   276          8
   277         85
   278         15
   279         27
   280          5
   283         41
   284         19
   285         13
   286          9
   287          2
   380          2
   382         51
   383         10
   384         15
   385          4