##TITLE=Library Entry 64108
##JCAMP-DX=Revision 4.10 
##DATA TYPE=MASS SPECTRUM
##SAMPLE DESCRIPTION=Chemical Concepts
##NAMES=HP
##CAS NAME=2-Benzyl-2-(4-methoxyphenyl)-1,3-indandione
##MOLFORM=C23H18O3
##CAS REGISTRY NO=304872-39-7
##MP= -300
##BP= -300
##MW= 342
##$RETENTION INDEX=0
##$CONDENSED SPECTRUM=NO
##NPOINTS= 110
##XYDATA=(XY..XY) 1 
    37         11
    39        340
    40         73
    41         72
    42         18
    44         79
    45          9
    50        242
    51        352
    52         46
    53         26
    55         16
    57          8
    62         49
    63        166
    65        475
    69          8
    74         72
    75        108
    76        369
    77        500
    78         83
    79         15
    82          8
    86         15
    87         28
    89        122
    91        999
    93         15
    94          8
    98         12
    99         15
   100          9
   101         27
   102         42
   103        248
   104        301
   105        298
   106         44
   107         14
   108         16
   111          8
   112          9
   113         31
   114         36
   115         24
   117         15
   118         16
   119         24
   120         15
   121         17
   125         10
   126         93
   127         22
   128         15
   129          8
   131         61
   132         34
   133         23
   134         10
   135         19
   137          8
   138         10
   139         45
   140         17
   141         17
   145         22
   149          9
   150         26
   151        142
   152        345
   153         48
   154          9
   161         11
   162         26
   163         67
   164         67
   165        184
   166         48
   167         17
   171         10
   176         24
   177         22
   178         36
   179         29
   180        129
   181         20
   193         18
   194         30
   195        163
   196         24
   207         12
   208         40
   209         15
   210          9
   220         13
   221          9
   222         10
   223        132
   224         23
   236         20
   237          9
   239         13
   248         15
   251        915
   252        163
   253         24
   282         26
   342         92
   343         18