##TITLE=Library Entry 1394
##JCAMP-DX=Revision 4.10 
##DATA TYPE=MASS SPECTRUM
##SAMPLE DESCRIPTION=Japan AIST/NIMC Database- Spectrum MS-NW-7467
##NAMES=HP
##CAS NAME=2-(Trifluoromethyl)benzylamine
##MOLFORM=C8H8F3N
##CAS REGISTRY NO=3048-01-9
##MP= -300
##BP= -300
##MW= 175
##$RETENTION INDEX=0
##$CONDENSED SPECTRUM=NO
##NPOINTS= 139
##XYDATA=(XY..XY) 1 
    14          2
    15          2
    20          6
    26          3
    27         11
    28        141
    29        218
    30        999
    31         15
    32          3
    33          1
    37          6
    38         14
    39         36
    40          3
    41          7
    42          2
    43          1
    44          4
    46          1
    48          5
    49          5
    50         50
    51         63
    52         21
    53          6
    54          6
    56          2
    57         21
    58          1
    59          3
    60          2
    61          7
    62         23
    63         32
    64          9
    65          6
    66          2
    67          7
    68          4
    69         21
    70          7
    71          1
    72          1
    73          5
    74         23
    75         53
    76         23
    77         57
    78         20
    79         34
    80          7
    81         13
    82          4
    83         15
    84          2
    85          4
    86          5
    87          9
    88         10
    89         33
    90         12
    91         11
    92          2
    93          5
    94          7
    95         22
    96         20
    97          3
    98          1
    99         14
   100         10
   101         14
   102         11
   103          6
   104         18
   105          8
   106        321
   107         90
   108         33
   109         74
   110          7
   111          1
   112          3
   113          5
   114          8
   115          4
   116         31
   117         10
   118          3
   119         26
   120          6
   121          4
   122          3
   123          3
   124          4
   125         29
   126         26
   127        110
   128         13
   129          1
   131          1
   132          5
   133          6
   134        216
   135         40
   136         66
   137         10
   138         12
   139          9
   140         13
   141          3
   142          1
   143          3
   144          1
   145         29
   146         23
   147          3
   148          1
   151          1
   152         31
   153         10
   154        161
   155         19
   156          4
   157         10
   158         16
   159        214
   160         42
   161          4
   169          1
   170          2
   171          4
   172         28
   173          9
   174        349
   175        243
   176         26
   177          4