##TITLE=Library Entry 2003
##JCAMP-DX=Revision 4.10 
##DATA TYPE=MASS SPECTRUM
##SAMPLE DESCRIPTION=Chemical Concepts
##NAMES=HP
##CAS NAME=3-Chloro-N-[2-methyl-4(3H)-oxo-3-quinazolinyl]-2-thianaphthenecar
boxamide
##MOLFORM=C18H12ClN3O2S
##CAS REGISTRY NO=304882-71-1
##MP= -300
##BP= -300
##MW= 369
##$RETENTION INDEX=0
##$CONDENSED SPECTRUM=NO
##NPOINTS= 91
##XYDATA=(XY..XY) 1 
    35         39
    36        114
    37         52
    38        165
    40        999
    41        139
    42        188
    43        106
    44        231
    45         49
    50        399
    51        131
    52         69
    55         67
    57         96
    58         46
    61         46
    62        139
    63        179
    64        106
    65         47
    66         20
    69        109
    70         33
    71         13
    74        158
    76        585
    77        257
    78         43
    80         15
    82         63
    83         21
    84         21
    85         25
    86         18
    87         47
    88         65
    89         94
    90        148
    91         69
    92         60
    93         52
    94          4
    95          7
    97         22
    98         11
   102         27
   103         16
   104         21
   105         32
   106         11
   108          4
   111          3
   112          8
   114         24
   117        296
   118         54
   119         22
   120         21
   121          5
   123        167
   125         57
   132        227
   133         11
   141          2
   143         18
   145         29
   146         63
   147          4
   155          9
   157          5
   159         10
   160         59
   161         12
   167        182
   168         27
   169         67
   170          9
   171          9
   175          4
   193         29
   194         22
   195        565
   196         74
   197        257
   198         28
   199          6
   211          9
   369         28
   370          5
   371          7