##TITLE=Library Entry 81915
##JCAMP-DX=Revision 4.10 
##DATA TYPE=MASS SPECTRUM
##SAMPLE DESCRIPTION=B. Derendyaev, Novosibirsk Institute of Organic Chemist
ry
##NAMES=HP
##CAS NAME=4-Diazo-7-bromo-5-oxo-4,5-dihydrobenzofurazan
##MOLFORM=C6HBrN4O2
##CAS REGISTRY NO=304879-17-2
##MP= -300
##BP= -300
##MW= 240
##$RETENTION INDEX=0
##$CONDENSED SPECTRUM=NO
##NPOINTS= 77
##XYDATA=(XY..XY) 1 
    41         13
    43         14
    48         33
    49         68
    50         27
    51         69
    52         28
    53         64
    54         12
    55         15
    56          5
    57         14
    60         11
    61         17
    62         15
    63         39
    66          8
    67         18
    68          6
    69          6
    70         16
    74         56
    75        542
    76         30
    77         39
    78        130
    79         11
    80         13
    81          9
    82         16
    83          6
    85          7
    89         11
    91          6
   102         16
   103         18
   104         20
   105        999
   106         80
   107         19
   108         28
   109         21
   111          8
   115          6
   116         20
   118         12
   128          9
   129         10
   130         34
   131         27
   132         20
   133        113
   134          9
   135          9
   139          5
   142          6
   144          8
   146          7
   149         13
   154         52
   156         55
   158         41
   159          6
   160         47
   168          5
   184        252
   185         16
   186        208
   187         18
   195          5
   196          7
   212         19
   214         11
   240        561
   241         51
   242        538
   243         41