##TITLE=Library Entry 34662
##JCAMP-DX=Revision 4.10 
##DATA TYPE=MASS SPECTRUM
##SAMPLE DESCRIPTION=A.A.Kutin, Moscow, Russia
##NAMES=HP
##CAS NAME=1,3,5-Triazine, 2-allylamino-4,6-bis(2,2,2-trifluoro-1-trifluorom
ethylethoxy)-
##MOLFORM=C12H8F12N4O2
##CAS REGISTRY NO=304883-23-6
##MP= -300
##BP= -300
##MW= 468
##$RETENTION INDEX=0
##$CONDENSED SPECTRUM=NO
##NPOINTS= 223
##XYDATA=(XY..XY) 1 
    33         58
    34          4
    35          0
    36          2
    37          5
    39        275
    40         90
    41        482
    42         44
    43         54
    44         41
    45          1
    46          2
    47          3
    48          1
    51         95
    52         15
    53         45
    54        138
    55        182
    56        323
    57          9
    58          0
    59          1
    60          1
    61          1
    63         10
    64          6
    66         16
    67         47
    69        999
    70        129
    71          6
    72          1
    74         11
    75          6
    77          4
    78         10
    79         24
    81        310
    82         89
    83         15
    84          9
    85          3
    86          0
    87          1
    89          0
    91          7
    92          8
    93         23
    94         58
    95         25
    96         22
    97         11
    98          3
    99          3
   101          7
   102          0
   104          1
   105          3
   106         13
   108         83
   109         93
   110         18
   111          8
   112         15
   113         42
   114          4
   115          0
   117          2
   118          1
   119          1
   121         28
   122         68
   123         60
   124         69
   125         28
   126          3
   127          0
   128          2
   129          7
   131          8
   132         15
   133          2
   135         18
   136         11
   137          2
   138          2
   139          6
   141          0
   143          0
   145          0
   147         12
   149         38
   151        208
   152          7
   154          5
   155          0
   158          1
   159          0
   160          0
   165          9
   166         36
   168          2
   169          0
   171          0
   172          0
   173          2
   174          2
   176          1
   177          2
   178          2
   179          0
   181          2
   185          0
   190          0
   191          1
   192          3
   194         35
   195          2
   196          3
   197          3
   198          0
   199          1
   201          0
   203          1
   204          1
   205          2
   206          1
   207          1
   208          3
   209          0
   214          2
   215          0
   216          2
   217          4
   219         26
   220          2
   221          2
   222          9
   223          1
   227          0
   228          1
   229          0
   231          1
   232          2
   233          5
   234          3
   235          1
   237         43
   238          2
   241          0
   242          3
   246          1
   247          2
   248          2
   249         13
   250          0
   251          0
   257          0
   259          0
   261          9
   262         71
   263          6
   264          0
   271          0
   272          1
   273          0
   274          4
   275          4
   276          2
   277          1
   282          2
   283          1
   286          1
   287         14
   288         23
   289          2
   290          4
   291          0
   297          1
   299          0
   300          7
   301         22
   302         25
   303          6
   305          0
   314          1
   315         10
   317         95
   318          9
   319          0
   342          0
   344          2
   347          3
   357          0
   389          0
   401          1
   409          0
   412          1
   413          0
   428          0
   429          6
   430          0
   433          0
   439          1
   440          4
   441         49
   442          9
   443          1
   445          1
   447          2
   449        125
   450         21
   453        361
   454         42
   455          5
   464          2
   465          6
   467         93
   468        192
   469         27
   470          2