##TITLE=Library Entry 51154
##JCAMP-DX=Revision 4.10 
##DATA TYPE=MASS SPECTRUM
##SAMPLE DESCRIPTION=Institute of Organic Chemistry, USSR, 1990
##NAMES=HP
##CAS NAME=4-Hydrazono-5-hydroxyimino-4,5,6,7-tetrahydrobenzofurazan
##MOLFORM=C6H7N5O2
##CAS REGISTRY NO=304873-12-9
##MP= -300
##BP= -300
##MW= 181
##$RETENTION INDEX=0
##$CONDENSED SPECTRUM=NO
##NPOINTS= 117
##XYDATA=(XY..XY) 1 
    40        161
    41        376
    42        311
    43        394
    44        264
    45         64
    46         26
    50         26
    51        176
    52        443
    53        494
    54        709
    55        499
    56        168
    57        268
    58         37
    59         24
    60         14
    62         11
    63         48
    64        198
    65        377
    66        518
    67        240
    68        418
    69        173
    70         83
    71        161
    72         15
    73         20
    76         69
    77        203
    78        413
    79        413
    80        158
    81        447
    82        999
    83        218
    84        166
    85         69
    86          7
    87          7
    88          8
    89         12
    90         16
    91        111
    92         39
    93        140
    94        125
    95        159
    96         42
    97        175
    98         36
    99         21
   101          8
   103         19
   104         21
   105        261
   106        254
   107         88
   108         59
   109         65
   110          8
   111         44
   112         17
   113         11
   115          7
   116          7
   117          8
   118         16
   119         61
   120         21
   121         84
   122         89
   123         50
   124         11
   125         30
   126         18
   127         13
   129         31
   130          7
   131          5
   132         16
   133         17
   134         31
   135         35
   136         51
   137         22
   138          9
   139         14
   140         14
   141         14
   143         13
   144          7
   145          6
   149         13
   150          7
   153        371
   154         40
   155          5
   156          6
   159         17
   163         30
   164         11
   165          7
   167         11
   168          6
   169          5
   171          6
   175          8
   177         17
   178         10
   179          5
   180         15
   181        648
   182         45
   183          5