##TITLE=Library Entry 78865
##JCAMP-DX=Revision 4.10 
##DATA TYPE=MASS SPECTRUM
##SAMPLE DESCRIPTION=Chemical Concepts
##NAMES=HP
##CAS NAME=N-[2,2,2-Trifluoro-1-(2-pyridylamino)-1-(trifluoromethyl)ethyl]be
nzamide
##MOLFORM=C15H11F6N3O
##CAS REGISTRY NO=304880-52-2
##MP= -300
##BP= -300
##MW= 363
##$RETENTION INDEX=0
##$CONDENSED SPECTRUM=NO
##NPOINTS= 136
##XYDATA=(XY..XY) 1 
    33          1
    34          1
    36          1
    37          6
    38         15
    39         39
    40         15
    41         14
    42          3
    43          5
    44          9
    45          1
    46          1
    47          3
    49          5
    50         49
    51        159
    52         29
    53          8
    54          2
    55          4
    56          2
    57          7
    58          1
    60          1
    61          1
    62          2
    63          4
    64          6
    65          7
    66         14
    67         60
    68          5
    69         25
    70          4
    71          4
    72          1
    73          3
    74         10
    75         12
    76         35
    77        428
    78        327
    79         25
    80          1
    81          1
    82          1
    83          2
    84          2
    85          2
    87          1
    88          1
    89          1
    91          3
    92          4
    93         14
    94        169
    95         12
    96          4
    97          1
    98          1
    99          1
   100          2
   101          1
   103         12
   105        999
   106         69
   107          5
   108          1
   111          1
   112          3
   113          1
   114          1
   115          1
   119          2
   120          9
   121         39
   122          4
   123          1
   126          1
   127          1
   128          1
   129          1
   138          1
   141          1
   142          1
   143          1
   144          1
   147          1
   151          1
   152          1
   153          1
   154          3
   155          2
   157          1
   164          1
   169         11
   170          2
   171          4
   172          2
   173         23
   174          2
   175          1
   182          6
   185          1
   188          1
   189          1
   191          5
   192          1
   197          3
   204          1
   205          1
   216          1
   218          1
   221          2
   222          1
   223         12
   224          2
   239          1
   240          1
   241          4
   242         37
   243         37
   244          3
   250          1
   259          1
   270          1
   283          1
   286          1
   291          1
   292          2
   294        171
   295         24
   296          3
   363         21
   364          3