##TITLE=Library Entry 13186
##JCAMP-DX=Revision 4.10 
##DATA TYPE=MASS SPECTRUM
##SAMPLE DESCRIPTION=A.A.Kutin, Moscow, Russia
##NAMES=HP
##CAS NAME=4H-Pyran-3-carbonitrile, 5-acetyl-2-amino-6-methyl-4-(4-nitrophen
yl)-
##MOLFORM=C15H13N3O4
##CAS REGISTRY NO=304868-17-5
##MP= -300
##BP= -300
##MW= 299
##$RETENTION INDEX=0
##$CONDENSED SPECTRUM=NO
##NPOINTS= 230
##XYDATA=(XY..XY) 1 
    33          1
    34          4
    36          0
    37          3
    38         15
    39         43
    40         77
    41         12
    42         19
    43        999
    44         98
    45          7
    46          6
    48          1
    50         49
    51         42
    52         17
    53         13
    54          3
    55          7
    56          1
    57          4
    58          1
    59          0
    60          1
    61          3
    62         17
    63         42
    64         22
    65         23
    66         29
    67         38
    68          5
    69          5
    70          2
    71          2
    72          1
    73          2
    74         21
    75         42
    76         39
    77         25
    78          9
    79          6
    80         10
    81          1
    82          7
    83          3
    84          3
    85         25
    86          5
    87         10
    88         10
    89         18
    90         15
    91          8
    92          8
    93          4
    94          1
    95          0
    96          2
    97          1
    98          4
    99         10
   100         26
   101         14
   102         18
   103          5
   104          5
   105         11
   106          4
   107          7
   108          3
   109          1
   110          1
   111          2
   112          2
   113          9
   114         14
   115         16
   116          6
   117          6
   118          8
   119          7
   120          1
   121          1
   122          1
   123          1
   124          1
   125          2
   126         25
   127         19
   128         12
   129          4
   130          3
   131          2
   132         18
   133          4
   134          7
   135         82
   136          6
   137          3
   138          6
   139         21
   140         22
   141         15
   142          3
   143          2
   144          3
   145          2
   146          1
   147          1
   148          1
   149          2
   150          1
   151          2
   152          4
   153         16
   154         10
   155          5
   156          2
   157          1
   158          0
   159          1
   160         47
   161          6
   162          1
   163          1
   164          9
   165          6
   166         13
   167          9
   168          4
   169          6
   170          3
   171          3
   172          0
   173          0
   174          1
   175          2
   176         11
   177        254
   178         28
   179          4
   180          2
   181          5
   182          5
   183          2
   184          1
   185          0
   186          2
   187          1
   188          0
   189          0
   190          3
   191          2
   192          3
   193          4
   194          3
   195          6
   196          4
   197          3
   198          2
   199         13
   200          3
   201          0
   202          0
   206          0
   207          2
   208          3
   209          9
   210         41
   211          8
   212          2
   213          3
   214          1
   216          9
   217          2
   218          3
   219          0
   220          2
   221          1
   222          1
   223          1
   224          1
   225          1
   226          1
   227          0
   228          0
   229          0
   230          0
   232          0
   233          1
   234          2
   235          5
   236          2
   237          2
   238          4
   239          4
   240          6
   241          1
   242          2
   243          0
   250          0
   251          1
   252         84
   253         18
   254          3
   255          3
   256        204
   257         32
   258          4
   265          1
   266          3
   267          2
   268          2
   269          1
   270          0
   271          0
   272          0
   280          1
   282        123
   283         23
   284         10
   285          1
   297          0
   298         31
   299         46
   300          7
   301          1