##TITLE=Library Entry 5454
##JCAMP-DX=Revision 4.10 
##DATA TYPE=MASS SPECTRUM
##SAMPLE DESCRIPTION=Chemical Concepts
##NAMES=HP
##CAS NAME=5-[4-(Dimethylamino)benzylidenehydrazino]-1,3-dimethyl-4-nitropyr
azole
##MOLFORM=C14H18N6O2
##CAS REGISTRY NO=304869-98-5
##MP= -300
##BP= -300
##MW= 302
##$RETENTION INDEX=0
##$CONDENSED SPECTRUM=NO
##NPOINTS= 167
##XYDATA=(XY..XY) 1 
    33          4
    36          8
    38        104
    39        366
    40         27
    41        183
    42        999
    43        446
    44         57
    45         42
    46         14
    50         94
    51        143
    52         86
    53         77
    54         59
    55         78
    56         57
    57         61
    58         20
    59         15
    60          8
    61          8
    62         21
    63        108
    64         74
    65        176
    66        324
    67        703
    68        132
    69         62
    70         32
    71         19
    72         17
    73         87
    74         22
    75         44
    76         95
    77        397
    78        145
    79        201
    80         61
    81         32
    82         31
    83         75
    84         72
    85          9
    86          6
    87         15
    89         97
    90         79
    91        220
    92         97
    93         67
    94         35
    95          9
    96          9
    97          8
    98          8
    99          8
   100          6
   102         77
   103         78
   104        189
   105        220
   106         32
   107         14
   108         38
   109         11
   110          7
   111          6
   112         10
   114         43
   115         16
   116         32
   117         91
   118        192
   119        174
   120        284
   121         89
   122         19
   123          9
   124          5
   125          9
   126          5
   127          6
   128         18
   129         47
   130         50
   131        129
   132        149
   133         54
   134         75
   135         14
   136          9
   137          9
   138          6
   139         13
   140          5
   141          9
   142         20
   143         37
   145        386
   146        272
   147        803
   148        368
   149        543
   150        120
   151         94
   153         34
   154          6
   155         11
   156         15
   157         13
   158         40
   159         34
   160         27
   161         16
   162          5
   167          5
   168          9
   169         14
   170         14
   171         31
   172         22
   173         11
   175         29
   182          9
   183         23
   184         29
   185         24
   186         17
   187         10
   188          9
   195          5
   196         34
   197         34
   198         27
   199         11
   200          6
   210          9
   211         15
   212         47
   213         21
   214          5
   215          4
   223          6
   224         13
   225         43
   226         27
   227         16
   228         15
   229          5
   237          6
   239        156
   240        227
   241         46
   242         11
   254          4
   255          9
   256         10
   257          4
   284          6
   286          6
   302        838
   303        124
   304         12