##TITLE=Library Entry 32240
##JCAMP-DX=Revision 4.10 
##DATA TYPE=MASS SPECTRUM
##SAMPLE DESCRIPTION=Japan AIST/NIMC Database- Spectrum MS-IW-2207
##NAMES=HP
##CAS NAME=Bicyclo[2.2.1]hept-2-ene, 5-ethenyl-
##MOLFORM=C9H12
##CAS REGISTRY NO=3048-64-4
##MP= -300
##BP= -300
##MW= 120
##$RETENTION INDEX=869
##$CONDENSED SPECTRUM=NO
##NPOINTS= 48
##XYDATA=(XY..XY) 1 
    26          2
    27         25
    28          6
    29          2
    37          1
    38          6
    39         67
    40         29
    41         22
    42          1
    50          9
    51         22
    52          9
    53         18
    54         14
    55          4
    57          1
    58          2
    61          1
    62          4
    63         10
    64          3
    65         54
    66        999
    67         65
    68          2
    74          1
    75          1
    76          1
    77         42
    78         23
    79         48
    80          5
    89          2
    91         40
    92         16
    93          3
   102          1
   103          5
   104          2
   105         16
   106          1
   115          5
   116          1
   117          3
   119          2
   120         68
   121          7