##TITLE=Library Entry 63937
##JCAMP-DX=Revision 4.10 
##DATA TYPE=MASS SPECTRUM
##SAMPLE DESCRIPTION=A.A.Kutin, Moscow, Russia
##NAMES=HP
##CAS NAME=Thiazolidine-2-thione, 3-benzyl-4-(4-chlorobenzylidenamino-N-oxid
o)-5,5-dimethyl-
##MOLFORM=C19H19ClN2OS2
##CAS REGISTRY NO=304902-55-4
##MP= -300
##BP= -300
##MW= 390
##$RETENTION INDEX=0
##$CONDENSED SPECTRUM=NO
##NPOINTS= 210
##XYDATA=(XY..XY) 1 
    33          2
    34          2
    35          2
    36          6
    37          7
    38         14
    39         88
    40         29
    41         59
    42         26
    43         27
    44         22
    45         36
    47         10
    48          1
    49          4
    50         28
    51         34
    52         11
    53         28
    54          7
    55         39
    56          7
    57         15
    59         36
    60          5
    61          6
    62         14
    63         45
    64         15
    65        110
    66          7
    67          3
    68          5
    69          7
    70         12
    71         15
    72         16
    73         11
    74         16
    75         39
    76         20
    77         29
    78          8
    79         12
    80          6
    81          7
    82         22
    83          4
    84          4
    85          9
    86          9
    87         53
    89        110
    91        999
    92         51
    93          3
    94          1
    95          1
    96          1
    97          3
    98          3
    99         18
   100          9
   101          7
   102         13
   103          5
   104         10
   105          3
   106          8
   107          3
   108          1
   109          1
   111         30
   112         24
   113         13
   114          7
   115          7
   116          7
   117          6
   118          4
   119          5
   120          2
   121         11
   122          3
   123         12
   124         11
   125          9
   126          5
   127          4
   128          8
   129          3
   130          4
   131          3
   132          1
   133          0
   134          1
   135          1
   136          1
   137         11
   138         20
   139         14
   140         10
   141          5
   142          2
   143          5
   144          4
   145          2
   146          2
   147          1
   148         18
   149          6
   150          3
   151         10
   152          2
   153          5
   154          3
   155         20
   156          5
   157         10
   158          8
   160        109
   161         12
   162          0
   163          0
   164          0
   165          1
   166          0
   167          0
   168          0
   169          0
   170          0
   171          2
   172          0
   173          0
   174          0
   175          0
   176          0
   177          1
   178          8
   180          2
   181          0
   182          3
   183          0
   184          0
   185          0
   186          0
   187          0
   188          1
   189          0
   190          1
   191          1
   192         16
   193         65
   194         16
   195         22
   196          3
   197          0
   199          0
   200          0
   201          0
   202          2
   203          0
   204          0
   205          0
   208          0
   209          1
   210          0
   211          0
   212          0
   213          0
   214          0
   216          0
   217          0
   219          0
   220          5
   221          1
   222          0
   224          0
   226          0
   228          0
   229          0
   230          0
   231          0
   232          0
   234          4
   236        419
   237         61
   238         39
   239          5
   240          1
   241          0
   250          0
   251          1
   252          0
   253          1
   254          0
   268          0
   281          0
   283          0
   301          0
   374          4
   375          0
   376          1
   377          0
   378          0
   390          2
   391          0
   392          0
   393          0