##TITLE=Library Entry 51412
##JCAMP-DX=Revision 4.10 
##DATA TYPE=MASS SPECTRUM
##SAMPLE DESCRIPTION=Leung Pu, NIH, Bethesda, Maryland, U.S.
##NAMES=HP
##CAS NAME=.beta.-Alanyl-L-histidine
##MOLFORM=C9H14N4O3
##CAS REGISTRY NO=305-84-0
##MP= -300
##BP= -300
##MW= 226
##$RETENTION INDEX=0
##$CONDENSED SPECTRUM=NO
##NPOINTS= 97
##XYDATA=(XY..XY) 1 
    41        152
    42        257
    43        439
    44        743
    45         98
    46         23
    50         27
    51         11
    52        105
    53         25
    54        335
    55        401
    56        137
    57         40
    59         93
    60         58
    64         26
    65         17
    66         40
    67         31
    68         66
    69        118
    70         86
    71        185
    72        154
    73         24
    74         45
    75         16
    76         31
    77         20
    79         12
    81        810
    82        999
    83        169
    84         32
    86        215
    87         23
    89        197
    90         12
    91         23
    93        148
    94        196
    95        109
    96         51
    97         37
    98         43
    99         21
   104         80
   105         19
   106         13
   107         77
   108         44
   110        712
   111         68
   112         32
   118          4
   119          7
   120         61
   121         38
   122         38
   125         11
   126         30
   127         40
   128         11
   131         17
   132         19
   133          4
   134         10
   136         39
   137         31
   138         71
   139         60
   140        115
   146         39
   154          9
   155         18
   156         32
   162         93
   164         59
   165         17
   166          4
   174         25
   181         83
   182         22
   190         88
   191         11
   193          6
   197          8
   205         16
   206         19
   207          6
   208         22
   209         34
   210         10
   225         10
   226         18
   227          4