##TITLE=Library Entry 10628
##JCAMP-DX=Revision 4.10 
##DATA TYPE=MASS SPECTRUM
##SAMPLE DESCRIPTION=Japan AIST/NIMC Database- Spectrum MS-NW-4694
##NAMES=HP
##CAS NAME=n-Caproic acid vinyl ester
##MOLFORM=C8H14O2
##CAS REGISTRY NO=3050-69-9
##MP= -300
##BP= -300
##MW= 142
##$RETENTION INDEX=1244
##$CONDENSED SPECTRUM=NO
##NPOINTS= 57
##XYDATA=(XY..XY) 1 
    14          5
    15         26
    17          1
    18          3
    25          1
    26         15
    27        159
    28         12
    29        150
    30          4
    31          6
    32          1
    37          2
    38          4
    39         68
    40         12
    41        190
    42         74
    43        999
    44         37
    45          7
    50          2
    51          5
    52          2
    53         10
    54          6
    55        121
    56         12
    57         10
    58         15
    59          1
    60          6
    65          1
    67          4
    68          3
    69         21
    70         11
    71        375
    72         21
    73          4
    79          1
    80          1
    81         13
    82          3
    83          5
    85          2
    86         32
    87          3
    91          2
    95          1
    97          3
    98          4
    99        583
   100         42
   101          3
   113          4
   142          5