##TITLE=Library Entry 17259
##JCAMP-DX=Revision 4.10 
##DATA TYPE=MASS SPECTRUM
##SAMPLE DESCRIPTION=Chemical Concepts
##NAMES=HP
##CAS NAME=Propane, 1-chloro-3-(1-ethoxyethoxy)-
##MOLFORM=C7H15ClO2
##CAS REGISTRY NO=30502-41-1
##MP= -300
##BP= -300
##MW= 166
##$RETENTION INDEX=0
##$CONDENSED SPECTRUM=NO
##NPOINTS= 89
##XYDATA=(XY..XY) 1 
    26         13
    27         85
    28         51
    29        106
    30         14
    31         69
    35          0
    36          1
    37          1
    38          3
    39         44
    40          9
    41        224
    42         22
    43         97
    44         61
    45        999
    46         23
    47        129
    48          1
    49         25
    50          1
    51          8
    53          1
    54          0
    55          3
    56          1
    57         24
    58         39
    59          6
    60          1
    61         29
    62          2
    63          4
    64          1
    65          2
    66          0
    67          0
    68          2
    69          4
    70          2
    71         10
    72         21
    73        691
    74         34
    75         91
    76         20
    77        128
    78          9
    79         34
    80          3
    81          1
    83          1
    85          6
    86          0
    87          4
    88          0
    89          6
    91          1
    92          1
    93          2
    94          0
    95          2
    97          0
   101          2
   103         10
   105          3
   107         24
   108          1
   109          7
   115          1
   119          1
   120          4
   121        393
   122         21
   123        124
   124          7
   125          6
   129          0
   137          1
   139          0
   149          1
   151        145
   152         10
   153         55
   154          3
   161          0
   165          7
   167          2