##TITLE=Library Entry 64500
##JCAMP-DX=Revision 4.10 
##DATA TYPE=MASS SPECTRUM
##SAMPLE DESCRIPTION=TEXAS A&M UNIVERSITY, COLLEGE STATION, TEXAS, USA
##NAMES=HP
##CAS NAME=Ethanone, 1,2-diphenyl-, (1,2-diphenylethylidene)hydrazone
##MOLFORM=C28H24N2
##CAS REGISTRY NO=30506-03-7
##MP= -300
##BP= -300
##MW= 388
##$RETENTION INDEX=0
##$CONDENSED SPECTRUM=NO
##NPOINTS= 99
##XYDATA=(XY..XY) 1 
    18          3
    27          3
    28          2
    38          2
    39         19
    40          1
    41          9
    50         14
    51         43
    52          8
    62          4
    63         19
    64          6
    65         87
    66          5
    74          3
    75          7
    76         19
    77         61
    78         12
    86          1
    87          2
    88          2
    89         39
    90         78
    91        999
    92         85
    93          3
   102          9
   103         34
   104         34
   105         12
   106          3
   113          1
   114          1
   115          6
   116         19
   117          6
   118          1
   126          3
   127          1
   128          3
   139          4
   140          1
   141          2
   150          2
   151          5
   152         17
   153          4
   154          1
   155          8
   163          2
   164          2
   165         51
   166         17
   167         31
   168          4
   176          6
   177          6
   178         39
   179         24
   180         14
   181          3
   190          3
   191          4
   192         24
   193        219
   194        170
   195         48
   196          8
   197          1
   205          2
   206          2
   207          1
   208          7
   209          2
   218          1
   219          2
   220          1
   221          1
   233          1
   268          2
   269          1
   282          1
   284         22
   285         12
   286          2
   295          3
   296          7
   297        878
   298        219
   299         26
   300          2
   311          2
   387          4
   388        292
   389         90
   390         17
   391          2