##TITLE=Library Entry 6699
##JCAMP-DX=Revision 4.10 
##DATA TYPE=MASS SPECTRUM
##SAMPLE DESCRIPTION=Japan AIST/NIMC Database- Spectrum MS-NW-4871
##NAMES=HP
##CAS NAME=Murexide
##MOLFORM=C8H8N6O6
##CAS REGISTRY NO=3051-09-0
##MP= -300
##BP= -300
##MW= 284
##$RETENTION INDEX=0
##$CONDENSED SPECTRUM=NO
##NPOINTS= 126
##XYDATA=(XY..XY) 1 
    12         22
    14         13
    15         37
    16        226
    17        288
    18        165
    25          8
    26         55
    27        176
    28        278
    29        201
    30         25
    32         10
    38         99
    39        133
    40         86
    41        148
    42        590
    43        999
    44        736
    45         28
    46          9
    51         13
    52         43
    53        183
    54        347
    55        210
    56         23
    57         28
    59         14
    60         18
    63          7
    64         63
    65         29
    66         64
    67        178
    68        107
    69        150
    70        307
    71         29
    72          9
    73          8
    77         11
    78         14
    79         13
    80         17
    81         24
    82        174
    83         34
    84         16
    85         62
    86         92
    87         26
    91          7
    92         27
    93         29
    94         23
    95          9
    96         19
    97         35
    98         53
    99          9
   100         25
   105          9
   107          9
   108         11
   109         29
   110        247
   111         33
   112         18
   113         78
   114         57
   122          8
   123          7
   124         15
   125         42
   126         26
   128         95
   129         87
   130         11
   134         23
   135         34
   136         12
   137         13
   138         28
   139          8
   140         33
   141         64
   142          9
   143          9
   150          9
   151         22
   152         12
   153        132
   154         52
   155         38
   163         13
   164          8
   166         14
   167         11
   168         61
   169         21
   170         11
   171         13
   177         19
   178         25
   179         38
   180         17
   181         28
   193         10
   194         72
   195         25
   196         14
   205         11
   206         13
   211         23
   222         15
   223         15
   224         17
   239         25
   248         40
   249         13
   254         53
   255          9
   267        131
   268         17