##TITLE=Library Entry 30946
##JCAMP-DX=Revision 4.10 
##DATA TYPE=MASS SPECTRUM
##SAMPLE DESCRIPTION=Chemical Concepts
##NAMES=HP
##CAS NAME=7-Bromoheptanoic acid
##MOLFORM=C7H13BrO2
##CAS REGISTRY NO=30515-28-7
##MP= -300
##BP= -300
##MW= 208
##$RETENTION INDEX=0
##$CONDENSED SPECTRUM=NO
##NPOINTS= 98
##XYDATA=(XY..XY) 1 
    26         19
    27        182
    28         34
    29        108
    30          5
    31         15
    36          1
    37          2
    38          7
    39        114
    40         29
    41        279
    42         48
    43         91
    44          5
    45         78
    46          2
    47          2
    50          7
    51         11
    52          4
    53         30
    54         18
    55        227
    56         34
    57         17
    58          5
    59         18
    60        999
    61         51
    62          5
    63          2
    64          1
    65          3
    66          2
    67         37
    68        106
    69        287
    70         22
    71          9
    72          1
    73        181
    74         32
    75          2
    77          9
    78          1
    79          4
    80          7
    81         13
    82          9
    83        177
    84         18
    85          7
    86          2
    87         39
    88          2
    91          1
    93          4
    94          2
    95          4
    97          2
    98          2
    99          5
   100          3
   101          4
   105         11
   106          2
   107         17
   108          2
   109         17
   110         20
   111        222
   112         19
   113          1
   115          3
   121          3
   122         11
   123          2
   127          2
   128          5
   129        183
   130         19
   131          2
   135          2
   137          2
   148          6
   149         72
   150         12
   151         79
   152          4
   162          1
   164          1
   179          3
   181          4
   191          2
   193          2
   208          1
   210          1