##TITLE=Library Entry 89745
##JCAMP-DX=Revision 4.10 
##DATA TYPE=MASS SPECTRUM
##SAMPLE DESCRIPTION=Chemical Concepts
##NAMES=HP
##CAS NAME=1-Cyclohexene-1-acetic acid, 3-oxo-, methyl ester
##MOLFORM=C9H12O3
##CAS REGISTRY NO=30530-40-6
##MP= -300
##BP= -300
##MW= 168
##$RETENTION INDEX=0
##$CONDENSED SPECTRUM=NO
##NPOINTS= 99
##XYDATA=(XY..XY) 1 
    26          2
    27        121
    28         29
    29         50
    30          4
    31         18
    38          8
    39        186
    40         49
    41        204
    42         68
    43        179
    44         18
    45         40
    46          3
    50          5
    51         33
    52        138
    53        290
    54         68
    55        128
    56         15
    57         23
    58         16
    59        177
    60         15
    61          6
    64          7
    65         60
    66         82
    67        180
    68        121
    69        125
    70         11
    71         24
    72          4
    73          6
    74        269
    75         29
    77          0
    78         28
    79        216
    80        149
    81        362
    82        189
    83         67
    84         44
    85         17
    86          4
    87          5
    91        101
    92         16
    93         13
    94        119
    95        363
    96         59
    97        354
    98        118
    99         18
   101          5
   102          8
   105          5
   106          8
   107        102
   108        510
   109        418
   110        163
   111         88
   112        999
   113         99
   114         13
   117          5
   118          4
   119          7
   121         14
   122          9
   123         28
   124         25
   125         38
   126        116
   127         14
   128          3
   129          3
   134         18
   135         49
   136        162
   137         19
   138          9
   139        172
   140         19
   148         13
   149         34
   150         12
   151         23
   152         10
   153          6
   168        845
   169        134
   170         14