##TITLE=Library Entry 49970
##JCAMP-DX=Revision 4.10 
##DATA TYPE=MASS SPECTRUM
##SAMPLE DESCRIPTION=A.A.Kutin, Moscow, Russia
##NAMES=HP
##CAS NAME=Pyrido[1,2-a]benzimidazole-4-carbonitrile, 2-ethyl-1-(2-furfuryla
mino)-3-methyl-
##MOLFORM=C20H18N4O
##CAS REGISTRY NO=305333-27-1
##MP= -300
##BP= -300
##MW= 330
##$RETENTION INDEX=0
##$CONDENSED SPECTRUM=NO
##NPOINTS= 230
##XYDATA=(XY..XY) 1 
    33          0
    34          0
    36          0
    37          2
    38         13
    39         40
    40         10
    41         13
    42          8
    43          4
    44          5
    45          1
    50         18
    51         39
    53        268
    54         12
    55          4
    57          2
    58          0
    61          1
    62          5
    63         20
    64         20
    65         24
    66          7
    67          2
    68          2
    69          2
    70          1
    71          1
    72          0
    73          0
    74          3
    75         10
    76         18
    77         26
    78         10
    79          9
    81        999
    82         39
    83          4
    84          1
    85          0
    86          0
    87          1
    88          5
    89          7
    90         16
    91          9
    92         12
    93          2
    94          2
    95          1
    96          0
    97          1
    99          1
   100          2
   101          5
   102         19
   103         10
   104          5
   105          3
   106          0
   107          0
   108          0
   109          0
   111          1
   112          1
   113          1
   114          4
   115          3
   116          4
   117          5
   118          6
   119          3
   120          0
   121          0
   122          1
   124          3
   125          1
   126          1
   127          3
   128          5
   129          9
   130          3
   131          5
   132          2
   133          0
   135          0
   136          0
   138          0
   139          2
   140          4
   141          2
   142          3
   143          4
   144          1
   145          0
   146          0
   149          0
   150          0
   151          1
   152          3
   153          3
   154          3
   155          5
   156          6
   157          5
   158          1
   159          0
   160          0
   161          0
   163          0
   164          2
   165          2
   166          3
   167          5
   168          3
   169          2
   170          1
   171          1
   172          0
   176          0
   177          1
   178          2
   179          7
   180          5
   181          9
   182          4
   183          1
   184          0
   185          0
   189          0
   191          3
   192          4
   193          7
   194         11
   195          4
   196          1
   198          0
   203          1
   204          3
   205          7
   206         19
   207         17
   208         10
   209          1
   210          0
   215          0
   216          0
   217          3
   218          7
   219         14
   220         12
   221          6
   222          5
   223          1
   228          0
   229          0
   230          3
   231          6
   232         15
   233         32
   234         14
   235         15
   236          2
   242          0
   243          0
   244          2
   245          4
   246          6
   247         23
   248         14
   249         79
   250         21
   251          2
   255          0
   256          0
   257          0
   258          0
   259          1
   260          0
   261          1
   263         12
   264          2
   265          0
   267          0
   268          0
   269          1
   270          0
   271          1
   272          1
   273          0
   274          0
   276          0
   277          1
   278         14
   279          2
   280          0
   282          0
   283          1
   284          0
   285          1
   286          0
   287          0
   296          0
   297          0
   298          0
   299          0
   300          0
   301          2
   302          0
   304          0
   309          0
   310          0
   311          0
   312          0
   313          1
   314          0
   315          1
   316          0
   325          0
   326          0
   327          1
   328          2
   330         97
   331         20
   332          2
   333          0
   334          0