##TITLE=Library Entry 30702
##JCAMP-DX=Revision 4.10 
##DATA TYPE=MASS SPECTRUM
##SAMPLE DESCRIPTION=Asinex Ltd, Moscow, Russia
##NAMES=HP
##CAS NAME=Butanohydrazide, N2-(3-bromobenzylideno)-4-hydroxy-
##MOLFORM=C11H13BrN2O2
##CAS REGISTRY NO=305348-23-6
##MP= -300
##BP= -300
##MW= 284
##$RETENTION INDEX=0
##$CONDENSED SPECTRUM=NO
##NPOINTS= 199
##XYDATA=(XY..XY) 1 
    33          2
    34          6
    36          2
    37         12
    38         32
    39        157
    40        139
    41        354
    42        311
    43        273
    44         85
    45        136
    46          6
    48          1
    49          7
    50        103
    51         68
    52         18
    53          6
    54         20
    55         68
    56         67
    57         50
    59        999
    61         18
    62         79
    63        181
    64         36
    65         78
    66         11
    67          6
    69        404
    70         25
    71          7
    72         16
    73        261
    74         57
    75        131
    76        128
    77         70
    78         15
    79         18
    80         31
    81         16
    82         32
    83          8
    84         22
    85         98
    86         64
    87        360
    88         49
    89        365
    90        124
    91         86
    92        142
    93         39
    94          5
    95          6
    96          1
    97          1
    98          3
    99         10
   100         16
   101         16
   102         64
   103        318
   104         46
   105         12
   106          6
   107          3
   108          2
   109          1
   111          9
   112          3
   113          1
   115          6
   116         10
   117         40
   118        238
   119        230
   120        104
   121         13
   122          3
   123          1
   127          2
   128          6
   129         12
   130         14
   131         19
   132         12
   133          3
   134          0
   135          1
   136          0
   138          3
   139          2
   140          1
   141          3
   142          6
   143         11
   144          7
   145         14
   146          4
   147          1
   149          0
   150          1
   152         11
   153          4
   154          4
   155         93
   156         23
   157        108
   158         20
   159          4
   160          2
   161          0
   162          2
   167         14
   168         15
   169         25
   170         21
   171        131
   172         17
   173        113
   174          8
   175          0
   176          0
   178          1
   180          1
   181         22
   182         67
   183         41
   184         69
   185         16
   186          6
   187         35
   188         12
   189          1
   195          5
   196         16
   197        215
   198        455
   199        243
   200        400
   201         39
   202          1
   205          1
   207          2
   208          2
   209         20
   210         10
   211         19
   212          7
   213          1
   221          1
   222          1
   223          4
   224         28
   225         13
   226         26
   227          7
   233          0
   235          8
   236          2
   237          8
   238          5
   239          3
   240         14
   241          3
   242         12
   243          1
   249          0
   251          1
   253          3
   254          2
   255          3
   256          2
   259          1
   260          1
   261          2
   262          2
   263          2
   264          2
   265         97
   266         83
   267        107
   268         80
   269          9
   275          3
   276          4
   277          5
   278          9
   279          3
   280          3
   283          1
   284          7
   285          2
   286          8
   287          0