##TITLE=Library Entry 22751
##JCAMP-DX=Revision 4.10 
##DATA TYPE=MASS SPECTRUM
##SAMPLE DESCRIPTION=A.A.Kutin, Moscow, Russia
##NAMES=HP
##CAS NAME=Piperidin-4-ol, 2,3-dimethyl-, cis-
##MOLFORM=C7H15NO
##CAS REGISTRY NO=305383-19-1
##MP= -300
##BP= -300
##MW= 129
##$RETENTION INDEX=0
##$CONDENSED SPECTRUM=NO
##NPOINTS= 77
##XYDATA=(XY..XY) 1 
    39        101
    40         31
    41        211
    42        294
    43        245
    44        254
    45         26
    46          8
    48          0
    49          1
    50          8
    51         14
    52          9
    53         35
    54         32
    55        106
    56        999
    57        265
    58         89
    59          5
    60          0
    62          1
    63          2
    64          0
    65          8
    66          3
    67         24
    68         44
    69        140
    70        390
    71        144
    72         29
    73          3
    74          6
    75          0
    77          3
    78          1
    79          5
    80          9
    81          6
    82         18
    83         31
    84         46
    85         13
    86          3
    87          1
    89          0
    91          1
    92          1
    93          2
    94         10
    95          8
    96        281
    97         19
    98          5
   100          9
   101          1
   104          0
   106          0
   107          1
   108          3
   110         29
   111         10
   112        251
   114        638
   115         38
   116          3
   117          0
   118          0
   121          0
   122          1
   126          1
   127          1
   128         21
   129        165
   130         16
   131          1