##TITLE=Library Entry 81783
##JCAMP-DX=Revision 4.10 
##DATA TYPE=MASS SPECTRUM
##SAMPLE DESCRIPTION=Japan AIST/NIMC Database- Spectrum MS-IW-6006
##NAMES=HP
##CAS NAME=3-Bromo-2-methoxytropone
##MOLFORM=C8H7BrO2
##CAS REGISTRY NO=3054-77-1
##MP= -300
##BP= -300
##MW= 214
##$RETENTION INDEX=0
##$CONDENSED SPECTRUM=NO
##NPOINTS= 132
##XYDATA=(XY..XY) 1 
    14          2
    15         13
    25          2
    26          7
    27          8
    28          9
    29         10
    30          2
    31         10
    32         17
    36          2
    37         29
    38         73
    39         51
    40          2
    41          1
    42          1
    43          3
    45          2
    46         68
    48          1
    49         13
    50         81
    51         60
    52          7
    53         42
    54          2
    55          3
    59          1
    60          3
    61         22
    62         52
    63        200
    64        185
    65         21
    66         10
    67          1
    68          2
    71         24
    72         22
    73          8
    74         29
    75         46
    76         68
    77        192
    78         63
    79         76
    80          5
    81          3
    82          3
    84          1
    85          7
    86          7
    87          2
    88          1
    89         61
    90          7
    91          9
    92        240
    93         18
    94          3
    95          2
    96          2
    99          1
   100          1
   101          1
   103          1
   104         26
   105        999
   106        196
   107         80
   108          6
   109          2
   112          1
   116          3
   117         40
   118          5
   119         39
   120         35
   121          3
   128          2
   129          3
   130          2
   131          4
   133          2
   134        210
   135        358
   136         30
   137          3
   141          1
   142          2
   143        190
   144         12
   145        188
   146         10
   147          1
   155         15
   156         37
   157         22
   158         37
   159          6
   160          1
   167          1
   168          9
   169          2
   170         13
   171        116
   172         13
   173        115
   174         10
   175          1
   183         29
   184         97
   185         87
   186        133
   187         61
   188         40
   189          3
   190          1
   196         87
   197          8
   198         88
   199          9
   200          6
   201          2
   202          5
   213          6
   214        608
   215         76
   216        602
   217         71
   218          6