##TITLE=Library Entry 25827
##JCAMP-DX=Revision 4.10 
##DATA TYPE=MASS SPECTRUM
##SAMPLE DESCRIPTION=Japan AIST/NIMC Database- Spectrum MS-NW- 946
##NAMES=HP
##CAS NAME=1-Propene, 3,3-diethoxy-
##MOLFORM=C7H14O2
##CAS REGISTRY NO=3054-95-3
##MP= -300
##BP= -300
##MW= 130
##$RETENTION INDEX=770
##$CONDENSED SPECTRUM=NO
##NPOINTS= 49
##XYDATA=(XY..XY) 1 
    14          2
    15         11
    17          1
    18          4
    25          2
    26         26
    27        136
    28         53
    29        222
    30          9
    31         71
    32          3
    37          1
    38          4
    39         29
    40          7
    41         14
    42          5
    43         24
    44         10
    45         77
    46          7
    47        173
    48          1
    53          2
    54          1
    55         63
    56         24
    57        999
    58         62
    59          7
    60          1
    69          4
    71          1
    73         54
    74         22
    75         61
    76          2
    83          3
    84          1
    85        672
    86         81
    87          6
   101          9
   102          2
   103         76
   104          4
   129          7
   130          1