##TITLE=Library Entry 24256
##JCAMP-DX=Revision 4.10 
##DATA TYPE=MASS SPECTRUM
##SAMPLE DESCRIPTION=CONTINENTAL OIL CO., PONCA CITY, OKLA, USA
##NAMES=HP
##CAS NAME=Dodecane, 4,9-dipropyl-
##MOLFORM=C18H38
##CAS REGISTRY NO=3054-63-5
##MP= -300
##BP= -300
##MW= 254
##$RETENTION INDEX=1656
##$CONDENSED SPECTRUM=NO
##NPOINTS= 111
##XYDATA=(XY..XY) 1 
    26          4
    27        122
    28         16
    29        188
    30          4
    37          0
    38          1
    39         46
    40         11
    41        360
    42         67
    43        519
    44         17
    50          0
    51          2
    52          1
    53         22
    54         20
    55        232
    56        109
    57        999
    58         44
    59          0
    63          0
    65          4
    66          2
    67         25
    68         17
    69        123
    70         59
    71        393
    72         22
    73          0
    75          0
    76          0
    77          7
    78          2
    79          8
    80          2
    81         15
    82          9
    83         61
    84         47
    85        287
    86         19
    87          0
    91          2
    92          0
    93          1
    94          0
    95          5
    96          3
    97         31
    98        196
    99        109
   100          8
   101          0
   103          0
   105          0
   107          0
   108          0
   109          1
   110          2
   111         20
   112         52
   113         51
   114          5
   115          0
   119          0
   123          0
   124          1
   125          8
   126          4
   127         35
   128          3
   129          0
   132          0
   133          1
   138          0
   139          2
   140          2
   141         28
   142          3
   152          0
   153          1
   154          6
   155         69
   156          8
   157          0
   166          2
   167         19
   168          6
   169         13
   170          1
   181          0
   182          1
   183          2
   184          0
   196          1
   197          3
   198          0
   210         90
   211        249
   212         41
   213          3
   224          0
   225          2
   226          0
   252          0
   253          0
   254          0