##TITLE=Library Entry 17372
##JCAMP-DX=Revision 4.10 
##DATA TYPE=MASS SPECTRUM
##SAMPLE DESCRIPTION=Japan AIST/NIMC Database- Spectrum MS-NW-5370
##NAMES=HP
##CAS NAME=Pentaethylene glycol monododecyl ether
##MOLFORM=C22H46O6
##CAS REGISTRY NO=3055-95-6
##MP= -300
##BP= -300
##MW= 406
##$RETENTION INDEX=0
##$CONDENSED SPECTRUM=NO
##NPOINTS= 176
##XYDATA=(XY..XY) 1 
    15         13
    17          1
    18          3
    26          3
    27         48
    28         61
    29        105
    30         11
    31         45
    32          1
    33          1
    39         16
    40          4
    41        186
    42         59
    43        334
    44        148
    45        999
    46         23
    47          3
    53          7
    54         12
    55        158
    56         54
    57        313
    58         95
    59        135
    60          6
    61          9
    62          1
    63          3
    65          1
    66          4
    67         21
    68         32
    69         89
    70         40
    71        166
    72        134
    73         75
    74          7
    75         38
    76          3
    77         14
    79          2
    80          3
    81         16
    82         61
    83         62
    84         20
    85         92
    86         16
    87        155
    88        131
    89        432
    90         24
    91         15
    93          1
    94          1
    95         13
    96         35
    97         47
    98         12
    99         27
   100          5
   101         32
   102         20
   103         74
   104          9
   105          8
   106          1
   107          9
   108          1
   109          9
   110         14
   111         25
   112          7
   113         18
   114          4
   115          4
   116         12
   117         28
   118          3
   119         18
   120          1
   121         16
   122          2
   123          7
   124          9
   125          8
   126          4
   127          8
   128          2
   129          2
   130          1
   131         23
   132         14
   133        136
   134         10
   135         12
   136          1
   137          4
   138          8
   139          3
   140          4
   141          3
   145          1
   147         11
   148          1
   149          3
   151         10
   152          1
   155          1
   159          1
   161          2
   163         14
   164         17
   165          3
   166         46
   167         20
   168          6
   169         14
   170          2
   175          9
   176          1
   177         21
   178          2
   179         10
   180          1
   182          2
   183          7
   184          1
   185          1
   191          2
   192          1
   193          2
   194          4
   195          4
   197          5
   198          1
   199          1
   207          7
   208          1
   210          3
   211          5
   212          6
   213         14
   214          2
   221          2
   222          4
   227          2
   228          1
   229          2
   231          1
   239          8
   240          1
   241          1
   242          1
   243          2
   256          1
   257          9
   258          2
   271          1
   273          5
   274          1
   275          1
   287          1
   300          1
   301          1
   317          2
   319          3
   363          4
   364          1
   406          1
   407          6
   408          1