##TITLE=Library Entry 39717
##JCAMP-DX=Revision 4.10 
##DATA TYPE=MASS SPECTRUM
##SAMPLE DESCRIPTION=J. SHAW, BORRISTON RESEARCH, ROCKVILLE, MD, USA
##NAMES=HP
##CAS NAME=Ethanimidothioic acid, 2-(dimethylamino)-N-hydroxy-2-oxo-, methyl
 ester
##MOLFORM=C5H10N2O2S
##CAS REGISTRY NO=30558-43-1
##MP= -300
##BP= -300
##MW= 162
##$RETENTION INDEX=0
##$CONDENSED SPECTRUM=NO
##NPOINTS= 112
##XYDATA=(XY..XY) 1 
    12          3
    13          4
    14         29
    15        432
    16         16
    17         48
    18        277
    19          1
    26          5
    27         29
    28        116
    29         25
    30         26
    31          7
    32          9
    33          3
    34          1
    35          2
    38          3
    39          9
    40         20
    41         58
    42        265
    43        101
    44        648
    45        182
    46         85
    47        143
    48         22
    49          8
    50          1
    51          2
    52          1
    53          3
    54         39
    55         39
    56         89
    57         34
    58         80
    59         17
    60         12
    61         66
    62          4
    63          7
    64          2
    65          2
    66          2
    67         10
    69         59
    70         18
    72        999
    73        115
    74         81
    75         18
    76         11
    77          3
    78          1
    79          2
    80          1
    81          4
    82          2
    83         22
    84          9
    85          9
    86          8
    87         22
    88         25
    89         46
    90         47
    91          6
    92          2
    93          1
    94          3
    95          1
    97         31
    98         26
    99        202
   100         13
   101          3
   102          2
   104         14
   105          2
   106          1
   107          1
   108          1
   109          2
   110          1
   111          8
   112          1
   113          2
   115        277
   116         19
   117         16
   118         12
   119          2
   120          1
   123          1
   125          3
   127          1
   128          5
   129          3
   130          7
   144          5
   145        226
   146         15
   147         18
   148          1
   149          1
   162        255
   163         34
   164         13
   165          2