##TITLE=Library Entry 17378
##JCAMP-DX=Revision 4.10 
##DATA TYPE=MASS SPECTRUM
##SAMPLE DESCRIPTION=Japan AIST/NIMC Database- Spectrum MS-NW-2876
##NAMES=HP
##CAS NAME=Heptaethylene glycol monododecyl ether
##MOLFORM=C26H54O8
##CAS REGISTRY NO=3055-97-8
##MP= -300
##BP= -300
##MW= 494
##$RETENTION INDEX=0
##$CONDENSED SPECTRUM=NO
##NPOINTS= 238
##XYDATA=(XY..XY) 1 
    12          2
    13          5
    14         18
    15         71
    16          8
    17         10
    18         37
    24          1
    25          6
    26         32
    27         89
    28        128
    29        183
    30         19
    31         75
    32          4
    33          3
    37          1
    38          2
    39         31
    40          8
    41        183
    42         69
    43        368
    44        253
    45        999
    46         24
    47          3
    50          1
    51          3
    52          2
    53         11
    54         23
    55        189
    56        110
    57        430
    58        127
    59        183
    60         11
    61         12
    62          2
    63          9
    65          3
    66          8
    67         38
    68         61
    69        148
    70        103
    71        242
    72        211
    73        200
    74         12
    75         43
    76          5
    77         22
    78          2
    79          7
    80          7
    81         29
    82        105
    83        127
    84         59
    85        149
    86         34
    87        290
    88        184
    89        666
    90         39
    91         26
    92          2
    93          4
    94          4
    95         24
    96         61
    97         99
    98         38
    99         52
   100          9
   101         62
   102         32
   103        126
   104         13
   105         15
   106          2
   107         12
   108          3
   109         16
   110         27
   111         55
   112         23
   113         35
   114         10
   115         15
   116         28
   117         83
   118          9
   119         23
   120          2
   121         21
   122          3
   123         10
   124         15
   125         18
   126          9
   127         15
   128          4
   129          7
   130          3
   131         71
   132         17
   133        294
   134         20
   135         22
   136          3
   137          8
   138         11
   139          7
   140         13
   141          6
   142          2
   143          3
   144          1
   145          6
   146          3
   147         32
   148          4
   149          5
   150          1
   151         11
   152          2
   153          1
   154          1
   155          2
   156          1
   157          3
   158          4
   159          7
   160          4
   161         13
   162          3
   163         21
   164          8
   165          9
   166         69
   167         36
   168         20
   169         31
   170          4
   171          1
   172          1
   173          2
   174          1
   175         42
   176          5
   177         90
   178          9
   179          8
   180          1
   181          1
   182          2
   183         10
   184          3
   185          9
   186          1
   187          1
   189          3
   190          1
   191          7
   192          2
   193          3
   194          6
   195         11
   196          2
   197          9
   198          2
   199          3
   200          1
   201          2
   202          2
   203          4
   204          1
   205          5
   206          1
   207         13
   208          3
   209          4
   210          6
   211          9
   212          9
   213         29
   214          5
   218          1
   219         12
   220          2
   221         19
   222          3
   223          3
   227          7
   228          2
   229          3
   231          1
   233          1
   235          2
   236          1
   239          6
   241          1
   242          1
   243          3
   249          1
   251          6
   252          6
   253          1
   254          1
   255          2
   256          2
   257         16
   258          3
   263          1
   264          1
   265          3
   267          2
   271          2
   272          1
   273          4
   275          1
   283          2
   287          1
   295          3
   300          1
   301          4
   302          1
   315          1
   317          2
   319          1
   327          2
   361          1
   363          1
   407          1