##TITLE=Library Entry 99335
##JCAMP-DX=Revision 4.10 
##DATA TYPE=MASS SPECTRUM
##SAMPLE DESCRIPTION=NIST Mass Spectrometry Data Center, 2010
##NAMES=HP
##CAS NAME=(3aR,6R,8aR)-7,7-Dimethyl-8-methylenehexahydro-1H-3a,6-methanoazu
len-3(2H)-one
##MOLFORM=C14H20O
##CAS REGISTRY NO=30557-76-7
##MP= -300
##BP= -300
##MW= 204
##$RETENTION INDEX=1605
##$CONDENSED SPECTRUM=NO
##NPOINTS= 140
##XYDATA=(XY..XY) 1 
    26          3
    27         66
    28         18
    29         59
    30          2
    31          6
    37          1
    38          8
    39        261
    40         57
    41        502
    42         46
    44         11
    45          5
    50         25
    51        120
    52         60
    53        251
    54         34
    55        368
    56         25
    57         47
    58         20
    59         15
    60          9
    61          2
    62          9
    63         60
    64         38
    65        298
    66        142
    67        437
    68         52
    69        177
    70         33
    71         35
    72         10
    73          6
    74          9
    75         10
    76         11
    77        508
    78        148
    79        564
    80        113
    81        325
    82         69
    83        133
    84         30
    85          9
    86          3
    87          5
    88          2
    89         25
    90         14
    91        921
    92        242
    93        460
    94        285
    95        439
    96        420
    97        103
    98         16
    99         11
   100          1
   101          3
   102         19
   103        107
   104         68
   105        700
   106        191
   107        287
   108        907
   109        443
   110        106
   111         23
   113          1
   114          1
   115        156
   116         66
   117        368
   118        132
   119        999
   120        223
   121        314
   122        183
   125         12
   126          4
   127         19
   128         62
   129         79
   130         42
   131        230
   132        231
   133        841
   134        317
   135        598
   136        203
   137        105
   138         21
   139          7
   140          1
   141         10
   142          9
   143        119
   144         34
   145        449
   146        106
   147        319
   148        205
   149        105
   150         33
   155          3
   156          6
   157         16
   158         12
   159         86
   160         58
   161        426
   162        133
   163        125
   164         17
   166          2
   171         55
   172          8
   173        286
   174         43
   175         85
   176         52
   177         30
   178          6
   186         19
   187         13
   188        316
   189        430
   190         59
   191        100
   192         14
   204        539
   205         74