##TITLE=Library Entry 24638
##JCAMP-DX=Revision 4.10 
##DATA TYPE=MASS SPECTRUM
##SAMPLE DESCRIPTION=Japan AIST/NIMC Database- Spectrum MS-NW-5369
##NAMES=HP
##CAS NAME=Diethylene glycol monododecyl ether
##MOLFORM=C16H34O3
##CAS REGISTRY NO=3055-93-4
##MP= -300
##BP= -300
##MW= 274
##$RETENTION INDEX=0
##$CONDENSED SPECTRUM=NO
##NPOINTS= 150
##XYDATA=(XY..XY) 1 
    14          2
    15         14
    16          1
    17          1
    18          4
    25          1
    26         10
    27         99
    28         46
    29        189
    30          9
    31         52
    32          3
    33         14
    38          1
    39         46
    40         10
    41        382
    42        115
    43        730
    44         79
    45        781
    46         19
    47          9
    50          1
    51          2
    52          2
    53         19
    54         36
    55        376
    56        188
    57        999
    58         54
    59        105
    60         44
    61         45
    62         65
    63         33
    64          1
    65          4
    66          9
    67         54
    68        104
    69        252
    70        149
    71        566
    72         45
    73         76
    74          6
    75        173
    76         26
    77        236
    78          9
    79          7
    80          4
    81         39
    82        152
    83        224
    84         95
    85        351
    86         25
    87         44
    88         22
    89        161
    90         40
    91         27
    92          2
    93          2
    94          3
    95         36
    96         84
    97        181
    98         65
    99         85
   100          9
   101         26
   102          4
   103          9
   104          4
   105          3
   106          1
   107         73
   108          5
   109         27
   110         38
   111        105
   112         36
   113         58
   114          6
   115          3
   116          2
   117          2
   118          4
   119         19
   120          1
   121          1
   122          1
   123         16
   124         22
   125         35
   126         16
   127         26
   128          4
   129          9
   130          1
   131          2
   135          3
   137          9
   138         20
   139          9
   140         34
   141          8
   142          1
   143          2
   145          1
   151          2
   152          1
   154          1
   155          2
   156          2
   157          1
   165          4
   166         49
   167         12
   168         31
   169         22
   170          3
   171          1
   179          1
   183         22
   184          4
   185          7
   186          1
   194          4
   195          1
   197          9
   198          3
   199         23
   200          4
   201          2
   202          1
   211          1
   212          4
   213          3
   227          3
   228          1
   241          1
   243          8
   244          2
   256          1