##TITLE=Library Entry 33324
##JCAMP-DX=Revision 4.10 
##DATA TYPE=MASS SPECTRUM
##SAMPLE DESCRIPTION=Chemical Concepts
##NAMES=HP
##CAS NAME=Hexanoic acid, 4-pentenyl ester
##MOLFORM=C11H20O2
##CAS REGISTRY NO=30563-33-8
##MP= -300
##BP= -300
##MW= 184
##$RETENTION INDEX=0
##$CONDENSED SPECTRUM=NO
##NPOINTS= 84
##XYDATA=(XY..XY) 1 
    26          9
    27        135
    28         56
    29        143
    30          4
    31          9
    37          1
    38          4
    39        139
    40         40
    41        427
    42        105
    43        439
    44         19
    45         12
    50          2
    51          6
    52          5
    53         68
    54         17
    55        105
    56         24
    57         14
    58          4
    59          2
    60         20
    61          3
    62          1
    63          1
    65          9
    66          8
    67        356
    68        999
    69        220
    70         35
    71        301
    72         20
    73         33
    74          3
    75          5
    78          0
    79          1
    80          4
    81          6
    82          9
    83         10
    84          6
    85          7
    86          3
    87         22
    88          1
    89         13
    90          0
    91          0
    95          2
    96          1
    97         11
    98          8
    99        394
   100        118
   101         10
   109          0
   110          1
   111          0
   113         43
   114          5
   115          5
   116          2
   117         37
   118          2
   124          0
   125          0
   127          1
   128         11
   129          2
   130          0
   140          0
   141          4
   142          3
   143          8
   153          1
   154          4
   155          1
   156          0