##TITLE=Library Entry 75723
##JCAMP-DX=Revision 4.10 
##DATA TYPE=MASS SPECTRUM
##SAMPLE DESCRIPTION=Exported from NIST MS Search
##NAMES=HP
##CAS NAME=1,3-Dioxolane, 2-ethyl-2-(5-methoxyheptyl)-
##MOLFORM=C13H26O3
##CAS REGISTRY NO=30571-80-3
##MP= -300
##BP= -300
##MW= 230
##$RETENTION INDEX=0
##$CONDENSED SPECTRUM=NO
##NPOINTS= 17
##XYDATA=(XY..XY) 1 
    41         66
    43         23
    45         66
    55         53
    57        184
    61         46
    73        196
    74         10
    97         97
   101        999
   102         46
   139         58
   140          5
   169         56
   170          5
   201        230
   202         15