##TITLE=Library Entry 40998
##JCAMP-DX=Revision 4.10 
##DATA TYPE=MASS SPECTRUM
##SAMPLE DESCRIPTION=Exported from NIST MS Search
##NAMES=HP
##CAS NAME=3-Decanone, 8-methoxy-
##MOLFORM=C11H22O2
##CAS REGISTRY NO=30571-79-0
##MP= -300
##BP= -300
##MW= 186
##$RETENTION INDEX=0
##$CONDENSED SPECTRUM=NO
##NPOINTS= 33
##XYDATA=(XY..XY) 1 
    41        204
    42         25
    43         96
    45        155
    55        227
    57        484
    59         68
    61        214
    67         66
    69         56
    71         86
    72        114
    73        999
    74         58
    81         45
    82         53
    83         76
    85         53
    97        375
    98         68
    99         28
   107         28
   109         33
   125        130
   126         15
   127         30
   139         23
   154         66
   155         15
   157         63
   159         17
   171         20
   186         17