##TITLE=Library Entry 24354
##JCAMP-DX=Revision 4.10 
##DATA TYPE=MASS SPECTRUM
##SAMPLE DESCRIPTION=Exported from NIST MS Search
##NAMES=HP
##CAS NAME=Decane, 3-bromo-
##MOLFORM=C10H21Br
##CAS REGISTRY NO=30571-71-2
##MP= -300
##BP= -300
##MW= 220
##$RETENTION INDEX=0
##$CONDENSED SPECTRUM=NO
##NPOINTS= 21
##XYDATA=(XY..XY) 1 
    41        422
    42        115
    43        849
    53         27
    54         15
    55        252
    56        140
    57        999
    58         35
    67         15
    69        117
    70         65
    71        669
    72         32
    83         42
    84         12
    85        644
    86         45
    97         17
   141        445
   142         45