##TITLE=Library Entry 41222
##JCAMP-DX=Revision 4.10 
##DATA TYPE=MASS SPECTRUM
##SAMPLE DESCRIPTION=Exported from NIST MS Search
##NAMES=HP
##CAS NAME=3-Decanol, 8-methoxy-
##MOLFORM=C11H24O2
##CAS REGISTRY NO=30571-74-5
##MP= -300
##BP= -300
##MW= 188
##$RETENTION INDEX=0
##$CONDENSED SPECTRUM=NO
##NPOINTS= 32
##XYDATA=(XY..XY) 1 
    41        201
    43         86
    45        163
    55        119
    57        199
    59         95
    67        124
    69         52
    71        318
    72         76
    73        999
    74         52
    81         33
    82         26
    83         43
    84         16
    85         24
    86         12
    95         21
    96         14
    97         21
    98         21
    99         21
   109        263
   110         21
   127        299
   128         16
   138         16
   141         43
   159        182
   160         21
   173         19