##TITLE=Library Entry 78859
##JCAMP-DX=Revision 4.10 
##DATA TYPE=MASS SPECTRUM
##SAMPLE DESCRIPTION=A.A.Kutin, Moscow, Russia
##NAMES=HP
##CAS NAME=Benzoic acid, 4-(1,3-dihydro-1,3-dioxo-2-isoindolyl)-, (2-oxo-2-p
henyl)ethyl ester
##MOLFORM=C23H15NO5
##CAS REGISTRY NO=305857-14-1
##MP= -300
##BP= -300
##MW= 385
##$RETENTION INDEX=0
##$CONDENSED SPECTRUM=NO
##NPOINTS= 143
##XYDATA=(XY..XY) 1 
    33          0
    34          3
    35          1
    36          9
    37         11
    38         19
    39         64
    40         52
    41         20
    42         14
    43         79
    44         29
    45          9
    46          0
    48          9
    50        134
    51        137
    52         11
    53          9
    54          2
    55         11
    56          3
    57         11
    58         16
    60          2
    61          3
    62         13
    63         44
    64         26
    65         37
    66          4
    67          1
    69         12
    70          5
    71          4
    72          1
    73          7
    74         34
    75         74
    76        272
    77        403
    78         23
    79          4
    80          2
    81          4
    82          3
    83          4
    84          2
    85          2
    86          2
    87          3
    88          3
    89         11
    90         26
    91         32
    92          6
    93          4
    94          2
    95          1
    96          1
    97          2
    98          0
    99          3
   100          1
   101          2
   102          9
   104        244
   105        999
   107          6
   108          4
   109          5
   110          6
   111         19
   112         13
   113         10
   114          5
   115          9
   116          3
   118        196
   119         19
   120          2
   121          0
   122          3
   124          0
   125          1
   126          1
   127          2
   128          3
   129          1
   130          9
   131          3
   132          1
   133          0
   135          0
   136          1
   137          1
   138          4
   139         40
   140         36
   141          8
   142          1
   143          1
   144          4
   145          0
   146          2
   149          1
   150          0
   151          2
   152          2
   153          0
   155          0
   157          0
   159          2
   160          0
   161          0
   164          6
   165          4
   166         78
   167         17
   168          3
   171          2
   175          7
   176          2
   177          4
   178          1
   179          2
   180          0
   181          0
   193          6
   194         13
   195          1
   221          2
   222        100
   223         17
   224          1
   250        171
   251         27
   252          3
   253          0
   267          2
   355          0
   385         11
   386          2