##TITLE=Library Entry 13762
##JCAMP-DX=Revision 4.10 
##DATA TYPE=MASS SPECTRUM
##SAMPLE DESCRIPTION=Chemical Concepts
##NAMES=HP
##CAS NAME=Ethyl 2-acetamido-3,3,3-trifluoro-2-(2,4-xylidino)propionate
##MOLFORM=C15H19F3N2O3
##CAS REGISTRY NO=305864-07-7
##MP= -300
##BP= -300
##MW= 332
##$RETENTION INDEX=0
##$CONDENSED SPECTRUM=NO
##NPOINTS= 175
##XYDATA=(XY..XY) 1 
    33         22
    34          4
    35          2
    36          1
    37          3
    39         76
    40         73
    41         44
    43        999
    44        106
    45         11
    46          3
    47          7
    48          3
    49          2
    50         17
    51         53
    52         32
    53         43
    54         12
    55          8
    56          4
    57          5
    59         43
    60         16
    61          3
    62          7
    63         31
    64         13
    65         64
    66         13
    67          8
    69         34
    70          4
    71          2
    72          2
    73          3
    74          4
    75          9
    77        324
    78         88
    79        195
    80         21
    81          5
    83         17
    85         12
    86          2
    87          4
    89         25
    90         11
    91        110
    92         21
    93         24
    94          9
    96         26
    97          2
    98          3
   101          6
   102         21
   103        146
   104         58
   105        296
   106        180
   107         52
   108          5
   109          3
   113          5
   114          5
   115          4
   116         27
   117         46
   118         45
   119         26
   120        300
   121        420
   122         97
   123         10
   125          6
   127          3
   128          6
   129          4
   130         84
   131        222
   132        284
   133         36
   134         11
   135          3
   136          1
   140          1
   142         26
   143          4
   144          4
   145         22
   146         12
   147        131
   148         17
   149          4
   150          2
   151          3
   152          2
   153          1
   155          3
   156          1
   157          3
   158          6
   160         36
   161          7
   162          6
   163          2
   165          2
   166          4
   167          2
   168          2
   170         11
   171          2
   172          1
   173          3
   175          1
   176          3
   177          4
   178          5
   180         86
   181         18
   182          3
   183          1
   185         24
   186          4
   187          1
   189          2
   191          1
   193         24
   194          4
   195          6
   196          1
   198          5
   200        472
   201         79
   202          6
   203          4
   204          8
   205          2
   208          1
   212          1
   213          2
   214          3
   215         24
   217        987
   218         98
   219          4
   221         34
   222         31
   224          1
   227          3
   228          1
   229          1
   231          2
   241          1
   243          4
   244          3
   245          2
   251          4
   254          1
   257          2
   259        121
   260         15
   261          1
   263          9
   264          1
   271          2
   273        276
   274         33
   275          3
   332        172
   333         24
   334          3