##TITLE=Library Entry 21366
##JCAMP-DX=Revision 4.10 
##DATA TYPE=MASS SPECTRUM
##SAMPLE DESCRIPTION=NIST Mass Spectrometry Data Center
##NAMES=HP
##CAS NAME=3-Methyladipic acid
##MOLFORM=C7H12O4
##CAS REGISTRY NO=3058-01-3
##MP= -300
##BP= -300
##MW= 160
##$RETENTION INDEX=0
##$CONDENSED SPECTRUM=NO
##NPOINTS= 99
##XYDATA=(XY..XY) 1 
    26          7
    27         69
    29         68
    30          5
    31         22
    36          2
    37          3
    38         11
    39        149
    40         23
    41        295
    42        150
    43        296
    44         26
    45        302
    46         10
    47          6
    48          4
    49          3
    50         13
    51         26
    52         13
    53         89
    54         62
    55        999
    56        146
    57        155
    58         54
    59        491
    60        417
    61         20
    62          5
    63          7
    64          2
    65         14
    66          8
    67         48
    68        159
    69        359
    70         43
    71         89
    72         74
    73        256
    74         50
    75          8
    77          7
    78          3
    79          7
    80          5
    81         31
    82        145
    83        727
    84         46
    85         74
    86         68
    87        145
    88         21
    89          4
    91          4
    92          3
    93          6
    94          4
    95         14
    96        172
    97         58
    98         15
    99         91
   100        166
   101        715
   102         41
   103          6
   105          3
   108          3
   109         16
   111          6
   112          3
   113         25
   114        979
   115         80
   116          9
   117          2
   118          2
   119          2
   120          4
   123          5
   124         28
   125         14
   126          4
   127         28
   128          7
   129          3
   133          5
   135          4
   136          7
   137          4
   140          2
   141          9
   142         23
   143         18