##TITLE=Library Entry 73269
##JCAMP-DX=Revision 4.10 
##DATA TYPE=MASS SPECTRUM
##SAMPLE DESCRIPTION=NIST Mass Spectrometry Data Center
##NAMES=HP
##CAS NAME=(Z)-Hentriacont-22-ene-2,4-dione
##MOLFORM=C31H58O2
##CAS REGISTRY NO=305805-41-8
##MP= -300
##BP= -300
##MW= 462
##$RETENTION INDEX=3426
##$CONDENSED SPECTRUM=NO
##NPOINTS= 260
##XYDATA=(XY..XY) 1 
    27         12
    29         43
    30          1
    31          3
    39         23
    40          5
    41        230
    42         45
    43        609
    44         16
    45          3
    51          2
    52          1
    53         23
    54         93
    55        588
    56        122
    57        250
    58         66
    59         20
    61          4
    65          9
    66         14
    67        234
    68        129
    69        485
    70         97
    71        150
    72         63
    73          4
    77          9
    78          2
    79         43
    80         65
    81        226
    82        198
    83        320
    84         85
    85        805
    86         37
    87         17
    91         11
    92          9
    93         24
    94         48
    95        206
    96        172
    97        235
    98         92
    99         20
   100        999
   101        194
   102         15
   103          2
   104          2
   105          6
   106          3
   107         22
   108         25
   109        137
   110         84
   111        165
   112         33
   113        394
   114         32
   115          6
   117          3
   119          9
   120          9
   121         39
   122         20
   123         85
   124        101
   125         53
   126         13
   127         16
   128          7
   133         11
   134         11
   135         38
   136         19
   137         66
   138        148
   139         37
   140          6
   141          8
   142         19
   143          3
   145          3
   147         10
   148          9
   149         19
   150          9
   151         30
   152         28
   153         13
   154          5
   155          7
   156          6
   161          5
   162          3
   163          8
   164          4
   165         13
   166         15
   167         22
   168          5
   169         11
   170          4
   175          4
   176          2
   177          5
   178          3
   179          9
   180          9
   181          6
   182          3
   183          3
   184          3
   189          3
   191          4
   192          3
   193          8
   194          8
   195          5
   196          2
   197          3
   198          3
   206          3
   207          6
   208          6
   209          6
   210          2
   211          3
   212          2
   219          3
   221          8
   222          8
   223          6
   224          2
   225          3
   226          1
   232          1
   233          3
   234          1
   235         10
   236          7
   237          5
   238          2
   239          3
   247          3
   248          2
   249         13
   250          8
   251          6
   252          2
   253          3
   261          4
   262          2
   263         15
   264          9
   265          5
   266          2
   267          2
   273          1
   274          1
   275          4
   276          2
   277         16
   278          9
   279          6
   280          2
   287          2
   288          1
   289          3
   290          4
   291         22
   292         10
   293          7
   294          2
   295          2
   301          2
   302          1
   303          3
   304          3
   305         21
   306         11
   307          7
   308          3
   309          3
   315          1
   317          4
   318          2
   319         19
   320          8
   321          7
   322          2
   323          2
   329          2
   330          2
   331          4
   332          2
   333         15
   334          7
   335          7
   336          2
   343          1
   344          1
   345          3
   346          2
   347         11
   348          8
   349          7
   350          2
   357          2
   359          2
   360          2
   361         10
   362          7
   363          6
   364          2
   365          1
   366          2
   373          3
   374          2
   375          8
   376          4
   377          4
   378          1
   385          2
   386         36
   387         16
   388          4
   389          3
   391          3
   401         25
   402         13
   403          6
   404         42
   405         54
   406         15
   407          2
   415          2
   419          4
   420          2
   426         18
   427          6
   429          6
   430          2
   433          2
   443          1
   444        169
   445         59
   446          9
   447          9
   448          3
   461          2
   462         35
   463         13
   464          2