##TITLE=Library Entry 72703
##JCAMP-DX=Revision 4.10 
##DATA TYPE=MASS SPECTRUM
##SAMPLE DESCRIPTION=Japan AIST/NIMC Database- Spectrum MS-IW-7560
##NAMES=HP
##CAS NAME=2,4,8,10-Tetraoxaspiro[5.5]undecane-3,9-dipropanenitrile
##MOLFORM=C13H18N2O4
##CAS REGISTRY NO=3058-04-6
##MP= -300
##BP= -300
##MW= 266
##$RETENTION INDEX=0
##$CONDENSED SPECTRUM=NO
##NPOINTS= 167
##XYDATA=(XY..XY) 1 
    15         12
    17          1
    18          3
    24          2
    25          7
    26         71
    27        239
    28        228
    29        172
    30         63
    31        104
    32          2
    36          4
    37         16
    38         27
    39        238
    40        126
    41        491
    42        118
    43        143
    44         19
    45         10
    46          1
    47          2
    48          2
    49          2
    50         11
    51         25
    52         45
    53        177
    54        309
    55        281
    56        145
    57         72
    58          9
    59          5
    60          1
    61          1
    62          2
    63          5
    64          8
    65         12
    66         42
    67         60
    68         47
    69        166
    70        313
    71        363
    72         53
    73          7
    74          2
    75          1
    76          2
    77         15
    78          9
    79         94
    80         23
    81         33
    82        230
    83        582
    84        750
    85        113
    86         16
    87         11
    88          1
    89          3
    90          4
    91          8
    92          5
    93          6
    94         13
    95         25
    96         55
    97         24
    98        390
    99        999
   100        143
   101         34
   102          6
   103          2
   104          4
   105          5
   106         11
   107          9
   108         21
   109         10
   110         16
   111          9
   112         80
   113         18
   114         65
   115        231
   116         18
   117          6
   118          2
   119          2
   120          6
   121          3
   122          7
   123          4
   124         25
   125         21
   126         14
   127          5
   128         36
   129         38
   130          4
   131          1
   132          1
   133          2
   134         11
   135         13
   136         46
   137          9
   138         43
   139          7
   140          3
   141          1
   142          3
   143          2
   144          1
   145          1
   146          1
   147          1
   148          8
   149          5
   150          1
   151          4
   152        212
   153         64
   154         30
   155          9
   156          3
   164          1
   165          4
   166         87
   167         17
   168          3
   178          1
   179          1
   181          4
   182         36
   183          6
   184          8
   185          3
   194          2
   196          1
   197          2
   207          1
   208          1
   210          1
   212        969
   213        110
   214         13
   215          1
   224          1
   225         61
   226         11
   227          2
   235          3
   238          1
   239          5
   240          1
   265         74
   266         11
   267          8
   268          1