##TITLE=Library Entry 76214
##JCAMP-DX=Revision 4.10 
##DATA TYPE=MASS SPECTRUM
##SAMPLE DESCRIPTION=RADIAN CORP
##NAMES=HP
##CAS NAME=Benzonitrile, 4-iodo-
##MOLFORM=C7H4IN
##CAS REGISTRY NO=3058-39-7
##MP= -300
##BP= -300
##MW= 229
##$RETENTION INDEX=0
##$CONDENSED SPECTRUM=NO
##NPOINTS= 33
##XYDATA=(XY..XY) 1 
    25          3
    26         12
    27         27
    36          7
    37         66
    38         66
    39         24
    48          6
    49         50
    50        285
    51        203
    52         44
    60          4
    61         25
    62         32
    63         16
    64          8
    72          3
    73         41
    74        123
    75        383
    76        180
    77          6
    99         41
   100         17
   102        999
   103         79
   114         12
   115         13
   127        326
   128          5
   229        797
   230         24