##TITLE=Library Entry 33389
##JCAMP-DX=Revision 4.10 
##DATA TYPE=MASS SPECTRUM
##SAMPLE DESCRIPTION=A.A.Kutin, Moscow, Russia
##NAMES=HP
##CAS NAME=Furazano[3,4-b]pyrazine, 5,6-bis(diethylamino)-
##MOLFORM=C12H20N6O
##CAS REGISTRY NO=305858-99-5
##MP= -300
##BP= -300
##MW= 264
##$RETENTION INDEX=0
##$CONDENSED SPECTRUM=NO
##NPOINTS= 182
##XYDATA=(XY..XY) 1 
    33          1
    34          4
    35          1
    36          8
    38         11
    39         34
    40        105
    41        112
    42        344
    43        222
    44        189
    45          8
    46         22
    47          0
    50          2
    51          7
    52         26
    53        199
    54        203
    55        254
    56        850
    57         69
    58         95
    59          4
    60          1
    63          1
    64          4
    65          9
    66         44
    67        140
    68        999
    69        165
    70        114
    71        103
    72        790
    73         46
    74         39
    75          3
    76          2
    77          6
    78         19
    79         81
    80        105
    81        319
    82         77
    83         93
    84         48
    85          9
    86          8
    87          1
    90          1
    91          6
    92         34
    93         66
    94         90
    95         67
    96        263
    97         73
    98         23
    99         83
   100         15
   101          3
   102          0
   103          0
   104          2
   105         10
   106         46
   107         83
   108        101
   109        120
   110         32
   111         72
   112         22
   113          4
   114          1
   115          0
   117          3
   118          4
   119         40
   120         39
   121         53
   122         89
   123        118
   124        234
   125         34
   126         14
   127          4
   128          0
   131          1
   132          5
   133         43
   134         68
   135         79
   136        142
   137         50
   138         27
   139         16
   140          5
   141          0
   142          0
   143          0
   144          1
   145          3
   146          9
   147         22
   148         40
   149         43
   150         34
   151         95
   152         27
   153          5
   154          1
   155          0
   157          0
   158          0
   159          3
   160         14
   161         69
   162        118
   163         48
   164         42
   165         40
   166          8
   167          5
   168          2
   171          0
   172          0
   173          1
   174          5
   175          6
   176         48
   177         44
   178         24
   179         20
   180         92
   181         10
   182          1
   183          0
   187          0
   188          4
   189         46
   190        259
   191         49
   192         21
   193         26
   194         17
   195          2
   202          0
   203          1
   204         28
   205         30
   206         17
   207         41
   208          8
   209          1
   216          0
   217          0
   218          5
   219         17
   220          8
   221         21
   222          2
   223          2
   224          0
   229          0
   231          0
   233          6
   234        411
   235        480
   236         64
   237          4
   248          0
   249          2
   250          0
   252          3
   253          0
   261          0
   262          0
   264        289
   265         43
   266          3
   267          0