##TITLE=Library Entry 73268
##JCAMP-DX=Revision 4.10 
##DATA TYPE=MASS SPECTRUM
##SAMPLE DESCRIPTION=NIST Mass Spectrometry Data Center
##NAMES=HP
##CAS NAME=(Z)-Nonacos-20-ene-2,4-dione
##MOLFORM=C29H54O2
##CAS REGISTRY NO=305805-40-7
##MP= -300
##BP= -300
##MW= 434
##$RETENTION INDEX=3223
##$CONDENSED SPECTRUM=NO
##NPOINTS= 285
##XYDATA=(XY..XY) 1 
    26          1
    27         13
    28          4
    29         44
    30          1
    31          3
    38          1
    39         26
    40          6
    41        240
    42         45
    43        579
    44         14
    45          3
    51          1
    52          1
    53         24
    54         94
    55        551
    56        109
    57        211
    58         58
    59         18
    61          3
    65          9
    66         14
    67        237
    68        126
    69        449
    70         86
    71        127
    72         57
    73          4
    77          9
    78          4
    79         43
    80         64
    81        224
    82        194
    83        284
    84         79
    85        855
    86         40
    87         16
    88          1
    89          1
    90          1
    91          9
    92          9
    93         26
    94         50
    95        205
    96        174
    97        218
    98         89
    99         20
   100        999
   101        188
   102         14
   103          2
   104          2
   105          6
   106          4
   107         23
   108         26
   109        143
   110         88
   111        143
   112         33
   113        393
   114         32
   115          5
   117          2
   118          1
   119         10
   120          9
   121         44
   122         23
   123         86
   124        105
   125         52
   126         13
   127         15
   128          7
   129          1
   131          2
   132          1
   133         13
   134         15
   135         41
   136         23
   137         73
   138        154
   139         38
   140          8
   141          7
   142         18
   143          2
   145          2
   146          1
   147         11
   148         12
   149         21
   150         10
   151         32
   152         33
   153         15
   154          5
   155          6
   156          7
   157          1
   159          1
   161          6
   162          5
   163         11
   164          6
   165         15
   166         16
   167         28
   168          5
   169         12
   170          3
   174          1
   175          5
   176          3
   177          8
   178          4
   179         11
   180          9
   181          7
   182          3
   183          3
   184          2
   187          1
   189          5
   190          2
   191          5
   192          3
   193          8
   194          9
   195          5
   196          3
   197          3
   198          2
   203          2
   204          1
   205          4
   206          2
   207          8
   208          8
   209          5
   210          2
   211          3
   212          2
   217          1
   218          1
   219          3
   220          2
   221         10
   222          8
   223          6
   224          2
   225          3
   226          1
   229          1
   231          1
   232          1
   233          3
   234          2
   235         14
   236          8
   237          6
   238          2
   239          2
   240          1
   245          1
   246          1
   247          4
   248          3
   249         19
   250          9
   251          5
   252          2
   259          2
   260          1
   261          4
   262          5
   263         24
   264         12
   265          7
   266          2
   273          2
   274          1
   275          4
   276          3
   277         24
   278         15
   279          7
   280          3
   281          2
   287          2
   288          1
   289          4
   290          3
   291         19
   292          9
   293          7
   294          2
   295          2
   301          2
   302          2
   303          4
   304          2
   305         15
   306          7
   307          7
   308          3
   315          2
   316          1
   317          3
   318          2
   319         13
   320         10
   321          8
   322          2
   329          2
   330          1
   331          3
   332          3
   333         13
   334          8
   335          7
   336          2
   337          1
   338          2
   345          2
   346          2
   347          8
   348          5
   349          5
   350          1
   351          1
   352          1
   356          1
   357          1
   358         39
   359         17
   360          3
   361          2
   362          1
   363          3
   364          1
   370          1
   371          1
   372          1
   373         28
   374         14
   375          6
   376         42
   377         55
   378         13
   379          2
   383          1
   387          2
   388          2
   389          1
   391          5
   392          2
   393          1
   398         17
   399          5
   400          1
   401          6
   402          2
   405          1
   416        147
   417         46
   418          8
   419          8
   420          2
   432          6
   433          4
   434         30
   435         10
   436          1