##TITLE=Library Entry 77008
##JCAMP-DX=Revision 4.10 
##DATA TYPE=MASS SPECTRUM
##SAMPLE DESCRIPTION=J.E. WILKINSON S-CUBED, SAN DIEGO, CA.
##NAMES=HP
##CAS NAME=Fenaclon
##MOLFORM=C11H14ClNO
##CAS REGISTRY NO=306-20-7
##MP= -300
##BP= -300
##MW= 211
##$RETENTION INDEX=0
##$CONDENSED SPECTRUM=NO
##NPOINTS= 62
##XYDATA=(XY..XY) 1 
    45          0
    49          5
    50         19
    51         65
    52         19
    53          9
    54          1
    55         94
    56         11
    57          0
    58          0
    59          0
    61          4
    63        229
    64         18
    65        180
    66          8
    67          0
    72          0
    74          5
    75          4
    77         77
    78         44
    79         27
    80          1
    84          8
    85          0
    86          0
    87          0
    88          0
    89         23
    90         17
    91        313
    92         33
    93         36
    94          0
   101          0
   102          4
   103         60
   104        999
   105        137
   106          7
   108          0
   115          0
   116          0
   117          2
   118          6
   119          6
   120         49
   121          1
   122         13
   123          0
   128          0
   139          0
   148          1
   175          0
   176          1
   196          0
   211         47
   212          8
   213         15
   214          1