##TITLE=Library Entry 36292
##JCAMP-DX=Revision 4.10 
##DATA TYPE=MASS SPECTRUM
##SAMPLE DESCRIPTION=Japan AIST/NIMC Database- Spectrum MS-NW-4896
##NAMES=HP
##CAS NAME=Perfluorodecalin
##MOLFORM=C10F18
##CAS REGISTRY NO=306-94-5
##MP= -300
##BP= -300
##MW= 462
##$RETENTION INDEX=720
##$CONDENSED SPECTRUM=NO
##NPOINTS= 90
##XYDATA=(XY..XY) 1 
    31         49
    32          1
    50         10
    55          3
    62          2
    69        999
    70         10
    74         10
    79          2
    81          7
    86          3
    93        107
    94          4
    98          4
   100        140
   101          3
   105          9
   112         22
   117         21
   118          1
   119        137
   120          3
   124         27
   125          1
   129          1
   131        774
   132         25
   136          4
   141          1
   143         61
   144          3
   148          3
   150          7
   155         44
   156          3
   162         47
   163          2
   167          5
   169         59
   170          2
   174          8
   179          2
   181         92
   182          4
   186         11
   187          1
   193         70
   194          4
   198          1
   200          5
   205         40
   206          3
   212         11
   213          1
   217          7
   219         13
   224          8
   231         21
   232          1
   236          7
   243        225
   244         15
   255         24
   256          2
   262          4
   267          5
   274          4
   281          8
   286          2
   293        283
   294         24
   305         13
   306          2
   324          1
   331          8
   332          1
   343         48
   344          4
   355         17
   356          2
   362          2
   374          4
   381          2
   393         63
   394          6
   412          5
   413          1
   443         17
   444          2
   462          2