##TITLE=Library Entry 34855
##JCAMP-DX=Revision 4.10 
##DATA TYPE=MASS SPECTRUM
##SAMPLE DESCRIPTION=A.Pleshkova, Nesmeyanov Inst.Org.Elem.Cpds, Moscow
##NAMES=HP
##CAS NAME=Perfluoro-1-methyldecalin
##MOLFORM=C11F20
##CAS REGISTRY NO=306-92-3
##MP= -300
##BP= -300
##MW= 512
##$RETENTION INDEX=0
##$CONDENSED SPECTRUM=NO
##NPOINTS= 90
##XYDATA=(XY..XY) 1 
    31        180
    32          2
    50        290
    51          3
    69        999
    70         11
   100         19
   119         83
   120          2
   131        187
   132          6
   133          1
   143          2
   150          4
   155          1
   162         22
   163          1
   169         40
   170          1
   181        169
   182          7
   183          1
   193         27
   194          1
   200          3
   205          9
   212          6
   219         19
   220          1
   224          3
   231         36
   232          2
   236          3
   243         67
   244          4
   250          1
   255         49
   256          4
   257          1
   262          2
   267         34
   268          3
   269          4
   274          2
   281         31
   282          2
   286          2
   293        186
   294         14
   295          5
   305         28
   306          2
   312          1
   317          4
   324         12
   325          1
   331         13
   332          1
   336          8
   337          1
   343        187
   344         16
   345          5
   355         33
   356          3
   362          2
   374          1
   381         14
   382          1
   393         47
   394          5
   395          2
   405         33
   406          3
   407          1
   412          1
   424        112
   425         12
   426          5
   431         20
   443         57
   444          6
   445          3
   462          4
   493         69
   494          8
   495          4
   512         22
   513          3
   514          1