##TITLE=Library Entry 84148
##JCAMP-DX=Revision 4.10 
##DATA TYPE=MASS SPECTRUM
##SAMPLE DESCRIPTION=Japan AIST/NIMC Database- Spectrum MS-IW-4937
##NAMES=HP
##CAS NAME=L-Alanyl-L-tyrosine
##MOLFORM=C12H16N2O4
##CAS REGISTRY NO=3061-88-9
##MP= -300
##BP= -300
##MW= 252
##$RETENTION INDEX=0
##$CONDENSED SPECTRUM=NO
##NPOINTS= 121
##XYDATA=(XY..XY) 1 
    15          3
    17         10
    18         38
    26          4
    27         18
    28         38
    29          6
    30          4
    38          3
    39         17
    40          5
    41          9
    42         20
    43         12
    44        295
    45          9
    46          1
    50          6
    51         18
    52         12
    53         14
    54          4
    55         14
    56          8
    57          9
    58          3
    59          1
    60          1
    62          2
    63          8
    64          2
    65         13
    66          3
    67          2
    68          3
    69          1
    70          8
    71          7
    72          2
    73          5
    74          2
    75          1
    76          2
    77         66
    78         22
    79         15
    80          4
    81          4
    82          1
    83          4
    84          1
    85         14
    86          1
    89         49
    90          8
    91         21
    92          3
    93          1
    94          7
    95          2
    97          1
    98          1
    99         15
   100          4
   101          1
   102          1
   103          2
   104          2
   105          6
   106         24
   107        999
   108        106
   109          8
   110          1
   111          3
   113         84
   114          4
   115          1
   116          3
   117          3
   118          4
   119         10
   120         11
   121          4
   122          1
   123          2
   126          4
   127          3
   128        621
   129         43
   130          7
   131          2
   132          2
   133          6
   134          9
   135         10
   136         11
   137          1
   144          5
   145          3
   146          4
   147         11
   148          3
   149          1
   152          1
   161          1
   162          4
   163          3
   164         13
   165          2
   191          2
   192          1
   208          1
   209          9
   210          1
   232          1
   234        107
   235         15
   236          1
   252          4
   253          1