##TITLE=Library Entry 40240
##JCAMP-DX=Revision 4.10 
##DATA TYPE=MASS SPECTRUM
##SAMPLE DESCRIPTION=J. SHAW, BORRISTON RESEARCH, ROCKVILLE, MD, USA
##NAMES=HP
##CAS NAME=Pirimicarb-desmethyl
##MOLFORM=C10H16N4O2
##CAS REGISTRY NO=30614-22-3
##MP= -300
##BP= -300
##MW= 224
##$RETENTION INDEX=1827
##$CONDENSED SPECTRUM=NO
##NPOINTS= 131
##XYDATA=(XY..XY) 1 
    12          2
    13          2
    15        474
    16         19
    17         44
    18        284
    19          2
    25          1
    26         26
    27        156
    28        206
    29         45
    30         75
    31         13
    32          6
    33          7
    37          3
    38         10
    39         60
    40         28
    41         91
    42        294
    43         90
    44         61
    45         20
    46         46
    47          8
    48          1
    49          1
    50          5
    51         18
    52         34
    53         88
    54         52
    55        111
    56        106
    57        144
    58         12
    59          1
    60          1
    61          1
    62          1
    63          2
    64          3
    65          6
    66         20
    67         37
    68         40
    69         96
    70         18
    72        999
    73         65
    74          5
    75          1
    76          1
    77          4
    78          5
    79         22
    80         14
    81         13
    82         17
    83         57
    84          7
    85          3
    86          1
    88          1
    89          1
    90          2
    91          2
    92          3
    93          9
    94          8
    95         60
    96         84
    97         32
    98         32
    99          3
   100          1
   103          1
   104          2
   105          6
   106          1
   107          5
   108          4
   109         57
   110         16
   111          6
   112          2
   113          6
   119          1
   120          4
   121          3
   122          4
   123         29
   124         98
   125         30
   127        115
   128          9
   129          1
   134          5
   135          4
   136         17
   137         18
   138         54
   139         11
   140          1
   141          1
   149          3
   150          4
   152        642
   153        155
   154         17
   155          1
   164          4
   165          1
   166         16
   167          3
   177          1
   178          1
   179         17
   180          9
   181          3
   182          1
   192          8
   193          3
   194          1
   207          7
   208          1
   224        106
   225         19
   226          2