##TITLE=Library Entry 30135
##JCAMP-DX=Revision 4.10 
##DATA TYPE=MASS SPECTRUM
##SAMPLE DESCRIPTION=Japan AIST/NIMC Database- Spectrum MS-IW-6485
##NAMES=HP
##CAS NAME=Behenic amide
##MOLFORM=C22H45NO
##CAS REGISTRY NO=3061-75-4
##MP= -300
##BP= -300
##MW= 339
##$RETENTION INDEX=0
##$CONDENSED SPECTRUM=NO
##NPOINTS= 222
##XYDATA=(XY..XY) 1 
    16          1
    17         11
    18         44
    26          1
    27         15
    28          8
    29         57
    30          7
    39         14
    40          4
    41        161
    42         38
    43        334
    44         46
    45          1
    46          1
    51          1
    52          1
    53          9
    54         22
    55        195
    56         61
    57        395
    58         39
    59        999
    60        191
    61          9
    63          1
    65          3
    66          2
    67         32
    68         16
    69        129
    70        117
    71        143
    72        580
    73         71
    74          4
    76          1
    77          4
    78          3
    79         14
    80          7
    81         31
    82         42
    83        105
    84         63
    85         81
    86         86
    87         13
    88          2
    89          1
    91          8
    92          3
    93         13
    94          7
    95         26
    96         71
    97        151
    98        111
    99         42
   100         33
   101         41
   102          4
   103          1
   104          1
   105          5
   106          2
   107         10
   108          5
   109         13
   110         82
   111         74
   112         33
   113         30
   114        104
   115        106
   116          9
   117          3
   118          1
   119          2
   120          2
   121         10
   122          9
   123          9
   124         61
   125         38
   126         36
   127         23
   128        165
   129         28
   130          4
   131          2
   133          2
   134          1
   135          9
   136          7
   137          4
   138         40
   139         20
   140         23
   141         20
   142         29
   143          9
   144          1
   145          1
   147          1
   149          6
   150          5
   151          3
   152         32
   153         14
   154         22
   155         15
   156         22
   157          8
   158          1
   163          4
   164          3
   165          3
   166         28
   167         10
   168         17
   169         11
   170         38
   171         10
   172          2
   177          2
   178          3
   179          2
   180         26
   181         12
   182         16
   183          9
   184         39
   185         10
   186          1
   191          2
   192          3
   193          1
   194         29
   195         17
   196         12
   197          5
   198         18
   199          6
   200          1
   205          1
   206          2
   207          1
   208         33
   209         24
   210         12
   211          3
   212         16
   213          5
   214          1
   219          1
   220          1
   222         39
   223         30
   224         10
   225          2
   226         16
   227          6
   228          1
   234          1
   236         42
   237         31
   238         10
   239          2
   240         31
   241          9
   242          1
   248          1
   250         44
   251         28
   252          8
   253          1
   254         24
   255          7
   256          1
   262          1
   264         44
   265         26
   266          9
   267          2
   268         12
   269          4
   276          1
   278         48
   279         20
   280          9
   281          2
   282         15
   283          6
   284          1
   292         31
   293         10
   294          2
   296         92
   297         25
   298          3
   304          1
   306          6
   307          2
   310         34
   311          9
   312          1
   319          1
   320          5
   321         44
   322         26
   323          6
   324          4
   325          1
   337          1
   338         14
   339        244
   340         93
   341         14
   342          1