##TITLE=Library Entry 11124
##JCAMP-DX=Revision 4.10 
##DATA TYPE=MASS SPECTRUM
##SAMPLE DESCRIPTION=J.E. WILKINSON S-CUBED, SAN DIEGO, CA.
##NAMES=HP
##CAS NAME=3,4-Furandimethanol, diacetate
##MOLFORM=C10H12O5
##CAS REGISTRY NO=30614-73-4
##MP= -300
##BP= -300
##MW= 212
##$RETENTION INDEX=0
##$CONDENSED SPECTRUM=NO
##NPOINTS= 39
##XYDATA=(XY..XY) 1 
    40         11
    43        999
    44         19
    45          0
    47          2
    49          0
    50          9
    51         27
    53         83
    54         26
    55         11
    61          5
    63          6
    65         25
    66          6
    67          0
    69          2
    81         67
    82         29
    83          2
    94          7
    95          1
    97          6
   103          1
   109          7
   110        561
   111         53
   112          2
   124         13
   125          3
   127          1
   128          1
   137          0
   152        135
   153         29
   154          1
   170          3
   212         14
   213          0