##TITLE=Library Entry 67924
##JCAMP-DX=Revision 4.10 
##DATA TYPE=MASS SPECTRUM
##SAMPLE DESCRIPTION=Chemical Concepts
##NAMES=HP
##CAS NAME=Cyclopropanecarboxylic acid, 2-methyl-3-(1-propenyl)-, ethyl este
r, [1.alpha.,2.beta.,3.alpha.(E)]-
##MOLFORM=C10H16O2
##CAS REGISTRY NO=30626-51-8
##MP= -300
##BP= -300
##MW= 168
##$RETENTION INDEX=0
##$CONDENSED SPECTRUM=NO
##NPOINTS= 109
##XYDATA=(XY..XY) 1 
    25          0
    26          9
    27        119
    28         17
    29        214
    30          5
    31          4
    35          2
    37          1
    38          7
    39        134
    40         19
    41        161
    42         11
    43         57
    44          3
    45         15
    47          3
    49          1
    50         11
    51         33
    52         19
    53         95
    54         18
    55        194
    56         10
    57          8
    58          3
    59          0
    60          1
    61          0
    62          2
    63          9
    64          2
    65         37
    66         16
    67        295
    68         22
    69         42
    70          4
    71         22
    72          1
    73          5
    74          2
    75          2
    76          1
    77         92
    78         18
    79        172
    80         44
    81         46
    82         15
    83         13
    84          4
    85          3
    86          7
    87          4
    89          1
    91         31
    92          4
    93        109
    94        105
    95        999
    96         72
    97         30
    98         14
    99         20
   100          1
   101          0
   102          0
   103          0
   104          0
   105          2
   106          0
   107         17
   108          4
   109          6
   110          1
   111         93
   112         16
   113          2
   114          3
   115          1
   117         21
   119         21
   121          8
   122         23
   123         64
   124          7
   125         71
   126          9
   127          1
   128          0
   135          1
   136          0
   137          1
   138          0
   139         81
   140         20
   141          2
   151          0
   152          0
   153         41
   154          3
   155          0
   167          1
   168        173
   169         20
   170          2