##TITLE=Library Entry 15092
##JCAMP-DX=Revision 4.10 
##DATA TYPE=MASS SPECTRUM
##SAMPLE DESCRIPTION=Japan AIST/NIMC Database- Spectrum MS-NW-2283
##NAMES=HP
##CAS NAME=dl-Alanyl-dl-serine
##MOLFORM=C6H12N2O4
##CAS REGISTRY NO=3062-19-9
##MP= -300
##BP= -300
##MW= 176
##$RETENTION INDEX=0
##$CONDENSED SPECTRUM=NO
##NPOINTS= 73
##XYDATA=(XY..XY) 1 
    14          2
    15         24
    16          3
    17         16
    18         94
    19          2
    26          3
    27         20
    28         67
    29         13
    30         17
    31         12
    32          3
    38          1
    39          3
    40          7
    41         18
    42         79
    43         34
    44        999
    45         30
    46          1
    52          1
    53          1
    54          4
    55         12
    56         14
    57          9
    58          4
    59          5
    60         44
    61          2
    68          5
    69         10
    70         14
    71          9
    72          4
    73          3
    74          4
    75          2
    81          1
    83          9
    84          2
    85          9
    86          8
    87          5
    88          2
    95          2
    96          1
    97         16
    98          4
    99         13
   100          1
   110          3
   111          2
   112          7
   113         15
   114          4
   115          8
   116          2
   127          2
   128         65
   129          7
   131          1
   133          5
   140          7
   141          1
   143         28
   144          2
   146          1
   157          1
   158          2
   176          1