##TITLE=Library Entry 49488
##JCAMP-DX=Revision 4.10 
##DATA TYPE=MASS SPECTRUM
##SAMPLE DESCRIPTION=D.HENNEBERG, MAX-PLANCK INSTITUTE, MULHEIM, WEST GERMAN
Y
##NAMES=HP
##CAS NAME=2-Hexen-4-yne, (Z)-
##MOLFORM=C6H8
##CAS REGISTRY NO=30626-48-3
##MP= -300
##BP= -300
##MW= 80
##$RETENTION INDEX=0
##$CONDENSED SPECTRUM=NO
##NPOINTS= 59
##XYDATA=(XY..XY) 1 
    23          1
    25          3
    26         30
    27        163
    28         15
    29         15
    30          0
    31          6
    32          1
    33          2
    34          4
    35          2
    36          4
    37         46
    38         72
    39        360
    40         58
    41        110
    42         11
    43         32
    44          3
    45          1
    46          0
    47          1
    48          6
    49         25
    50        163
    51        232
    52        226
    53        148
    54         32
    55         12
    56         22
    57         13
    58          1
    59          1
    60          3
    61         16
    62         31
    63         59
    64         10
    65        143
    66          8
    67          3
    68          1
    69          5
    70         14
    71          9
    72          1
    73         13
    74         44
    75         55
    76         15
    77        665
    78        162
    79        761
    80        999
    81         65
    82          1