##TITLE=Library Entry 21804
##JCAMP-DX=Revision 4.10 
##DATA TYPE=MASS SPECTRUM
##SAMPLE DESCRIPTION=Chemical Concepts
##NAMES=HP
##CAS NAME=2-Piperidino-4-(4-[2,3,5,6-tetrafluoro-4-(trifluoromethyl)anilino
]butylamino)-6-[2,2,2-trifluoro-1-(trifluoromethyl)ethoxy]-1,3,5-triazine
##MOLFORM=C22H21F13N6O
##CAS REGISTRY NO=306315-39-9
##MP= -300
##BP= -300
##MW= 632
##$RETENTION INDEX=0
##$CONDENSED SPECTRUM=NO
##NPOINTS= 199
##XYDATA=(XY..XY) 1 
    33         23
    39        219
    41        798
    42        287
    43        171
    44         48
    50         17
    51         34
    53        118
    55        999
    56        266
    57         65
    63         12
    65         14
    66         23
    67        156
    69        759
    70         70
    71         22
    78         16
    79         20
    80         43
    81        140
    82        128
    84        661
    85         30
    86         10
    92         13
    93         33
    94         68
    95         33
    96         31
    97         18
    98         31
   107         27
   108         23
   109         69
   110         41
   111        128
   112         25
   113         15
   117         14
   121         13
   122         29
   123         32
   124         48
   125         22
   134         11
   135         17
   136         63
   137         24
   138         18
   147         12
   149         29
   150         18
   151         49
   152         51
   155         12
   157         21
   160         13
   162         10
   163         22
   165         16
   166         32
   167         12
   171         15
   176         25
   177         40
   178         43
   179         59
   180         26
   183         11
   186         11
   191         16
   192         17
   193         29
   194        155
   195         17
   198         33
   199         35
   205         36
   206         47
   207         13
   208         17
   213         19
   214         44
   217         37
   218         12
   220         16
   222         15
   223         15
   224         14
   226         34
   227         22
   228         12
   233         25
   234         27
   239         11
   240         20
   241         19
   243         27
   244        111
   246        832
   247         63
   262         13
   267         13
   268         10
   286         23
   288         10
   290         15
   300          4
   301         13
   302         25
   303         13
   304         10
   305          8
   306         15
   308          2
   309          1
   310          3
   312          4
   313          5
   314          5
   315          7
   316         23
   317          8
   318          5
   319          2
   324          5
   325          3
   326          4
   327          5
   328          8
   329         14
   330         29
   331         10
   332          6
   334          2
   335          4
   336          4
   337          7
   338          8
   339         15
   340         16
   341         25
   342         26
   344        102
   345         57
   346        106
   347         13
   348          4
   350          4
   351          5
   352          5
   353          8
   354          8
   355         12
   356         18
   357         19
   358         87
   359         30
   360          5
   362          4
   363          3
   364          1
   365          3
   367          4
   368          6
   369          7
   370         14
   372         37
   373         23
   374          3
   378          2
   380          2
   382          2
   384          4
   386          9
   387         14
   389          2
   390          2
   391          2
   392          2
   394          2
   395          1
   396          4
   397          2
   398         29
   399          4
   400         13
   401          2
   461          5
   462          1
   481          9
   482          2
   594          2
   595          2
   613          5
   632          3