##TITLE=Library Entry 48048
##JCAMP-DX=Revision 4.10 
##DATA TYPE=MASS SPECTRUM
##SAMPLE DESCRIPTION=F.P.BOER DEPT. OF CHEM., COLUMBIA UNIV., NEW YORK, USA
##NAMES=HP
##CAS NAME=1,2,3a:5,6,7a-Dimetheno-s-indacene-3,7-dione, decahydro-
##MOLFORM=C14H12O2
##CAS REGISTRY NO=30633-52-4
##MP= -300
##BP= -300
##MW= 212
##$RETENTION INDEX=0
##$CONDENSED SPECTRUM=NO
##NPOINTS= 95
##XYDATA=(XY..XY) 1 
    14         40
    15         20
    16         20
    17         20
    18         60
    26         80
    27        260
    28        148
    29         40
    37         10
    38         70
    39        610
    40         40
    41         70
    42         10
    43         30
    45         10
    50        170
    51        420
    52        340
    53         70
    54         10
    55         80
    56         10
    57         40
    61         10
    62         50
    63        160
    64         70
    65        110
    66         20
    69         10
    70         10
    71         10
    74         30
    75         40
    76         40
    77        230
    78        999
    79        110
    80         10
    81         10
    82         10
    87         10
    89         40
    90         30
    91        170
    92         20
   101         10
   102         40
   103         70
   104         90
   105         30
   106        260
   107         30
   115        150
   116         40
   117         10
   118         40
   119         90
   120         10
   126         10
   127         50
   128        140
   129        100
   130         20
   131        550
   132        110
   133         10
   139         20
   141        100
   142         30
   143         10
   149         10
   151         10
   152         30
   153         50
   154         20
   155         90
   156         40
   157         30
   158         10
   165         50
   166         30
   167         40
   168         10
   169         60
   170         20
   183         90
   184         80
   185         10
   211         10
   212        380
   213         60
   214         10