##TITLE=Library Entry 34079
##JCAMP-DX=Revision 4.10 
##DATA TYPE=MASS SPECTRUM
##SAMPLE DESCRIPTION=NIST Mass Spectrometry Data Center, 1998.
##NAMES=HP
##CAS NAME=Hexafluoroisopropyl methacrylate
##MOLFORM=C7H6F6O2
##CAS REGISTRY NO=3063-94-3
##MP= -300
##BP= -300
##MW= 236
##$RETENTION INDEX=0
##$CONDENSED SPECTRUM=NO
##NPOINTS= 116
##XYDATA=(XY..XY) 1 
    15          4
    25          1
    26          8
    27          8
    29         26
    30          1
    31          8
    32          1
    33          1
    36          1
    37         20
    38         53
    39        423
    40        108
    41        698
    42         41
    43         10
    44          6
    45         12
    47          7
    49          1
    50         12
    51         37
    52          2
    53         18
    54          6
    55         15
    56          6
    57         10
    59         12
    60          3
    61          1
    63          8
    64          1
    66          2
    67          5
    68         44
    69        999
    70         39
    71          5
    72         18
    73          1
    74          3
    75          1
    77          2
    78          3
    79          2
    81          1
    82         21
    83          3
    85          5
    87          2
    89          1
    90          1
    91          2
    93          5
    95          1
    97          2
    99          2
   100          2
   101          4
   102          1
   103         23
   104          1
   107          2
   108          1
   112          1
   113         34
   114          1
   119          2
   120          7
   121          4
   123          6
   126          1
   127          2
   129          2
   131          1
   132          8
   133          1
   139          3
   140          3
   145          8
   146          1
   147          1
   148          4
   149          3
   150          1
   151         19
   152          2
   157          1
   167         12
   168          8
   169         12
   170          1
   171          4
   172         33
   173          3
   174          1
   181          1
   190          1
   191          1
   194          1
   195          1
   197         46
   198          3
   207          2
   208          2
   216          3
   217         20
   218          2
   221         45
   222          3
   235         22
   236        217
   237         17
   238          1