##TITLE=Library Entry 4274
##JCAMP-DX=Revision 4.10 
##DATA TYPE=MASS SPECTRUM
##SAMPLE DESCRIPTION=Chemical Concepts
##NAMES=HP
##CAS NAME=3-Allyl-5-(3-ethyl-5-methoxy-2-benzothiazolinylidene)-2-(3-ethyl-
1-phenyl-2-thiohydantoin-5-ylidene)-4-thiazolidinone
##MOLFORM=C27H26N4O3S3
##CAS REGISTRY NO=306317-93-1
##MP= -300
##BP= -300
##MW= 550
##$RETENTION INDEX=0
##$CONDENSED SPECTRUM=NO
##NPOINTS= 170
##XYDATA=(XY..XY) 1 
    34         10
    37          8
    39        268
    41        999
    44         92
    45         75
    46          9
    47          9
    48          7
    50         19
    51        129
    52         20
    53          9
    54         15
    55          9
    56         12
    57         13
    59         51
    60         31
    61          9
    62          9
    63         21
    64         35
    65         16
    66         13
    67         13
    69         42
    70         21
    71         27
    72         41
    73          9
    74          9
    76         41
    77        541
    79         34
    80          5
    82          9
    83          9
    84          8
    86         97
    87          9
    88         14
    89         13
    90         12
    91         15
    92          8
    93          9
    94         10
    95         31
    96         11
    97          6
    98         28
    99          5
   101          8
   102         17
   103         41
   104         34
   106         21
   107          7
   108          9
   109         16
   110          8
   115          8
   116          9
   117         23
   118         10
   119          7
   120         16
   121         24
   122         26
   123         17
   124          6
   128          8
   129        137
   130         19
   131          5
   132          5
   133         26
   134         22
   135         37
   136         16
   137          5
   138          9
   139          5
   143          7
   144         11
   145         15
   146         11
   147         14
   148          8
   149         14
   150         37
   151         10
   157          8
   160         16
   161         25
   162         25
   164         64
   165         89
   166         19
   167          9
   169          8
   173         12
   174          7
   175         18
   176         30
   177         16
   178         27
   179         39
   180          9
   181          6
   188         11
   189         36
   190         26
   191         24
   192         22
   193         29
   194         27
   195          8
   196          6
   197          5
   201          6
   202          9
   203         46
   204        290
   205        121
   206         41
   207         64
   208        127
   209         97
   210         30
   211         11
   216          4
   218         48
   219         11
   220         13
   222        360
   223         53
   224         33
   225          6
   231          4
   232         10
   233         39
   234         32
   235         16
   236         72
   237        624
   238         92
   239         62
   240          8
   243          5
   244          9
   262          5
   264        135
   265         44
   266         18
   267          5
   275         28
   276          8
   291         37
   292          7
   293          5
   317          4
   394          7
   434          7
   479          5
   480          8
   549          4
   550         22
   551          8