##TITLE=Library Entry 11130
##JCAMP-DX=Revision 4.10 
##DATA TYPE=MASS SPECTRUM
##SAMPLE DESCRIPTION=Chemical Concepts
##NAMES=HP
##CAS NAME=1-Acetyl-3-phenyl-4-(2-thenoyl)-2-pyrazoline
##MOLFORM=C16H14N2O2S
##CAS REGISTRY NO=306318-57-0
##MP= -300
##BP= -300
##MW= 298
##$RETENTION INDEX=0
##$CONDENSED SPECTRUM=NO
##NPOINTS= 80
##XYDATA=(XY..XY) 1 
    34         12
    39        608
    40        101
    41         34
    43        999
    45         52
    50         39
    51         96
    53         56
    55          9
    57         50
    58         13
    62         18
    63         67
    65         59
    69         28
    70         11
    74         10
    75         12
    76         17
    77         63
    78         48
    81         16
    83        144
    84         17
    85         15
    89         75
    90         32
    91         78
    95         76
    97         40
    98          9
   102         13
   103         31
   104         37
   105         20
   108          9
   111        866
   112         52
   113         62
   115        108
   116        139
   117         77
   118         38
   119         99
   121         14
   124         19
   125         11
   126          9
   128         15
   129         10
   137         14
   143         18
   144         34
   145        128
   146          9
   150          9
   151         12
   152         11
   153         10
   165         15
   167         16
   171         57
   172         14
   173         12
   179         50
   184         10
   185         19
   195         24
   199         15
   211         14
   213         13
   227         57
   228         17
   255         30
   256         88
   257         15
   298        171
   299         29
   300          9