##TITLE=Library Entry 70834
##JCAMP-DX=Revision 4.10 
##DATA TYPE=MASS SPECTRUM
##SAMPLE DESCRIPTION=A.A.Kutin, Moscow, Russia
##NAMES=HP
##CAS NAME=Propan-2-ol, 1-(2-methyl-4-nitroimidazol-5-ylthio)-3-(1-piperidyl
)-
##MOLFORM=C12H20N4O3S
##CAS REGISTRY NO=306326-24-9
##MP= -300
##BP= -300
##MW= 300
##$RETENTION INDEX=0
##$CONDENSED SPECTRUM=NO
##NPOINTS= 141
##XYDATA=(XY..XY) 1 
    33          1
    39         36
    41        202
    42        245
    43         63
    44         71
    45         20
    46          6
    47          5
    48          1
    49          0
    50          3
    51          6
    52         12
    53         16
    54         20
    55         91
    56         31
    57         16
    58         14
    59         18
    60          6
    61          1
    62          0
    63          1
    64          1
    65          3
    67         39
    68         18
    69         46
    70         57
    71         24
    72          7
    73          7
    74          2
    75          2
    76          1
    77          2
    78          1
    79          3
    80          5
    81          4
    82         10
    83         23
    84         27
    85          6
    86          5
    87          2
    88          1
    89          1
    90          0
    91          1
    92          1
    93          1
    94          7
    95          6
    96         31
    98        999
    99         58
   100          5
   102          1
   103          0
   104          0
   105          0
   106          0
   107          0
   108          2
   109          1
   110          7
   111          3
   112          5
   113          1
   114          2
   115          0
   116          0
   117          0
   118          0
   120          0
   121          0
   122          2
   123          1
   124         10
   125          2
   126          8
   127          5
   128         17
   129          3
   130          0
   131          0
   134          0
   136          0
   137          0
   138          2
   139          2
   140          9
   142          6
   143          1
   144          0
   148          0
   149          0
   150          0
   152          0
   153          0
   154          0
   155          0
   156          1
   157          2
   158          1
   159          1
   160          0
   164          0
   166          0
   167          0
   168          0
   169          0
   170          0
   171          0
   172          0
   174          0
   175          0
   183          0
   185          0
   186          0
   187          0
   188          0
   189          0
   198          0
   201          0
   202          1
   216          0
   254          0
   256          7
   257          5
   258          0
   259          0
   269          0
   270          0
   283          0
   299          0
   300          0
   301          0