##TITLE=Library Entry 55294
##JCAMP-DX=Revision 4.10 
##DATA TYPE=MASS SPECTRUM
##SAMPLE DESCRIPTION=Exported from NIST MS Search
##NAMES=HP
##CAS NAME=D-Erythro-Tetrofuranose-3-ulose, 4-C-cyclopropyl-1,2-O-isopropyli
dene-, .alpha.-
##MOLFORM=C10H14O4
##CAS REGISTRY NO=30645-00-2
##MP= -300
##BP= -300
##MW= 198
##$RETENTION INDEX=0
##$CONDENSED SPECTRUM=NO
##NPOINTS= 30
##XYDATA=(XY..XY) 1 
    43        499
    51         15
    53         80
    54        100
    55         90
    57         40
    58        100
    59        110
    60        150
    67         20
    68         40
    69         60
    70         15
    71        180
    81         40
    82         40
    83         40
    84         10
    85        999
    86         55
    87         10
    95         10
   100        999
   101         70
   111         20
   112         20
   113         10
   141         70
   183         10
   198          1