##TITLE=Library Entry 78961
##JCAMP-DX=Revision 4.10 
##DATA TYPE=MASS SPECTRUM
##SAMPLE DESCRIPTION=NIST Mass Spectrometry Data Center
##NAMES=HP
##CAS NAME=Methyl 6,6-dimethylbicyclo[3.1.1]hept-2-ene-2-carboxylate
##MOLFORM=C11H16O2
##CAS REGISTRY NO=30649-97-9
##MP= -300
##BP= -300
##MW= 180
##$RETENTION INDEX=1301
##$CONDENSED SPECTRUM=NO
##NPOINTS= 88
##XYDATA=(XY..XY) 1 
    15          2
    27         66
    29         39
    30          3
    31          7
    33          3
    38         15
    39        225
    40         39
    41        237
    45         28
    46          2
    50         38
    51        135
    52         66
    53        140
    54         19
    55         88
    59        346
    60          9
    61          6
    62         12
    63         49
    64         12
    65        126
    66         43
    67        104
    68         94
    69         37
    73         42
    74         10
    75         14
    76         10
    77        603
    78        160
    79        393
    80         48
    81         49
    87          6
    89         12
    91        586
    92         95
    93        549
    94         44
    95         18
    96         41
    97         11
    99         18
   102         10
   103         68
   104         23
   105        999
   106        168
   107         49
   109         29
   110         18
   111         15
   115         23
   116          6
   117         28
   118         10
   119        107
   120         88
   121        283
   122         39
   123         31
   124        135
   125         20
   131         17
   132         12
   133        187
   134         23
   135         42
   136        375
   137        581
   138        204
   139         22
   147         32
   148         60
   149        102
   150         13
   151         16
   152          5
   165         75
   166         11
   180         33
   181          5
   182          1