##TITLE=Library Entry 55683
##JCAMP-DX=Revision 4.10 
##DATA TYPE=MASS SPECTRUM
##SAMPLE DESCRIPTION=NIST Mass Spectrometry Data Center, 1994
##NAMES=HP
##CAS NAME=2-Amino-5-chloro-N(2-diethylaminoethyl)benzamide
##MOLFORM=C13H20ClN3O
##CAS REGISTRY NO=30646-50-5
##MP= -300
##BP= -300
##MW= 269
##$RETENTION INDEX=0
##$CONDENSED SPECTRUM=NO
##NPOINTS= 91
##XYDATA=(XY..XY) 1 
     4          3
    14          1
    15          6
    17          0
    18          6
    27         32
    28         51
    29         81
    30        154
    31          3
    36          0
    37          1
    38          3
    39          7
    40          3
    41         13
    42         56
    43         14
    44         22
    45          3
    49          1
    50          1
    51          2
    52          9
    53          2
    54          6
    55          1
    56         40
    57          1
    58        119
    59          3
    61          1
    62          6
    63         29
    64          9
    65          8
    66          1
    67          0
    68          2
    69          2
    70         12
    71         13
    72         11
    73          7
    74          2
    75          6
    76          1
    77          2
    78          1
    84         12
    86        999
    87         57
    88          3
    89          1
    90         37
    91         15
    92          2
    97          1
    99         47
   100          6
   101         12
   102          1
   113          1
   114          1
   115          1
   117          0
   118          1
   119          2
   124          1
   125          9
   126         47
   127          8
   128         15
   129          1
   140          1
   141          0
   153         19
   154         45
   155          9
   156         13
   157          1
   167          0
   181          1
   182          0
   183          0
   197          7
   198          1
   199          2
   269         13
   270          2
   271          4