##TITLE=Library Entry 14993
##JCAMP-DX=Revision 4.10 
##DATA TYPE=MASS SPECTRUM
##SAMPLE DESCRIPTION=Chemical Concepts
##NAMES=HP
##CAS NAME=2-(4-Chlorophenyl)-2-(1,4-diacetoxy-2-naphthyl)-1,3-indandione
##MOLFORM=C29H19ClO6
##CAS REGISTRY NO=30654-50-3
##MP= -300
##BP= -300
##MW= 498
##$RETENTION INDEX=0
##$CONDENSED SPECTRUM=NO
##NPOINTS= 48
##XYDATA=(XY..XY) 1 
    36         10
    39         13
    41         43
    43        999
    44         31
    50         30
    51         12
    55         11
    56         13
    76        192
    77         54
   101         15
   104        147
   105         41
   111         13
   113         12
   133         27
   137         10
   139         52
   163         13
   165         11
   187         24
   189         52
   198         12
   202         12
   228         11
   247         13
   263         27
   265         14
   274         20
   275         17
   276         31
   277         13
   305         16
   333         10
   334         10
   368         10
   409         14
   411         13
   414        226
   415         67
   416         76
   417         17
   456         20
   457         11
   458         11
   498         31
   500         12