##TITLE=Library Entry 5966
##JCAMP-DX=Revision 4.10 
##DATA TYPE=MASS SPECTRUM
##SAMPLE DESCRIPTION=LAC, NIDDK, NIH, Bethesda, MD 20892
##NAMES=HP
##CAS NAME=Cholesterol 3-O-[[2-acetoxy]ethyl]-
##MOLFORM=C31H52O3
##CAS REGISTRY NO=30656-76-9
##MP= -300
##BP= -300
##MW= 472
##$RETENTION INDEX=0
##$CONDENSED SPECTRUM=NO
##NPOINTS= 206
##XYDATA=(XY..XY) 1 
    41        364
    42         41
    43        999
    44         33
    45        196
    46          1
    47          7
    49          3
    51          1
    52          1
    53         52
    54          5
    55        276
    56         17
    57        225
    58         14
    59         13
    60          5
    61          2
    63          6
    65         11
    67        113
    68         37
    69        155
    70         24
    71        125
    73         81
    77         45
    78          4
    79        144
    80         25
    81        159
    82         21
    83         42
    84         13
    85         18
    86         17
    87         14
    91         92
    92         12
    93         77
    94         27
    95        123
    96         20
    97         45
    98          3
    99        125
   100         10
   101         14
   103         13
   105         95
   106         26
   107        104
   108         37
   109         56
   110         38
   111         18
   112          5
   113          5
   115         22
   116          7
   117         25
   118          7
   119         34
   120         14
   121         51
   122         20
   123         41
   124         23
   125         12
   126          8
   127          6
   128          7
   129         11
   130          6
   131         32
   132         12
   133         55
   134         36
   135         57
   136         16
   137         12
   138          5
   139          9
   140          5
   141         14
   142          8
   143         21
   144          7
   145         33
   146          9
   147         27
   148         13
   149         22
   150          8
   151         11
   152         14
   153          7
   154          6
   155          7
   157         16
   158          9
   159         46
   160         21
   161         62
   162         12
   163         14
   165          6
   167          6
   168          8
   169          9
   170          5
   171         13
   172          6
   173         16
   174         25
   175         21
   176          8
   177         12
   178          5
   179          7
   181          1
   183          8
   185         13
   186          6
   187         31
   188         11
   189         10
   190          5
   191          4
   192          6
   193          9
   195          5
   196          7
   197          7
   199          8
   201          9
   203          6
   205          8
   206          8
   207          6
   209          1
   211          6
   213         15
   214          6
   215          9
   217          1
   219          6
   221          1
   223          1
   225          4
   227          7
   228          2
   229          9
   230          4
   231          5
   233          5
   236          3
   241          7
   242          1
   243          2
   245          3
   246          3
   247         13
   248          6
   249          6
   251          1
   255          6
   257          1
   259          4
   260          3
   261          1
   269          9
   275          7
   285          1
   287          4
   291          1
   313          3
   329          6
   330          1
   331          6
   341          1
   344          4
   346          4
   353          5
   354          5
   355          1
   365          1
   367         20
   368         34
   369         11
   370          5
   382         17
   383         18
   384         21
   385          9
   386          6
   387          3
   399          4
   412         16
   413          9
   414          3
   428          3
   429         20
   430          9
   472          2