##TITLE=Library Entry 107785
##JCAMP-DX=Revision 4.10 
##DATA TYPE=MASS SPECTRUM
##SAMPLE DESCRIPTION=Exported from NIST MS Search
##NAMES=HP
##CAS NAME=2-Pyridinecarboxylic acid, 5-nitro-
##MOLFORM=C6H4N2O4
##CAS REGISTRY NO=30651-24-2
##MP= -300
##BP= -300
##MW= 168
##$RETENTION INDEX=0
##$CONDENSED SPECTRUM=NO
##NPOINTS= 24
##XYDATA=(XY..XY) 1 
    41         20
    44         27
    45        133
    46         58
    49         61
    50        260
    51        466
    52        109
    53         34
    66         41
    75         64
    76        102
    77         99
    78        260
    79         34
    94         27
   104         44
   105         17
   122         61
   123         47
   124        999
   125         68
   126         17
   151         27