##TITLE=Library Entry 29865
##JCAMP-DX=Revision 4.10 
##DATA TYPE=MASS SPECTRUM
##SAMPLE DESCRIPTION=V.G. Zaikin, R.S.Borisov, TIPS RAS, Moscow, Russia
##NAMES=HP
##CAS NAME=2-Ethoxyethyl trichloroacetate
##MOLFORM=C6H9Cl3O3
##CAS REGISTRY NO=30668-97-4
##MP= -300
##BP= -300
##MW= 234
##$RETENTION INDEX=0
##$CONDENSED SPECTRUM=NO
##NPOINTS= 63
##XYDATA=(XY..XY) 1 
    26          9
    27         84
    29        231
    30          9
    31        367
    35          2
    41         39
    42          6
    43         96
    44         77
    45        679
    46         14
    47         19
    48          1
    49          8
    58          2
    59        999
    60         32
    61          5
    63         22
    65          4
    72        246
    73         59
    82         53
    83         12
    84         34
    85          6
    86          4
    89          2
   107          5
   110         94
   111          2
   112         58
   114          8
   117        182
   119        173
   121         54
   123          4
   127          6
   129          6
   135        108
   136          3
   137         34
   141          2
   145          4
   146          2
   147          4
   148          2
   154         62
   155          3
   156         38
   158          5
   171          7
   173          3
   176          2
   178          2
   189        162
   190         11
   191        156
   192         11
   193         50
   194          2
   195          3