##TITLE=Library Entry 34058
##JCAMP-DX=Revision 4.10 
##DATA TYPE=MASS SPECTRUM
##SAMPLE DESCRIPTION=NIST Mass Spectrometry Data Center
##NAMES=HP
##CAS NAME=2-Propenoic acid, 2-methyl-, 2,3-dibromopropyl ester
##MOLFORM=C7H10Br2O2
##CAS REGISTRY NO=3066-70-4
##MP= -300
##BP= -300
##MW= 284
##$RETENTION INDEX=0
##$CONDENSED SPECTRUM=NO
##NPOINTS= 90
##XYDATA=(XY..XY) 1 
    15          3
    25          1
    26         13
    27         45
    29         24
    30          1
    31          7
    37         11
    38         35
    39        397
    40         76
    41        620
    42         29
    43          8
    44          1
    45          5
    50          1
    53         11
    54          3
    55         12
    56          1
    57         18
    58          4
    59          8
    62          3
    66          1
    67          3
    68         13
    69        999
    70         49
    71          4
    79         11
    80          5
    81         19
    82          4
    83          2
    85          3
    86          8
    87        134
    88          6
    93         25
    94          1
    95         24
    97         33
    98          3
    99         53
   100          2
   104          1
   105         13
   106         18
   107         18
   108         17
   109          4
   111          6
   117          1
   119        185
   120          9
   121        177
   122          9
   125         71
   126          5
   135          1
   137          1
   147          2
   148          2
   149          5
   150          2
   151          3
   159          4
   160          1
   161          4
   171          1
   173          2
   175          2
   177          2
   179          1
   185          1
   187          3
   189          1
   198         24
   199          6
   200         47
   201         11
   202         23
   203          5
   205        227
   206         19
   207        220
   208         17
   209          1