##TITLE=Library Entry 75853
##JCAMP-DX=Revision 4.10 
##DATA TYPE=MASS SPECTRUM
##SAMPLE DESCRIPTION=Japan AIST/NIMC Database- Spectrum MS-IW-2530
##NAMES=HP
##CAS NAME=Ethyl hexamethylenedicarbamate
##MOLFORM=C12H24N2O4
##CAS REGISTRY NO=3066-65-7
##MP= -300
##BP= -300
##MW= 260
##$RETENTION INDEX=0
##$CONDENSED SPECTRUM=NO
##NPOINTS= 128
##XYDATA=(XY..XY) 1 
    14          3
    15         13
    17          7
    18          1
    25          1
    26         12
    27         92
    28         91
    29        283
    30        742
    31        181
    32          2
    38          1
    39         26
    40          8
    41        173
    42         63
    43        142
    44         64
    45        131
    46         57
    47          8
    51          2
    52          1
    53         13
    54         28
    55        123
    56        165
    57         15
    58         97
    59          9
    60          4
    61          1
    62         43
    63          1
    65          2
    66          1
    67         39
    68         15
    69         93
    70         56
    71          9
    72         13
    73          7
    74        199
    75         21
    76          2
    77          1
    79          6
    80          6
    81         35
    82        106
    83         38
    84         35
    85        107
    86         23
    87          4
    88         33
    89          8
    90         80
    91          3
    94          1
    95          2
    96         21
    97         42
    98        164
    99        203
   100         28
   101          4
   102        999
   103         86
   104          8
   107          1
   108          1
   110          2
   111          3
   112         35
   113         25
   114          8
   115         22
   116         67
   117         24
   118          2
   123          7
   124         18
   125         31
   126         68
   127          6
   128         81
   129          9
   130        387
   131         45
   132          5
   133          1
   139          1
   140         14
   141        169
   142         73
   143         23
   144         69
   145         33
   146          4
   149          1
   156          4
   157          3
   158        213
   159         58
   160          6
   167          2
   168        122
   169        114
   170         72
   171         86
   172         29
   173          2
   185          4
   186          7
   187         54
   188          6
   196          1
   213          1
   214         26
   215         99
   216         11
   217          1
   260        150
   261         22
   262          3