##TITLE=Library Entry 20571
##JCAMP-DX=Revision 4.10 
##DATA TYPE=MASS SPECTRUM
##SAMPLE DESCRIPTION=Japan AIST/NIMC Database- Spectrum MS-IW-5465
##NAMES=HP
##CAS NAME=2-Propenoic acid, cyclohexyl ester
##MOLFORM=C9H14O2
##CAS REGISTRY NO=3066-71-5
##MP= -300
##BP= -300
##MW= 154
##$RETENTION INDEX=0
##$CONDENSED SPECTRUM=NO
##NPOINTS= 73
##XYDATA=(XY..XY) 1 
    15          3
    24          1
    25          4
    26         30
    27        162
    28         24
    29         35
    30          1
    31          3
    37          1
    38          4
    39         80
    40         11
    41        158
    42         20
    43         24
    44         14
    45          8
    50          6
    51         11
    52          8
    53         36
    54        261
    55        999
    56         51
    57         24
    58          2
    63          1
    65          9
    66          9
    67        660
    68         42
    69          9
    70         72
    71         12
    72         29
    73        264
    74         10
    75          2
    77         12
    78          9
    79         27
    80          9
    81         97
    82        897
    83        133
    84         16
    85          2
    86          2
    92          3
    93          3
    94         31
    95         12
    96          1
    97         10
    98         18
    99         55
   100          4
   107          4
   108          5
   109          4
   110          2
   111         11
   112          2
   113          1
   118          2
   121          1
   125          1
   127          1
   135          1
   136          6
   154          3
   155          1