##TITLE=Library Entry 39729
##JCAMP-DX=Revision 4.10 
##DATA TYPE=MASS SPECTRUM
##SAMPLE DESCRIPTION=A.A.Kutin, Moscow, Russia
##NAMES=HP
##CAS NAME=Acetamide, 2-(5-chlorobenzoxazol-2-ylthio)-N,N-dimethyl-
##MOLFORM=C11H11ClN2O2S
##CAS REGISTRY NO=306743-05-5
##MP= -300
##BP= -300
##MW= 270
##$RETENTION INDEX=0
##$CONDENSED SPECTRUM=NO
##NPOINTS= 146
##XYDATA=(XY..XY) 1 
    33          5
    34          7
    35          4
    36         20
    37         17
    38         40
    40         90
    42        397
    43        166
    44        535
    45         85
    46         44
    47         13
    48          3
    50         45
    51         35
    52         12
    53          6
    54          5
    55         14
    57        310
    58        356
    61         27
    62         46
    63        124
    65          2
    66          1
    67          1
    69         13
    70         30
    72        999
    75         29
    76         53
    77         21
    79         30
    81          7
    82          2
    83          4
    85        183
    86        288
    88         15
    89          5
    90          8
    91          8
    92          2
    93          4
    94          7
    95          8
    96         12
    97         12
    98         17
    99         10
   100         14
   101          8
   102         18
   103          5
   104          2
   105          2
   106          5
   107          1
   108          2
   109          0
   111         34
   112         12
   113         14
   114          3
   115          1
   116          2
   117          2
   118          3
   120         15
   121         12
   122          4
   124         18
   125         12
   126         10
   127          9
   128          3
   129         11
   130          5
   131          4
   132          2
   133          2
   134          2
   135          9
   136          4
   138          8
   139          1
   140          4
   142          0
   143          1
   145          0
   146          0
   147          0
   148          0
   149          1
   150          2
   151          1
   153         18
   154         14
   156        116
   158         37
   159          2
   160          1
   163          0
   164          0
   166          2
   167         13
   168          1
   169          5
   170          2
   171          1
   172          0
   173          0
   181          3
   182          1
   184         34
   185         99
   186         19
   187         34
   188          3
   189          1
   191          0
   194          4
   195          9
   196          8
   197         17
   198         30
   199          9
   200         13
   202          0
   225          1
   226         17
   227          1
   228          7
   229          1
   230          0
   236          0
   237          3
   239          0
   270        137
   271         19
   272         53
   273          6
   274          2
   275          0