##TITLE=Library Entry 17902
##JCAMP-DX=Revision 4.10 
##DATA TYPE=MASS SPECTRUM
##SAMPLE DESCRIPTION=A.A.Kutin, Moscow, Russia
##NAMES=HP
##CAS NAME=Phenol, 4-(2-amino-5-nitrophenyliminomethyl)-2-methoxy-
##MOLFORM=C14H13N3O4
##CAS REGISTRY NO=306744-56-9
##MP= -300
##BP= -300
##MW= 287
##$RETENTION INDEX=0
##$CONDENSED SPECTRUM=NO
##NPOINTS= 78
##XYDATA=(XY..XY) 1 
    33          1
    35          1
    36          5
    37         85
    38        286
    39        257
    40        223
    41        432
    42         69
    43         70
    44         38
    46        999
    48         15
    49         54
    50        318
    51        382
    52        715
    53        467
    54        271
    56         55
    57          4
    59          0
    60          1
    61         45
    62         63
    63        186
    65        191
    66         59
    67         68
    68         51
    69         16
    70          1
    73          1
    74         10
    75         59
    76        136
    78        243
    79        107
    80        383
    81         25
    82          2
    85          0
    86          2
    87          4
    88          7
    89         16
    90        129
    91         14
    92          5
    93          6
    94         29
    95        239
    96         20
    98          2
   103          5
   105         51
   107        184
   108          7
   115          1
   120          2
   121          0
   122          6
   123        179
   124         15
   127          0
   129          0
   130          0
   137          7
   145          0
   148          1
   149          0
   150          3
   151          2
   152         12
   153        325
   154         26
   155          2
   287          0