##TITLE=Library Entry 31396
##JCAMP-DX=Revision 4.10 
##DATA TYPE=MASS SPECTRUM
##SAMPLE DESCRIPTION=Japan AIST/NIMC Database- Spectrum MS-NW- 813
##NAMES=HP
##CAS NAME=Decanoic acid, propyl ester
##MOLFORM=C13H26O2
##CAS REGISTRY NO=30673-60-0
##MP= -300
##BP= -300
##MW= 214
##$RETENTION INDEX=1490
##$CONDENSED SPECTRUM=NO
##NPOINTS= 121
##XYDATA=(XY..XY) 1 
    15          3
    18          4
    26          5
    27        143
    28         35
    29        172
    30          4
    31         18
    32          3
    36          1
    37          1
    38          3
    39         91
    40         20
    41        462
    42        220
    43        738
    44         25
    45         18
    50          1
    51          4
    52          2
    53         25
    54         27
    55        273
    56         85
    57        274
    58         16
    59         62
    60        622
    61        999
    62         24
    63          5
    65          4
    66          3
    67         41
    68         38
    69        194
    70         46
    71        224
    72         14
    73        426
    74         52
    75         12
    77          3
    78          2
    79          9
    80          3
    81         49
    82         18
    83         94
    84         80
    85        108
    86          8
    87        123
    88          8
    89         29
    90          2
    91          2
    93          8
    94          3
    95         47
    96          9
    97         64
    98         67
    99          9
   100          3
   101         40
   102        502
   103         93
   104          7
   107          5
   108          3
   109          8
   110         26
   111         34
   112         19
   113          6
   114          3
   115        239
   116         20
   117         10
   121          3
   123          3
   124          2
   125          9
   126          6
   127          4
   128          1
   129        174
   130         15
   131          4
   134          1
   135         15
   136          6
   137         10
   138          1
   139          5
   143         35
   144          7
   145          3
   152          9
   153         26
   154          6
   155        664
   156         73
   157         23
   158          3
   170          2
   171         80
   172         84
   173        786
   174         86
   175          8
   185         10
   186          2
   199          1
   213          1
   214         63
   215         12
   216          1