##TITLE=Library Entry 69796
##JCAMP-DX=Revision 4.10 
##DATA TYPE=MASS SPECTRUM
##SAMPLE DESCRIPTION=Chemical Concepts
##NAMES=HP
##CAS NAME=N-(3-Methoxy-2-pyrazinyl)-4-(3-[3,3,3-trifluoro-1-(pentafluoroeth
yl)-2-(trifluoromethyl)-1-propenyl]-2-thioureido)benzenesulfonamide
##MOLFORM=C18H12F11N5O3S2
##CAS REGISTRY NO=306766-78-9
##MP= -300
##BP= -300
##MW= 619
##$RETENTION INDEX=0
##$CONDENSED SPECTRUM=NO
##NPOINTS= 226
##XYDATA=(XY..XY) 1 
    33          6
    36          5
    38        235
    42        487
    43        121
    44         84
    45         39
    46         40
    48         34
    50        278
    51         64
    54        903
    56        554
    57         69
    58         42
    59         23
    60         15
    63        422
    64        163
    65        149
    67        194
    69        787
    71         35
    76        812
    79         71
    81        212
    82        134
    83         51
    84         26
    85         12
    87         23
    90        568
    91        103
    92        138
    94        741
    95        141
    97        999
   100         46
   102        104
   103         21
   104         18
   106         24
   108        537
   109        723
   111         17
   112         22
   113         37
   115         46
   117         14
   118         29
   119         42
   121         52
   122         33
   124        266
   125        277
   126         44
   128         15
   129         17
   130         11
   132         81
   134        114
   135        101
   136         16
   137         14
   138         15
   139         10
   140         27
   141         10
   143         59
   144         12
   146         57
   147         11
   148          9
   149         16
   150         22
   151          9
   152         20
   153          6
   154          7
   156         59
   157         47
   158         47
   159         10
   161        118
   163         27
   164          7
   166         12
   167          6
   168          9
   169         16
   170         33
   171         50
   172         17
   173         11
   174          9
   175         13
   178         48
   179          7
   181         17
   182         38
   183         20
   184         18
   185         40
   186          8
   187         12
   188         12
   189          7
   190          7
   191         10
   193         28
   194         29
   195         14
   196          7
   197         18
   198         63
   199         30
   200         31
   201         16
   202         15
   203         13
   204          7
   208         82
   209          9
   210          9
   211          5
   212          9
   213         14
   214         54
   215        239
   216        104
   217         12
   218          7
   220        143
   221         10
   222         11
   223         12
   225         50
   226         13
   227         10
   228         15
   229          9
   230          8
   231         31
   232         61
   233         16
   234          7
   239         17
   240         18
   241         10
   242          7
   243         13
   244          6
   245          5
   246          6
   247          7
   250          6
   252         19
   253         15
   254          9
   257        425
   258        100
   259         50
   260         10
   264          7
   266          8
   270         30
   271         15
   272         76
   273         15
   274          6
   275          5
   278         38
   279         17
   283          7
   284          5
   285         10
   290         22
   291         18
   292          8
   293         11
   302          7
   303          6
   308          5
   310         31
   311         19
   320         48
   321         15
   322         22
   323         31
   324          6
   328         15
   337          5
   339         95
   340         22
   341          8
   358         47
   359          9
   360         12
   361          7
   378          6
   391         12
   397         13
   398          6
   407          5
   411          5
   413         10
   430         12
   431          9
   445          5
   466          7
   496          5
   502         26
   503          9
   511          6
   514        167
   515         67
   516         20
   517          9
   520        179
   521         74
   522         15
   534          7
   535          9
   554         56
   555         44
   556         11