##TITLE=Library Entry 1764
##JCAMP-DX=Revision 4.10 
##DATA TYPE=MASS SPECTRUM
##SAMPLE DESCRIPTION=A.A.Kutin, Moscow, Russia
##NAMES=HP
##CAS NAME=Pent-4-enamide, N-(5-chloropyrid-2-yl)-
##MOLFORM=C10H11ClN2O
##CAS REGISTRY NO=306743-90-8
##MP= -300
##BP= -300
##MW= 210
##$RETENTION INDEX=0
##$CONDENSED SPECTRUM=NO
##NPOINTS= 114
##XYDATA=(XY..XY) 1 
    33         22
    34          2
    35         20
    37        172
    38        264
    39        999
    41        502
    42        135
    43         53
    44         24
    45          5
    46          0
    47         29
    48         11
    49         58
    50        193
    51        204
    52        112
    53        262
    54        167
    55        818
    56         25
    57          4
    59          0
    60         22
    61         14
    62         35
    63         52
    64        154
    65         59
    66         60
    67         11
    69          8
    70          2
    71          8
    72         50
    73        319
    74         47
    75        127
    76        138
    77         25
    78         22
    79          5
    80          1
    81         12
    82         26
    83         46
    85         27
    86          6
    87          7
    88          3
    90          9
    91         16
    92         69
    93         19
    94          3
    95          0
    96          0
    97          2
    98         12
    99         26
   100         94
   101        154
   102         35
   103         46
   104          3
   105          3
   106          2
   111          2
   112         87
   113         12
   114         27
   115          2
   116          1
   118          1
   119          1
   121          0
   124          1
   127         57
   128        336
   129         40
   130        105
   131          9
   132          1
   133          0
   135          0
   139          3
   140          1
   141          6
   142          0
   143          2
   147          0
   152          1
   153          5
   154          5
   155         12
   156          2
   157          3
   165          0
   166          0
   167          3
   168          1
   169          2
   175          1
   181          3
   182         12
   183          2
   184          3
   194          0
   208          0
   209          8
   210         14
   211          4
   212          4