##TITLE=Library Entry 84668
##JCAMP-DX=Revision 4.10 
##DATA TYPE=MASS SPECTRUM
##SAMPLE DESCRIPTION=A.A.Kutin, Moscow, Russia
##NAMES=HP
##CAS NAME=Acetamide, N-[4-(5-bromo-2-methoxybenzylidenamino)phenyl-
##MOLFORM=C16H15BrN2O2
##CAS REGISTRY NO=306743-60-2
##MP= -300
##BP= -300
##MW= 346
##$RETENTION INDEX=0
##$CONDENSED SPECTRUM=NO
##NPOINTS= 209
##XYDATA=(XY..XY) 1 
    34          8
    36         10
    37         25
    38         71
    39        130
    40        107
    41        106
    42        306
    43        843
    44         86
    45         17
    46          3
    47          1
    48          3
    49         22
    50         87
    51         73
    52         68
    53         35
    54         18
    55         36
    56         18
    57         27
    58         10
    59          6
    60         13
    61         24
    62         88
    63        211
    64        250
    65        208
    66         29
    67         11
    68         10
    69         18
    70         17
    71         14
    72          5
    73         15
    74         45
    75         76
    76         68
    77         54
    78         38
    79         40
    80         46
    81         30
    82         20
    83         15
    84         18
    85         10
    86          9
    87         15
    88         29
    89         64
    90        133
    91        199
    92        110
    93         24
    94          7
    95          5
    96          7
    97          7
    98          7
    99          6
   100         10
   101         13
   102         18
   103         12
   104         17
   105         25
   106        136
   107        626
   108        999
   109        111
   110         10
   111          5
   112          8
   113          8
   114          8
   115         11
   116         19
   118        478
   119        100
   120         15
   121          6
   122          2
   123          3
   125         10
   127         37
   128          9
   129          6
   130          5
   131          6
   132          8
   133         13
   134          9
   135          5
   136          2
   137          3
   139         18
   140          8
   141          5
   142          8
   143          9
   145         21
   146          6
   147          5
   149        201
   150        325
   151         40
   153         12
   154         46
   155         16
   156          8
   157          6
   159         19
   161          9
   163          2
   164         10
   166         18
   167         11
   168         14
   169         22
   171         40
   172          5
   173          3
   174          1
   175          1
   177          2
   179         13
   180         17
   182         34
   183          7
   184          6
   185          4
   186          2
   187          1
   190          1
   191          1
   192         10
   194          5
   195          6
   196         11
   197        107
   199         90
   200          5
   201          1
   205          1
   207          2
   208          5
   209          7
   210         20
   211          3
   212          2
   213          6
   214          5
   216          7
   219          1
   221          1
   223          1
   224          5
   226          1
   231          1
   234          1
   235          1
   236          1
   245          1
   246          3
   247          1
   249          0
   250          1
   252          1
   260          2
   261          7
   263          7
   267          4
   268          2
   269          2
   272          1
   273          4
   274          9
   275          5
   276          3
   278          1
   283          1
   286          2
   288         15
   289         12
   290         22
   291          2
   300          1
   301          3
   303         37
   305         23
   306         13
   330          1
   331          0
   332          1
   339          0
   341          1
   342          2
   343          4
   344          8
   345         19
   346        113
   348        137
   349         22
   350          1