##TITLE=Library Entry 84686
##JCAMP-DX=Revision 4.10 
##DATA TYPE=MASS SPECTRUM
##SAMPLE DESCRIPTION=A.A.Kutin, Moscow, Russia
##NAMES=HP
##CAS NAME=Carbamic acid,2-(2-tolyloxycarbonylamino)ethyl ester
##MOLFORM=C11H14N2O4
##CAS REGISTRY NO=306731-04-4
##MP= -300
##BP= -300
##MW= 238
##$RETENTION INDEX=0
##$CONDENSED SPECTRUM=NO
##NPOINTS= 83
##XYDATA=(XY..XY) 1 
    35          2
    36         10
    37          6
    38         21
    39         85
    40         37
    41         26
    42         68
    43         50
    44        336
    45         47
    46          2
    48          0
    50         31
    51         60
    52         36
    53         37
    54          2
    55          7
    56         13
    57          4
    58          2
    60          3
    61          4
    62         23
    63         26
    64         11
    65         56
    66          7
    67          2
    68          2
    69         19
    70         46
    71          2
    73          0
    74         18
    75          6
    77        145
    78         45
    79         79
    80         55
    81          5
    82          1
    84          0
    85          0
    86          1
    87          6
    88         62
    89         28
    90         59
    91         75
    92          7
    93          2
    94          5
    95          1
    96          0
    97          0
   103          1
   104          3
   105          4
   107        199
   108        999
   109         84
   110          6
   117          0
   118          1
   119          1
   120          5
   121         10
   122          1
   123          2
   125          0
   129          0
   131          1
   132          0
   133          1
   134          1
   135          4
   138          0
   164          1
   178          0
   238         16
   239          2