##TITLE=Library Entry 100434
##JCAMP-DX=Revision 4.10 
##DATA TYPE=MASS SPECTRUM
##SAMPLE DESCRIPTION=Chemical Concepts
##NAMES=HP
##CAS NAME=4-Chlorophenacyl p-toluate
##MOLFORM=C16H13ClO3
##CAS REGISTRY NO=306764-50-1
##MP= -300
##BP= -300
##MW= 288
##$RETENTION INDEX=0
##$CONDENSED SPECTRUM=NO
##NPOINTS= 94
##XYDATA=(XY..XY) 1 
    34          9
    36         28
    38         40
    39        179
    40         53
    41         60
    42         30
    44         53
    45          9
    46          1
    48          1
    50        138
    51         86
    52         15
    53         10
    55         15
    56          9
    57          8
    58          2
    59          2
    61         13
    62         26
    63        112
    65        336
    67          3
    68          1
    69          6
    70          5
    71          5
    73         13
    74         34
    75        171
    76         41
    77         18
    78          6
    80          6
    81          4
    82          6
    83          3
    84          8
    85         17
    87         16
    89         97
    91        487
    92         27
    94          1
    95          2
    96          2
    97          2
    98          2
    99          9
   101          6
   103          2
   104         10
   105          9
   106          2
   107          1
   109          3
   111        172
   113         61
   114          3
   116          2
   119        999
   120         78
   122          4
   123          1
   124          1
   125         19
   127          8
   128          1
   133          2
   135          1
   136          3
   137          4
   139        680
   141        257
   142         12
   143          1
   149          7
   150          2
   152         25
   153          3
   154          9
   155          2
   181          1
   183          2
   185          2
   253          9
   254          3
   287          3
   288         56
   289          9
   290         16
   291          3