##TITLE=Library Entry 22449
##JCAMP-DX=Revision 4.10 
##DATA TYPE=MASS SPECTRUM
##SAMPLE DESCRIPTION=Japan AIST/NIMC Database- Spectrum MS-NW-8344
##NAMES=HP
##CAS NAME=n-Capric acid isobutyl ester
##MOLFORM=C14H28O2
##CAS REGISTRY NO=30673-38-2
##MP= -300
##BP= -300
##MW= 228
##$RETENTION INDEX=1546
##$CONDENSED SPECTRUM=NO
##NPOINTS= 105
##XYDATA=(XY..XY) 1 
    15          2
    18          1
    26          2
    27         53
    28         24
    29        160
    30          4
    31          7
    38          1
    39         41
    40          9
    41        276
    42         58
    43        283
    44          9
    45          8
    51          1
    52          1
    53         10
    54         11
    55        142
    56        999
    57        796
    58         34
    59          7
    60        208
    61         60
    62          2
    65          1
    66          1
    67         24
    68         15
    69         79
    70         25
    71        186
    72         10
    73        139
    74         17
    75          2
    77          1
    79          4
    80          1
    81         40
    82          9
    83         45
    84         36
    85         83
    86         13
    87         50
    88          4
    89         12
    93          3
    94          1
    95         38
    96          5
    97         25
    98         28
    99          4
   100          2
   101         21
   102          3
   103         10
   107          2
   108          1
   109          3
   110         12
   111         12
   112         15
   113          5
   114          1
   115         27
   116         38
   117         10
   121          1
   123          1
   124          1
   125          3
   126          2
   127          1
   129         95
   130          8
   131          1
   135          6
   136          3
   137          8
   138          1
   139          1
   143         15
   144          2
   152          2
   153          7
   154          1
   155        417
   156         45
   157          4
   171          2
   172         74
   173        210
   174         23
   175          2
   185          1
   198          5
   213          2
   228          1
   229          1