##TITLE=Library Entry 99224
##JCAMP-DX=Revision 4.10 
##DATA TYPE=MASS SPECTRUM
##SAMPLE DESCRIPTION=A.A.Kutin, Moscow, Russia
##NAMES=HP
##CAS NAME=Benzamide, 2-methyl-N-(4-bromo-2-methylphenyl)-
##MOLFORM=C15H14BrNO
##CAS REGISTRY NO=306743-63-5
##MP= -300
##BP= -300
##MW= 303
##$RETENTION INDEX=0
##$CONDENSED SPECTRUM=NO
##NPOINTS= 161
##XYDATA=(XY..XY) 1 
    33         18
    36         23
    39        149
    41         56
    43         10
    44         10
    45          5
    46          2
    47          0
    48          0
    50         43
    51        104
    52         54
    53         19
    54          4
    55          5
    57          5
    58          1
    59          2
    60          1
    62         26
    63         74
    65        232
    66          7
    67          2
    68          1
    69          2
    70          1
    71          2
    73          2
    74         10
    75         13
    77        105
    78         72
    79         19
    80          7
    81          4
    82          6
    83          3
    84          3
    85          2
    86          3
    87          4
    89         78
    91        519
    92         25
    94          3
    95          3
    97          7
    98          1
    99          1
   100          0
   102          7
   104         56
   105         26
   106         31
   107          2
   108          0
   109          0
   111          6
   112          7
   114          1
   115          4
   116          4
   119        999
   120         74
   123          3
   124          0
   125          0
   126          0
   127          1
   128          1
   129          0
   130          0
   131          1
   132          2
   133          1
   134          0
   135          0
   136          0
   137          0
   138          0
   139          1
   140          0
   141          0
   142          0
   143          0
   144          0
   145          0
   146          0
   149          1
   150          1
   151          0
   152          1
   153          0
   154          0
   155          0
   156          0
   157          1
   159          2
   160          0
   163          0
   164          0
   165          1
   166          0
   167          0
   168          0
   169          0
   171          1
   172          0
   177          0
   178          0
   179          2
   180          4
   181          2
   182          1
   184         15
   185         14
   186         13
   187         12
   188          1
   190          0
   191          0
   192          1
   193          1
   194          4
   195          2
   196          0
   198          0
   200          0
   204          0
   206          0
   207          2
   208          2
   209          1
   210          0
   211          0
   212          0
   217          0
   219          0
   220          1
   222          8
   224        128
   225         25
   226          2
   236          1
   237          0
   252          0
   260          0
   265          0
   266          0
   286          0
   288          0
   298          0
   299          0
   301          3
   303         42
   304          9
   305         39
   306          8
   307          0