##TITLE=Library Entry 46408
##JCAMP-DX=Revision 4.10 
##DATA TYPE=MASS SPECTRUM
##SAMPLE DESCRIPTION=A.A.Kutin, Moscow, Russia
##NAMES=HP
##CAS NAME=Benzamide, 3-iodo-N-(4-bromo-2-methylphenyl)-
##MOLFORM=C14H11BrINO
##CAS REGISTRY NO=306743-40-8
##MP= -300
##BP= -300
##MW= 415
##$RETENTION INDEX=0
##$CONDENSED SPECTRUM=NO
##NPOINTS= 208
##XYDATA=(XY..XY) 1 
    33         50
    34          3
    37         54
    38         13
    39        173
    40         65
    41         31
    42         12
    43         14
    44         35
    45         12
    46          1
    50        592
    51        372
    52        228
    53        110
    54         21
    55          7
    56          3
    57          5
    58          1
    59          1
    60          4
    61         21
    62         47
    63         95
    64         38
    65         82
    66         31
    67         10
    68          1
    69          4
    70          2
    71          3
    73         28
    74        152
    75        214
    76        999
    77        400
    78        276
    79         93
    80         29
    81         15
    82         19
    83          3
    84          2
    85          4
    86          7
    87          8
    88          8
    89         32
    90         28
    91         17
    92         16
    93         43
    95          2
    96          0
    97          1
    98          1
    99          3
   100          3
   101          5
   102         21
   103         49
   104        338
   105        156
   106        212
   107         26
   108          5
   109          1
   110          1
   111          3
   112          1
   113          2
   114          1
   116          9
   117          3
   118          2
   119          3
   120          1
   121         15
   122          3
   123          1
   124          0
   125          2
   127         71
   128         34
   130          4
   131          3
   132          7
   133          2
   134          0
   137          0
   138          1
   139          8
   140          3
   141          3
   142          1
   143          1
   144          1
   145          0
   146          0
   149          2
   150          2
   151          5
   152         12
   153          8
   154          3
   155          3
   156          2
   157          7
   158          3
   159          5
   160          1
   163          1
   164          3
   165          5
   166          6
   167          3
   168          1
   169          2
   170          0
   171          1
   172          0
   175          0
   176          2
   177          3
   178          6
   179          8
   180         35
   181         14
   182          6
   184        123
   185        128
   186         86
   187        106
   188          9
   189          0
   190          1
   191          2
   192          0
   193          0
   194          0
   196          0
   197          0
   198          1
   200          5
   201         12
   203        344
   204         21
   205          1
   206          2
   207          4
   208         21
   209         39
   210         15
   211          3
   212          0
   219          0
   223          0
   224          0
   226          1
   227          3
   231        900
   232         60
   233          4
   244          3
   245          1
   247         14
   248         24
   249          2
   254          0
   258          0
   259          0
   260          1
   262         18
   263          4
   264         14
   265          3
   267          0
   288          1
   289          1
   290          0
   291          0
   327          0
   328          0
   329          1
   330          1
   331          4
   332         11
   333         27
   336        470
   337         62
   338          6
   339          0
   357          0
   370          0
   408          0
   409          1
   410          5
   411          4
   413         14
   414          9
   415         48
   416         12
   417         33
   418          4
   419          0