##TITLE=Library Entry 62999
##JCAMP-DX=Revision 4.10 
##DATA TYPE=MASS SPECTRUM
##SAMPLE DESCRIPTION=A.A.Kutin, Moscow, Russia
##NAMES=HP
##CAS NAME=Benzoic acid, 2,4-dichloro-, 4-benzyloxyphenyl ester
##MOLFORM=C20H14Cl2O3
##CAS REGISTRY NO=306743-73-7
##MP= -300
##BP= -300
##MW= 372
##$RETENTION INDEX=0
##$CONDENSED SPECTRUM=NO
##NPOINTS= 151
##XYDATA=(XY..XY) 1 
    34          2
    35         11
    36         48
    38         44
    39         75
    40         30
    41         21
    42          3
    43          4
    44         13
    45          2
    47          1
    49          5
    50         38
    51         38
    52         22
    53         19
    54         31
    55          6
    57          3
    58          0
    59          0
    60          2
    61          5
    62         12
    63         45
    65        160
    66          7
    68          0
    69          1
    70          1
    71          1
    74         58
    75         49
    77         17
    78          3
    79          2
    80          4
    81          7
    82         11
    84         12
    85          7
    86          4
    87          4
    89         34
    91        999
    92         66
    93          3
    94          0
    95          0
    96          0
    97          0
    98          0
    99          0
   100          0
   101          0
   102          0
   103          1
   104          3
   105          4
   106          2
   108          6
   109         53
   110         25
   111         18
   112          6
   113          2
   114          0
   115          2
   116          0
   117          0
   118          0
   119          1
   120          0
   121          2
   122          0
   123          0
   125          0
   126          0
   127          0
   128          0
   129          0
   131          0
   132          0
   133          0
   134          0
   135          0
   136          0
   137          0
   138          6
   139          4
   140          3
   141          2
   142          1
   145         73
   147         46
   149          9
   150          0
   151          0
   152          0
   153          0
   155          0
   156          0
   162          0
   163          0
   164          0
   165          0
   167          0
   168          0
   169          1
   173        270
   175        169
   176         13
   177         23
   178          1
   179          0
   181          0
   182          0
   183          0
   184          0
   185          0
   189          0
   190          1
   191          0
   192          0
   193          0
   197          0
   198          0
   199          0
   200          3
   201          0
   209          0
   213          0
   265          0
   281          0
   282          0
   284          0
   290          1
   330          0
   331          0
   332          0
   338          0
   367          0
   368          2
   370          2
   371          2
   372         15
   373          4
   374          6
   375          1
   376          1