##TITLE=Library Entry 14392
##JCAMP-DX=Revision 4.10 
##DATA TYPE=MASS SPECTRUM
##SAMPLE DESCRIPTION=A.A.Kutin, Moscow, Russia
##NAMES=HP
##CAS NAME=Acetic acid, 2(1,3-dihydro-5-nitro-1,3-dioxo-isoindol-2-yl)phenyl
 ester
##MOLFORM=C16H10N2O6
##CAS REGISTRY NO=306744-63-8
##MP= -300
##BP= -300
##MW= 326
##$RETENTION INDEX=0
##$CONDENSED SPECTRUM=NO
##NPOINTS= 204
##XYDATA=(XY..XY) 1 
    33          6
    34          5
    35          1
    36          5
    37          8
    38         17
    39         30
    40         60
    41         25
    43        999
    44         48
    45         12
    46          4
    48          4
    49          5
    50         32
    51         69
    52         38
    53         22
    54          3
    55          8
    56          4
    57          7
    59          0
    60          3
    61          6
    62         19
    63         50
    64         30
    65         11
    66          3
    67          2
    68          1
    69          4
    70          3
    71          4
    74        159
    75        401
    76         46
    77         27
    78         43
    79         22
    80          6
    81          3
    82          2
    83          3
    84          2
    85          2
    86          2
    87          5
    88          5
    89          5
    90          6
    91         21
    92         16
    93          4
    94          0
    95          1
    96          1
    97          2
    98          1
    99          3
   100          5
   101         16
   103        255
   104         25
   105          7
   106         11
   107          2
   108          1
   109          4
   110          2
   111          1
   112          2
   113          3
   114          3
   115          6
   116          2
   117          2
   118          3
   119         10
   120          4
   121          1
   122          1
   123          1
   124          2
   125          5
   126         24
   127         23
   128          7
   129         12
   130          1
   131          0
   132          1
   133          1
   134          1
   135          3
   136          0
   137          3
   138          5
   139         29
   140         22
   141          5
   142          2
   143          1
   144          1
   145          2
   147          3
   149         62
   150          8
   151          3
   152         12
   153         25
   154          9
   155          3
   156          1
   157          0
   158          0
   159          0
   160          0
   161          0
   162          1
   164         12
   165          7
   166         21
   167          3
   168          2
   169          3
   170          1
   171          1
   173          0
   174          0
   175          2
   176          0
   177          1
   178          1
   181         18
   182         35
   183          5
   184          1
   185          0
   187          0
   189          0
   190          1
   192         12
   194        216
   195         26
   196          4
   197          1
   198          0
   200          0
   201          0
   202          0
   206          0
   209         52
   210         43
   211          5
   212          1
   217          0
   219          1
   220          3
   221          5
   222          0
   223          0
   224          1
   225          0
   226          1
   227          1
   228          0
   229          0
   230          0
   232          0
   233          0
   234          0
   235          1
   237         14
   240        260
   241         31
   242          4
   243          1
   251          0
   252          0
   254         11
   255         16
   256          5
   265          0
   266          0
   267          2
   268          2
   269          0
   276          1
   278          1
   279          3
   281         52
   284        417
   285         56
   286          6
   287          0
   296          0
   323          0
   324          3
   326         16
   327          2
   328          0