##TITLE=Library Entry 22050
##JCAMP-DX=Revision 4.10 
##DATA TYPE=MASS SPECTRUM
##SAMPLE DESCRIPTION=Japan AIST/NIMC Database- Spectrum MS-NW-1883
##NAMES=HP
##CAS NAME=Butyl caprate
##MOLFORM=C14H28O2
##CAS REGISTRY NO=30673-36-0
##MP= -300
##BP= -300
##MW= 228
##$RETENTION INDEX=1589
##$CONDENSED SPECTRUM=NO
##NPOINTS= 114
##XYDATA=(XY..XY) 1 
    14          1
    15          5
    17          2
    18          7
    26          7
    27        120
    28         35
    29        339
    30          7
    31         19
    32          9
    38          2
    39         69
    40         15
    41        451
    42         84
    43        374
    44         11
    45         15
    50          2
    51          3
    52          2
    53         18
    54         19
    55        214
    56        999
    57        434
    58         18
    59         10
    60        273
    61        118
    62          4
    63          1
    65          2
    66          1
    67         25
    68         22
    69        107
    70         26
    71        144
    72          9
    73        207
    74         24
    75          5
    77          2
    79          5
    80          2
    81         31
    82         10
    83         50
    84         39
    85         62
    86          8
    87         49
    88          5
    89         22
    90          1
    91          1
    93          4
    94          2
    95         27
    96          4
    97         29
    98         30
    99          6
   100          2
   101         55
   102          5
   103         18
   104          1
   107          3
   108          1
   109          4
   110         11
   111         13
   112          9
   113          4
   114          1
   115         26
   116         73
   117         21
   118          1
   121          1
   123          1
   125          4
   126          2
   127          1
   129        109
   130         10
   131          2
   135          6
   136          2
   137          5
   139          2
   143         19
   144          2
   152          2
   153          8
   154          2
   155        241
   156         26
   157          4
   171          5
   172         45
   173        348
   174         39
   175          3
   178          1
   185         14
   186          2
   199          4
   201          1
   228         14
   229          3