##TITLE=Library Entry 48264
##JCAMP-DX=Revision 4.10 
##DATA TYPE=MASS SPECTRUM
##SAMPLE DESCRIPTION=Asinex Ltd, Moscow, Russia
##NAMES=HP
##CAS NAME=1-(4-Iodo-phenyl)-3-(pyridine-3-carbonyl)-thiourea
##MOLFORM=C13H10IN3OS
##CAS REGISTRY NO=306766-65-4
##MP= -300
##BP= -300
##MW= 383
##$RETENTION INDEX=0
##$CONDENSED SPECTRUM=NO
##NPOINTS= 163
##XYDATA=(XY..XY) 1 
    33         24
    34         60
    35          3
    36          2
    37         11
    38         67
    39         77
    40         24
    41         11
    42          5
    44          8
    45         23
    46          1
    48         12
    49          9
    50        318
    51        665
    52        160
    53         47
    54          6
    58         17
    59         10
    60         10
    61          8
    62         43
    63        166
    64        149
    65        162
    66         19
    69          6
    70          3
    74         20
    75         55
    76         70
    77         53
    78        999
    79         75
    80          7
    82          3
    83          3
    84          1
    85          0
    86          5
    88          2
    89         14
    90        105
    91         49
    92         61
    93          9
    94          1
    95          1
    96          7
   102          4
   103          1
   104          1
   105         33
   106        941
   107         90
   108         17
   109          2
   110          9
   111          1
   112          1
   113          0
   115          2
   116         26
   117          8
   118          5
   120          0
   122         17
   123         34
   124          3
   125          0
   127         31
   128         24
   129          0
   131          0
   133         10
   134        112
   135         22
   136          2
   140          2
   141          0
   143          0
   145          0
   146          0
   147          2
   148         92
   149          5
   150        117
   151          4
   152          2
   153          2
   154          0
   155          0
   163          0
   164          0
   165         19
   166          0
   175          0
   177          3
   185          0
   190          0
   191         28
   192          2
   193          0
   203         18
   204          0
   206          0
   207          0
   212          0
   215          0
   216          0
   217          0
   218         25
   219        252
   220         19
   221          0
   222          0
   226          0
   227          0
   229          0
   230          0
   231          6
   232          0
   235          2
   236         32
   237          1
   238          1
   243         21
   244         20
   245         15
   246          1
   255          0
   256          0
   260          7
   261        521
   262         47
   263         28
   264          1
   266          0
   272          0
   285          0
   286          0
   296          0
   305          0
   324          3
   325          0
   328          0
   339          0
   345          0
   348          0
   349         69
   354          0
   355          0
   365          0
   367          1
   368          0
   382         51
   383        702
   384        108
   385         45
   386          5