##TITLE=Library Entry 84727
##JCAMP-DX=Revision 4.10 
##DATA TYPE=MASS SPECTRUM
##SAMPLE DESCRIPTION=A.A.Kutin, Moscow, Russia
##NAMES=HP
##CAS NAME=Butanoic acid, 4-(3-methyl-2-pyridylamino)-4-oxo-, cyclohexylmeth
yl ester
##MOLFORM=C17H24N2O3
##CAS REGISTRY NO=306746-78-1
##MP= -300
##BP= -300
##MW= 304
##$RETENTION INDEX=0
##$CONDENSED SPECTRUM=NO
##NPOINTS= 129
##XYDATA=(XY..XY) 1 
    33          3
    34          0
    37          2
    39        135
    41        244
    42         38
    43         39
    45         27
    46          0
    47          0
    50          4
    51         12
    52         16
    53         58
    55        656
    57         39
    58          0
    59          0
    60          0
    62          1
    63          7
    64         16
    65         82
    66         31
    67         81
    68         35
    69         25
    70          1
    71          1
    73         16
    74          2
    75          0
    77         10
    78          8
    79         17
    80         79
    81        181
    83         54
    84          5
    85          0
    86          0
    87          0
    91         37
    92        159
    93         21
    94          6
    95         22
    97        480
    98         22
   101        123
   103          5
   104          0
   105          4
   108        999
   109        136
   110          9
   111          1
   112          1
   113          1
   114          5
   115          0
   116          0
   117          0
   118          1
   119          6
   120          5
   121         29
   122          2
   123          0
   125          0
   131          0
   132          1
   133         16
   135        605
   136         48
   137          2
   138          0
   141          0
   143          0
   145         26
   146          3
   147          8
   148          3
   149          8
   150          1
   151          0
   153          0
   159          0
   161          9
   163        225
   164        109
   165         10
   166          0
   173          0
   175          0
   177          0
   179          0
   188          0
   189          2
   190          8
   191         46
   192          5
   193          0
   195          0
   196          0
   197          5
   198          0
   203          0
   207          3
   208         10
   209         57
   210          5
   211          0
   215          0
   222         16
   223          1
   235          0
   249          0
   260          0
   261          0
   263          0
   276          0
   287          0
   289          0
   290          0
   304        121
   305         27
   306          3
   307          0