##TITLE=Library Entry 38965
##JCAMP-DX=Revision 4.10 
##DATA TYPE=MASS SPECTRUM
##SAMPLE DESCRIPTION=D.HENNEBERG, MAX-PLANCK INSTITUTE, MULHEIM, WEST GERMAN
Y
##NAMES=HP
##CAS NAME=Tetrahydro-2-furanylmethanol, TMS derivative
##MOLFORM=C8H18O2Si
##CAS REGISTRY NO=3067-36-5
##MP= -300
##BP= -300
##MW= 174
##$RETENTION INDEX=0
##$CONDENSED SPECTRUM=NO
##NPOINTS= 96
##XYDATA=(XY..XY) 1 
    24          0
    25          0
    26          4
    27         39
    28         22
    29         26
    30          1
    31         10
    35          6
    36          0
    37          0
    38          0
    39         20
    40          3
    41         55
    42         26
    43        246
    44         19
    45         73
    46          5
    47         29
    48          1
    49          1
    50          0
    51          1
    52          0
    53          5
    54          3
    55         13
    56          4
    57         10
    58         16
    59         50
    60          7
    61         21
    62          1
    63          1
    64          0
    65          1
    66          0
    67         18
    68          2
    69          4
    70        160
    71        999
    72         52
    73        224
    74         19
    75        298
    76         21
    77         15
    78          0
    79          1
    80          0
    81          0
    82          0
    83          6
    84          6
    85          8
    86          1
    87          4
    88          3
    89         17
    90          1
    91          1
    93          0
    97          0
    99         19
   100          2
   101         70
   102          6
   103         32
   104          3
   105         19
   106          1
   107          0
   111          1
   113          3
   114          0
   115          3
   116          7
   117         16
   118          1
   119          0
   125          2
   127          0
   129         21
   130          2
   131          7
   132          0
   141         30
   142          4
   143          1
   159        134
   160         16
   161          5