##TITLE=Library Entry 39276
##JCAMP-DX=Revision 4.10 
##DATA TYPE=MASS SPECTRUM
##SAMPLE DESCRIPTION=A.A.Kutin, Moscow, Russia
##NAMES=HP
##CAS NAME=Oxamide, N-(2-tetrahydrofurylmethyl)-N'-(2-phenylethyl)-
##MOLFORM=C15H20N2O3
##CAS REGISTRY NO=306742-83-6
##MP= -300
##BP= -300
##MW= 276
##$RETENTION INDEX=0
##$CONDENSED SPECTRUM=NO
##NPOINTS= 71
##XYDATA=(XY..XY) 1 
    34          0
    36          5
    39        136
    40         64
    41        226
    43        516
    44         50
    50         15
    51         49
    52         13
    53         20
    55         78
    56         49
    57         40
    58         17
    59          3
    60          1
    61          0
    63         23
    65         71
    67         40
    71        999
    73          3
    75          4
    77         83
    78         32
    79         59
    82         40
    84        186
    85         31
    86          7
    87          3
    89         10
    91        127
    92         16
    95          0
    96          0
    97          0
    98          2
    99          1
   100         15
   101          6
   104        517
   105        149
   106          7
   109          0
   110          3
   111          0
   112          0
   114          4
   115          5
   117          1
   118          3
   119          5
   120          8
   121          0
   128         33
   129          1
   147          2
   148         12
   149          7
   171         16
   172          0
   185         16
   193          3
   205          2
   206         10
   207          2
   219          7
   276         53
   277          6