##TITLE=Library Entry 13095
##JCAMP-DX=Revision 4.10 
##DATA TYPE=MASS SPECTRUM
##SAMPLE DESCRIPTION=A.A.Kutin, Moscow, Russia
##NAMES=HP
##CAS NAME=Benzamide, 2,4-dichloro-N-(3-acetylaminophenyl)-
##MOLFORM=C15H12Cl2N2O2
##CAS REGISTRY NO=306743-42-0
##MP= -300
##BP= -300
##MW= 322
##$RETENTION INDEX=0
##$CONDENSED SPECTRUM=NO
##NPOINTS= 220
##XYDATA=(XY..XY) 1 
    34          4
    39         59
    40         61
    41         44
    43        999
    44         22
    45         11
    47          3
    48          4
    49         10
    50         70
    51         68
    52        154
    53        149
    54         29
    55         26
    56         10
    57         20
    58         11
    60          9
    61         13
    62         19
    63         48
    64         25
    65         27
    66         12
    67          7
    68          4
    69          7
    70          6
    71         10
    72          6
    73         26
    74        111
    75        138
    76         23
    77         23
    78         36
    79         65
    80        192
    81         20
    82          5
    83          6
    84         24
    85         20
    86         10
    87         12
    88         11
    89          5
    90         14
    91         12
    92          7
    93          9
    94          3
    95          3
    96          2
    97          5
    98          2
    99          4
   100          3
   101          3
   102          2
   103          4
   104          7
   105         29
   106         43
   107        498
   108         62
   109        224
   110         66
   111         66
   112         22
   113         11
   114          1
   115          2
   116          0
   117          1
   118          2
   119          5
   120          3
   121          3
   122          5
   123          3
   124          1
   125          2
   126          3
   127          8
   128          5
   129          1
   130          0
   131          0
   132          1
   133          2
   134          7
   135          3
   136          3
   137          3
   138         19
   139         32
   140          9
   141          9
   142          1
   143          2
   145        218
   146         14
   147        140
   148          9
   149         55
   150         11
   151         13
   152          4
   153          2
   154          4
   155          4
   156          1
   157          1
   158          0
   159          1
   160          0
   161          0
   162          1
   163          0
   164          1
   165          1
   166          1
   167          1
   168          1
   169          2
   173        797
   174         62
   175        512
   176         39
   177         82
   178          6
   188          1
   189          1
   190          3
   191          1
   192          2
   193          3
   194          0
   195          3
   196          0
   197          1
   198          0
   199          0
   200          1
   201          1
   202          0
   203          0
   204          0
   205          0
   206          0
   207          0
   208          0
   209          1
   210          2
   211          0
   213          0
   214          0
   215          1
   216          3
   217          2
   218          1
   219          1
   220          0
   223          0
   224          0
   225          0
   226          0
   227          0
   228          0
   229          0
   230          0
   231          0
   232          0
   241          0
   243          1
   244          8
   245          5
   246          4
   247          1
   248          1
   249          0
   250          0
   251          0
   252          0
   253          0
   254          0
   259          0
   260          0
   261          0
   263          0
   269          0
   275          0
   277          2
   278         12
   279         16
   280        111
   281         24
   282         72
   283         12
   284         11
   285          2
   286          1
   287          2
   288          3
   289          1
   290          1
   315          0
   316          0
   318          7
   320          9
   321         25
   322        129
   323         37
   324         84
   325         16
   326         14
   327          2