##TITLE=Library Entry 47037
##JCAMP-DX=Revision 4.10 
##DATA TYPE=MASS SPECTRUM
##SAMPLE DESCRIPTION=A.A.Kutin, Moscow, Russia
##NAMES=HP
##CAS NAME=Propanamide, 3-benzoylamino-N-(2-phenylethyl)-
##MOLFORM=C18H20N2O2
##CAS REGISTRY NO=306743-36-2
##MP= -300
##BP= -300
##MW= 296
##$RETENTION INDEX=0
##$CONDENSED SPECTRUM=NO
##NPOINTS= 136
##XYDATA=(XY..XY) 1 
    34          0
    35          0
    37         10
    38         22
    39        158
    40         23
    41         69
    42        105
    43        146
    44        101
    45         11
    46          1
    49          7
    50        159
    51        437
    52         54
    53         20
    54         13
    55        103
    56         23
    57         11
    58          6
    59          6
    61          6
    62         21
    63         67
    64         26
    65        247
    66         13
    67          4
    68          4
    70         29
    71          8
    72         26
    73         10
    74         36
    75         42
    77        999
    78        102
    79         57
    81          8
    82          2
    83          2
    84          4
    85          1
    87         25
    89         54
    91        489
    92         42
    93          6
    95          1
    96          0
    98          3
    99          4
   100          4
   101          4
   102         19
   103         81
   104        401
   105        818
   106         61
   107          4
   109          0
   111          0
   112          0
   113          0
   114          0
   115          3
   116          1
   117          9
   118         15
   119         15
   120         30
   122         16
   123          0
   125          0
   126          0
   127          1
   128          2
   130          4
   131          2
   132          2
   134         65
   135          5
   136          0
   137          0
   138          0
   140          0
   141          0
   143          1
   144          0
   146          8
   147          8
   148          9
   149          4
   150          0
   151          0
   152          0
   153          0
   154          0
   155          0
   156          0
   157          0
   160          0
   161          0
   162          0
   163          0
   165          0
   167          0
   169          0
   170          0
   171          0
   172          0
   173          1
   174          4
   175          9
   176        129
   177         15
   178          1
   179          0
   181          0
   188          0
   190          0
   191          7
   192          1
   193          1
   194          0
   195          0
   202          0
   204          0
   205          5
   207          0
   224          0
   295          2
   296          7
   297          1