##TITLE=Library Entry 45118
##JCAMP-DX=Revision 4.10 
##DATA TYPE=MASS SPECTRUM
##SAMPLE DESCRIPTION=Japan AIST/NIMC Database- Spectrum MS-NW-4353
##NAMES=HP
##CAS NAME=1,2,4-Butanetriol
##MOLFORM=C4H10O3
##CAS REGISTRY NO=3068-00-6
##MP= -300
##BP= -300
##MW= 106
##$RETENTION INDEX=0
##$CONDENSED SPECTRUM=NO
##NPOINTS= 63
##XYDATA=(XY..XY) 1 
    13          2
    14          9
    15         77
    16          2
    17          9
    18         45
    19         16
    25          3
    26         29
    27        203
    28         99
    29        333
    30         31
    31        726
    32         64
    33         13
    36          1
    37          7
    38          9
    39         69
    40         26
    41        101
    42         64
    43        276
    44         91
    45        833
    46         31
    47         50
    48          1
    49         35
    50          6
    51          3
    52          1
    53          6
    54          3
    55         44
    56         23
    57        661
    58        226
    59         22
    60         55
    61        106
    62          3
    63          1
    65          1
    68          3
    69         18
    70         45
    71         15
    72          4
    73         18
    74         11
    75        999
    76         47
    77          7
    84          1
    85          1
    86          2
    87          8
    88         11
    89          2
    91          1
   105          1