##TITLE=Library Entry 4527
##JCAMP-DX=Revision 4.10 
##DATA TYPE=MASS SPECTRUM
##SAMPLE DESCRIPTION=NIST Mass Spectrometry Data Center
##NAMES=HP
##CAS NAME=2-Oxetanone, 4-methyl-
##MOLFORM=C4H6O2
##CAS REGISTRY NO=3068-88-0
##MP= -300
##BP= -300
##MW= 86
##$RETENTION INDEX=732
##$CONDENSED SPECTRUM=NO
##NPOINTS= 30
##XYDATA=(XY..XY) 1 
    12          1
    13          5
    14         27
    15         57
    16          2
    19          1
    20          1
    24          1
    25          7
    26         38
    27         96
    29         75
    30          1
    31          3
    35          1
    36          4
    37         27
    38         43
    39        141
    40         60
    41        223
    42        999
    43        481
    44         37
    45         10
    53          2
    55          1
    68          2
    69          2
    71         18