##TITLE=Library Entry 2282
##JCAMP-DX=Revision 4.10 
##DATA TYPE=MASS SPECTRUM
##SAMPLE DESCRIPTION=A.A.Kutin, Moscow, Russia
##NAMES=HP
##CAS NAME=Cycloheptano[d]imidazolidine, 1,3-dihydroxy-2-methyl-
##MOLFORM=C9H18N2O2
##CAS REGISTRY NO=306947-39-7
##MP= -300
##BP= -300
##MW= 186
##$RETENTION INDEX=0
##$CONDENSED SPECTRUM=NO
##NPOINTS= 59
##XYDATA=(XY..XY) 1 
    33          3
    39        650
    40        193
    41        999
    42        705
    43        174
    44        303
    45         64
    46         37
    50         11
    51         48
    52         56
    53        182
    54        305
    55        364
    56        187
    57         66
    58         52
    59        134
    60        277
    61          2
    63          2
    65         52
    66         46
    67        258
    68        150
    69        122
    70         60
    71          9
    72         33
    73          2
    77         36
    78          5
    79         46
    80         73
    81        126
    82        124
    83         47
    84         22
    85          4
    86         32
    91         12
    93         27
    94         25
    95         71
    96         49
    97         15
    98         71
    99         29
   100          1
   108         19
   109         19
   110        122
   111          6
   124          2
   125         29
   126         10
   169          6
   186         30