##TITLE=Library Entry 24983
##JCAMP-DX=Revision 4.10 
##DATA TYPE=MASS SPECTRUM
##SAMPLE DESCRIPTION=NIST Mass Spectrometry Data Center, 1990.
##NAMES=HP
##CAS NAME=5-Tridecanone
##MOLFORM=C13H26O
##CAS REGISTRY NO=30692-16-1
##MP= -300
##BP= -300
##MW= 198
##$RETENTION INDEX=1362
##$CONDENSED SPECTRUM=NO
##NPOINTS= 48
##XYDATA=(XY..XY) 1 
    14         12
    27        120
    28         30
    29        250
    39        133
    41        575
    42        144
    43        341
    44         15
    53         53
    55        308
    56        123
    57        999
    58        847
    59        111
    65         10
    67         67
    68         20
    69         60
    70         10
    71        510
    72        108
    79         14
    81         86
    82         34
    83         41
    84         14
    85        615
    86         38
    95         33
    96        101
    97         21
    98         37
    99         21
   100        211
   101        112
   102          9
   109         13
   113        131
   114         26
   123         25
   127         41
   138          8
   141        275
   142         37
   156         33
   169         26
   198         18