##TITLE=Library Entry 54402
##JCAMP-DX=Revision 4.10 
##DATA TYPE=MASS SPECTRUM
##SAMPLE DESCRIPTION=Div. of Experiment Therapeutics WRAIR, WRAMC, Washingto
n DC 20307
##NAMES=HP
##CAS NAME=.alpha.-[2-Piperidyl]-6,8-dimethyl-3-quinolinemethanol
##MOLFORM=C17H22N2O
##CAS REGISTRY NO=30697-24-6
##MP= -300
##BP= -300
##MW= 270
##$RETENTION INDEX=0
##$CONDENSED SPECTRUM=NO
##NPOINTS= 73
##XYDATA=(XY..XY) 1 
    41         23
    42         25
    43          8
    44          3
    47          2
    49         14
    51         11
    53          8
    54          9
    55         40
    56         92
    57          9
    63          6
    65          6
    67         13
    68          9
    69          6
    70          4
    77         10
    78          5
    80          5
    82         15
    84        999
    85         50
    86          7
    89          4
    90          1
    91          8
    96          1
    97         15
    98          2
   102          4
   103          1
   104          1
   106          1
   115         15
   116          5
   117          4
   127         12
   128         13
   129          6
   130          4
   139          1
   140          2
   141         11
   142         12
   143         17
   144          2
   152          1
   154         12
   156         21
   158         47
   159          4
   167          1
   168          2
   170         11
   171          1
   180          3
   181          2
   184         10
   186        139
   187        528
   188         51
   189          4
   191          4
   194          2
   196          1
   198          4
   255          7
   256          1
   269          2
   270         12
   271          2