##TITLE=Library Entry 45485
##JCAMP-DX=Revision 4.10 
##DATA TYPE=MASS SPECTRUM
##SAMPLE DESCRIPTION=Exported from NIST MS Search
##NAMES=HP
##CAS NAME=Glucopyranoside, methyl 4-deoxy-4-fluoro-2,3-di-O-methyl-, acetat
e, .alpha.-D-
##MOLFORM=C11H19FO6
##CAS REGISTRY NO=30694-48-5
##MP= -300
##BP= -300
##MW= 266
##$RETENTION INDEX=0
##$CONDENSED SPECTRUM=NO
##NPOINTS= 55
##XYDATA=(XY..XY) 1 
    39         95
    41        175
    42        133
    43        874
    44        137
    45        524
    53         36
    55         35
    57         35
    58        260
    59        200
    60         42
    61         30
    63         35
    69        103
    70         85
    71        175
    73        627
    74         47
    75        999
    76        260
    77         50
    80         36
    85         35
    86        175
    87        521
    88        999
    89        522
    90         25
    99         40
   101         83
   102         25
   103         35
   105         35
   111         50
   113         85
   115         85
   116         41
   117        112
   119         33
   130         95
   131         40
   141         25
   143         93
   145         35
   161         35
   174        435
   175         85
   177        147
   183         10
   185          8
   193         10
   203        147
   204         16
   235         27