##TITLE=Library Entry 1537
##JCAMP-DX=Revision 4.10 
##DATA TYPE=MASS SPECTRUM
##SAMPLE DESCRIPTION=RADIAN CORP
##NAMES=HP
##CAS NAME=1-Octanol, 2,2,3,3,4,4,5,5,6,6,7,7,8,8,8-pentadecafluoro-
##MOLFORM=C8H3F15O
##CAS REGISTRY NO=307-30-2
##MP= -300
##BP= -300
##MW= 400
##$RETENTION INDEX=0
##$CONDENSED SPECTRUM=NO
##NPOINTS= 72
##XYDATA=(XY..XY) 1 
    29        111
    30         15
    31        999
    32         11
    33         39
    42          7
    44          2
    45          6
    47          3
    49        141
    50         13
    51         61
    57          2
    60          5
    61         87
    62         16
    63          6
    64         12
    67          6
    69        361
    70          4
    71          3
    74          3
    75         10
    79          8
    80         17
    81         46
    82          5
    83          8
    91          7
    93         36
    94          4
    95         18
    97          7
    99          7
   100        140
   101          7
   109          4
   111         26
   112         11
   113         28
   117          3
   119        109
   120          2
   124          3
   125          2
   131        301
   132         10
   133          5
   141          3
   143          7
   144          3
   145          2
   150          4
   161          5
   162          8
   163          5
   169         29
   175          3
   181         29
   193          3
   213          3
   219          2
   225          2
   231         10
   243          3
   263          2
   269          2
   311          2
   313          7
   350          2
   381          2