##TITLE=Library Entry 55553
##JCAMP-DX=Revision 4.10 
##DATA TYPE=MASS SPECTRUM
##SAMPLE DESCRIPTION=Exported from NIST MS Search
##NAMES=HP
##CAS NAME=Hexane, 1,2,3,4,5,6-hexachlorooctafluoro-
##MOLFORM=C6Cl6F8
##CAS REGISTRY NO=307-25-5
##MP= -300
##BP= -300
##MW= 434
##$RETENTION INDEX=0
##$CONDENSED SPECTRUM=NO
##NPOINTS= 211
##XYDATA=(XY..XY) 1 
    18          2
    28          6
    31         32
    32          1
    35          4
    36          4
    37          1
    38          1
    47         10
    49          3
    50          3
    51          1
    55          5
    59          1
    62          1
    66         13
    67          1
    68          4
    69        131
    70          2
    71          3
    73          1
    74         12
    75          1
    78          7
    79          3
    80          3
    81          2
    82         10
    83          1
    84          6
    85        999
    86         15
    87        320
    88          3
    90          7
    91          1
    92          3
    93         40
    94          3
    95          1
    96          1
    97          4
    98          3
    99          1
   100          1
   101        195
   102          4
   103        118
   104          2
   105         23
   106          2
   108          1
   109         40
   110          2
   111         13
   112          2
   113          5
   114          1
   115          4
   116         45
   117         14
   118         16
   119         10
   121          5
   123          1
   124          4
   125         10
   126          1
   127          6
   128          2
   129          5
   130          1
   131         29
   132         27
   133          3
   134         17
   135         89
   136          6
   137         29
   138          1
   139          1
   140          3
   141          1
   142          1
   143          5
   144          1
   145          1
   147         45
   148         10
   149         15
   150          9
   151        569
   152         15
   153        363
   154          8
   155         62
   156          3
   158          1
   159          6
   161          2
   163        133
   164          5
   165         86
   166          3
   167         41
   168          1
   169         26
   171         11
   173          2
   175          4
   177          3
   178          4
   179         30
   180          2
   181         28
   182          3
   183         10
   184          1
   185          4
   186          1
   187          2
   189          1
   190          1
   191          1
   193          1
   194          2
   195          1
   196          1
   197          5
   198          3
   199          2
   200          3
   201         54
   202          3
   203         35
   204          1
   205          6
   206          1
   207          1
   209          2
   210          1
   211          1
   212          1
   213         68
   214          4
   215         44
   216          3
   217         49
   218          3
   219         41
   220          2
   221         14
   222          1
   223          2
   224          1
   225          3
   227          2
   229         26
   230          1
   231         25
   232          1
   233         94
   234          3
   235        111
   236          4
   237         53
   238          2
   239         11
   241          3
   243          2
   245          1
   247          1
   249          1
   251          6
   253          4
   255          1
   256          1
   257          1
   259          1
   261          1
   265          2
   266          2
   267         12
   269         11
   271          3
   273          1
   279          4
   281          4
   283        144
   285        182
   287         89
   289         19
   291          9
   293          7
   295          3
   297          1
   299          1
   314          1
   316          1
   318          1
   329          5
   331          5
   333          2
   335          1
   345          1
   347          1
   349          1
   364          2
   366          2
   368          1