##TITLE=Library Entry 1502
##JCAMP-DX=Revision 4.10 
##DATA TYPE=MASS SPECTRUM
##SAMPLE DESCRIPTION=Chemical Concepts
##NAMES=HP
##CAS NAME=1H,1H,11H-Eicosafluoro-1-undecanol
##MOLFORM=C11H4F20O
##CAS REGISTRY NO=307-70-0
##MP= -300
##BP= -300
##MW= 532
##$RETENTION INDEX=1073
##$CONDENSED SPECTRUM=NO
##NPOINTS= 260
##XYDATA=(XY..XY) 1 
    25          0
    26          0
    27          0
    29         97
    30         10
    31        999
    33         26
    34          0
    37          0
    39          0
    40          4
    41          0
    42          2
    43          1
    44          1
    45          4
    46          0
    47          2
    48          0
    49        159
    50          6
    51        390
    52          3
    53          0
    55          0
    56          1
    57          1
    59          0
    60          3
    61         96
    62         11
    63          4
    64          7
    65          4
    66          0
    67          4
    68          0
    69        207
    70          2
    71          2
    73          1
    74          1
    75          8
    76          1
    77          0
    78          0
    79          7
    80         11
    81         48
    82         18
    83          9
    84          0
    85          0
    86          0
    87          0
    88          0
    89          1
    90          0
    91          5
    92          0
    93         27
    94          3
    95         20
    96          0
    97         10
    98          0
    99          7
   100         67
   101         67
   102          1
   103          0
   104          0
   105          1
   106          1
   107          0
   108          0
   109          2
   110          0
   111         27
   112          7
   113         65
   114          3
   115          0
   116          0
   117          4
   118          0
   119         47
   120          1
   121          0
   122          0
   123          0
   124          2
   125          3
   126          0
   127          0
   129          3
   130          0
   131        372
   132         12
   133          6
   134          0
   135          0
   136          0
   137          1
   138          0
   140          0
   141          4
   142          1
   143         11
   144          6
   145          5
   146          0
   147          0
   149          0
   150          2
   151         25
   152          1
   153          0
   154          0
   155          1
   156          0
   157          0
   158          0
   159          0
   160          0
   161         11
   162         12
   163         29
   164          1
   165          0
   167          0
   168          0
   169         15
   170          0
   171          0
   172          0
   173          2
   174          0
   175          5
   176          0
   178          0
   179          0
   181         42
   182          3
   183          1
   186          0
   187          0
   188          0
   191          1
   192          0
   193          6
   194          0
   195          2
   196          0
   197          0
   199          0
   201          2
   202          0
   203          0
   205          0
   206          0
   207          0
   209          0
   211          4
   212          1
   213          8
   214          0
   217          0
   218          0
   219          2
   220          0
   223          2
   224          0
   225          2
   226          0
   229          0
   231         18
   232          2
   233          0
   237          0
   241          0
   243          1
   244          0
   245          0
   247          0
   249          0
   250          0
   251          0
   253          0
   255          0
   257          0
   261          1
   263          3
   264          0
   269          0
   273          0
   275          0
   276          0
   281          2
   282          0
   287          0
   291          0
   293          0
   295          0
   296          0
   301          0
   305          0
   307          0
   311          0
   313          2
   314          0
   323          0
   325          0
   329          0
   331          3
   332          0
   341          0
   342          0
   343          0
   345          0
   346          0
   357          0
   361          0
   363          3
   364          0
   373          0
   375          1
   381          0
   382          0
   391          0
   393          0
   395          1
   401          0
   405          0
   411          0
   413          0
   423          1
   424          0
   427          0
   429          0
   431          0
   432          0
   441          0
   443          2
   445         11
   446          1
   449          0
   461          0
   463          1
   473          0
   482          2
   483          0
   493          6
   494          0
   495          0
   513         19
   514          2
   515          0
   531          1
   533          0