##TITLE=Library Entry 89243
##JCAMP-DX=Revision 4.10 
##DATA TYPE=MASS SPECTRUM
##SAMPLE DESCRIPTION=Chemical Concepts
##NAMES=HP
##CAS NAME=3-Morpholino-1-(4-nitrophenyl)-2-pyrazolin-5-one
##MOLFORM=C13H14N4O4
##CAS REGISTRY NO=30707-79-0
##MP= -300
##BP= -300
##MW= 290
##$RETENTION INDEX=0
##$CONDENSED SPECTRUM=NO
##NPOINTS= 99
##XYDATA=(XY..XY) 1 
    34         22
    35         16
    36         49
    37         38
    38         81
    39        219
    40        310
    41        685
    42        369
    43        210
    44        144
    45        108
    46         18
    50        185
    51         80
    52         94
    53        128
    54        291
    55        154
    56        361
    57        294
    58         51
    59         14
    61         25
    62         58
    63        132
    64         84
    65         33
    66         32
    67         75
    68        128
    69         40
    70         36
    71         14
    72         14
    73         20
    74         47
    75        114
    76        141
    77         87
    79         38
    80         47
    81         20
    82         26
    83         18
    84         44
    86        241
    87        109
    88         30
    90        112
    91         27
    92         30
    93         10
    94          9
    95          9
    96          9
    98         13
    99          9
   100         11
   101          9
   102         15
   103         18
   105        102
   106         29
   108         17
   109         28
   110         38
   112        999
   113         58
   115         18
   117         11
   118          9
   120         11
   121          9
   122         34
   123          9
   129         10
   130          9
   131          9
   136         20
   145         10
   146          9
   149         13
   150         11
   151          9
   152          9
   153         12
   157         18
   158         17
   173         12
   185         14
   231         84
   232         19
   244         28
   249          9
   287          9
   288         35
   290        612
   291         64