##TITLE=Library Entry 3271
##JCAMP-DX=Revision 4.10 
##DATA TYPE=MASS SPECTRUM
##SAMPLE DESCRIPTION=B. F. SMITH
##NAMES=HP
##CAS NAME=Butanoic acid, 3-methyl-2-methylene-, methyl ester
##MOLFORM=C7H12O2
##CAS REGISTRY NO=3070-67-5
##MP= -300
##BP= -300
##MW= 128
##$RETENTION INDEX=0
##$CONDENSED SPECTRUM=NO
##NPOINTS= 69
##XYDATA=(XY..XY) 1 
    13          9
    14         39
    15        592
    16         11
    17         20
    18         72
    25          5
    26         81
    27        448
    28         98
    29        133
    30         24
    31         30
    32          2
    33          6
    37         14
    38         39
    39        394
    40         70
    41        999
    42         96
    43        125
    44         33
    45         62
    49          5
    50         46
    51         82
    52         40
    53        323
    54         94
    55        160
    56         22
    57         19
    58          6
    59        349
    60         12
    61          4
    62          5
    63          9
    64          3
    65         21
    66         18
    67        174
    68        187
    69        715
    70         46
    71         17
    72          6
    73        242
    74         27
    79          3
    81        140
    82         17
    83         13
    85         50
    86         19
    87         34
    88          4
    95         39
    96        230
    97        307
    98         23
    99         10
   100          5
   113        142
   114         10
   127          6
   128        229
   129         19