##TITLE=Library Entry 44899
##JCAMP-DX=Revision 4.10 
##DATA TYPE=MASS SPECTRUM
##SAMPLE DESCRIPTION=Div. of Experiment Therapeutics WRAIR, WRAMC, Washingto
n DC 20307
##NAMES=HP
##CAS NAME=5-Methylthio-7-aminofurazano[3,4-d]pyrimidine
##MOLFORM=C5H5N5OS
##CAS REGISTRY NO=30708-68-0
##MP= -300
##BP= -300
##MW= 183
##$RETENTION INDEX=0
##$CONDENSED SPECTRUM=NO
##NPOINTS= 56
##XYDATA=(XY..XY) 1 
    41         55
    42        123
    43        170
    44         34
    45        374
    46        190
    47        251
    49         40
    51          3
    53        489
    54        130
    55         29
    57          9
    58        189
    59        179
    60         79
    61          5
    66         45
    67         28
    68         83
    69        112
    70         97
    72         45
    74        999
    75         12
    76         53
    78         18
    80         69
    82         15
    84         44
    85         97
    86         78
    88         13
    93         16
    94         16
    96         64
    97          5
    98          7
    99         32
   100          6
   101         25
   107          5
   109          6
   111         24
   112         88
   126         35
   136         15
   137         32
   153        661
   154         11
   155         20
   166        131
   182         10
   183        986
   184         51
   185         46