##TITLE=Library Entry 18683
##JCAMP-DX=Revision 4.10 
##DATA TYPE=MASS SPECTRUM
##SAMPLE DESCRIPTION=Japan AIST/NIMC Database- Spectrum MS-NW-3001
##NAMES=HP
##CAS NAME=1,6-Heptadiene
##MOLFORM=C7H12
##CAS REGISTRY NO=3070-53-9
##MP= -300
##BP= -300
##MW= 96
##$RETENTION INDEX=665
##$CONDENSED SPECTRUM=NO
##NPOINTS= 45
##XYDATA=(XY..XY) 1 
    14          1
    15         10
    26         16
    27        198
    28         18
    29        330
    30          7
    37          6
    38         18
    39        363
    40         52
    41        202
    42         37
    43          3
    44          4
    49          1
    50         14
    51         25
    52         12
    53        177
    54        999
    55        713
    56         32
    57          1
    61          2
    62          4
    63          6
    64          1
    65         17
    66         24
    67        391
    68        219
    69         11
    74          1
    77         11
    78          3
    79         20
    80          3
    81        373
    82         23
    91          4
    93          2
    95         20
    96         27
    97          2