##TITLE=Library Entry 69625
##JCAMP-DX=Revision 4.10 
##DATA TYPE=MASS SPECTRUM
##SAMPLE DESCRIPTION=RADIAN CORP
##NAMES=HP
##CAS NAME=3H-Pyrazol-3-one, 2-(4-aminophenyl)-2,4-dihydro-5-(1-pyrrolidinyl
)-
##MOLFORM=C13H16N4O
##CAS REGISTRY NO=30707-77-8
##MP= -300
##BP= -300
##MW= 244
##$RETENTION INDEX=0
##$CONDENSED SPECTRUM=NO
##NPOINTS= 74
##XYDATA=(XY..XY) 1 
    27          2
    41         15
    42         14
    52         15
    53         14
    54         76
    55         21
    63          5
    64          8
    65         57
    66          7
    67         14
    68         13
    69          3
    70         11
    72          6
    76          2
    77          3
    78          9
    79         51
    80         22
    81          6
    82          1
    87          2
    89          2
    90          3
    91          6
    92         59
    93         11
    94         12
    96        999
    97         68
    98          4
   101         17
   104          1
   105         53
   106         83
   107         44
   108          9
   109          1
   115         10
   116          2
   117          1
   118          3
   119         11
   120         15
   121          3
   122         49
   124          3
   132          3
   133          6
   134         33
   135          2
   144          2
   145          6
   146          3
   147          5
   148          3
   154          2
   155          4
   159          3
   165          3
   171         10
   172          9
   173          3
   174          3
   187         10
   188          2
   201          6
   202          2
   243         14
   244        285
   245         46
   246          4