##TITLE=Library Entry 78304
##JCAMP-DX=Revision 4.10 
##DATA TYPE=MASS SPECTRUM
##SAMPLE DESCRIPTION=A.Pleshkova, Nesmeyanov Inst.Org.Elem.Cpds, Moscow
##NAMES=HP
##CAS NAME=N-Benzoyl-2,2-difluoro-3,3-bis(trifluoromethyl)aziridine
##MOLFORM=C11H5F8NO
##CAS REGISTRY NO=30718-58-2
##MP= -300
##BP= -300
##MW= 319
##$RETENTION INDEX=0
##$CONDENSED SPECTRUM=NO
##NPOINTS= 14
##XYDATA=(XY..XY) 1 
    28        122
    44         46
    69         53
    76         50
    77        722
    78         49
    91         26
   105        999
   106         79
   107          5
   119         26
   319         98
   320         12
   321          1