##TITLE=Library Entry 6016
##JCAMP-DX=Revision 4.10 
##DATA TYPE=MASS SPECTRUM
##SAMPLE DESCRIPTION=V.A.Korolev, Moscow, Russia
##NAMES=HP
##CAS NAME=1-(Ethenesulfonyl)dodecane
##MOLFORM=C14H28O2S
##CAS REGISTRY NO=30719-66-5
##MP= -300
##BP= -300
##MW= 260
##$RETENTION INDEX=0
##$CONDENSED SPECTRUM=NO
##NPOINTS= 91
##XYDATA=(XY..XY) 1 
    29        533
    30          8
    31         13
    39        179
    41        902
    42        198
    43        999
    44         40
    45          8
    46          1
    47         10
    48         13
    49          4
    51          7
    53         54
    54         70
    55        844
    56        256
    57        804
    58         34
    63         25
    64         17
    65         19
    66         25
    67         81
    68         67
    69        707
    70        246
    71        354
    72         17
    75         28
    76          7
    77          9
    79          7
    80          4
    81         56
    82         71
    83        527
    84        125
    85        164
    86         11
    87          4
    91         15
    92         41
    93        349
    94         10
    95         55
    96         46
    97        378
    98         78
    99         27
   106          2
   107          2
   109         27
   110         23
   111        157
   112         43
   113         14
   119         40
   121         10
   123         13
   124         13
   125         41
   126         14
   127          4
   129         19
   131          6
   133          3
   134          5
   135          3
   137          7
   138          4
   139         11
   140          9
   147          6
   148          7
   149          4
   161         11
   162          9
   163          2
   175          4
   176          3
   203          7
   204          3
   233          9
   234          1
   243         37
   244          4
   245          2
   260         15
   261          2