##TITLE=Library Entry 88514
##JCAMP-DX=Revision 4.10 
##DATA TYPE=MASS SPECTRUM
##SAMPLE DESCRIPTION=NIST Mass Spectrometry Data Center
##NAMES=HP
##CAS NAME=1-Heptanone, 1-(2-thienyl)-
##MOLFORM=C11H16OS
##CAS REGISTRY NO=30711-40-1
##MP= -300
##BP= -300
##MW= 196
##$RETENTION INDEX=1565
##$CONDENSED SPECTRUM=NO
##NPOINTS= 83
##XYDATA=(XY..XY) 1 
    15          8
    18          3
    26         14
    27        159
    28          8
    29        131
    30          3
    31          1
    37          4
    39        337
    40         22
    41        152
    42         24
    43         76
    44          5
    45         45
    46          1
    47          3
    49          1
    50          7
    51         12
    52          4
    53         31
    55         77
    56         11
    57         38
    58         19
    59          4
    60          1
    61          1
    62          1
    63          4
    65          6
    66          2
    67          5
    68          4
    69         15
    70          3
    71          2
    74          1
    77          6
    78          2
    79          2
    81         12
    82         19
    83         96
    84         62
    85         16
    86          2
    91          2
    95          1
    97         39
    98          7
    99          2
   107          1
   108          1
   109          8
   111        999
   112         64
   113         55
   114          3
   115          1
   121          1
   123          2
   126        896
   127         67
   128         41
   129          2
   135          1
   137          1
   139         98
   140         12
   141          4
   149          1
   153          7
   154          3
   163          7
   164          1
   167          3
   168          1
   196         50
   197          7
   198          3