##TITLE=Library Entry 64115
##JCAMP-DX=Revision 4.10 
##DATA TYPE=MASS SPECTRUM
##SAMPLE DESCRIPTION=A.A.Kutin, Moscow, Russia
##NAMES=HP
##CAS NAME=Imidazolidine, 2-(2-methoxyphenyl)-1,3-dibenzyl-
##MOLFORM=C24H26N2O
##CAS REGISTRY NO=307339-62-4
##MP= -300
##BP= -300
##MW= 358
##$RETENTION INDEX=0
##$CONDENSED SPECTRUM=NO
##NPOINTS= 185
##XYDATA=(XY..XY) 1 
    33          1
    34          0
    39         17
    40          4
    41         10
    42         19
    44          3
    45          0
    49          0
    50          7
    51         19
    52          4
    53          2
    54          3
    56         26
    57          1
    58          0
    59          0
    61          0
    62          3
    63         17
    65        105
    67          0
    69          3
    71          0
    72          0
    74          2
    75          2
    77         63
    78         23
    79         10
    80          1
    81          0
    82          0
    83          2
    84          0
    85          0
    86          0
    87          1
    89         42
    91        999
    93          3
    94          1
    95          0
    97          0
    99          0
   101          0
   102          4
   103         11
   104         31
   105         40
   106          9
   107          5
   108          1
   109          0
   111          0
   112          0
   113          0
   114          0
   115          2
   116          7
   117         25
   118         20
   119         19
   121        168
   122         11
   123          0
   124          0
   125          0
   126          0
   127          0
   128          1
   130          7
   132         42
   133         27
   134         22
   135          3
   136          2
   137          1
   139          0
   140          0
   141          0
   142          0
   143          0
   144          1
   145          3
   146          7
   148        212
   149         17
   151          1
   152          3
   153          1
   154          0
   155          0
   156          0
   157          1
   159          9
   160          7
   161          3
   162          4
   163          1
   164          1
   165          5
   166          1
   167          1
   168          0
   169          0
   170          0
   171          0
   173          1
   174          0
   175          4
   176          2
   178          2
   179          2
   180          4
   181          2
   182          1
   183          0
   187          0
   189          5
   190          1
   191          0
   192          0
   193          1
   194          2
   195          1
   196          1
   197          0
   205          0
   206          0
   207          1
   208          4
   209          3
   210          2
   211          0
   219          0
   220          0
   221          0
   222          2
   224         11
   225          3
   226         11
   227          1
   233          0
   234          0
   235          4
   236          2
   237          9
   238         22
   239         10
   240          3
   241          0
   244          0
   245          1
   251        627
   252         81
   253          8
   254          0
   255          0
   262          0
   263          0
   264          2
   265          4
   267         45
   268          7
   269          0
   279          1
   280          1
   281          1
   282          0
   325          0
   326          0
   327          0
   328          0
   343          0
   350          0
   352          0
   353          2
   354          5
   357         91
   358         43
   359          8
   360          1
   361          0