##TITLE=Library Entry 979
##JCAMP-DX=Revision 4.10 
##DATA TYPE=MASS SPECTRUM
##SAMPLE DESCRIPTION=NIST Mass Spectrometry Data Center
##NAMES=HP
##CAS NAME=N,N'-Hexamethylenebisacetamide
##MOLFORM=C10H20N2O2
##CAS REGISTRY NO=3073-59-4
##MP= -300
##BP= -300
##MW= 200
##$RETENTION INDEX=0
##$CONDENSED SPECTRUM=NO
##NPOINTS= 76
##XYDATA=(XY..XY) 1 
    12          2
    13          1
    15        105
    16          3
    17          4
    18         47
    26          5
    27         49
    28        130
    30        999
    31         41
    39         46
    41        165
    42        136
    43        821
    44        329
    45         63
    46          2
    51          4
    52          3
    53         17
    54         17
    55         69
    56        107
    57         26
    58         90
    59         19
    60        150
    61          4
    65          3
    67         19
    68         13
    69         47
    70         23
    72        479
    73        387
    74         16
    75          1
    77          2
    79          7
    80          4
    81         23
    82         24
    83         11
    84         10
    86        464
    87        195
    88         13
    95          1
    96          5
    98        183
   100        218
   101         83
   102         14
   103          2
   110          4
   112          5
   114        131
   115         84
   116          9
   123          1
   126          5
   128        393
   129         56
   130          4
   140        115
   141         19
   142         12
   143         24
   144          1
   157         53
   158          5
   185          9
   186          1
   200         22
   201          4