##TITLE=Library Entry 11853
##JCAMP-DX=Revision 4.10 
##DATA TYPE=MASS SPECTRUM
##SAMPLE DESCRIPTION=A.A.Kutin, Moscow, Russia
##NAMES=HP
##CAS NAME=Pentan-2-one, 4-(2-naphthylsulfonyl)-4-methyl-
##MOLFORM=C16H18O3S
##CAS REGISTRY NO=307332-21-4
##MP= -300
##BP= -300
##MW= 290
##$RETENTION INDEX=0
##$CONDENSED SPECTRUM=NO
##NPOINTS= 103
##XYDATA=(XY..XY) 1 
    33          1
    34          0
    36          0
    37          2
    38         12
    39        146
    41        153
    42         61
    43        999
    44         20
    45          6
    46          0
    47          0
    48         12
    50         21
    51         32
    52          7
    53         21
    54          4
    55         36
    56         42
    57         11
    58          2
    59          0
    60          0
    62          8
    63         17
    64          1
    65          5
    66          0
    67          2
    68          0
    69          4
    71          0
    72          0
    74         23
    75         33
    76         16
    77         49
    78          4
    79          1
    81          0
    83         11
    85          0
    86          5
    87          8
    88          2
    89          3
    90          0
    91          0
    93          0
    97          1
    98          6
    99         37
   100          9
   101         29
   102          6
   103          3
   104          0
   105          0
   113          1
   114          3
   115         14
   116          4
   117          0
   121          0
   122          0
   124          2
   125         12
   126         84
   127        186
   128         57
   129          5
   131          1
   132          0
   141          0
   143          1
   144         10
   145          2
   147          7
   149          0
   153          0
   154          0
   155          6
   156          1
   158          1
   159          0
   160          0
   165          0
   167          0
   169          0
   174          7
   175          7
   176          2
   185          0
   186          2
   187          0
   188          0
   191          5
   192         20
   193          3
   194          1
   290          2