##TITLE=Library Entry 97502
##JCAMP-DX=Revision 4.10 
##DATA TYPE=MASS SPECTRUM
##SAMPLE DESCRIPTION=A.A.Kutin, Moscow, Russia
##NAMES=HP
##CAS NAME=Piperazine, 1-(4-methylbenzoyl)-4-(3-phenyl-2-propenyl)-
##MOLFORM=C21H24N2O
##CAS REGISTRY NO=307340-52-9
##MP= -300
##BP= -300
##MW= 320
##$RETENTION INDEX=0
##$CONDENSED SPECTRUM=NO
##NPOINTS= 154
##XYDATA=(XY..XY) 1 
    33          7
    39         62
    40         52
    41         39
    42        122
    43         20
    44         19
    45          1
    49          0
    50          9
    51         23
    52         11
    53          8
    54         15
    55         51
    56         86
    57         28
    58          9
    59          2
    60          0
    62          6
    63         26
    65        124
    67         10
    68         15
    69         23
    70         10
    71          7
    72          2
    73          0
    74          1
    75          2
    76          5
    77         20
    78         19
    79          7
    80          4
    81          8
    82         13
    83         12
    85         23
    87          3
    88          0
    89         22
    91        470
    92         26
    93          2
    94          5
    95          1
    96          3
    97          7
    98          4
    99          1
   101          0
   102          6
   103         27
   104         29
   105         39
   106          6
   107          1
   108          2
   109          0
   110          3
   111          6
   112          2
   114          6
   115        275
   117        999
   119        777
   121          4
   123          1
   127          5
   128          4
   129         11
   130         16
   131         59
   132         11
   133          3
   134          1
   135          0
   136          4
   139          0
   141          4
   142         15
   143         29
   144         29
   145         11
   146         23
   147          5
   148         16
   149          4
   152          1
   153          0
   154          0
   155          2
   156         20
   157         15
   158        141
   159         26
   160         44
   161         10
   162         53
   163         17
   164          1
   165          0
   166          0
   167          1
   168          2
   170         29
   172        576
   173         67
   174         17
   175          3
   176          6
   177         28
   178          3
   183          0
   184          6
   185         77
   186         13
   187         27
   188         14
   189          3
   199          3
   201        120
   202         32
   203         20
   204          1
   214          1
   215          8
   216          1
   217          4
   218          0
   221          0
   227          0
   228          2
   229         47
   230          8
   231          1
   236          0
   261         23
   262          4
   263          1
   264          0
   289          0
   293          1
   295          0
   305          8
   306          3
   318          3
   319         18
   320        186
   321         44
   322          3