##TITLE=Library Entry 7648
##JCAMP-DX=Revision 4.10 
##DATA TYPE=MASS SPECTRUM
##SAMPLE DESCRIPTION=Exported from NIST MS Search
##NAMES=HP
##CAS NAME=Butane, 1-propoxy-
##MOLFORM=C7H16O
##CAS REGISTRY NO=3073-92-5
##MP= -300
##BP= -300
##MW= 116
##$RETENTION INDEX=780
##$CONDENSED SPECTRUM=NO
##NPOINTS= 54
##XYDATA=(XY..XY) 1 
    12          1
    13          2
    14         11
    15         64
    16          3
    19          1
    25          2
    26         43
    27        393
    28        120
    29        404
    30         24
    31         75
    32          1
    33          1
    37          1
    38         11
    39        150
    40         22
    41        421
    42         64
    43        999
    44         59
    45         35
    46          1
    50          3
    51          4
    52          2
    53          8
    54          4
    55         76
    56        144
    57        847
    58         47
    59         33
    60          1
    61          3
    69          3
    70          1
    71          5
    72          2
    73        236
    74         11
    75          3
    87        134
    88          7
    89          4
    91          3
    92          2
   101          2
   102          1
   115          2
   116         31
   117          2