##TITLE=Library Entry 49367
##JCAMP-DX=Revision 4.10 
##DATA TYPE=MASS SPECTRUM
##SAMPLE DESCRIPTION=A.A.Kutin, Moscow, Russia
##NAMES=HP
##CAS NAME=Imidazolidine, 2-(5-nitro-2-furyl)-1,3-diphenyl-
##MOLFORM=C19H17N3O3
##CAS REGISTRY NO=307338-55-2
##MP= -300
##BP= -300
##MW= 335
##$RETENTION INDEX=0
##$CONDENSED SPECTRUM=NO
##NPOINTS= 179
##XYDATA=(XY..XY) 1 
    33          1
    39        118
    41         22
    42         25
    44         10
    46          2
    51        323
    52         34
    53         30
    54         12
    55          8
    56          0
    57          0
    63         31
    65         84
    66         10
    68         18
    69          2
    70          0
    71          0
    74          2
    75          8
    77        598
    79        999
    80         38
    81          6
    82         10
    83          2
    84          0
    85          0
    87          1
    89         23
    91        358
    92         35
    93         12
    94          5
    95          2
    96          6
    97         12
    98          1
    99          0
   101          3
   104        497
   106        398
   107         18
   108          1
   109          2
   110          2
   112          4
   113          5
   115         50
   118        133
   119         59
   120         40
   121          4
   122          1
   123          2
   125          2
   126          2
   127         54
   128         31
   129         20
   130         27
   131          7
   132          4
   133          1
   134          1
   135          2
   136          1
   138          0
   139          3
   140         11
   141         13
   142         14
   143         15
   144         15
   146         11
   147          1
   149          0
   150          1
   152         26
   154         37
   156         53
   157          8
   158         12
   159          4
   160          0
   164          0
   167         29
   168         16
   169          8
   170          9
   171          5
   172          2
   173          0
   174          0
   176          0
   177          0
   178          2
   180          5
   182         35
   184        613
   186          4
   187          0
   189          1
   191          0
   192          1
   193          2
   194          8
   196         18
   197          2
   198          3
   200          4
   201          2
   202         13
   204          6
   205          3
   206          2
   207          1
   209          4
   210          2
   211          3
   212          9
   213          6
   215         77
   216         23
   217          4
   218          2
   219          2
   221          8
   223        300
   224         41
   225          2
   228          8
   230        966
   231         95
   232         15
   234         13
   235          1
   238         10
   240          4
   241          4
   242          1
   244         10
   246          4
   247          6
   248          4
   249          0
   252          0
   255          0
   256          1
   258        112
   259         16
   260          9
   261          9
   262          1
   263          0
   271          0
   272          0
   275          0
   277          2
   287          5
   289        103
   290         18
   294          0
   303          0
   304          1
   306         40
   307          8
   308          1
   318          3
   320          7
   321          1
   330          0
   331          1
   334        247
   335        833
   336        185
   338          1