##TITLE=Library Entry 90056
##JCAMP-DX=Revision 4.10 
##DATA TYPE=MASS SPECTRUM
##SAMPLE DESCRIPTION=Japan AIST/NIMC Database- Spectrum MS-IW-7038
##NAMES=HP
##CAS NAME=Methyl 5-bromo-5-deoxy-beta-d-idofuranurono-gamma-lactone
##MOLFORM=C7H9BrO5
##CAS REGISTRY NO=30737-81-6
##MP= -300
##BP= -300
##MW= 252
##$RETENTION INDEX=0
##$CONDENSED SPECTRUM=NO
##NPOINTS= 151
##XYDATA=(XY..XY) 1 
    14          4
    15         34
    17          6
    18         32
    19          3
    25          1
    26         24
    27         69
    28         24
    29        168
    30         25
    31        101
    32         19
    33         56
    37          3
    38         12
    39         78
    40         10
    41         70
    42         34
    43         47
    44         25
    45         92
    46          2
    47          1
    50          4
    51          8
    52          3
    53         12
    54         22
    55         88
    56         31
    57        142
    58         98
    59         74
    60         22
    61        521
    62         12
    63          2
    66          1
    67          5
    68         37
    69         53
    70          5
    71         77
    72         14
    73         48
    74        107
    75         30
    76          2
    77          2
    78          1
    79          4
    80          9
    81          3
    82          9
    83        116
    84         46
    85        500
    86         28
    87         31
    88          2
    89          1
    91          1
    92          3
    93         12
    94          3
    95         13
    96          4
    97          6
    98          2
    99          2
   100          2
   101         19
   102          1
   103          7
   104          5
   105         10
   106          2
   107         16
   108          1
   109          6
   111          2
   112          3
   113        999
   114         62
   115         26
   116          2
   117          1
   118          1
   119          9
   120        115
   121         18
   122        110
   123         11
   124          2
   125          1
   127          1
   131          1
   132          3
   133         14
   134          1
   135         63
   136          3
   137         48
   138          2
   139          1
   141          3
   142          1
   143          3
   146          1
   147          3
   148        384
   149         27
   150        387
   151         24
   152          2
   155          3
   161         10
   162          6
   163         30
   164         15
   165         20
   166          9
   167          1
   173          1
   174          2
   175          4
   176          3
   177          4
   178          1
   191          1
   192         27
   193         12
   194         30
   195         12
   197          1
   203          1
   204          7
   205          1
   206          6
   221         27
   222          4
   223         28
   224          4
   225          1
   251          1
   252         16
   253          6
   254         15
   255          5