##TITLE=Library Entry 87740
##JCAMP-DX=Revision 4.10 
##DATA TYPE=MASS SPECTRUM
##SAMPLE DESCRIPTION=Chemical Concepts
##NAMES=HP
##CAS NAME=N-Methyl-4-(2-thiophenecarboxamido)phthalimide
##MOLFORM=C14H10N2O3S
##CAS REGISTRY NO=307325-91-3
##MP= -300
##BP= -300
##MW= 286
##$RETENTION INDEX=0
##$CONDENSED SPECTRUM=NO
##NPOINTS= 48
##XYDATA=(XY..XY) 1 
    34          9
    36         17
    37         29
    39        397
    40         79
    41         16
    42          9
    43         17
    44         33
    45         27
    50         22
    51         17
    52         17
    53         18
    55         11
    56         14
    57         31
    58         12
    61         18
    62         48
    63        105
    65         26
    69          9
    74         12
    75         19
    76          8
    77          9
    78          7
    79         11
    81         21
    82         25
    83         86
    84         11
    88          8
    89         16
    90         28
    91         10
   103          8
   106          6
   108         10
   111        999
   113         82
   117          7
   118         10
   119          9
   175          8
   286         69
   287          9