##TITLE=Library Entry 58243
##JCAMP-DX=Revision 4.10 
##DATA TYPE=MASS SPECTRUM
##SAMPLE DESCRIPTION=Div. of Experiment Therapeutics WRAIR, WRAMC, Washingto
n DC 20307
##NAMES=HP
##CAS NAME=Methyl 6-chlorophenanthrene-1-carboxylate
##MOLFORM=C16H11ClO2
##CAS REGISTRY NO=30736-65-3
##MP= -300
##BP= -300
##MW= 270
##$RETENTION INDEX=0
##$CONDENSED SPECTRUM=NO
##NPOINTS= 170
##XYDATA=(XY..XY) 1 
    41          9
    42          4
    43         12
    44          2
    45         23
    47          7
    49         37
    50         23
    51         43
    52          5
    53          3
    55         12
    56          4
    57          5
    59         49
    60          1
    61          3
    62         43
    63         57
    65          2
    67          5
    68          5
    69         18
    70          2
    71          5
    73          7
    74         65
    75        127
    76         89
    77          5
    78          5
    80          1
    81         64
    82         25
    83          4
    84         24
    85          5
    86         38
    87         66
    88        999
    92          8
    93         17
    94          9
    96         14
    97          6
    98         34
    99         47
   100         14
   101         12
   102         35
   103          3
   105         88
   106         41
   107         20
   108          1
   109          3
   110         15
   111         12
   112          1
   113         19
   114          7
   115         10
   117         90
   119         80
   121         44
   122          8
   123         18
   124          9
   125         22
   126         26
   127         14
   128          9
   135         34
   136         21
   137          7
   138         16
   139         33
   140         11
   141          5
   142          7
   149         50
   150         86
   151         64
   152         53
   153         67
   154          9
   160          3
   161         10
   162         17
   163         52
   164         22
   165         48
   166         21
   167          7
   169          3
   173          9
   174         83
   175        176
   176        556
   177        194
   178        185
   179         64
   180         12
   181          5
   185          9
   186          9
   187          4
   188         27
   189         21
   190         14
   191         14
   192         20
   193         16
   194          7
   195          1
   197          6
   198         12
   199         29
   200          5
   201         27
   202          8
   203         16
   204          2
   205         18
   206          1
   209          4
   210         29
   211        354
   212        155
   213        116
   214         32
   215         28
   227          3
   228         11
   229         41
   230         11
   231         17
   232          7
   233          6
   234          1
   235          3
   237          9
   238          3
   239        491
   240        106
   241        196
   242         43
   243         16
   244          8
   245          5
   246          2
   247         17
   248         31
   249         10
   250         12
   252          1
   253          1
   255          3
   256         18
   257         15
   258          8
   259          3
   268          4
   269         36
   270        667
   271         70
   272        224
   273         77
   274         27
   275          3