##TITLE=Library Entry 24050
##JCAMP-DX=Revision 4.10 
##DATA TYPE=MASS SPECTRUM
##SAMPLE DESCRIPTION=Exported from NIST MS Search
##NAMES=HP
##CAS NAME=Hexane, 4-ethyl-2-methyl-
##MOLFORM=C9H20
##CAS REGISTRY NO=3074-75-7
##MP= -300
##BP= -300
##MW= 128
##$RETENTION INDEX=825
##$CONDENSED SPECTRUM=NO
##NPOINTS= 59
##XYDATA=(XY..XY) 1 
    25          1
    26         13
    27        266
    28         38
    29        261
    30          6
    36          1
    37          3
    38          6
    39        138
    40         20
    41        349
    42         69
    43        752
    44         25
    45          1
    49          1
    50          4
    51          8
    52          4
    53         27
    54         10
    55        138
    56        109
    57        999
    58         44
    59          1
    62          1
    63          2
    64          1
    65          3
    66          2
    67          8
    68          5
    69         50
    70        132
    71        146
    72          8
    73          1
    77          2
    78          1
    79          2
    80          1
    81          1
    82          1
    83         11
    84         26
    85         42
    86          3
    91          1
    97          2
    98         88
    99        122
   100          9
   101          1
   113          1
   127          1
   128          9
   129          1