##TITLE=Library Entry 25178
##JCAMP-DX=Revision 4.10 
##DATA TYPE=MASS SPECTRUM
##SAMPLE DESCRIPTION=NIST Mass Spectrometry Data Center, 1990.
##NAMES=HP
##CAS NAME=Hexane, 3-ethyl-4-methyl-
##MOLFORM=C9H20
##CAS REGISTRY NO=3074-77-9
##MP= -300
##BP= -300
##MW= 128
##$RETENTION INDEX=856
##$CONDENSED SPECTRUM=NO
##NPOINTS= 48
##XYDATA=(XY..XY) 1 
    12          0
    14          1
    15         10
    16          0
    26         17
    27        221
    28         41
    29        334
    30          8
    37          1
    39        167
    41        560
    42        165
    43        752
    44         24
    50          5
    51         14
    52          6
    53         48
    54          1
    55        346
    56        368
    57        999
    58         45
    59          1
    62          1
    63          3
    65          8
    66          3
    67         17
    68          1
    69         71
    70        773
    71        304
    72         15
    77          5
    79          4
    80          0
    81          2
    83          7
    84          4
    85         15
    86          2
    98         95
    99        162
   100         10
   128         25
   129          2