##TITLE=Library Entry 17830
##JCAMP-DX=Revision 4.10 
##DATA TYPE=MASS SPECTRUM
##SAMPLE DESCRIPTION=H. Fales, LC, NHLBI, NIH, Bethesda, MD 20892
##NAMES=HP
##CAS NAME=Nortazettine
##MOLFORM=C17H19NO5
##CAS REGISTRY NO=30743-32-9
##MP= -300
##BP= -300
##MW= 317
##$RETENTION INDEX=0
##$CONDENSED SPECTRUM=NO
##NPOINTS= 232
##XYDATA=(XY..XY) 1 
    41        324
    43        191
    44        105
    45        999
    46         25
    47         16
    48         11
    49         61
    50         58
    51        179
    52         48
    53         98
    54         51
    55        138
    56        497
    57        240
    58         51
    59         45
    60         28
    61         93
    62         39
    63        141
    64         62
    65        108
    66         29
    67         31
    68         68
    69         43
    70         45
    71         95
    72         19
    74         32
    75         79
    76        151
    77        227
    78         68
    79         39
    80         54
    81        117
    82         39
    83          4
    84        103
    85         30
    86         53
    87         34
    88         39
    89        105
    90         42
    91        105
    92         63
    93         23
    94         45
    95         12
    96         11
    97         10
    98         30
    99         33
   100         21
   101         53
   102        100
   103        104
   104         40
   105         48
   106         48
   107         15
   108          8
   109          7
   110         10
   111          9
   112         22
   113        106
   114         85
   115        557
   116         97
   117         56
   118         25
   119         21
   120         27
   121         56
   122         10
   124          4
   125          8
   126         63
   127        149
   128        173
   129         98
   130         52
   131         53
   132         13
   133         13
   134         18
   135         99
   136         18
   137          7
   138         10
   139        144
   140         70
   141        211
   142         67
   143        120
   144         45
   145         30
   146         19
   147         30
   148         13
   149         21
   150         20
   151         56
   152        224
   153        224
   154         81
   155         73
   156         38
   157         56
   158         24
   159        171
   160         55
   161         21
   162         12
   163         25
   164          8
   165         20
   166         19
   167         55
   168         74
   169        112
   170         46
   171        145
   172         96
   173        382
   174         77
   175         54
   176         17
   177          5
   179         21
   180         58
   181        411
   182         92
   183         89
   184         37
   185        278
   186         99
   187        186
   188         62
   189         24
   190          7
   191          9
   192         30
   193          8
   195         11
   196         37
   197        162
   198         70
   199        524
   200        143
   201        625
   202        103
   203         85
   204        121
   205         20
   206          9
   208         11
   209        127
   210        155
   211        328
   212        160
   213         85
   214         51
   215        243
   216        166
   217         97
   218         24
   219          8
   223         12
   224         65
   225         89
   226        114
   227        315
   228        132
   229        316
   230         74
   231         36
   232         58
   233        511
   234         69
   235          7
   237         11
   238         83
   239         86
   240        115
   241        123
   242        354
   243        108
   244         71
   245         21
   246         22
   247         14
   253          9
   254         20
   255        131
   256         87
   257         33
   258         31
   259         38
   260        295
   261         97
   262         16
   266          9
   267          9
   268         18
   269        112
   270        147
   271         38
   272         14
   273          4
   274          4
   282          9
   284        402
   285        194
   286         53
   287         57
   288         15
   298          4
   299         55
   300         30
   301          7
   302        133
   303         26
   316         12
   317        780
   318        162
   319         23