##TITLE=Library Entry 47587
##JCAMP-DX=Revision 4.10 
##DATA TYPE=MASS SPECTRUM
##SAMPLE DESCRIPTION=Tox21 Consortium/NIST Mass Spectrometry Data Center, 20
12
##NAMES=HP
##CAS NAME=Feprazone
##MOLFORM=C20H20N2O2
##CAS REGISTRY NO=30748-29-9
##MP= -300
##BP= -300
##MW= 320
##$RETENTION INDEX=0
##$CONDENSED SPECTRUM=NO
##NPOINTS= 173
##XYDATA=(XY..XY) 1 
    15          1
    26          2
    27         29
    28          8
    29         15
    37          2
    38          8
    39         74
    40         16
    41        270
    42         16
    43         11
    44          2
    49          1
    50         18
    51        124
    52         22
    53         56
    54         11
    55         31
    56          6
    58          1
    61          2
    62          4
    63         25
    64         55
    65         59
    66         16
    67         71
    68         14
    69        212
    70         10
    71          1
    74          3
    75          5
    76         18
    77        999
    78         83
    79         35
    80         12
    81         48
    82          9
    83          2
    86          5
    87          1
    88          1
    89          5
    90          6
    91         78
    92         34
    93         79
    94          8
    95         24
    96          3
   101          1
   102          6
   103          6
   104         69
   105        100
   106         11
   107          7
   108          2
   109         45
   110          4
   113          1
   114          1
   115         13
   116          4
   117         10
   118          7
   119         29
   120         11
   121          2
   123          1
   126          3
   127          7
   128         15
   129          5
   130         31
   131          8
   132          7
   133          8
   134          2
   135          9
   136          1
   137          1
   139          4
   140          2
   141          3
   142          3
   143          5
   144          7
   145          4
   146          4
   151         13
   152         45
   153         20
   154         16
   155          5
   156         10
   157         11
   158         11
   159          5
   160          6
   161          1
   162          1
   165          1
   166         14
   167         33
   168         11
   169          8
   170          5
   172          5
   173          2
   174          1
   178          1
   179          3
   180          6
   181         19
   182         22
   183        908
   184        349
   185         41
   186         66
   187         10
   188          1
   194          1
   195          6
   197          1
   198          3
   199          1
   200          8
   201          2
   202          1
   205          1
   206          1
   207          5
   208          1
   209          2
   210          4
   211          5
   212          4
   213          1
   223          4
   224          2
   226          1
   228          1
   235         36
   236          6
   237          4
   238          1
   247          1
   248          1
   249          1
   250          1
   251         75
   252        436
   253         69
   254          9
   255          1
   261          1
   263          1
   264         33
   265         16
   266          3
   303          1
   305          1
   318          1
   319          1
   320        275
   321         62
   322          9
   323          1