##TITLE=Library Entry 24053
##JCAMP-DX=Revision 4.10 
##DATA TYPE=MASS SPECTRUM
##SAMPLE DESCRIPTION=Exported from NIST MS Search
##NAMES=HP
##CAS NAME=Hexane, 3-ethyl-3-methyl-
##MOLFORM=C9H20
##CAS REGISTRY NO=3074-76-8
##MP= -300
##BP= -300
##MW= 128
##$RETENTION INDEX=855
##$CONDENSED SPECTRUM=NO
##NPOINTS= 58
##XYDATA=(XY..XY) 1 
    25          1
    26         11
    27        215
    28         28
    29        254
    30          6
    37          2
    38          4
    39        104
    40         14
    41        310
    42         33
    43        617
    44         21
    45          1
    49          1
    50          3
    51          9
    52          4
    53         30
    54          7
    55        116
    56         26
    57        999
    58         44
    59          1
    62          1
    63          2
    64          1
    65          4
    66          2
    67          9
    68          3
    69         66
    70         35
    71         68
    72          4
    77          2
    78          1
    79          2
    80          1
    81          2
    82          1
    83          7
    84         79
    85        285
    86         18
    87          1
    91          1
    97          1
    98         81
    99        191
   100         14
   101          1
   112          1
   113         15
   114          1
   128          1