##TITLE=Library Entry 9755
##JCAMP-DX=Revision 4.10 
##DATA TYPE=MASS SPECTRUM
##SAMPLE DESCRIPTION=Japan AIST/NIMC Database- Spectrum MS-NW-3917
##NAMES=HP
##CAS NAME=Heptane, 2,3-dimethyl-
##MOLFORM=C9H20
##CAS REGISTRY NO=3074-71-3
##MP= -300
##BP= -300
##MW= 128
##$RETENTION INDEX=855
##$CONDENSED SPECTRUM=NO
##NPOINTS= 42
##XYDATA=(XY..XY) 1 
    15          4
    26          3
    27         79
    28          6
    29         88
    30          2
    38          2
    39         52
    40          9
    41        175
    42         99
    43        999
    44         34
    45          1
    50          1
    51          4
    52          1
    53         12
    54          7
    55        106
    56        126
    57        210
    58          9
    59          1
    65          1
    67          4
    68          2
    69         68
    70         50
    71        179
    72          9
    77          1
    83          3
    84        397
    85        342
    86         22
    98          2
    99          5
   113          3
   127          1
   128         12
   129          1