##TITLE=Library Entry 32446
##JCAMP-DX=Revision 4.10 
##DATA TYPE=MASS SPECTRUM
##SAMPLE DESCRIPTION=S.A. Rang et al., IR & MS of Unsatd. Hydrocarbons, 1977
##NAMES=HP
##CAS NAME=1-Propylcyclopentene
##MOLFORM=C8H14
##CAS REGISTRY NO=3074-61-1
##MP= -300
##BP= -300
##MW= 110
##$RETENTION INDEX=839
##$CONDENSED SPECTRUM=NO
##NPOINTS= 67
##XYDATA=(XY..XY) 1 
    25          0
    26          6
    27        108
    28         14
    29         34
    30          0
    31          0
    37          1
    38          6
    39        139
    40         26
    41        217
    42         14
    43         12
    44          2
    45          1
    46          0
    49          0
    50          9
    51         29
    52         21
    53        100
    54         32
    55         42
    56          5
    57          1
    58          0
    61          0
    62          1
    63          7
    64          1
    65         37
    66         74
    67        999
    68        109
    69         29
    70          1
    71          0
    73          0
    74          0
    75          1
    76          0
    77         45
    78         10
    79        108
    80         21
    81        201
    82         45
    83          3
    84          3
    85          0
    89          0
    90          0
    91         12
    92          1
    93          8
    94          1
    95         58
    96          6
    97          1
    98          0
   107          0
   108          2
   109          9
   110        162
   111         12
   112          0