##TITLE=Library Entry 68628
##JCAMP-DX=Revision 4.10 
##DATA TYPE=MASS SPECTRUM
##SAMPLE DESCRIPTION=A.A.Kutin, Moscow, Russia
##NAMES=HP
##CAS NAME=Propanamide, 3-(5-methylfuryl)-N-(4-chlorophenyl)-
##MOLFORM=C14H14ClNO2
##CAS REGISTRY NO=307540-63-2
##MP= -300
##BP= -300
##MW= 263
##$RETENTION INDEX=0
##$CONDENSED SPECTRUM=NO
##NPOINTS= 122
##XYDATA=(XY..XY) 1 
    33         50
    34          2
    35          1
    36          8
    37         11
    38         37
    39        121
    40         87
    41        133
    43        489
    44         35
    45          9
    50         52
    51         72
    52         62
    53         76
    55         95
    56          5
    57          2
    58          3
    60          0
    61          8
    62         26
    63         75
    64         40
    65        101
    66         35
    67         51
    68          3
    69          4
    71          1
    73         43
    74         11
    75         42
    76         13
    77         51
    78         11
    79         47
    81         39
    82         13
    83          1
    85          3
    86          2
    87          1
    88          1
    89          8
    90         28
    91         39
    92         22
    95        999
    96         53
    97         11
    99         90
   100         16
   101         26
   102          5
   103          0
   104          8
   105          9
   107         95
   108        273
   109         72
   110         11
   111         28
   112          6
   113          9
   114          1
   115          0
   117          0
   118          1
   119          5
   120          1
   121         11
   122          0
   125         22
   127        537
   128         55
   129        152
   130         11
   131          1
   132          7
   133          8
   134          1
   135         17
   136         15
   137          5
   138          3
   140         16
   141          1
   142          4
   151          2
   152          1
   153          5
   154          4
   155          1
   156          1
   164          6
   166          2
   168          0
   169          2
   170          0
   180          1
   181          0
   184          0
   186          0
   192          3
   205         78
   206         12
   207         25
   208          3
   218          8
   219          4
   220         22
   221          7
   222          5
   236          0
   245          0
   261          3
   263        195
   264         30
   265         59
   266          7