##TITLE=Library Entry 59911
##JCAMP-DX=Revision 4.10 
##DATA TYPE=MASS SPECTRUM
##SAMPLE DESCRIPTION=A.A.Kutin, Moscow, Russia
##NAMES=HP
##CAS NAME=1H-Tetrazole, 1-benzyl-5-(2-thienyl)-
##MOLFORM=C12H10N4S
##CAS REGISTRY NO=307552-97-2
##MP= -300
##BP= -300
##MW= 242
##$RETENTION INDEX=0
##$CONDENSED SPECTRUM=NO
##NPOINTS= 133
##XYDATA=(XY..XY) 1 
    33          2
    34          1
    37          8
    38         13
    39        130
    40         13
    41         26
    43          0
    45         64
    46          2
    47          2
    48          0
    49          3
    50         38
    51         86
    52         20
    53          5
    54          0
    55          1
    57         12
    58         15
    59          2
    60          3
    62         12
    63         40
    65        208
    66         10
    69        114
    70         10
    71          7
    72          0
    73          2
    74          5
    75          7
    77         70
    78         20
    79          4
    80          0
    81          1
    82          6
    83          3
    84          8
    85          1
    86          1
    87          2
    89         45
    91        999
    92         61
    93          9
    95         35
    96          5
    97          3
    98          0
   100          0
   101          0
   102          5
   104         21
   105          7
   106          1
   107          4
   109         11
   110         13
   111          1
   112          0
   113          0
   115          8
   116          3
   117          0
   121          2
   122          0
   123          1
   124          0
   125          0
   126          0
   127          2
   128          3
   129          1
   130          0
   131          0
   133          0
   134          0
   137          0
   138          0
   139          2
   140          2
   141         22
   142          2
   143          0
   145          0
   146          0
   147          1
   148          0
   150          0
   152         19
   153         18
   154          1
   155          0
   158          0
   160          3
   161          0
   168          0
   169          0
   171         30
   172          4
   173          1
   174          0
   180          0
   181          0
   183          5
   184         24
   185        157
   186         64
   187         13
   188          3
   189          0
   192          1
   193          0
   196          0
   198          0
   199          0
   200          0
   210          0
   211          0
   212          0
   213          7
   215          0
   237          0
   239          1
   240          3
   242        178
   243         24
   244          8
   245          0