##TITLE=Library Entry 22803
##JCAMP-DX=Revision 4.10 
##DATA TYPE=MASS SPECTRUM
##SAMPLE DESCRIPTION=Chemical Concepts
##NAMES=HP
##CAS NAME=4-(2-Morpholinothiobenzoyl)morpholine
##MOLFORM=C15H20N2O3S
##CAS REGISTRY NO=30757-72-3
##MP= -300
##BP= -300
##MW= 308
##$RETENTION INDEX=0
##$CONDENSED SPECTRUM=NO
##NPOINTS= 80
##XYDATA=(XY..XY) 1 
    36          7
    37         47
    38        150
    39        328
    40        118
    41        353
    42        527
    43        157
    44        102
    45        243
    46         10
    47          5
    50        270
    51        178
    52         49
    53         60
    54        274
    55        263
    56        999
    57        272
    58        198
    59         22
    60         14
    61         37
    62         70
    63        268
    64         86
    65        349
    66         36
    67          9
    69        652
    70        113
    71         45
    72         14
    73         25
    74        129
    75        119
    76        127
    77        192
    78         21
    81         90
    82        207
    83         36
    84         33
    85         44
    86        247
    87         49
    89         10
    90         10
    91         28
    92         50
    93         29
    95         18
    96         19
    97          5
   103          7
   104         16
   105         72
   106         11
   107         32
   108        562
   109        576
   110         67
   111         19
   121         14
   134          6
   135         29
   136        522
   137        662
   138         74
   139         33
   150          5
   151          9
   152         25
   178         23
   179         26
   184          6
   222        181
   223         47
   239          3