##TITLE=Library Entry 20164
##JCAMP-DX=Revision 4.10 
##DATA TYPE=MASS SPECTRUM
##SAMPLE DESCRIPTION=NIST Mass Spectrometry Data Center
##NAMES=HP
##CAS NAME=Acetic acid, trifluoro-, nonyl ester
##MOLFORM=C11H19F3O2
##CAS REGISTRY NO=30767-14-7
##MP= -300
##BP= -300
##MW= 240
##$RETENTION INDEX=1157
##$CONDENSED SPECTRUM=NO
##NPOINTS= 91
##XYDATA=(XY..XY) 1 
    15          2
    26          8
    27        112
    28         16
    29        216
    30          7
    33          4
    37          1
    39        159
    40         37
    41        709
    42        238
    43        691
    46          1
    51         11
    52          6
    53         68
    54         91
    55        999
    56        712
    57        416
    58         17
    59          5
    60          1
    61          3
    63          2
    64          1
    65         12
    66          8
    67        118
    68        226
    69        911
    70        664
    71        251
    72         12
    73          1
    77          8
    78         11
    79         13
    80          4
    81         32
    82        211
    83        518
    84        388
    85        143
    86          8
    87          1
    91          2
    93          2
    94          1
    95         11
    96         58
    97        522
    98        335
    99        115
   100          2
   101          1
   109          1
   110          1
   111         19
   112          3
   113          3
   115          4
   123          3
   124          5
   125          5
   126         65
   127         27
   137          1
   138          4
   139          1
   140          2
   141          3
   142          1
   151          1
   152          3
   153          6
   154          1
   155          7
   156          1
   165          1
   166          1
   169          1
   171         63
   172          7
   173          1
   179          1
   180          1
   193          3
   194          1
   222          1