##TITLE=Library Entry 19633
##JCAMP-DX=Revision 4.10 
##DATA TYPE=MASS SPECTRUM
##SAMPLE DESCRIPTION=Vladimir Zaikin,TIPS RAS, Moscow, Russia
##NAMES=HP
##CAS NAME=2-Propenoic acid, tridecyl ester
##MOLFORM=C16H30O2
##CAS REGISTRY NO=3076-04-8
##MP= -300
##BP= -300
##MW= 254
##$RETENTION INDEX=0
##$CONDENSED SPECTRUM=NO
##NPOINTS= 69
##XYDATA=(XY..XY) 1 
    39        102
    40         27
    41        382
    42        135
    43        425
    44         42
    45         30
    50         30
    51         68
    52         25
    53         31
    54         72
    55        999
    56        297
    57        335
    58         18
    63         25
    64         23
    65         13
    67         70
    68        115
    69        320
    70        268
    71        133
    72         55
    73        360
    74         45
    75         33
    76         40
    77         23
    78         15
    79          6
    81         37
    82        112
    83        285
    84        138
    85         68
    95         25
    96         50
    97        192
    98         92
    99         39
   100         11
   105         20
   106          2
   109         15
   110         25
   111         95
   112         43
   113         88
   114         27
   115         10
   122         12
   123          9
   124         21
   125         40
   126         27
   127         93
   139         17
   140         15
   141         15
   142          6
   143          5
   152          3
   153          6
   154         32
   155          7
   182         27
   183          5