##TITLE=Library Entry 4445
##JCAMP-DX=Revision 4.10 
##DATA TYPE=MASS SPECTRUM
##SAMPLE DESCRIPTION=NIST Mass Spectrometry Data Center, 1998.
##NAMES=HP
##CAS NAME=2-Butanone, 3-methyl-, (2,4-dinitrophenyl)hydrazone
##MOLFORM=C11H14N4O4
##CAS REGISTRY NO=3077-97-2
##MP= -300
##BP= -300
##MW= 266
##$RETENTION INDEX=2386
##$CONDENSED SPECTRUM=NO
##NPOINTS= 211
##XYDATA=(XY..XY) 1 
    14          1
    15          9
    16          1
    18          2
    26          9
    27        168
    28         47
    29         89
    30        330
    31          2
    36          1
    37         12
    38         52
    39        219
    40         44
    41        800
    42        999
    43        767
    44         32
    45         23
    46         10
    47          1
    48          1
    49          2
    50         58
    51        152
    52        106
    53        112
    54         37
    55        226
    56         22
    57         77
    58         13
    59          5
    60          1
    61         21
    62        110
    63        230
    64        121
    65         47
    66         33
    67         53
    68        103
    69        278
    70        128
    71         28
    72         17
    73          4
    74         64
    75        247
    76        127
    77        202
    78        200
    79        206
    80         40
    81          6
    82         30
    83         34
    84         44
    85         10
    86          8
    87        289
    88         42
    89         48
    90         76
    91         90
    92        108
    93         44
    94         16
    95         10
    96          3
    97          3
    98          1
    99          1
   100          2
   101          4
   102         18
   103         44
   104         59
   105         50
   106         50
   107         33
   108         11
   109          2
   111          4
   112          1
   113          1
   114          3
   115         54
   116         46
   117         58
   118         34
   119         29
   120         22
   121         13
   122        163
   123         14
   124          2
   126          1
   127         15
   128         41
   129         57
   130         98
   131         83
   132         38
   133         26
   134         20
   135         46
   136         20
   137         16
   138         15
   139          1
   140          1
   141          4
   142          6
   143         16
   144         45
   145         29
   146         16
   147         13
   148          7
   149         28
   150          8
   151          5
   152        109
   153         31
   154          5
   155          4
   156          9
   157         18
   158         27
   159         33
   160         23
   161         22
   162         53
   163         36
   164         24
   165        103
   166         21
   167         16
   168         21
   169          5
   170          7
   171          6
   172         10
   173         17
   174          6
   175          4
   176          6
   177         18
   178         21
   179          8
   180         30
   181        123
   182         21
   183         30
   184         27
   185         78
   186         16
   187         10
   188          5
   189         15
   190         35
   191         48
   192         12
   193         11
   194          3
   195          5
   196         11
   197          2
   201          2
   202          5
   203          9
   204          7
   205         15
   206         13
   207         39
   208          5
   209          1
   210         25
   211          3
   214          2
   215          3
   216         12
   217          6
   218          4
   219         28
   220          7
   221          2
   222          1
   223          8
   224          1
   229          6
   230          2
   231         67
   232         17
   233         79
   234         11
   235          3
   236          9
   237          2
   238          1
   249          5
   250         11
   251         11
   252          2
   264          1
   266        468
   267         65
   268          8
   269          1