##TITLE=Library Entry 10604
##JCAMP-DX=Revision 4.10 
##DATA TYPE=MASS SPECTRUM
##SAMPLE DESCRIPTION=R.SELF AGRICULTURAL RES., FOOD RES. INSTITUTE, NORWICH,
 U.K.
##NAMES=HP
##CAS NAME=L-Isoleucine, N-acetyl-
##MOLFORM=C8H15NO3
##CAS REGISTRY NO=3077-46-1
##MP= -300
##BP= -300
##MW= 173
##$RETENTION INDEX=0
##$CONDENSED SPECTRUM=NO
##NPOINTS= 61
##XYDATA=(XY..XY) 1 
    26        100
    27        177
    30        333
    36         17
    38         12
    39        158
    40         27
    41        388
    42         88
    43        999
    44        388
    45         41
    46         38
    47         10
    50         11
    51         13
    52         11
    53         29
    54         33
    55        100
    56        183
    57        500
    58        111
    59         16
    60        361
    61         11
    67         25
    68         25
    69        100
    70        122
    71        105
    72         77
    73         44
    74        186
    75        105
    76         21
    81         12
    82         12
    83         11
    84         50
    85         22
    86        389
    87         19
    88         14
    95         13
    96         69
    97         18
    98         18
    99        889
   100         72
   102         15
   114         25
   117         25
   118         14
   126         14
   127         13
   128        235
   129         44
   130         13
   155         31
   173         26