##TITLE=Library Entry 81776
##JCAMP-DX=Revision 4.10 
##DATA TYPE=MASS SPECTRUM
##SAMPLE DESCRIPTION=Chemical Concepts
##NAMES=HP
##CAS NAME=Benzene, 1,3-bis(bromomethyl)-2-methoxy-
##MOLFORM=C9H10Br2O
##CAS REGISTRY NO=30787-74-7
##MP= -300
##BP= -300
##MW= 292
##$RETENTION INDEX=0
##$CONDENSED SPECTRUM=NO
##NPOINTS= 146
##XYDATA=(XY..XY) 1 
    24          0
    25          1
    26         13
    27         34
    29          4
    30          1
    31          1
    36          1
    37          6
    38         27
    39        163
    41         36
    42          0
    43          3
    44          3
    45          9
    46          0
    49          3
    50         54
    51        122
    52         52
    53         14
    54          2
    55          3
    56          0
    57          1
    58          0
    59          1
    60          0
    61          7
    62         30
    63         96
    64         28
    65        223
    66         64
    67         35
    68          0
    69          1
    70          0
    73          1
    74         12
    75         13
    76         20
    77        107
    78         80
    79         69
    80          6
    81          5
    82          6
    84          0
    85          2
    86          4
    87          4
    88          1
    89         62
    90         47
    91        281
    92         27
    93          1
    94          0
    95          0
    96          0
    97          0
    98          1
    99          0
   100          0
   101          2
   102         25
   103        157
   104        259
   105        999
   106        319
   107         29
   108          1
   113          0
   114          0
   115         11
   116          3
   117          5
   118          6
   119         89
   120         12
   121          0
   122          0
   127          0
   131          2
   132          1
   133         58
   134         44
   135          7
   136          0
   139          0
   141          0
   142          0
   143          1
   145          0
   153          0
   155          0
   156          0
   160          0
   163          0
   169          6
   170          2
   171          5
   172          1
   173          0
   181          0
   182          3
   183        147
   184         17
   185        168
   186         14
   187         21
   188          1
   197          1
   198          0
   199          2
   200          0
   201          0
   207          0
   208          0
   209          0
   211          0
   213        759
   214         68
   215        752
   216         69
   217          5
   218          0
   228          0
   248          0
   249          0
   250          0
   251          0
   261          0
   262          0
   263          0
   265          0
   279          0
   292         94
   293          9
   294        186
   295         18
   296         95
   297         10
   298          0