##TITLE=Library Entry 71358
##JCAMP-DX=Revision 4.10 
##DATA TYPE=MASS SPECTRUM
##SAMPLE DESCRIPTION=J.A.BEISLER NATIONAL INST. OF HEALTH, BETHESDA, MD., US
A
##NAMES=HP
##CAS NAME=16,28-Secosolanidan-3-ol, (3.beta.,5.alpha.)-
##MOLFORM=C27H47NO
##CAS REGISTRY NO=30788-42-2
##MP= -300
##BP= -300
##MW= 401
##$RETENTION INDEX=0
##$CONDENSED SPECTRUM=NO
##NPOINTS= 52
##XYDATA=(XY..XY) 1 
    53          9
    54          5
    55         42
    56         36
    57         13
    58          4
    67         30
    68         13
    69         24
    70         15
    71          4
    77          9
    79         27
    80          5
    81         37
    82         15
    83          7
    91         18
    93         22
    94          8
    95         20
    96         24
    97         13
    98        999
    99         90
   100          5
   105         14
   107         19
   108          7
   109          9
   110          5
   111         11
   112          5
   119          7
   121          8
   124          7
   125         12
   126          7
   145          3
   147          4
   150          3
   159          3
   161          4
   384          1
   385          0
   386          1
   387          0
   398          0
   399          1
   400          2
   401          1
   402          0