##TITLE=Library Entry 35165
##JCAMP-DX=Revision 4.10 
##DATA TYPE=MASS SPECTRUM
##SAMPLE DESCRIPTION=A.Shkavrov, Inst. Chem. Phys. in Chernogolovka
##NAMES=HP
##CAS NAME=1-(1,1,2,3,3,3-Hexafluoropropyl)-4,5-bis(methoxycarbonyl)-1,2,3-t
riazole
##MOLFORM=C9H7F6N3O4
##CAS REGISTRY NO=307929-65-3
##MP= -300
##BP= -300
##MW= 335
##$RETENTION INDEX=0
##$CONDENSED SPECTRUM=NO
##NPOINTS= 65
##XYDATA=(XY..XY) 1 
    46          2
    47          5
    50         11
    51        101
    52         47
    58         33
    59        794
    60         30
    61          5
    66         29
    67         79
    68        268
    69        999
    70         38
    71         20
    72         14
    73          4
    81         58
    82        183
    83         25
    84         35
    85         10
    98         66
    99         29
   100         73
   101         37
   102          7
   111        307
   112         62
   113         45
   116        368
   117         26
   118          4
   125         41
   126         93
   127          9
   128         80
   129         32
   131        113
   132         11
   150         13
   151        327
   152         12
   156        117
   157         73
   158          9
   162        525
   163         75
   164          6
   198         55
   199          6
   217         14
   218        214
   219         25
   220          9
   276        585
   277         55
   278          5
   292          7
   304         31
   307          8
   316         69
   317          6
   335         49
   336          6