##TITLE=Library Entry 36408
##JCAMP-DX=Revision 4.10 
##DATA TYPE=MASS SPECTRUM
##SAMPLE DESCRIPTION=A.Shkavrov, Inst. Chem. Phys. in Chernogolovka
##NAMES=HP
##CAS NAME=1-(1,1,2,3,3,3-Hexafluoropropyl)-4-methoxycarbonyl-1,2,3-triazole
##MOLFORM=C7H5F6N3O2
##CAS REGISTRY NO=307929-62-0
##MP= -300
##BP= -300
##MW= 277
##$RETENTION INDEX=0
##$CONDENSED SPECTRUM=NO
##NPOINTS= 88
##XYDATA=(XY..XY) 1 
    40         50
    41         24
    42         38
    43         56
    44         17
    50         40
    51        179
    52         30
    53        155
    54         27
    55         22
    56         12
    58         10
    59        198
    60          6
    61          1
    63         29
    64          3
    67         46
    68        169
    69        999
    70        197
    71         51
    72          9
    73          2
    82        207
    83         22
    84          8
    85          1
    89         54
    90         76
    91         30
    92         10
    93         27
    94          8
    98         75
    99         42
   100         30
   101         38
   102         10
   113         69
   114          6
   115          1
   116         64
   117         17
   118         17
   119          3
   131         81
   132         25
   133          1
   136         94
   137          5
   138          1
   140         13
   141          1
   148        311
   149         23
   150          8
   151        530
   152         24
   153          1
   159         25
   160          2
   176         47
   177          4
   178        155
   179          7
   180          1
   191         32
   192          3
   217          1
   218         28
   219         14
   220          1
   234         57
   235          5
   246         69
   247          7
   248          1
   249         23
   250          2
   251          1
   258         38
   259          4
   260          1
   277         25
   278          6
   279          1