##TITLE=Library Entry 4000
##JCAMP-DX=Revision 4.10 
##DATA TYPE=MASS SPECTRUM
##SAMPLE DESCRIPTION=Asinex Ltd, Moscow, Russia
##NAMES=HP
##CAS NAME=Methanol, [6,8,9-trimethyl-4-(2-furyl)-3-oxabicyclo[3.3.1]non-6-e
n-1-yl]-
##MOLFORM=C16H22O3
##CAS REGISTRY NO=307924-24-9
##MP= -300
##BP= -300
##MW= 262
##$RETENTION INDEX=0
##$CONDENSED SPECTRUM=NO
##NPOINTS= 143
##XYDATA=(XY..XY) 1 
    38         12
    39        394
    40         27
    41        999
    42         88
    43        328
    44         25
    45         45
    47          3
    50          2
    51         84
    52         22
    53        226
    54         21
    55        604
    56         87
    57        180
    58          4
    59          0
    60          1
    61          0
    63          2
    64          2
    65        147
    66         20
    67        237
    68         31
    69        722
    70         57
    71        204
    73          3
    75          0
    76          0
    77        324
    78         21
    79        329
    80         21
    81        458
    82        168
    83        230
    84         63
    85        115
    86          2
    87          2
    89          5
    90          0
    91        493
    92         83
    93        276
    94        131
    95        219
    96         55
    97         86
    98          3
    99          0
   101          0
   102          1
   103         26
   104          6
   105        415
   106        257
   107        800
   108        285
   109        311
   110         35
   111         48
   112         12
   113          3
   115         38
   116          3
   117         65
   118         26
   119        387
   120        147
   121        845
   122        125
   123        106
   124        197
   125          8
   126          0
   127          0
   128         23
   129          7
   131         35
   132         62
   133        835
   134        610
   135        744
   136        124
   137        134
   138          3
   139         18
   140          1
   141          1
   142          5
   143          2
   145          0
   146         31
   147         43
   148         52
   149        120
   150          3
   151         31
   152          0
   157          0
   158          1
   159          0
   160        117
   161          2
   162         17
   163         21
   166         23
   167          2
   171          9
   172         57
   173          1
   175         25
   176          0
   177          0
   180          1
   181         11
   183          0
   185          0
   186          0
   187        123
   188          1
   191          1
   192          1
   199          0
   201         26
   202         14
   211          3
   213         67
   214         62
   218         26
   229          0
   231         23
   232          0
   236         42
   244         91
   245          3
   262        189
   263         22