##TITLE=Library Entry 70590
##JCAMP-DX=Revision 4.10 
##DATA TYPE=MASS SPECTRUM
##SAMPLE DESCRIPTION=A.A.Kutin, Moscow, Russia
##NAMES=HP
##CAS NAME=1,4-Methano-4H-2-benzazepine-4,5,5-tricarbonitrile, octahydro-1-h
ydroxy-3-oxo-
##MOLFORM=C14H14N4O2
##CAS REGISTRY NO=307965-69-1
##MP= -300
##BP= -300
##MW= 270
##$RETENTION INDEX=0
##$CONDENSED SPECTRUM=NO
##NPOINTS= 179
##XYDATA=(XY..XY) 1 
    33         24
    37          8
    39        253
    40         98
    41        350
    42        388
    43        107
    44        387
    45         28
    46          5
    50         20
    51         59
    52        120
    53        187
    54        148
    55        321
    56         16
    57          2
    58          1
    59         14
    61          2
    62          9
    63         33
    64         39
    65         43
    66         36
    67        156
    68         98
    69         26
    70         16
    72         20
    73          0
    75         10
    76         24
    77         79
    78         49
    79         92
    80        109
    81        239
    82         56
    83         30
    84          4
    85          2
    86          4
    88          5
    89         24
    90         34
    91         58
    92         40
    93         54
    94         11
    95         27
    97        999
    98         46
    99          5
   100          1
   101          4
   102         19
   103         24
   104         32
   105         63
   106         30
   107         13
   108         51
   109        119
   110         32
   111          7
   112          1
   114          5
   115         13
   116         53
   117        193
   118         70
   119         33
   120         21
   123        633
   124         86
   125         13
   126         13
   127         63
   128         12
   129         16
   130         17
   131         60
   132         27
   133         10
   134         12
   135         36
   136          8
   137          1
   140          2
   141          4
   142          8
   143         15
   144         34
   145         72
   146        105
   147         38
   148         27
   149          7
   151          0
   153          0
   154         10
   155          9
   156         11
   157         16
   158         11
   159         14
   160         60
   161         39
   162        261
   163         43
   164          3
   165          1
   167          0
   168          2
   169          5
   170          9
   171         17
   172         17
   173         14
   174         25
   175          7
   176          2
   179          1
   180          2
   181         12
   182          8
   183          9
   184          8
   185          9
   188        788
   189         74
   190          8
   191          1
   192          0
   196          3
   197          8
   198         19
   199         27
   200         25
   201          9
   202          8
   203          1
   206          1
   207          4
   208         14
   209         11
   210         18
   211         15
   212          7
   213          3
   214          7
   215          4
   216          5
   217          1
   224          8
   225         51
   226        403
   227         93
   228         16
   229          1
   230          0
   234          2
   235          4
   236          7
   237          1
   241          7
   242         81
   243         35
   244          3
   245          0
   251          1
   252         14
   253         33
   254          5
   270        126
   271         23
   272          1