##TITLE=Library Entry 30732
##JCAMP-DX=Revision 4.10 
##DATA TYPE=MASS SPECTRUM
##SAMPLE DESCRIPTION=A.Shkavrov, Inst. Chem. Phys. in Chernogolovka
##NAMES=HP
##CAS NAME=1-(1,1,2,2-Tetrafluoro-2-methoxycarbonylethyl)-4,5-bis(methoxycar
bonyl)-1,2,3-triazole
##MOLFORM=C10H9F4N3O6
##CAS REGISTRY NO=307929-66-4
##MP= -300
##BP= -300
##MW= 343
##$RETENTION INDEX=0
##$CONDENSED SPECTRUM=NO
##NPOINTS= 44
##XYDATA=(XY..XY) 1 
    53         23
    54         61
    58          4
    59        999
    60         39
    61         15
    69        139
    70         14
    79          7
    80         15
    81        328
    82         44
    83         14
    84          4
    97         89
    98          8
   100        145
   101         10
   102          8
   116        357
   117         23
   124         59
   125         17
   128         56
   131        173
   132          8
   144         70
   145          9
   156         80
   157          5
   159        143
   160          6
   162        365
   163         23
   206        111
   207          9
   234        379
   235         33
   256        117
   257          7
   284        267
   285         29
   312         54
   313          4