##TITLE=Library Entry 7650
##JCAMP-DX=Revision 4.10 
##DATA TYPE=MASS SPECTRUM
##SAMPLE DESCRIPTION=Exported from NIST MS Search
##NAMES=HP
##CAS NAME=Dodecane, 1-(methylsulfinyl)-
##MOLFORM=C13H28OS
##CAS REGISTRY NO=3079-30-9
##MP= -300
##BP= -300
##MW= 232
##$RETENTION INDEX=0
##$CONDENSED SPECTRUM=NO
##NPOINTS= 97
##XYDATA=(XY..XY) 1 
    15         14
    26         12
    27        113
    29        260
    30          9
    35          8
    39         79
    40         17
    41        533
    42        101
    43        999
    44         40
    45         36
    46         47
    47         46
    48         42
    49         19
    50          4
    51          4
    53         32
    54         31
    55        425
    56        142
    57        847
    58         40
    59          6
    60          6
    61        141
    62         18
    63         65
    64        285
    65         30
    66         18
    67         40
    68         33
    69        217
    70         95
    71        348
    72         22
    73          5
    74          6
    75         18
    76          7
    77          6
    78         79
    79         11
    80          7
    81         21
    82         26
    83        123
    84         49
    85        155
    86         12
    87         18
    89          7
    91          8
    95          8
    96         11
    97         75
    98         27
    99         13
   103         20
   105          3
   110          4
   111         27
   112         11
   113          7
   117         10
   119         14
   125          7
   126          5
   129          2
   131          5
   139          2
   140          7
   143          2
   145          2
   147          1
   157          1
   159          3
   161          1
   168          5
   169          1
   173          3
   175          2
   187         13
   189          2
   199          5
   201         33
   202          6
   203          3
   215        517
   216         96
   217         39
   218          6
   231          2
   233          5