##TITLE=Library Entry 12486
##JCAMP-DX=Revision 4.10 
##DATA TYPE=MASS SPECTRUM
##SAMPLE DESCRIPTION=E. Zissis, LC, NIDDK, NIH, Bethesda, MD 20892
##NAMES=HP
##CAS NAME=2-[d-Lyxo-d-manno-octahydroxyoctyl]benzimidazole
##MOLFORM=C15H22N2O8
##CAS REGISTRY NO=3080-52-2
##MP= -300
##BP= -300
##MW= 358
##$RETENTION INDEX=0
##$CONDENSED SPECTRUM=NO
##NPOINTS= 154
##XYDATA=(XY..XY) 1 
    41         18
    42        343
    43        999
    44        209
    45        347
    46         66
    47         17
    49         12
    50         67
    51         98
    52        136
    53         52
    54         35
    55        122
    56         47
    57        142
    58         46
    59         30
    60         95
    61        105
    62         69
    63        201
    64        181
    65        154
    66         34
    67         22
    68         19
    69         50
    70         18
    71         49
    72         22
    73        101
    74         61
    75         35
    76         70
    77        114
    78         46
    79         17
    80          5
    81         18
    82          5
    83         28
    84         17
    85         36
    86         17
    87         27
    88         25
    89         27
    90        189
    91        211
    92        134
    93         19
    95         13
    96          5
    97         17
    98         13
    99         12
   101         12
   102         61
   103         93
   104         50
   105         20
   111         10
   112         10
   114         17
   115         18
   116         21
   117         71
   118        455
   119        233
   120         19
   128         12
   129         31
   130         70
   131        203
   132        287
   133         32
   140          5
   142         19
   143         73
   144         39
   145        219
   146        135
   147        275
   148        460
   149         49
   153          6
   155         26
   156         35
   157         40
   158         48
   159        120
   160        221
   161        178
   162         25
   168         18
   169         68
   170         14
   171         16
   172         12
   173        100
   174         35
   175         17
   176         15
   177         53
   178          7
   181         13
   182         12
   183         26
   184         57
   185         27
   186         15
   187          5
   189         12
   190         14
   191         11
   197         18
   198         21
   199         17
   200         16
   201         15
   202         18
   203          6
   204          5
   207         28
   208          5
   210          5
   211         16
   212         16
   213         16
   214         32
   215          5
   216          7
   225          5
   226         25
   227          7
   228          7
   236          4
   237         14
   238          6
   240         12
   242          6
   249         17
   250          5
   254          5
   263          5
   267         10
   268          5
   270          5
   284         15
   297          5
   309          5
   327          5
   358          4