##TITLE=Library Entry 4535
##JCAMP-DX=Revision 4.10 
##DATA TYPE=MASS SPECTRUM
##SAMPLE DESCRIPTION=E. Zissis, LC, NIDDK, NIH, Bethesda, MD 20892
##NAMES=HP
##CAS NAME=d-Lyxo-d-manno-nononic-1,4-lactone
##MOLFORM=C9H16O9
##CAS REGISTRY NO=3080-49-7
##MP= -300
##BP= -300
##MW= 268
##$RETENTION INDEX=0
##$CONDENSED SPECTRUM=NO
##NPOINTS= 176
##XYDATA=(XY..XY) 1 
    42        999
    43        924
    44        520
    45        273
    46         16
    47         29
    48          5
    49         11
    50         30
    51         48
    52         27
    53         81
    54         44
    55        305
    56        138
    57        118
    58         33
    59         20
    60        175
    61        250
    62         10
    63          9
    64          6
    65         16
    66         13
    67         19
    68         31
    69         80
    70         31
    71        150
    72         41
    73        474
    74        114
    75         11
    76         26
    77         11
    78          5
    79         39
    80         12
    81         35
    82         17
    83         29
    84        109
    85         90
    86         25
    87         12
    88          5
    89         14
    90          3
    91         30
    92          3
    93          5
    94          5
    95         64
    96         22
    97         98
    98         24
    99         15
   100         11
   101         23
   102         11
   103         34
   104          2
   105          3
   106          1
   107          5
   108          7
   109         16
   110         13
   111         13
   112        111
   113         41
   114         10
   115         18
   116          4
   117          1
   118          1
   119          4
   120          0
   121         12
   122          3
   123         48
   124         22
   125         44
   126         17
   127         10
   128          5
   129          4
   130          2
   131         17
   132          2
   133         19
   134          4
   135          4
   136          6
   137         12
   138          4
   139         17
   140         14
   141        104
   142        133
   143         28
   144         10
   145          6
   146          0
   147          4
   148          1
   149          9
   150          5
   151          9
   152          6
   153          7
   154         14
   155         16
   156          2
   157          6
   158          1
   159         22
   160          9
   161         10
   162          2
   163          2
   164          0
   165          6
   166          2
   167          2
   168          4
   169          3
   170          2
   171          3
   172          6
   173         12
   174          1
   175          7
   176          1
   177          2
   178          4
   179          2
   180          0
   181          1
   182          0
   183          4
   184          2
   185          1
   186          0
   187          2
   188          0
   189         11
   190          6
   191          1
   192          0
   193          2
   194          0
   196         22
   197          6
   198          0
   199          0
   201          2
   202          1
   203          0
   205          2
   207          1
   211          0
   214         19
   215          3
   216          0
   219         12
   220          1
   225          1
   232          6
   236          1
   250          0
   251          0
   253          0
   258          0
   268          0