##TITLE=Library Entry 38164
##JCAMP-DX=Revision 4.10 
##DATA TYPE=MASS SPECTRUM
##SAMPLE DESCRIPTION=V.G.Zaikin, TIPS, Russian Acad. Sci.
##NAMES=HP
##CAS NAME=Cis-3-methylpent-3-ene-5-ol
##MOLFORM=C6H12O
##CAS REGISTRY NO=30804-75-2
##MP= -300
##BP= -300
##MW= 100
##$RETENTION INDEX=0
##$CONDENSED SPECTRUM=NO
##NPOINTS= 23
##XYDATA=(XY..XY) 1 
    31         30
    39        175
    40         25
    41        575
    42         40
    43        330
    44         15
    53        155
    54         10
    55        165
    56        100
    57        140
    58         15
    67        240
    68         35
    69         90
    70         10
    71        999
    72         45
    82        160
    83         25
   100         99
   101          6