##TITLE=Library Entry 81951
##JCAMP-DX=Revision 4.10 
##DATA TYPE=MASS SPECTRUM
##SAMPLE DESCRIPTION=LAC, NIDDK, NIH, Bethesda, MD 20892
##NAMES=HP
##CAS NAME=Benzamide, N-cyclohexyl-N-[(cyclohexylamino)carbonyl]-
##MOLFORM=C20H28N2O2
##CAS REGISTRY NO=3080-42-0
##MP= -300
##BP= -300
##MW= 328
##$RETENTION INDEX=0
##$CONDENSED SPECTRUM=NO
##NPOINTS= 106
##XYDATA=(XY..XY) 1 
    41        156
    43        126
    44         27
    45          1
    47         31
    48          5
    53         31
    54         57
    55        203
    56        176
    57         16
    58          1
    60          1
    61          4
    63          1
    65          8
    67         71
    68         13
    69         26
    70         51
    71         11
    73          2
    74          1
    75          1
    77        369
    78          8
    79         59
    80          2
    81         42
    82         56
    83         69
    88         13
    90          1
    91          6
    93         11
    95          3
    96          9
    97         17
    98        247
    99         31
   100         29
   101          1
   103          2
   104        143
   105        999
   106         72
   107          5
   110          3
   111          1
   112          1
   115          1
   117          1
   118          2
   119          2
   120          3
   122        368
   123         91
   124          6
   126         18
   127          1
   128          3
   129          1
   130          1
   132          2
   133          4
   134          8
   135          4
   136          1
   140          1
   141          4
   143          5
   146         25
   148         35
   149          8
   151          1
   158          2
   160         45
   161         46
   162          9
   163          5
   165         96
   166          8
   167          1
   169          1
   174         16
   175          5
   185          4
   186          9
   188          6
   202        200
   203        101
   204         29
   205          4
   207          1
   223         31
   224          6
   230          2
   245          5
   247        608
   248         82
   249          8
   251          4
   327          7
   328        120
   329         32
   330          5