##TITLE=Library Entry 38193
##JCAMP-DX=Revision 4.10 
##DATA TYPE=MASS SPECTRUM
##SAMPLE DESCRIPTION=CARL DJERASSI DEPT OF CHEM STANFORD UNIV STANFORD CALIF
 94305
##NAMES=HP
##CAS NAME=2-Hexen-1-ol, 3-methyl-, (E)-
##MOLFORM=C7H14O
##CAS REGISTRY NO=30801-96-8
##MP= -300
##BP= -300
##MW= 114
##$RETENTION INDEX=0
##$CONDENSED SPECTRUM=NO
##NPOINTS= 32
##XYDATA=(XY..XY) 1 
    39        170
    40         30
    41        310
    42         60
    43        130
    44         10
    45         10
    51         10
    52         20
    53         10
    54        110
    55         20
    56        260
    57        130
    58         20
    65         10
    67         40
    68         50
    69         20
    70         30
    71        999
    72        130
    73         10
    77         10
    79         10
    81        100
    83         10
    86         10
    96         30
    97         10
    99         10
   114         80