##TITLE=Library Entry 46928
##JCAMP-DX=Revision 4.10 
##DATA TYPE=MASS SPECTRUM
##SAMPLE DESCRIPTION=Chemical Concepts
##NAMES=HP
##CAS NAME=1,2-Dihydro-2,2,4,6-tetraphenyl-1,3,5-triazine
##MOLFORM=C27H21N3
##CAS REGISTRY NO=30805-23-3
##MP= -300
##BP= -300
##MW= 387
##$RETENTION INDEX=0
##$CONDENSED SPECTRUM=NO
##NPOINTS= 64
##XYDATA=(XY..XY) 1 
    38         57
    40          4
    41          1
    42          2
    43          1
    51        577
    52         28
    53          3
    55          1
    63         28
    64          6
    65          5
    66          1
    69          1
    77        999
    78         48
    79          2
    82          2
    87          3
    88          4
    89          6
    90          5
    91          3
    92          1
    93          1
    98          1
    99          1
   104        752
   105         35
   106          1
   113          2
   115          5
   116          1
   118          5
   126          4
   127          3
   129          9
   130          1
   139          4
   140          1
   151          9
   152         10
   153          6
   154          6
   155          1
   163          5
   165         26
   166          4
   176          1
   177          3
   178          5
   180         68
   181          8
   182          1
   190          1
   194          1
   205          4
   206          1
   207          1
   233          1
   283          2
   306          1
   310         52
   311          7