##TITLE=Library Entry 47112
##JCAMP-DX=Revision 4.10 
##DATA TYPE=MASS SPECTRUM
##SAMPLE DESCRIPTION=A.A.Kutin, Moscow, Russia
##NAMES=HP
##CAS NAME=Methyl (6-methyl-3-phenylisoxazolo[3',4':4,5]thieno[2,3-b]pyridin
-8-yl)methyl ether
##MOLFORM=C17H14N2O2S
##CAS REGISTRY NO=308140-55-8
##MP= -300
##BP= -300
##MW= 310
##$RETENTION INDEX=0
##$CONDENSED SPECTRUM=NO
##NPOINTS= 202
##XYDATA=(XY..XY) 1 
    33          5
    34          6
    37          1
    38         14
    39         88
    40        105
    41         13
    42         18
    43         11
    44         12
    45        115
    46          2
    50         58
    51        252
    52         31
    53         18
    54          3
    55          3
    56          1
    57          4
    58          5
    59          3
    60          1
    61          3
    62         16
    63         48
    64         29
    65         27
    66         10
    67          4
    68          4
    69         23
    70         13
    71          4
    72          1
    74         10
    75         29
    76         86
    77        999
    78         77
    79          6
    80          2
    81          8
    82         10
    83          5
    84          7
    85          0
    86          2
    87          3
    88         11
    89         26
    90         30
    91         23
    92          9
    93         17
    94         16
    95          8
    96          4
    97          1
    99          4
   100          1
   101          3
   102         21
   103         16
   105        824
   106         66
   107          8
   108          4
   109          6
   110          3
   111          4
   112          1
   113          2
   114          2
   115          4
   116          4
   117         11
   118         11
   119         11
   120         15
   121        158
   122         17
   123          8
   124          0
   125          4
   126          4
   127          5
   128          3
   129         12
   130          3
   131          7
   132          3
   133         12
   134         12
   135          2
   136          3
   137          1
   138          1
   139         12
   140         22
   141          1
   145          7
   146         12
   147          4
   148          7
   149         10
   150          7
   151          4
   152          3
   153          3
   154          1
   159          2
   160          1
   161          9
   162          8
   163          2
   164          3
   165          4
   166          3
   167          2
   168          1
   170          1
   171          3
   172          1
   173         15
   174          6
   175         24
   176          5
   177          6
   178          4
   179          3
   180          5
   182          1
   189          4
   190          6
   191          4
   192          3
   193          2
   194          1
   195          5
   196          1
   197          1
   201         20
   202          2
   203         12
   205         11
   206          5
   207          3
   208          1
   209          3
   210          4
   211          4
   217         78
   218         15
   219         16
   220          3
   222          2
   223          5
   224         10
   225          6
   226          1
   231          0
   233          3
   234          5
   235         16
   236          9
   237         12
   238         15
   239          8
   247          0
   248          2
   249          6
   250         10
   251         28
   252         12
   253          4
   263          2
   264          6
   265         23
   266         35
   267         49
   268          9
   269          1
   277          2
   278         11
   279        105
   280        158
   281         43
   282         10
   290          0
   291          0
   293          8
   295        515
   296         90
   297         32
   298          4
   308          2
   309         17
   310        224
   311         43
   312         15
   313          1