##TITLE=Library Entry 70579
##JCAMP-DX=Revision 4.10 
##DATA TYPE=MASS SPECTRUM
##SAMPLE DESCRIPTION=A.A.Kutin, Moscow, Russia
##NAMES=HP
##CAS NAME=1,2,4-Triazol-4-amine, N-(2-thienylmethyl)-
##MOLFORM=C7H8N4S
##CAS REGISTRY NO=308288-21-3
##MP= -300
##BP= -300
##MW= 180
##$RETENTION INDEX=0
##$CONDENSED SPECTRUM=NO
##NPOINTS= 82
##XYDATA=(XY..XY) 1 
    33          0
    34          0
    37          5
    38         18
    39         45
    40         33
    41         14
    42          8
    43          4
    45         77
    47          8
    48          0
    49          2
    50         11
    51         14
    52         12
    53         54
    54          4
    55          1
    57         18
    58         23
    59          4
    60          1
    61          2
    62          5
    63         10
    64          2
    65          2
    66          1
    67          1
    69         33
    70         12
    71         14
    72          1
    73          0
    74          0
    75          0
    76          1
    77          3
    78          1
    79          0
    80          1
    81          6
    82          8
    83          8
    84         10
    85          7
    86          0
    87          0
    91          2
    92          1
    93          2
    95          9
    97        999
    98         63
    99         45
   100          2
   103          0
   104          0
   105          3
   106          0
   107          0
   110         26
   111          5
   112          3
   113          1
   119          0
   122          0
   123          0
   124          0
   125          0
   135          0
   151          0
   152          0
   153          0
   166          0
   167          0
   178          0
   180        166
   181         15
   182          9
   183          0