##TITLE=Library Entry 87727
##JCAMP-DX=Revision 4.10 
##DATA TYPE=MASS SPECTRUM
##SAMPLE DESCRIPTION=A.A.Kutin, Moscow, Russia
##NAMES=HP
##CAS NAME=Thiophene-2-carbohydrazide, N2-(5,5-dimethyl-3-oxocyclohexylidene
)-
##MOLFORM=C13H16N2O2S
##CAS REGISTRY NO=308294-00-0
##MP= -300
##BP= -300
##MW= 264
##$RETENTION INDEX=0
##$CONDENSED SPECTRUM=NO
##NPOINTS= 115
##XYDATA=(XY..XY) 1 
    33          1
    34          1
    36          2
    39        221
    41        105
    42         15
    43         15
    45         30
    47          1
    49          0
    50          5
    51          7
    53         34
    55         58
    57         28
    58          8
    59          1
    60          0
    63          1
    64          1
    65          7
    67         42
    68         14
    69         12
    70          4
    71          3
    73          1
    77          8
    79         11
    81         15
    83        103
    84          8
    85          4
    86          0
    91          2
    92          0
    93          1
    94         10
    95          7
    96          5
    97          9
    98          3
    99          1
   100          0
   105          0
   106          0
   107          0
   108          3
   111        999
   113         89
   115          0
   118          0
   121          4
   122          9
   123          4
   124          4
   125          7
   126          6
   127         16
   128          6
   129          0
   134          0
   135          0
   136          0
   137          1
   138          1
   139          6
   140          5
   141          1
   142          0
   147          0
   148          1
   149          0
   150          1
   151          0
   152          0
   153          5
   155          5
   156          0
   164          0
   165          0
   166         27
   167          6
   168          1
   179          1
   180          2
   181          0
   182          3
   183          0
   193          1
   203          0
   206          0
   207         13
   208         10
   209          1
   210          0
   219          0
   221          1
   222          4
   223          0
   231          4
   232          0
   234          0
   235          1
   236          1
   247          0
   249         49
   250          6
   251          2
   252          0
   263          0
   264         63
   265         10
   266          3
   267          0