##TITLE=Library Entry 59352
##JCAMP-DX=Revision 4.10 
##DATA TYPE=MASS SPECTRUM
##SAMPLE DESCRIPTION=LAC, NIDDK, NIH, Bethesda, MD 20892
##NAMES=HP
##CAS NAME=t-Boc-.beta.-benzyl-l-aspartic acid
##MOLFORM=C16H21NO6
##CAS REGISTRY NO=30825-37-7
##MP= -300
##BP= -300
##MW= 323
##$RETENTION INDEX=0
##$CONDENSED SPECTRUM=NO
##NPOINTS= 52
##XYDATA=(XY..XY) 1 
    41        309
    42         53
    43        155
    44         26
    45         33
    50         10
    51         37
    52         12
    53          6
    55         34
    56         26
    57        884
    58         40
    59        142
    63         22
    65        114
    70         33
    71         11
    72          7
    74          3
    77         61
    78         14
    79         39
    87         14
    88         64
    89         79
    90         58
    91        999
    92         82
   105         20
   107         66
   108        105
   114         12
   132         96
   133         18
   160         19
   162         22
   178        179
   179         18
   181          3
   222         80
   223         76
   224         75
   225          7
   250         12
   267        250
   268        256
   269         34
   278         29
   314         44
   322          3
   323         13