##TITLE=Library Entry 33477
##JCAMP-DX=Revision 4.10 
##DATA TYPE=MASS SPECTRUM
##SAMPLE DESCRIPTION=NIST Mass Spectrometry Data Center, 1998.
##NAMES=HP
##CAS NAME=Cyclobutaneethanol, 1-methyl-2-(1-methylethenyl)-, cis-
##MOLFORM=C10H18O
##CAS REGISTRY NO=30820-22-5
##MP= -300
##BP= -300
##MW= 154
##$RETENTION INDEX=0
##$CONDENSED SPECTRUM=NO
##NPOINTS= 86
##XYDATA=(XY..XY) 1 
    15          3
    19          1
    26          4
    27         67
    28         17
    29         69
    30          3
    31         84
    32          1
    37          1
    38          7
    39        170
    40         73
    41        291
    42         43
    43         64
    44         10
    45          6
    50         11
    51         36
    52         20
    53        224
    54         19
    55        149
    56        188
    57         32
    58          5
    59          2
    62          3
    63          9
    64          2
    65         43
    66         23
    67        699
    68        999
    69        170
    70         34
    71         40
    72          3
    74          1
    75          1
    76          1
    77         64
    78         12
    79         84
    80         23
    81         87
    82         27
    83         42
    84         23
    85         46
    86          7
    87          1
    89          1
    91         56
    92         12
    93        115
    94         30
    95         44
    96         14
    97         17
    98          7
    99          2
   103          2
   104          1
   105         14
   106          5
   107        104
   108        110
   109        327
   110         43
   111        115
   112         11
   113          1
   119          2
   121         77
   122          8
   123         20
   124          2
   125          3
   126          2
   136          5
   137          1
   139         21
   140          3
   154          1