##TITLE=Library Entry 67322
##JCAMP-DX=Revision 4.10 
##DATA TYPE=MASS SPECTRUM
##SAMPLE DESCRIPTION=A.A.Kutin, Moscow, Russia
##NAMES=HP
##CAS NAME=Butanedioic acid, 2-bicyclo[[2.2.1]heptyl ester
##MOLFORM=C11H16O4
##CAS REGISTRY NO=308289-58-9
##MP= -300
##BP= -300
##MW= 212
##$RETENTION INDEX=0
##$CONDENSED SPECTRUM=NO
##NPOINTS= 45
##XYDATA=(XY..XY) 1 
    33         66
    34          4
    38         13
    39        321
    40         99
    41        356
    42         78
    43        101
    45        406
    50         13
    51         38
    52         18
    53         64
    55        563
    56         66
    57         50
    58         17
    62          1
    63          9
    66        363
    67        425
    68        319
    70         59
    71         19
    73        257
    74          6
    77         69
    79        332
    81         60
    83         59
    84         70
    85          2
    91         32
    94        999
    95        287
    97         34
    98          3
    99          1
   101        843
   102         21
   103          1
   110         21
   111        104
   112        174
   113         12