##TITLE=Library Entry 15212
##JCAMP-DX=Revision 4.10 
##DATA TYPE=MASS SPECTRUM
##SAMPLE DESCRIPTION=R RYHAGE MS-LAB KAROLINSKA INSTITUTET STOCKHOLM SWEDEN
##NAMES=HP
##CAS NAME=L-Alanine, ethyl ester
##MOLFORM=C5H11NO2
##CAS REGISTRY NO=3082-75-5
##MP= -300
##BP= -300
##MW= 117
##$RETENTION INDEX=0
##$CONDENSED SPECTRUM=NO
##NPOINTS= 17
##XYDATA=(XY..XY) 1 
    15         15
    18         46
    26         10
    27         49
    29         51
    30         22
    41         20
    42         82
    43         34
    44        999
    45         38
    46         11
    55         11
    56         10
    72         32
    74         39
   102         10