##TITLE=Library Entry 39871
##JCAMP-DX=Revision 4.10 
##DATA TYPE=MASS SPECTRUM
##SAMPLE DESCRIPTION=Chuck Anderson, Aldrich Chemical Co.
##NAMES=HP
##CAS NAME=1,1,4,7,10,10-Hexamethyltriethylenetetramine
##MOLFORM=C12H30N4
##CAS REGISTRY NO=3083-10-1
##MP= -300
##BP= -300
##MW= 230
##$RETENTION INDEX=0
##$CONDENSED SPECTRUM=NO
##NPOINTS= 66
##XYDATA=(XY..XY) 1 
    15          2
    18          0
    26          0
    27          3
    28          9
    29          8
    30         20
    32          0
    39          1
    40          1
    41         10
    42        106
    43         68
    44         43
    45          2
    46          1
    54          3
    55          6
    56         40
    57         57
    58        438
    59         16
    68          1
    69          9
    70        164
    71        158
    72        999
    73         47
    74          1
    81          1
    82         37
    83         13
    84         34
    85          9
    86          4
    87          0
    89          6
    96          5
    97         15
    98         13
    99         59
   100         34
   101         22
   102         45
   103         28
   104          1
   111          4
   112         29
   113         42
   114         24
   115        242
   116         17
   117          0
   125          2
   126          3
   127         42
   128        111
   129         50
   130          3
   141          2
   156          0
   157          1
   160          1
   171          1
   172         38
   173          4