##TITLE=Library Entry 23268
##JCAMP-DX=Revision 4.10 
##DATA TYPE=MASS SPECTRUM
##SAMPLE DESCRIPTION=D.HENNEBERG, MAX-PLANCK INSTITUTE, MULHEIM, WEST GERMAN
Y
##NAMES=HP
##CAS NAME=1,2-Bis(tert-butylimino)ethane
##MOLFORM=C10H20N2
##CAS REGISTRY NO=30834-74-3
##MP= -300
##BP= -300
##MW= 168
##$RETENTION INDEX=0
##$CONDENSED SPECTRUM=NO
##NPOINTS= 63
##XYDATA=(XY..XY) 1 
    26         22
    28         31
    29        154
    30         31
    37          1
    38          3
    39         67
    40         18
    41        249
    42         67
    43         10
    44          1
    47          0
    48          0
    49          0
    50          2
    51          2
    52          3
    53          7
    54         18
    55         34
    56        120
    57        999
    58         44
    59          0
    62          0
    65          0
    66          3
    67          3
    68          4
    69         34
    70         42
    71          4
    77          0
    79          0
    80          1
    81          3
    82          6
    83          6
    84         34
    85         14
    86          1
    93          1
    94          0
    95          2
    96          4
    97        151
    98          9
    99          2
   109          1
   110          0
   111         40
   112        117
   113         10
   123          2
   125          1
   126          6
   140          1
   141         54
   142          5
   153         15
   154          1
   168          1