##TITLE=Library Entry 66730
##JCAMP-DX=Revision 4.10 
##DATA TYPE=MASS SPECTRUM
##SAMPLE DESCRIPTION=Japan AIST/NIMC Database- Spectrum MS-IW-3365
##NAMES=HP
##CAS NAME=1-Butyl-3-phenylurea
##MOLFORM=C11H16N2O
##CAS REGISTRY NO=3083-88-3
##MP= -300
##BP= -300
##MW= 192
##$RETENTION INDEX=0
##$CONDENSED SPECTRUM=NO
##NPOINTS= 61
##XYDATA=(XY..XY) 1 
    15          1
    26          1
    27         17
    28         17
    29         29
    30         67
    31          1
    37          1
    38          5
    39         27
    40          6
    41         35
    42          6
    43         13
    44         11
    46          1
    50          5
    51         17
    52          6
    53          3
    54          4
    55          6
    56          9
    57         17
    58          2
    62          2
    63          8
    64         10
    65         52
    66         52
    67          5
    70          2
    71          1
    72          4
    73          1
    74          1
    75          1
    76          2
    77         39
    78          5
    79          1
    90          1
    91         15
    92         41
    93        999
    94         74
    95          2
    98          2
   106          3
   107          1
   118          4
   119         19
   120          9
   135          8
   136          1
   149          3
   174          1
   191          2
   192        125
   193         15
   194          1