##TITLE=Library Entry 100712
##JCAMP-DX=Revision 4.10 
##DATA TYPE=MASS SPECTRUM
##SAMPLE DESCRIPTION=Exported from NIST MS Search
##NAMES=HP
##CAS NAME=1,2-Naphthoquinone, 3,8-dimethoxy-
##MOLFORM=C12H10O4
##CAS REGISTRY NO=30839-37-3
##MP= -300
##BP= -300
##MW= 218
##$RETENTION INDEX=0
##$CONDENSED SPECTRUM=NO
##NPOINTS= 21
##XYDATA=(XY..XY) 1 
    50        160
    62        130
    63        100
    75        100
    76        320
    88        130
    89        260
   104        100
   119        999
   120        100
   130         80
   147        160
   160        100
   161        649
   162        130
   175        420
   190        799
   191        130
   218        290
   219         50
   220        100