##TITLE=Library Entry 28778
##JCAMP-DX=Revision 4.10 
##DATA TYPE=MASS SPECTRUM
##SAMPLE DESCRIPTION=A.A.Kutin, Moscow, Russia
##NAMES=HP
##CAS NAME=2,4-Dioxaspiro[5.5]undeca-8-ene, 9-methyl-3-(1,1-dimethyl-2-dimet
hylaminoethyl)-
##MOLFORM=C16H29NO2
##CAS REGISTRY NO=308366-06-5
##MP= -300
##BP= -300
##MW= 267
##$RETENTION INDEX=0
##$CONDENSED SPECTRUM=NO
##NPOINTS= 94
##XYDATA=(XY..XY) 1 
    39         18
    41         42
    42         34
    43         41
    44         14
    45          7
    46          0
    50          1
    51          4
    53         22
    55         31
    58        999
    59         17
    60          0
    63          1
    65         11
    67         22
    68          6
    69          5
    70          6
    71          9
    72          5
    74          1
    75          0
    77         35
    79         53
    80          8
    81          5
    82          2
    83          2
    84          7
    85          4
    86          1
    89          1
    91         44
    93         83
    95         11
    96          1
    98          9
    99          3
   100          2
   101          1
   103          2
   105         13
   107         16
   108          7
   109          3
   110          1
   111          1
   112          2
   113          0
   114          0
   115          0
   117          0
   118          0
   119          1
   121         49
   122          4
   123          2
   125          2
   126          0
   128          0
   130          0
   132          0
   135          0
   136          0
   138          5
   139          1
   144          0
   146         23
   147          1
   153          0
   155          0
   159          0
   164          0
   167         12
   168          0
   169          0
   185          0
   192          0
   199          1
   207          1
   208          0
   210          0
   211          0
   213          0
   222          3
   223          0
   253          0
   265          1
   267         73
   268         11
   269          1
   270          0