##TITLE=Library Entry 545
##JCAMP-DX=Revision 4.10 
##DATA TYPE=MASS SPECTRUM
##SAMPLE DESCRIPTION=Chemical Concepts
##NAMES=HP
##CAS NAME=3-Methyl-2-(phenylselenyl)butyric acid, ethyl ester
##MOLFORM=C13H18O2Se
##CAS REGISTRY NO=308335-53-7
##MP= -300
##BP= -300
##MW= 286
##$RETENTION INDEX=0
##$CONDENSED SPECTRUM=NO
##NPOINTS= 206
##XYDATA=(XY..XY) 1 
    20          0
    24          0
    25          2
    26         17
    27        188
    28         31
    29        999
    30         41
    31         13
    32          1
    35          1
    36          5
    37          6
    38         13
    39        168
    40         19
    41        202
    42         15
    43        282
    44         12
    45        116
    46          4
    47          1
    49          3
    50         58
    51        145
    52         18
    53         58
    54          8
    55        383
    56         24
    57        210
    58         14
    59        258
    60         10
    61          2
    62          3
    63         15
    64          4
    65         48
    66          5
    67          4
    68         10
    69         77
    70          5
    71          9
    72          1
    73        301
    74         26
    75         28
    76         40
    77        252
    78        246
    79         33
    80          4
    81          6
    82          7
    83        226
    84         18
    85         11
    86          7
    87        294
    88         17
    89          8
    90          5
    91         54
    92          7
    93         24
    94          5
    95          7
    96          1
    97          2
    98          0
    99          6
   100          3
   101        340
   102         22
   103          8
   104          9
   105         25
   106          6
   107         22
   108          2
   109          3
   110          0
   111          4
   112          0
   113          9
   114          5
   115         18
   116          7
   117         30
   118          6
   119          9
   120          2
   121          3
   122          1
   123          1
   125          1
   126          1
   127          4
   128          6
   129        228
   130         25
   131         25
   132         25
   133         35
   134         17
   135         82
   136          7
   137         13
   138          4
   139          1
   141          1
   142          0
   143          1
   145          1
   147          1
   148          0
   149          0
   150         54
   151          9
   152          7
   153         46
   154         88
   155        153
   156        121
   157        239
   158        228
   159         62
   160         39
   161          3
   162          1
   163         18
   164          2
   165          5
   166          7
   167         19
   168         12
   169         38
   170         15
   171         36
   172          6
   173          6
   174          2
   175          1
   176          0
   179          1
   180          1
   181          2
   182          2
   183          6
   184          2
   185          6
   186          2
   187          1
   188          0
   191          0
   192          0
   193          2
   194          2
   195          6
   196          3
   197         10
   198          6
   199          3
   200          3
   201          0
   202          2
   204          0
   205          0
   207          4
   208          3
   209         27
   210         19
   211         63
   212          8
   213        110
   214         12
   215         20
   216          2
   234          0
   237          1
   238          1
   239          3
   240          1
   241          6
   242          2
   243          1
   244          3
   245          0
   246          0
   255          0
   257          0
   258          0
   280          5
   281          1
   282         68
   283         63
   284        177
   285         26
   286        355
   287         51
   288         66
   289          9
   290          1