##TITLE=Library Entry 47024
##JCAMP-DX=Revision 4.10 
##DATA TYPE=MASS SPECTRUM
##SAMPLE DESCRIPTION=A.A.Kutin, Moscow, Russia
##NAMES=HP
##CAS NAME=4H-1,3-Benzoxazin-4-one, 2-phenyl-
##MOLFORM=C14H9NO2
##CAS REGISTRY NO=3084-52-4
##MP= -300
##BP= -300
##MW= 223
##$RETENTION INDEX=0
##$CONDENSED SPECTRUM=NO
##NPOINTS= 69
##XYDATA=(XY..XY) 1 
    34          0
    37         59
    38        147
    39        277
    40         45
    41          7
    42          2
    43          3
    44         15
    45          4
    50        439
    51        518
    52         69
    53         41
    54          1
    58          4
    61         27
    62         91
    63        215
    64        141
    65         19
    66          4
    69          3
    73         21
    74        138
    75        124
    76        205
    77        999
    78         70
    83          3
    86          2
    87          8
    88         21
    89         22
    90        343
    91         29
    92          7
    98         10
    99          3
   100          1
   102          7
   103         15
   105        525
   106         41
   107          2
   111          2
   117          1
   118         16
   130          3
   139          8
   140          6
   146        132
   147         14
   151         10
   152         18
   153          7
   166          6
   167         16
   176          2
   177          8
   178         51
   179        397
   180         60
   195         16
   196          3
   222         13
   223        359
   224         64
   225          4