##TITLE=Library Entry 76532
##JCAMP-DX=Revision 4.10 
##DATA TYPE=MASS SPECTRUM
##SAMPLE DESCRIPTION=R.DAVIS KINGSTON POLYTEC., KINGSTON UPON THAMES, SURREY
, UK
##NAMES=HP
##CAS NAME=1,3,5,7-Cyclooctatetraene-1-carboxaldehyde
##MOLFORM=C9H8O
##CAS REGISTRY NO=30844-12-3
##MP= -300
##BP= -300
##MW= 132
##$RETENTION INDEX=0
##$CONDENSED SPECTRUM=NO
##NPOINTS= 15
##XYDATA=(XY..XY) 1 
    40        350
    41        730
    42         30
    74         80
    75        100
    76        120
    77        900
    78        620
   102         90
   103        999
   104        530
   105         40
   131         60
   132        380
   133         30