##TITLE=Library Entry 6750
##JCAMP-DX=Revision 4.10 
##DATA TYPE=MASS SPECTRUM
##SAMPLE DESCRIPTION=J. PLIMMER- U. KLINGEBIEL
##NAMES=HP
##CAS NAME=1,3,5-Triazine-2,4-diamine, 6-bromo-N,N'-diethyl-
##MOLFORM=C7H12BrN5
##CAS REGISTRY NO=3084-94-4
##MP= -300
##BP= -300
##MW= 245
##$RETENTION INDEX=0
##$CONDENSED SPECTRUM=NO
##NPOINTS= 101
##XYDATA=(XY..XY) 1 
    41        354
    42        281
    43        999
    44        937
    45         67
    50         26
    51         20
    52         20
    53         83
    54         57
    55        453
    56        125
    57        260
    58        114
    59         31
    60         52
    61         10
    65         10
    66         10
    67         98
    68        333
    69        364
    70        166
    71        333
    72         20
    73        104
    74         10
    77         41
    78         72
    79        197
    80        463
    81        197
    82        468
    83        104
    84         67
    85         93
    86         31
    87         20
    88         10
    91         41
    92         10
    93         62
    94         41
    95         78
    96        166
    97        156
    98        135
    99         26
   104         10
   105         36
   106         10
   107         15
   108         26
   109         36
   110         31
   111         62
   112         88
   113         36
   114         36
   115         26
   116         15
   117         10
   119         20
   120         10
   121         20
   122         20
   123         98
   124         15
   125         31
   126         31
   127         72
   128         10
   129         10
   131         10
   133         20
   134         10
   135         46
   136         15
   137         26
   138        161
   139         57
   140        104
   141         20
   147         20
   148         10
   149         26
   150         15
   151         10
   197         15
   202         31
   204         31
   217         57
   218         10
   219         52
   230         62
   232         57
   244         10
   245        119
   246         20
   247        119
   248         10