##TITLE=Library Entry 50637
##JCAMP-DX=Revision 4.10 
##DATA TYPE=MASS SPECTRUM
##SAMPLE DESCRIPTION=NIST Mass Spectrometry Data Center, 1994
##NAMES=HP
##CAS NAME=Diethyl hydroxymethylphosphonate
##MOLFORM=C5H13O4P
##CAS REGISTRY NO=3084-40-0
##MP= -300
##BP= -300
##MW= 168
##$RETENTION INDEX=0
##$CONDENSED SPECTRUM=NO
##NPOINTS= 57
##XYDATA=(XY..XY) 1 
    14          9
    15         34
    19         19
    26         48
    27        273
    28         95
    29        452
    30         36
    31        382
    32          9
    41         13
    42         18
    43         86
    44         19
    45        206
    46          9
    47        181
    48         27
    49         13
    59          8
    61         32
    63         19
    65        760
    66         25
    67          5
    75         16
    77         16
    78         35
    79          9
    80          5
    81        999
    82        827
    83        327
    91        423
    92         46
    93        367
    94         43
    95         74
    96         72
    97         29
   109        885
   110        243
   111        734
   112        178
   113        292
   123         22
   124         68
   125        122
   137         99
   138        800
   139        114
   140        146
   141        226
   142         11
   167         14
   168        125
   169         14