##TITLE=Library Entry 78648
##JCAMP-DX=Revision 4.10 
##DATA TYPE=MASS SPECTRUM
##SAMPLE DESCRIPTION=Exported from NIST MS Search
##NAMES=HP
##CAS NAME=Benzoic acid, 1-benzoyl-2,2-dimethylhydrazide
##MOLFORM=C16H16N2O2
##CAS REGISTRY NO=30859-86-0
##MP= -300
##BP= -300
##MW= 268
##$RETENTION INDEX=0
##$CONDENSED SPECTRUM=NO
##NPOINTS= 13
##XYDATA=(XY..XY) 1 
    39         10
    42         45
    43         60
    51        100
    77        400
    78         30
   105        999
   106         80
   163         70
   225          7
   226         20
   268         90
   269         28