##TITLE=Library Entry 34788
##JCAMP-DX=Revision 4.10 
##DATA TYPE=MASS SPECTRUM
##SAMPLE DESCRIPTION=Japan AIST/NIMC Database- Spectrum MS-IW-1899
##NAMES=HP
##CAS NAME=Diisopropylcyanamide
##MOLFORM=C7H14N2
##CAS REGISTRY NO=3085-76-5
##MP= -300
##BP= -300
##MW= 126
##$RETENTION INDEX=0
##$CONDENSED SPECTRUM=NO
##NPOINTS= 45
##XYDATA=(XY..XY) 1 
    14          1
    15         14
    26          4
    27         74
    28         20
    29          5
    30          4
    37          2
    38          5
    39         56
    40         15
    41        165
    42         89
    43        570
    44         28
    52          1
    53          9
    54          6
    55         22
    56          9
    57          3
    58         31
    59          1
    66          1
    67         16
    68         12
    69        999
    70         51
    71          1
    72          1
    73          1
    81          1
    82          2
    83         36
    84         15
    85          5
    86          2
    95          1
    98          1
   100          2
   101          3
   111         81
   112          6
   126        187
   127         16