##TITLE=Library Entry 18488
##JCAMP-DX=Revision 4.10 
##DATA TYPE=MASS SPECTRUM
##SAMPLE DESCRIPTION=Div. of Experiment Therapeutics WRAIR, WRAMC, Washingto
n DC 20307
##NAMES=HP
##CAS NAME=2,5-Dimethoxy-3,6-dinitrobenzaldehyde
##MOLFORM=C9H8N2O7
##CAS REGISTRY NO=30855-07-3
##MP= -300
##BP= -300
##MW= 256
##$RETENTION INDEX=0
##$CONDENSED SPECTRUM=NO
##NPOINTS= 127
##XYDATA=(XY..XY) 1 
    41         30
    42         33
    43         65
    45         57
    46         16
    47         12
    49        118
    50        201
    51        188
    53        999
    54         70
    55         67
    56          9
    57         14
    59        199
    61        169
    62        233
    63        219
    64        130
    65        173
    66        111
    67         52
    68         55
    69        161
    70         25
    71         14
    73         21
    74         66
    75        223
    76        229
    77        303
    78        166
    79        160
    80         87
    81         83
    82         83
    83         23
    84         55
    85          7
    86         47
    88         12
    89         33
    90         42
    91         85
    92        171
    93        147
    94         93
    95         50
    96         39
    97         22
    98         12
    99          6
   100          0
   101          2
   102          4
   103         18
   104         20
   105        157
   106         75
   107        142
   108         79
   109         68
   110         35
   111         12
   112          8
   113          6
   116          1
   118         29
   119         79
   120        153
   121         98
   122         15
   123        192
   124         63
   125         37
   126         10
   131          0
   132          5
   133         32
   134        254
   135         75
   136        103
   137         72
   138         22
   139         30
   140          7
   142          0
   146          3
   147         18
   148         34
   149         47
   150         45
   151         91
   152         37
   153         49
   154          4
   160          4
   161         10
   163         70
   164         34
   165         90
   166         26
   167         40
   168          6
   170          5
   176          4
   178         38
   179         25
   180         13
   181         17
   182          4
   192          4
   194        123
   195         17
   196         12
   208          6
   209         16
   210          2
   211          9
   226          2
   228          2
   238          0
   239         19
   240          3
   256         90
   257         34
   258          4