##TITLE=Library Entry 32827
##JCAMP-DX=Revision 4.10 
##DATA TYPE=MASS SPECTRUM
##SAMPLE DESCRIPTION=Chuck Anderson, Aldrich Chemical Co.
##NAMES=HP
##CAS NAME=3-Chloro-2-norbornanone
##MOLFORM=C7H9ClO
##CAS REGISTRY NO=30860-22-1
##MP= -300
##BP= -300
##MW= 144
##$RETENTION INDEX=0
##$CONDENSED SPECTRUM=NO
##NPOINTS= 83
##XYDATA=(XY..XY) 1 
    13          0
    14          1
    15          8
    25          2
    26         35
    27        187
    28         29
    29         18
    30          0
    31          1
    32          1
    33          0
    35          3
    36          4
    37         19
    38         52
    39        385
    40         77
    41        335
    42         27
    43          5
    44          1
    47          3
    48          9
    49         33
    50         60
    51        109
    52         52
    53        193
    54        149
    55         70
    56          4
    57          2
    58          1
    60          2
    61         11
    62         13
    63         18
    64          4
    65         55
    66        102
    67        999
    68         86
    69         11
    70          0
    72          0
    73          9
    74          0
    75        451
    76         25
    77        207
    78         18
    79        199
    80        202
    81        713
    82         44
    83          1
    85          0
    86          1
    87          2
    88         59
    89          4
    90         18
    91          2
    99          0
   100          0
   101          6
   102          6
   103          2
   104          1
   107          1
   109         74
   110          5
   111          0
   115          3
   116          4
   117          1
   118          1
   144        260
   145         18
   146         91
   147          6
   148          0