##TITLE=Library Entry 86986
##JCAMP-DX=Revision 4.10 
##DATA TYPE=MASS SPECTRUM
##SAMPLE DESCRIPTION=C.J.W.BROOKS CHEM. DEPT., THE UNIVERSITY GLASGOW, U.K.
##NAMES=HP
##CAS NAME=Pregna-5,17(20)-dien-3-ol, 20,21-[(methylborylene)bis(oxy)]-, (3.
beta.)-
##MOLFORM=C22H33BO3
##CAS REGISTRY NO=30881-79-9
##MP= -300
##BP= -300
##MW= 356
##$RETENTION INDEX=0
##$CONDENSED SPECTRUM=NO
##NPOINTS= 164
##XYDATA=(XY..XY) 1 
    39         70
    40         40
    41        230
    42         60
    43        700
    44         50
    45         70
    51         20
    52         30
    53        130
    54         30
    55        200
    56         10
    57         60
    59         10
    60         10
    61         80
    63         10
    64         10
    65         70
    66         30
    67        190
    68         40
    69         50
    70         30
    77        200
    78         60
    79        250
    80         40
    81        210
    82         20
    83         30
    84         10
    85         10
    88         20
    91        320
    92         90
    93        220
    94         50
    95        120
    96         20
    97         90
    98         20
   103         40
   104         40
   105        250
   106         80
   107        180
   108         60
   109        330
   110        999
   111        120
   115         40
   116         30
   117        110
   118         70
   119        150
   120        100
   121         80
   122         60
   123         60
   124        130
   125         40
   127         20
   128         50
   129         70
   130         40
   131        130
   132         40
   133        110
   134         60
   135         90
   136         30
   137         20
   138         10
   139         20
   141         40
   142         30
   143        140
   144         60
   145        170
   146         50
   147         10
   148         30
   149         10
   150         10
   151         20
   155         30
   156         30
   157         90
   158         70
   159        120
   160         50
   161         80
   162         20
   165         20
   168         10
   169         50
   170         20
   171         90
   172         30
   173         70
   174         30
   175         30
   176         40
   177         40
   178         30
   179         20
   180         10
   181         10
   183         40
   185         50
   186         30
   187         70
   188         20
   189         30
   190         20
   195         10
   197         40
   198         10
   199         50
   200         20
   201         30
   202         10
   203         30
   209         20
   211         80
   212         10
   213        190
   214         40
   215         80
   216         20
   217         30
   225         20
   227         40
   228         70
   229        190
   230         50
   231         70
   232         30
   233         20
   234         10
   237         10
   239         10
   241         10
   245         30
   246         30
   257         30
   262         40
   263         30
   322         10
   323        120
   324         20
   325         20
   337         20
   338         80
   339         20
   340         40
   341         50
   342         20
   355         50
   356        250
   357         70
   358         60