##TITLE=Library Entry 55258
##JCAMP-DX=Revision 4.10 
##DATA TYPE=MASS SPECTRUM
##SAMPLE DESCRIPTION=C.J.W.BROOKS CHEM. DEPT., THE UNIVERSITY GLASGOW, U.K.
##NAMES=HP
##CAS NAME=Pregnane-3,11,20,21-tetrol, cyclic 20,21-(methylboronate), (3.alp
ha.,5.alpha.,11.beta.,20R)-
##MOLFORM=C22H37BO4
##CAS REGISTRY NO=30882-72-5
##MP= -300
##BP= -300
##MW= 376
##$RETENTION INDEX=0
##$CONDENSED SPECTRUM=NO
##NPOINTS= 242
##XYDATA=(XY..XY) 1 
    39        110
    40         50
    41        690
    42        130
    43        640
    45         50
    51         20
    52         30
    53        260
    54         60
    55        640
    56        260
    57        310
    58         10
    59         10
    63         10
    65        120
    66         60
    67        740
    68        110
    69        200
    70         70
    72         20
    75         20
    77        370
    78         90
    79        890
    80        190
    81        900
    82        110
    83        130
    84        310
    85        999
    86         50
    87         20
    89         10
    91        910
    92        250
    93        880
    94        340
    95        750
    96        100
    97        130
    98         20
    99         20
   101         10
   103         60
   104         70
   105        760
   106        410
   107        800
   108        300
   109        320
   110        150
   111        220
   112         30
   113         10
   115         80
   116         60
   117        240
   118        130
   119        520
   120        260
   121        340
   122        130
   123        150
   124        200
   125         70
   126         10
   127         20
   128         60
   129        140
   130         80
   131        400
   132        140
   133        440
   134        160
   135        180
   136         60
   137         80
   138         40
   139         30
   140         10
   141         30
   142         40
   143        200
   144        110
   145        360
   146        110
   147        470
   148        150
   149        220
   150         50
   151         40
   152         20
   153         10
   154         10
   155         50
   156         30
   157        180
   158         80
   159        330
   160        140
   161        260
   162         80
   163         90
   164         50
   165         80
   166         40
   167         40
   168         30
   169         70
   170         30
   171        170
   172         90
   173        240
   174        110
   175        120
   176         40
   177         70
   178         60
   179         40
   180         20
   181         30
   182         20
   183         70
   184         30
   185        100
   186         50
   187         90
   188         40
   189         50
   190         30
   191         40
   192         30
   193         30
   195         30
   196         10
   197         50
   198         30
   199         80
   200         50
   201        130
   202         30
   203         30
   204         10
   205         30
   206         20
   209         50
   210         20
   211         70
   212         30
   213        390
   214         90
   215         60
   216         20
   217         70
   218         50
   219         40
   220         20
   223         20
   225         30
   226         30
   227         50
   228         90
   229        100
   230         40
   231        340
   232        170
   233         90
   234         40
   235         40
   236         30
   237         30
   239         70
   240         20
   241         30
   242         10
   243         30
   244         30
   245         70
   246        250
   247        150
   248         60
   249         20
   251         20
   253         20
   255        150
   256         40
   257         40
   258         40
   259         50
   260         30
   261         30
   265        110
   266         20
   267         30
   269         20
   270         10
   271         40
   272         20
   273         80
   274         30
   283         40
   284         20
   285        110
   286        220
   287         50
   288         10
   297         10
   298         60
   299         80
   300         30
   301         30
   302         10
   303         20
   304         40
   311         30
   312         10
   313         20
   314         20
   316         10
   324        120
   325        460
   326        110
   327         20
   328         10
   329         10
   332         10
   339        110
   340        420
   341        100
   342        110
   343        400
   344        100
   345         20
   356         10
   357        140
   358        590
   359        140
   360         20
   376         20