##TITLE=Library Entry 107999
##JCAMP-DX=Revision 4.10 
##DATA TYPE=MASS SPECTRUM
##SAMPLE DESCRIPTION=Exported from NIST MS Search
##NAMES=HP
##CAS NAME=Pregn-4-en-3-one, 20,21-[[(1,1-dimethylethyl)borylene]bis(oxy)]-,
 (20R)-
##MOLFORM=C25H39BO3
##CAS REGISTRY NO=30882-66-7
##MP= -300
##BP= -300
##MW= 398
##$RETENTION INDEX=0
##$CONDENSED SPECTRUM=NO
##NPOINTS= 64
##XYDATA=(XY..XY) 1 
    53         50
    55        100
    56         30
    57         60
    67        110
    69         40
    77         60
    79        130
    81        100
    85         60
    91        130
    93        120
    94         50
    95        120
    97         30
   105        110
   106         40
   107        110
   109         90
   110         30
   111         30
   117         50
   119         80
   120         50
   121         80
   122         40
   123         70
   124        999
   125         90
   126         30
   127        110
   131         80
   132         30
   133         90
   134         70
   135         60
   136         50
   137         50
   143         30
   145         60
   146         30
   147        110
   148         40
   149         90
   153         30
   157         30
   159         60
   161         40
   173        130
   174         40
   175         30
   187         40
   229         80
   274         50
   275         40
   312         30
   313        130
   314         50
   355         70
   356          2
   383         40
   397         40
   398        110
   399         30