##TITLE=Library Entry 107716
##JCAMP-DX=Revision 4.10 
##DATA TYPE=MASS SPECTRUM
##SAMPLE DESCRIPTION=C.J.W.BROOKS CHEM. DEPT., THE UNIVERSITY GLASGOW, U.K.
##NAMES=HP
##CAS NAME=Pregnane-3,11,17,20-tetrol, cyclic 17,20-(methylboronate), (3.alp
ha.,5.beta.,11.beta.,20R)-
##MOLFORM=C22H37BO4
##CAS REGISTRY NO=30882-62-3
##MP= -300
##BP= -300
##MW= 376
##$RETENTION INDEX=0
##$CONDENSED SPECTRUM=NO
##NPOINTS= 235
##XYDATA=(XY..XY) 1 
    39         80
    40         30
    41        750
    42        140
    43        970
    44         30
    45        330
    51         20
    52         10
    53        200
    54         60
    55        810
    56         80
    57        270
    58         40
    59         10
    63         10
    64         10
    65        100
    66         50
    67        590
    68        130
    69        400
    70        160
    71        180
    72         20
    75         30
    77        290
    78         70
    79        650
    80        200
    81        610
    82        100
    83        330
    84         60
    85         60
    86         80
    87        270
    88         20
    89         30
    90         20
    91        590
    92        140
    93        580
    94        200
    95        530
    96        150
    97        430
    98        150
    99         70
   100         20
   101         10
   103         50
   104         50
   105        580
   106        210
   107        530
   108        200
   109        270
   110        180
   111        600
   112        140
   113        100
   114         20
   115         60
   116         50
   117        170
   118        120
   119        350
   120        220
   121        350
   122        130
   123        370
   124        999
   125        600
   126        190
   127         60
   128         70
   129        110
   130         70
   131        280
   132        140
   133        300
   134        120
   135        180
   136         80
   137         70
   138         70
   139         60
   140         40
   141         50
   142         50
   143        190
   144         90
   145        300
   146        130
   147        230
   148         80
   149        120
   150         40
   151         60
   152         80
   153         20
   154         20
   155         50
   156         50
   157        230
   158        100
   159        350
   160        120
   161        160
   162         50
   163         70
   164         50
   165        130
   166         30
   167         30
   168         20
   169         60
   170         40
   171        160
   172        150
   173        230
   174        300
   175        140
   176         40
   177        180
   178        520
   179        100
   180         20
   181         20
   182         20
   183         50
   184         30
   185        120
   186         70
   187        150
   188         70
   189         70
   190         40
   191         40
   192         20
   193         20
   195         20
   197         80
   198         40
   199        130
   200         70
   201         70
   202        100
   203         50
   204         20
   205         20
   206         10
   208         10
   209         10
   211         70
   212         40
   213        500
   214        120
   215        460
   216        140
   217         70
   218         30
   219         20
   220         40
   223         40
   225         60
   226         50
   227         70
   228        380
   229        220
   230         50
   231        150
   232         90
   233        150
   234         40
   235         20
   237         30
   239         50
   240         20
   241         40
   242         20
   243         20
   244         40
   245         40
   246        310
   247         80
   248         20
   251         10
   252         20
   253        260
   254        110
   255         50
   256         10
   257         30
   258         10
   259         20
   260         20
   261         20
   265         50
   266         20
   267         10
   269         20
   270         40
   271        180
   272         90
   273         20
   280         90
   281         10
   283         30
   284         30
   285         40
   286         60
   287         20
   290         10
   297         30
   298         80
   299         60
   300         10
   302         10
   324         40
   325        120
   326         30
   339         50
   340        150
   341         20
   342         30
   343        120
   344         20
   357        130
   358        480
   359        120
   360         20
   376         10