##TITLE=Library Entry 45093
##JCAMP-DX=Revision 4.10 
##DATA TYPE=MASS SPECTRUM
##SAMPLE DESCRIPTION=C.J.W.BROOKS CHEM. DEPT., THE UNIVERSITY GLASGOW, U.K.
##NAMES=HP
##CAS NAME=5.beta.-Pregnane-3.alpha.,17,20.alpha.-triol, cyclic 17,20-methan
eboronate, TMS derivative
##MOLFORM=C25H45BO3Si
##CAS REGISTRY NO=30882-47-4
##MP= -300
##BP= -300
##MW= 432
##$RETENTION INDEX=0
##$CONDENSED SPECTRUM=NO
##NPOINTS= 156
##XYDATA=(XY..XY) 1 
    41        200
    42         60
    43        730
    44         50
    45        320
    47         30
    53         60
    55        320
    57         60
    59         50
    61        140
    65         30
    67        330
    68         70
    69        180
    70         60
    71        100
    72         20
    73        700
    74         80
    75        999
    76         80
    77        140
    78         30
    79        330
    80         60
    81        450
    82         50
    83        160
    84         20
    85         30
    86        100
    87        330
    88         30
    89         40
    91        310
    92         80
    93        400
    94        200
    95        370
    96         70
    97        200
    98         60
    99         30
   101         60
   103         30
   104         20
   105        360
   106        220
   107        410
   108        180
   109        240
   110        100
   111        300
   112         90
   113        100
   115         50
   116         40
   117        170
   118         50
   119        200
   120        110
   121        280
   122        100
   123        220
   124        400
   125        320
   126         80
   127         40
   128         30
   129        120
   130         40
   131        130
   132         40
   133        170
   134        160
   135        350
   136         50
   137         40
   138         20
   139         20
   141         30
   142        100
   143         80
   144         30
   145        160
   146         60
   147        250
   148         90
   149        150
   150         20
   155         70
   157         40
   158         20
   159        180
   160         80
   161        260
   162        130
   163         60
   171         40
   172         30
   173        130
   174         80
   175        150
   176         80
   177         20
   185         30
   186         20
   187        100
   188         50
   189         50
   199         40
   200         20
   201        150
   202         40
   203         30
   213         40
   214         30
   215        680
   216        220
   217        510
   218        120
   227         70
   228         50
   229         50
   230        230
   231         70
   241         30
   243         30
   254         20
   255        320
   256         80
   257         20
   267         70
   282         60
   283        170
   284         40
   285         20
   286         20
   287         60
   288        120
   289         20
   300         20
   301         20
   302         10
   326         20
   327        100
   328         20
   341        180
   342        650
   343        160
   344         20
   417         10
   431         20
   432        100
   433         30