##TITLE=Library Entry 12899
##JCAMP-DX=Revision 4.10 
##DATA TYPE=MASS SPECTRUM
##SAMPLE DESCRIPTION=C.J.W.BROOKS CHEM. DEPT., THE UNIVERSITY GLASGOW, U.K.
##NAMES=HP
##CAS NAME=Pregnane-3,11,17,20-tetrol, cyclic 17,20-[(1,1-dimethylethyl)boro
nate], (3.alpha.,5.beta.,11.beta.,20R)-
##MOLFORM=C25H43BO4
##CAS REGISTRY NO=30882-63-4
##MP= -300
##BP= -300
##MW= 418
##$RETENTION INDEX=0
##$CONDENSED SPECTRUM=NO
##NPOINTS= 245
##XYDATA=(XY..XY) 1 
    39         90
    40         50
    41        800
    42        200
    43        999
    44         30
    45        160
    50         10
    51         20
    52         20
    53        270
    54         70
    55        870
    56        120
    57        440
    58         40
    59         40
    65         80
    66         60
    67        760
    68        200
    69        560
    70        240
    71        210
    72         30
    73         80
    75         20
    77        220
    78         70
    79        600
    80        210
    81        660
    82        110
    83        440
    84         90
    85        130
    86         20
    87         40
    89         40
    90         10
    91        570
    92        140
    93        640
    94        190
    95        580
    96        100
    97        240
    98        120
    99         50
   100         10
   103         50
   104         30
   105        650
   106        220
   107        610
   108        210
   109        330
   110        100
   111        290
   112        100
   113        150
   114         10
   115         80
   116         50
   117        180
   118        130
   119        420
   120        220
   121        370
   122        120
   123        210
   124        190
   125        140
   126         50
   127         80
   128        100
   129        240
   130         70
   131        290
   132        140
   133        310
   134        110
   135        230
   136         70
   137        110
   138         70
   139        200
   140         70
   141         80
   142         40
   143        180
   144         90
   145        330
   146         90
   147        240
   148         80
   149        140
   150         40
   151         50
   152        100
   153        310
   154        110
   155        140
   156         60
   157        210
   158         90
   159        340
   160        100
   161        140
   162         60
   163        100
   164         30
   165        260
   166        999
   167        640
   168        200
   169         90
   170         50
   171        160
   172        130
   173        230
   174        290
   175        140
   176         40
   177         70
   178         70
   179         50
   180         50
   181         40
   182         10
   183         70
   184         30
   185        120
   186         70
   187        150
   188         70
   189         80
   190         50
   191         40
   193         40
   194         50
   195         30
   197         90
   198         40
   199        160
   200         60
   201         70
   202         90
   203         60
   204         20
   205         40
   206         30
   207         40
   208         20
   209         30
   210         10
   211         60
   212         40
   213        420
   214        100
   215        490
   216        120
   217         70
   218         30
   219         90
   220        340
   221         40
   222         10
   223         40
   224         10
   225         70
   226         50
   227         70
   228        400
   229        240
   230         40
   231        120
   232         80
   233        150
   234         40
   237         30
   238         10
   239         60
   241         40
   242         20
   243         30
   244         20
   246        400
   247        100
   248         20
   251         20
   252         30
   253        290
   254        140
   255         90
   256         20
   257         20
   259         20
   260         20
   261         20
   262         20
   265         60
   266         20
   267         10
   269         10
   270         50
   271        300
   272        100
   273         30
   274         30
   275         10
   280        130
   281        150
   282         30
   283         40
   284         10
   285         10
   286         20
   287         20
   288         20
   289         10
   290         10
   297         10
   298         70
   299        140
   300         30
   352         20
   353         20
   354         30
   355         80
   356         30
   366         10
   367        100
   368         20
   381         40
   382        160
   383         50
   384         30
   385        100
   386         20
   399        130
   400        460
   401        120
   402         20
   418         10