##TITLE=Library Entry 50404
##JCAMP-DX=Revision 4.10 
##DATA TYPE=MASS SPECTRUM
##SAMPLE DESCRIPTION=C.J.W.BROOKS CHEM. DEPT., THE UNIVERSITY GLASGOW, U.K.
##NAMES=HP
##CAS NAME=Pregnane-3,11,20,21-tetrol, cyclic 20,21-[(1,1-dimethylethyl)boro
nate], (3.alpha.,5.alpha.,11.beta.,20S)-
##MOLFORM=C25H43BO4
##CAS REGISTRY NO=30888-37-0
##MP= -300
##BP= -300
##MW= 418
##$RETENTION INDEX=0
##$CONDENSED SPECTRUM=NO
##NPOINTS= 282
##XYDATA=(XY..XY) 1 
    39        140
    40         50
    41        880
    42        180
    43        800
    44         30
    45         80
    50         10
    51         20
    52         40
    53        250
    54        100
    55        870
    56        270
    57        650
    58         40
    59         50
    63         10
    65         90
    66         70
    67        830
    68        200
    69        480
    70        110
    71        150
    72         10
    73        100
    74         20
    75         40
    76         10
    77        320
    78         90
    79        850
    80        180
    81        999
    82        150
    83        230
    84        160
    85        430
    86         20
    87         10
    91        860
    92        270
    93        890
    94        350
    95        810
    96        120
    97        170
    98         30
    99         40
   101         10
   103         50
   104         70
   105        800
   106        420
   107        870
   108        310
   109        340
   110         90
   111        150
   112         60
   113         40
   115         90
   116         50
   117        260
   118        140
   119        530
   120        260
   121        380
   122        130
   123        200
   124        170
   125         70
   126        140
   127        440
   128         80
   129        140
   130         80
   131        340
   132        140
   133        450
   134        150
   135        240
   136         80
   137         90
   138         40
   139         40
   140         20
   141         60
   142         80
   143        200
   144        110
   145        420
   146        160
   147        550
   148        180
   149        270
   150         70
   151         60
   152         80
   153        140
   154         40
   155         80
   156         50
   157        200
   158         90
   159        350
   160        160
   161        290
   162         90
   163        100
   164         40
   165         60
   166         60
   167         50
   168         10
   169         70
   170         40
   171        160
   172        100
   173        280
   174        140
   175        150
   176         70
   177         50
   178         30
   179         30
   180         20
   181         50
   182         25
   183         80
   184         30
   185        120
   186         60
   187        120
   188         40
   189         60
   190         30
   191         40
   192         30
   193         50
   194         20
   195         40
   196         30
   197        100
   198         40
   199        110
   200         60
   201        150
   202         40
   203         30
   204         20
   205         30
   206         30
   207         10
   208         40
   209         60
   210         20
   211         90
   212         30
   213        350
   214         90
   215         80
   216         20
   217         50
   218         30
   219         40
   220         50
   221         50
   222         30
   223         50
   224         10
   225         50
   226         50
   227         70
   228        100
   229        120
   230         30
   231        150
   232         60
   233         40
   234         30
   235         20
   236         10
   237         30
   238         20
   239        100
   240         20
   241         40
   243         10
   244         30
   245         40
   246        150
   247        130
   248         30
   249         10
   250         10
   251         40
   252         20
   253         60
   254         10
   255        200
   256         40
   257         30
   258         20
   259         40
   260         20
   261         20
   262         20
   263         10
   265        130
   266         30
   267         50
   269         20
   271         40
   272         40
   273        150
   274        130
   275         60
   276         40
   277         40
   278         20
   279         20
   280         20
   281         30
   283         20
   284         10
   285         60
   286         40
   287         40
   288         60
   289         40
   290         40
   291         10
   298         20
   299         30
   300         40
   301         50
   302         20
   303         60
   313         20
   314         10
   315         10
   316         10
   317         10
   325         20
   326         10
   327        100
   328        310
   329         70
   330         10
   340         30
   341         70
   342         30
   343         30
   344         20
   345         10
   346         40
   353         30
   354         20
   355         20
   366        160
   367        530
   368        150
   369         40
   370         20
   371         30
   372         10
   373         10
   381        130
   382        560
   383        160
   384        140
   385        390
   386        100
   387         20
   398         40
   399        160
   400        630
   401        190
   402         30
   418         10