##TITLE=Library Entry 3617
##JCAMP-DX=Revision 4.10 
##DATA TYPE=MASS SPECTRUM
##SAMPLE DESCRIPTION=V.Zaikin,Topchiev Inst.Petrochem.Synth.,Moscow
##NAMES=HP
##CAS NAME=Dichloroacetic acid, allyl ester
##MOLFORM=C5H6Cl2O2
##CAS REGISTRY NO=30895-77-3
##MP= -300
##BP= -300
##MW= 168
##$RETENTION INDEX=946
##$CONDENSED SPECTRUM=NO
##NPOINTS= 84
##XYDATA=(XY..XY) 1 
    25          5
    26         45
    27         70
    28         10
    29         60
    30          4
    31         22
    35         22
    36         88
    37         15
    38         35
    39        305
    40         58
    41        999
    42         37
    43         51
    44         53
    45         82
    47         30
    48         80
    49        132
    50        346
    51         89
    52        213
    53         36
    54          2
    55         14
    56          6
    57         71
    58        226
    59         15
    60          3
    62          4
    63          2
    64          2
    65          3
    68          1
    69          4
    70          1
    71          9
    74          1
    75         26
    76         92
    77         22
    78         50
    79        396
    80         22
    82          7
    83        220
    84         14
    85        144
    86          7
    87         23
    89          3
    91          2
    93          7
    94         24
    95          3
    96         10
    97          4
   103          1
   105         24
   106          1
   107          7
   110          6
   111         22
   112          8
   113         13
   114          3
   115          2
   120          3
   122         15
   123          1
   124         10
   126          1
   128          3
   129          4
   131          3
   133          7
   135          1
   139          3
   140          3
   141          3
   142          1