##TITLE=Library Entry 32294
##JCAMP-DX=Revision 4.10 
##DATA TYPE=MASS SPECTRUM
##SAMPLE DESCRIPTION=NIST Mass Spectrometry Data Center, 1990.
##NAMES=HP
##CAS NAME=Aldrin
##MOLFORM=C12H8Cl6
##CAS REGISTRY NO=309-00-2
##MP= -300
##BP= -300
##MW= 362
##$RETENTION INDEX=1955
##$CONDENSED SPECTRUM=NO
##NPOINTS= 281
##XYDATA=(XY..XY) 1 
    14          5
    15          5
    18         16
    26         18
    27        106
    28         78
    29          4
    32          6
    35         10
    36         18
    37         15
    38         50
    39        317
    40        122
    41         41
    42          2
    43          2
    47         12
    49         20
    50         67
    51        111
    52         37
    53         22
    60          9
    61         36
    62         52
    63         94
    64          9
    65        380
    66        999
    67         78
    68          5
    69          3
    70          2
    71          8
    72         19
    73         62
    74         65
    75        114
    76         23
    77        113
    78         39
    79        411
    80         44
    81          7
    82         11
    83         29
    84         42
    85         68
    86         65
    87         36
    88          7
    89         25
    90          7
    91        512
    92        157
    93         55
    94         25
    95         21
    96         38
    97         62
    98         61
    99         55
   100         45
   101        322
   102         46
   103        116
   104         11
   105          2
   106         15
   107         68
   108         48
   109         79
   110         96
   111         88
   112         26
   113         54
   114         22
   115         41
   116         19
   117         36
   118         15
   119         39
   120         35
   121         53
   122         31
   123         35
   124         11
   125         36
   126         32
   127         49
   128         32
   129         28
   130         27
   131         29
   132         34
   133         48
   134         21
   135         32
   136         11
   137         25
   138         11
   139         15
   140         11
   141         39
   142          8
   143         66
   144         16
   145         42
   146         21
   147         47
   148         16
   149         38
   150         76
   151         66
   152         61
   153          9
   154          6
   155         20
   156         12
   157         25
   158         11
   159         26
   160         38
   161         22
   162         16
   163          9
   165         22
   166          4
   167         37
   168         10
   169         30
   170         22
   171         16
   172         15
   173         14
   174          5
   175         10
   176          2
   177          7
   178          8
   179         24
   180         14
   181         35
   182         20
   183         34
   184         30
   185         44
   186        133
   187         57
   188         51
   189         17
   190          2
   191        129
   192         23
   193        127
   194         39
   195         59
   196         28
   197         15
   198         12
   199          3
   200          3
   201         20
   203         26
   204         18
   205         20
   206         15
   207         18
   208         10
   209         16
   210          5
   211          5
   212          3
   213          3
   214         62
   215         23
   216         85
   217        100
   218         67
   219         92
   220        158
   221        150
   222        127
   223         85
   224         43
   225         34
   226         39
   227         66
   228         58
   229         79
   230         62
   231         37
   232         36
   233         14
   234         14
   235         50
   236         14
   237         78
   238         12
   239         51
   240         10
   241         27
   242          7
   243         19
   244          9
   245          9
   246         10
   247          7
   248         62
   249         41
   250        100
   251         88
   252         70
   253         77
   254         48
   255        285
   256        189
   257        271
   258        173
   259        129
   260          9
   261        599
   262        136
   263        880
   264        167
   265        630
   266        114
   267        239
   268         47
   269         48
   270          9
   271          7
   272          3
   274          2
   276          2
   277          8
   278          3
   279          9
   280          4
   281          8
   283          3
   286          1
   287         10
   288          3
   289         10
   290          1
   291        384
   292         88
   293        454
   294         93
   295        229
   296        193
   297         79
   298        342
   299         42
   300        273
   301         31
   302        126
   303         12
   304         31
   306          6
   326         34
   327         77
   328         63
   329        123
   330         52
   331         76
   332         23
   333         25
   334          6
   335          4
   362         18
   363          3
   364         34
   365         10
   366         30
   367          4
   368         14
   369          2
   370          3