##TITLE=Library Entry 73405
##JCAMP-DX=Revision 4.10 
##DATA TYPE=MASS SPECTRUM
##SAMPLE DESCRIPTION=Tox21 Consortium/NIST Mass Spectrometry Data Center, 20
12
##NAMES=HP
##CAS NAME=2-Pyrrolidinone, 1-ethyl-4-[2-(4-morpholinyl)ethyl]-3,3-diphenyl-
##MOLFORM=C24H30N2O2
##CAS REGISTRY NO=309-29-5
##MP= -300
##BP= -300
##MW= 378
##$RETENTION INDEX=2874
##$CONDENSED SPECTRUM=NO
##NPOINTS= 196
##XYDATA=(XY..XY) 1 
    15          1
    27          3
    28         19
    29         16
    30          7
    31          1
    39          3
    40          1
    41         12
    42         44
    43         18
    44         18
    45          3
    50          1
    51          4
    52          1
    53          2
    54          8
    55         22
    56         96
    57         24
    58         13
    59          1
    63          2
    64          1
    65          5
    67          1
    68          5
    69          4
    70         23
    71         14
    72         15
    73          1
    74          1
    75          1
    76          2
    77         10
    78          3
    79          3
    80          3
    81          2
    82          9
    83          4
    84         12
    85          6
    86         17
    87         75
    88          6
    89          5
    91         72
    92          6
    94          2
    95          2
    96          6
    97          7
    98         20
   100        999
   101         91
   102         29
   103         10
   104          8
   105         10
   106          1
   108          2
   109          2
   110          3
   111          2
   112          4
   113        128
   114         31
   115         57
   116         10
   117          6
   118          2
   119          1
   120          1
   124          2
   125          1
   126          7
   127         11
   128         26
   129         32
   130          9
   131          3
   132          3
   133          1
   134          1
   136          1
   137          1
   138          1
   139         10
   140          5
   141          7
   142          3
   143          7
   144          3
   145          1
   146          1
   147          1
   150          1
   151          3
   152         16
   153          8
   155          3
   156          2
   157          1
   158          4
   159          1
   160          2
   163          5
   164          8
   165         80
   166         46
   167         23
   168          4
   169          1
   170          1
   171          1
   172          3
   173          1
   174          1
   175          1
   176         18
   177          5
   178         26
   179         10
   180          3
   181          2
   182          1
   183          1
   184          1
   186          3
   187         20
   188         19
   189         15
   190          7
   191         23
   192         14
   193          8
   194         54
   195         10
   196          1
   200          3
   201          1
   202          6
   203          7
   204          7
   205          9
   206          8
   207          2
   208          1
   211          1
   214          1
   215          1
   216          2
   217          2
   218          1
   219          5
   220          2
   221          1
   232          1
   234          6
   235          2
   236          1
   237          1
   238          1
   248          3
   249          1
   250          2
   259          2
   260          1
   262          6
   263         18
   264         37
   265         10
   266          1
   276          1
   277          2
   278          8
   279          1
   290          1
   291          9
   292          8
   293          2
   294          1
   301          1
   335          1
   347         32
   348          9
   349          2
   363          1
   376          4
   377          3
   378         35
   379          9
   380          1