##TITLE=Library Entry 73300
##JCAMP-DX=Revision 4.10 
##DATA TYPE=MASS SPECTRUM
##SAMPLE DESCRIPTION=LAC, NIDDK, NIH, Bethesda, MD 20892
##NAMES=HP
##CAS NAME=5.alpha.-Pregnan-20-one, 3.beta.-hydroxy-, O-methyloxime
##MOLFORM=C22H37NO2
##CAS REGISTRY NO=3091-40-5
##MP= -300
##BP= -300
##MW= 347
##$RETENTION INDEX=0
##$CONDENSED SPECTRUM=NO
##NPOINTS= 131
##XYDATA=(XY..XY) 1 
    41        155
    42        169
    43         87
    44        103
    45          9
    49          7
    51          5
    53         48
    55        169
    57         79
    58         37
    59          8
    65         16
    67        120
    68         24
    70        308
    71         15
    72          5
    74         73
    77         42
    79        123
    81        133
    82         29
    83         23
    84         15
    87        750
    88         52
    89          2
    91         83
    93         92
    95         94
    96         20
    97         11
    98          7
   100        999
   101         35
   102          7
   103          2
   104          3
   105         57
   107        103
   108         24
   109         37
   111          2
   112          4
   113         70
   114         31
   115         12
   117         34
   119         42
   120          9
   121         43
   122         18
   123         17
   124         10
   126         25
   127          5
   129          9
   130          2
   131         22
   133         39
   134         27
   135         28
   137         21
   140          1
   142          2
   143          9
   145         24
   147         37
   149         26
   150          4
   151          2
   152          4
   154          6
   156          1
   157          5
   159         18
   161         24
   162          3
   163          8
   165         17
   166          1
   171          6
   173         34
   175         14
   176          1
   180          1
   185          8
   187         10
   188          1
   189          7
   190          2
   191          1
   197          1
   199          9
   201          7
   203          4
   204          1
   211          1
   213          4
   215         21
   217          5
   225          2
   233          7
   234          4
   241         18
   242          2
   243         10
   248         11
   257          5
   259         13
   260          6
   274          1
   281          6
   283          6
   292          3
   298          4
   299          6
   300         10
   301          4
   314          5
   316        240
   317         51
   318          6
   330          4
   332         24
   333          4
   346          5
   347         27
   348          6
   349          1