##TITLE=Library Entry 63961
##JCAMP-DX=Revision 4.10 
##DATA TYPE=MASS SPECTRUM
##SAMPLE DESCRIPTION=A.A.Kutin, Moscow, Russia
##NAMES=HP
##CAS NAME=Benzimidazole, 1-benzyl-2-(2-methylphenylaminomethyl)-
##MOLFORM=C22H21N3
##CAS REGISTRY NO=309286-63-3
##MP= -300
##BP= -300
##MW= 327
##$RETENTION INDEX=0
##$CONDENSED SPECTRUM=NO
##NPOINTS= 186
##XYDATA=(XY..XY) 1 
    33          1
    34          0
    39         99
    41         45
    42          4
    43          5
    44          1
    45          0
    47          0
    50         23
    51         63
    52         24
    53         11
    54          2
    55          2
    57          5
    58          1
    59          1
    60          0
    63         58
    65        305
    66         10
    68          1
    69          1
    70          1
    71          2
    72          0
    74          4
    75         14
    77        137
    78         33
    79         14
    80          3
    81          0
    83          1
    84          0
    85          0
    86          0
    87          1
    89         57
    91        999
    92         98
    93          8
    95          0
    96          0
    97          0
    98          0
    99          0
   100          1
   102         26
   103         24
   104         41
   105         16
   106         35
   107          8
   108          1
   109          0
   110          2
   112          0
   113          1
   114          1
   115          4
   116         12
   117         29
   118         97
   119        238
   120         44
   122          0
   124          0
   125          2
   126          2
   127          3
   128          3
   129         12
   131        121
   132         32
   133          4
   134          0
   137          0
   138          0
   139          1
   140          2
   141          1
   142          3
   143          8
   144          7
   145          5
   146          4
   147          0
   149          7
   150          2
   151          8
   152         13
   153          4
   154          1
   155          1
   156          1
   157          0
   158          0
   159          0
   160          0
   162          0
   163          1
   164          2
   165          4
   166          4
   167          5
   168          2
   169          1
   170          0
   171          0
   176          0
   177          4
   178          8
   179         12
   180         13
   181         13
   182          3
   183          0
   189          0
   190          2
   191          2
   192          4
   193          6
   194         10
   195          6
   196         18
   197          2
   198          0
   202          0
   203          0
   204          5
   205         20
   206         40
   207         77
   208         26
   209         19
   210          2
   211          0
   216          1
   217          3
   219        330
   220        183
   221        214
   222         55
   223          7
   224          0
   230          0
   231          1
   232          5
   233          8
   234         44
   236        630
   237        106
   238          8
   239          0
   245          0
   246          0
   248          7
   249          1
   250          1
   251          0
   279          1
   280          0
   281          0
   282          0
   283          0
   295          1
   297         10
   298          2
   299          0
   307          0
   308          0
   309          7
   310         18
   311          5
   312          6
   313          2
   314          0
   322          0
   324          7
   325         32
   327        378
   328         86
   329         10
   330          0