##TITLE=Library Entry 12660
##JCAMP-DX=Revision 4.10 
##DATA TYPE=MASS SPECTRUM
##SAMPLE DESCRIPTION=A.A.Kutin, Moscow, Russia
##NAMES=HP
##CAS NAME=3-Hexanone, 5-(4-chlorophenyl)-5-hydroxy-2,2-dimethyl-
##MOLFORM=C14H19ClO2
##CAS REGISTRY NO=309286-97-3
##MP= -300
##BP= -300
##MW= 254
##$RETENTION INDEX=0
##$CONDENSED SPECTRUM=NO
##NPOINTS= 117
##XYDATA=(XY..XY) 1 
    33          1
    35          3
    36          7
    37         13
    39        169
    41        471
    43        999
    45          8
    47          1
    50         76
    51         47
    52          7
    53         13
    55         43
    57        855
    59         54
    61         10
    62         10
    63         21
    65         18
    67         17
    69         20
    71          4
    73         18
    74         35
    75         93
    76         23
    77         37
    78          3
    79          1
    80          0
    81          0
    85        165
    86          9
    87          5
    89         18
    91         31
    92          1
    93          0
    96          0
    97          1
   100        159
   101         16
   102          8
   103          4
   104          4
   105          7
   106          0
   107          0
   108          0
   111        144
   112         24
   113         43
   114          7
   115         16
   116          7
   117          7
   118          1
   120         10
   121          1
   123          0
   125         13
   127          5
   128          1
   129          0
   131          1
   132          0
   133          0
   136          1
   137          8
   139        260
   141         97
   142          5
   143          5
   144          1
   145          0
   146          0
   147          0
   148          0
   149          1
   151         11
   152         23
   155        956
   156        101
   157        243
   158         18
   159          0
   163          0
   165          0
   167          0
   168          0
   169          0
   170          0
   171          0
   179          9
   181          4
   183          1
   185          0
   193          0
   195          0
   197          9
   198          1
   199          2
   200          0
   221          0
   236          1
   237          1
   239         63
   240          8
   241         19
   242          2
   243          0
   252          0
   254         37
   255          5
   256         11
   257          1