##TITLE=Library Entry 54200
##JCAMP-DX=Revision 4.10 
##DATA TYPE=MASS SPECTRUM
##SAMPLE DESCRIPTION=A.A.Kutin, Moscow, Russia
##NAMES=HP
##CAS NAME=Piperidine, 1-(3,4-difluoro-6-nitrobenzoyl)-
##MOLFORM=C12H12F2N2O3
##CAS REGISTRY NO=309280-91-9
##MP= -300
##BP= -300
##MW= 270
##$RETENTION INDEX=0
##$CONDENSED SPECTRUM=NO
##NPOINTS= 142
##XYDATA=(XY..XY) 1 
    33         12
    35          4
    36          0
    37          5
    39        121
    41        238
    42        368
    44         19
    46         11
    47         11
    48          6
    49          3
    50         13
    51         24
    53         56
    55        439
    56        151
    57         17
    58          2
    62        128
    63         45
    64         98
    65          6
    68         54
    69         22
    70         14
    71          3
    73          3
    74         20
    75         26
    76          6
    77          3
    78          1
    80         25
    81         36
    83        540
    84        999
    85         43
    87         14
    88         12
    90          7
    92         24
    93         35
    94         23
    95          5
    96          0
    99         20
   100         56
   101         47
   102          2
   105          0
   106          1
   107          4
   108          1
   109          0
   112        552
   113        125
   114        162
   115         33
   116          1
   119          5
   120          3
   121          4
   122         24
   123          2
   125          8
   126         30
   127         29
   128         30
   129         34
   130          2
   133          0
   138          2
   140        282
   141        137
   143         19
   144          1
   145          1
   146          0
   148          1
   150          0
   151          2
   152          2
   153          8
   154          5
   155          6
   156         16
   157         90
   158          3
   164          2
   166         13
   167         11
   168         30
   170        260
   171         34
   172          2
   176          1
   180          2
   181          4
   182         11
   183         14
   184          4
   186        340
   187         85
   192          0
   194         13
   195          7
   196          2
   197          1
   198          0
   199          0
   204          0
   206          1
   207          2
   208          6
   209         11
   210         86
   211          7
   212          0
   217          0
   218          2
   222          9
   223         11
   224          7
   225         16
   226          2
   235          9
   236          5
   238          0
   239          0
   240          2
   241          0
   242         15
   243          1
   253         72
   254         10
   255          1
   268          1
   269          6
   270        113
   271         18
   272          2