##TITLE=Library Entry 89092
##JCAMP-DX=Revision 4.10 
##DATA TYPE=MASS SPECTRUM
##SAMPLE DESCRIPTION=A.A.Kutin, Moscow, Russia
##NAMES=HP
##CAS NAME=Thiophene-2-carboxamide, N-[2-oxo-2-(1-pyrrolidinyl)-1-(2-thienyl
methylene)ethyl]-
##MOLFORM=C16H16N2O2S2
##CAS REGISTRY NO=309286-57-5
##MP= -300
##BP= -300
##MW= 332
##$RETENTION INDEX=0
##$CONDENSED SPECTRUM=NO
##NPOINTS= 174
##XYDATA=(XY..XY) 1 
    33          4
    34          1
    37          4
    39        193
    41         45
    42         25
    43         38
    45         43
    46          2
    47          0
    50          5
    51         14
    52          7
    53         11
    55        121
    56         86
    57         16
    58         10
    59          1
    60          1
    61          1
    62          4
    63         10
    64          2
    65          7
    66          1
    70        119
    71         17
    72          3
    73          0
    74          1
    75          1
    76          1
    77          3
    78          4
    80          3
    81          6
    83         75
    84          7
    85          5
    86          0
    87          0
    88          0
    89          1
    91         32
    92         34
    95         18
    96         46
    97         23
    98         50
    99          2
   100          0
   102          0
   103          0
   104          0
   105          0
   106          0
   107          0
   108          3
   111        999
   113         80
   114          1
   115          0
   116          0
   117          0
   119          0
   120          0
   122         33
   123         37
   124         16
   125          3
   126          1
   127          1
   128          0
   129          0
   130          0
   132          0
   134          0
   135          4
   136          1
   137          2
   138          0
   140          0
   145          2
   146          0
   147          1
   148          0
   149          1
   150          2
   151          1
   152          5
   153          0
   154          0
   156          0
   157          0
   159          0
   160          0
   161          0
   162          0
   163          0
   164          0
   165          0
   166          7
   167          0
   168          0
   171          0
   172          0
   173          0
   174          0
   175          0
   176          1
   177          1
   178          2
   179          3
   180          0
   181          0
   182          0
   187          0
   188          0
   189          0
   190          0
   191          0
   192          1
   193          1
   194          0
   202          0
   203          0
   204          1
   205          2
   206          1
   207          1
   208          0
   216          2
   217          0
   218          1
   219          0
   220          0
   221          7
   222          1
   223          0
   228          0
   230          1
   231          0
   232          0
   233          2
   234          0
   235          2
   236          0
   237          0
   244          0
   245          0
   247          0
   248          0
   257          0
   258          0
   261        409
   262         68
   263         41
   264          6
   265          1
   276          0
   281          0
   295          0
   297          0
   299          2
   300          0
   301          0
   313          0
   314          0
   315          0
   332         27
   333          5
   334          2
   335          0