##TITLE=Library Entry 73625
##JCAMP-DX=Revision 4.10 
##DATA TYPE=MASS SPECTRUM
##SAMPLE DESCRIPTION=A.A.Kutin, Moscow, Russia
##NAMES=HP
##CAS NAME=Indol-2(3H)-one, 1-(4-morpholylmethyl)-3,2'-spiro-1,3-dioxane-
##MOLFORM=C16H20N2O4
##CAS REGISTRY NO=309277-14-3
##MP= -300
##BP= -300
##MW= 304
##$RETENTION INDEX=0
##$CONDENSED SPECTRUM=NO
##NPOINTS= 104
##XYDATA=(XY..XY) 1 
    33          2
    37          1
    38          4
    39         24
    41         59
    42         65
    43         11
    44         11
    45          6
    50         12
    51         35
    52          7
    53          5
    54         16
    56        153
    58         14
    59          1
    61          4
    63         28
    64         15
    65          7
    66          5
    67          0
    68          2
    70         40
    72         22
    74          8
    75         12
    76         31
    77         98
    78         12
    79          1
    80          0
    82          0
    83          0
    85          1
    86          8
    88          3
    90        119
    91         11
    92          6
    93          2
    95          0
    98          8
   100        999
   102         13
   103         10
   104         29
   105         27
   106          3
   107          0
   109          2
   115          0
   116          2
   117          6
   118         26
   119         13
   120          4
   121          0
   128          0
   129          4
   130         17
   132        168
   133         14
   134          2
   135          0
   137          2
   138          0
   143          0
   146        307
   147         23
   148          7
   149          2
   150          0
   158          0
   159          1
   160          1
   161          1
   162          4
   163          0
   171          0
   173          0
   176         14
   177          4
   178          0
   188          0
   190         41
   191          4
   192          0
   204        768
   205         84
   206          9
   207          1
   217          3
   218          1
   219          0
   235          2
   246          4
   247          0
   262          0
   275          1
   304         39
   305          6
   306          0