##TITLE=Library Entry 58684
##JCAMP-DX=Revision 4.10 
##DATA TYPE=MASS SPECTRUM
##SAMPLE DESCRIPTION=A.A.Kutin, Moscow, Russia
##NAMES=HP
##CAS NAME=2H-1,4-Benzothiazin-3(4H)-one, 5,7-dinitro-2-phenyl-, 1,1-dioxide
##MOLFORM=C14H9N3O7S
##CAS REGISTRY NO=309286-34-8
##MP= -300
##BP= -300
##MW= 363
##$RETENTION INDEX=0
##$CONDENSED SPECTRUM=NO
##NPOINTS= 142
##XYDATA=(XY..XY) 1 
    38         18
    39         52
    40          7
    41         13
    44         13
    45         29
    46         93
    47          7
    48         15
    50         51
    51         84
    52        100
    53         21
    55          9
    56          8
    58          1
    61         52
    62        301
    63        207
    64        104
    65         30
    66          8
    67          5
    68         15
    69         16
    70          5
    73         23
    74         70
    75         60
    76        115
    77        140
    78         41
    79         28
    80          2
    81          4
    82         16
    83         11
    86         26
    87         97
    89        999
    90        617
    91         98
    93         26
    94         14
    96          2
    98          6
    99          5
   101         17
   102         61
   103         73
   104         52
   105         97
   107        184
   108         12
   110          3
   111          2
   113         10
   115         42
   116        109
   118        162
   119         15
   120         13
   121         16
   124          9
   125         24
   126         28
   127         33
   128         23
   129          5
   130          2
   133         13
   134          4
   135          1
   139         55
   140         41
   141          6
   149          4
   150         36
   151        189
   152         53
   153         24
   154          1
   162         10
   163         41
   164         30
   165         17
   166         44
   167         37
   168         13
   169          3
   171          1
   175          4
   178        698
   179        135
   180         35
   181         15
   182          9
   190          3
   191         32
   192         58
   193         15
   194          9
   195          8
   204          5
   205        126
   207        176
   208         31
   209         40
   210          8
   211          5
   213        119
   218          6
   220          5
   222          5
   224        103
   225        232
   226         16
   235         13
   236         15
   238         10
   250          1
   251        224
   252        185
   253         73
   254        191
   255         21
   257         18
   262          2
   265        143
   266         24
   270         12
   280          2
   282        109
   283          5
   299         77
   300          3
   347          8
   349          1
   363        497
   364         79
   365         38
   366          2