##TITLE=Library Entry 78374
##JCAMP-DX=Revision 4.10 
##DATA TYPE=MASS SPECTRUM
##SAMPLE DESCRIPTION=A.A.Kutin, Moscow, Russia
##NAMES=HP
##CAS NAME=Acetamide, 2-benzoylthio-N-(3-acetylphenyl)-
##MOLFORM=C17H15NO3S
##CAS REGISTRY NO=309282-67-5
##MP= -300
##BP= -300
##MW= 313
##$RETENTION INDEX=0
##$CONDENSED SPECTRUM=NO
##NPOINTS= 117
##XYDATA=(XY..XY) 1 
    33          9
    34          1
    35          0
    36          1
    37          3
    38         11
    39         30
    40          8
    41          9
    43        166
    45         18
    46         13
    47          9
    50         30
    51        151
    52         16
    53          3
    54          1
    55          1
    57          2
    58          2
    59          0
    60          0
    61          2
    63         36
    64         28
    65         36
    66          3
    67          0
    69          2
    70          3
    71          1
    72          0
    74         14
    75         12
    77        403
    78         25
    79          4
    80          2
    81          0
    82          1
    83          0
    84          0
    85          0
    87          0
    88          1
    89          5
    90         16
    91         49
    92         25
    93          9
    94          8
    96          1
    97          1
    98          0
   101          0
   102          0
   105        999
   107          3
   109          5
   110          0
   111          0
   112          0
   113          0
   115          0
   116          0
   118          5
   119         17
   120         18
   121          4
   122          1
   123          2
   124          5
   125          0
   126          0
   130          0
   132          3
   133          1
   134         10
   135         26
   136          4
   138          4
   139          0
   144          0
   146          8
   147          1
   148         10
   149          1
   151         10
   152          1
   153          0
   160          0
   161          0
   162          2
   163          0
   166         12
   167          3
   168          0
   171          0
   175          4
   176          1
   178         15
   179         46
   180          7
   181          2
   182          0
   191          0
   208          2
   209          0
   239          0
   240          3
   241          0
   298          0
   313         48
   314          9
   315          2
   316          0