##TITLE=Library Entry 53676
##JCAMP-DX=Revision 4.10 
##DATA TYPE=MASS SPECTRUM
##SAMPLE DESCRIPTION=A.A.Kutin, Moscow, Russia
##NAMES=HP
##CAS NAME=Acetamide, N-[3,4,5,6-tetrahydro-4,6-dioxo-2-[2-oxo-2-(1-piperidy
l)ethylthio]-5-pyrimidinyl]-
##MOLFORM=C13H18N4O4S
##CAS REGISTRY NO=309275-98-7
##MP= -300
##BP= -300
##MW= 326
##$RETENTION INDEX=0
##$CONDENSED SPECTRUM=NO
##NPOINTS= 124
##XYDATA=(XY..XY) 1 
    33         14
    34          5
    35         10
    36         24
    37         18
    39        266
    41        365
    42        421
    43        687
    44        297
    46         96
    47         13
    48          5
    50         36
    51         38
    52         33
    53         48
    54         84
    56        668
    57        339
    58         31
    59         11
    60         20
    61          4
    62          5
    63          6
    64          5
    65          8
    67         38
    68         45
    69        110
    70        137
    71         16
    72         23
    73          9
    74          9
    75          7
    76          4
    77          9
    78          6
    79         11
    80         30
    82         58
    84        999
    85        404
    86        214
    87         14
    88          4
    89          4
    90          0
    91          6
    92          3
    93          0
    94          4
    95          4
    96          8
    97         53
    98         36
    99          9
   100         10
   101         13
   102          4
   103          1
   104          1
   105          3
   108          2
   110          8
   112         61
   113         11
   114         16
   116         96
   117          8
   118          5
   119          2
   122          1
   123          0
   125         64
   126         71
   127         27
   129         28
   130          4
   131          0
   138          0
   139          4
   140          4
   142         65
   143         80
   144         76
   145          7
   146          4
   153          0
   154         11
   155          5
   156          2
   157          3
   158          9
   159         12
   160          1
   161          1
   168          0
   169          2
   170          9
   171         40
   172          7
   173          6
   183          1
   186          0
   199        479
   200         41
   201         33
   202          4
   203          1
   210          3
   217          7
   218          0
   241         85
   242          9
   243          5
   251          0
   283          0
   284          4
   293          0
   326         31
   327          4