##TITLE=Library Entry 36328
##JCAMP-DX=Revision 4.10 
##DATA TYPE=MASS SPECTRUM
##SAMPLE DESCRIPTION=A.A.Kutin, Moscow, Russia
##NAMES=HP
##CAS NAME=1,3,5-Triazine, 2-(1H-1,2,3-benzotriazol-1-yl)-4-(2,2,2-trifluoro
-1-trifluoromethylethoxy)-6-(4-morpholyl)-
##MOLFORM=C16H13F6N7O2
##CAS REGISTRY NO=309281-68-3
##MP= -300
##BP= -300
##MW= 449
##$RETENTION INDEX=0
##$CONDENSED SPECTRUM=NO
##NPOINTS= 153
##XYDATA=(XY..XY) 1 
    33         42
    34         31
    36         45
    37         58
    38        111
    39        351
    40         60
    41        418
    42        321
    43        363
    44        244
    45         81
    50        117
    51        190
    52         76
    53         99
    54        140
    55        226
    56        230
    57        461
    58         46
    59         19
    61          9
    62         52
    63        207
    64        128
    65        127
    66         40
    67         62
    69        999
    71         84
    72         20
    74         20
    75         45
    76         71
    77        222
    78        100
    79         60
    80        205
    81         40
    82         45
    83         25
    84         35
    85         17
    86         55
    88          9
    89         40
    90        254
    91        308
    92         50
    94        448
    95         41
    97         13
    98          6
   102         36
   103         37
   104         70
   105         83
   106        180
   107        154
   108         33
   109          4
   111          7
   112         18
   113         34
   115         41
   116         76
   117         36
   118         31
   119         66
   120        128
   121         47
   127         15
   128         29
   129         27
   130         22
   131         34
   132         35
   133         30
   134          5
   136         22
   138        940
   139         88
   140          4
   141         13
   143         61
   144         53
   145         14
   151        112
   152         35
   153         10
   154          5
   155          6
   156         21
   157         36
   158         62
   159         33
   165         33
   166          7
   167         12
   169         25
   170         28
   171         28
   172         13
   179          3
   180         16
   181         19
   182          7
   183         27
   184         71
   185         57
   194          9
   196         13
   197          7
   198          5
   211         22
   212         11
   213         31
   219         13
   223          8
   224         80
   225         14
   226         21
   227          3
   239          6
   240         52
   241         13
   254          7
   256          4
   270         35
   272         11
   273         12
   274         41
   275         11
   283          7
   284         13
   286          6
   298         11
   299         17
   300        136
   301         30
   318         27
   346         54
   347          3
   363         35
   364         85
   365         10
   376         21
   390         29
   402         24
   421        204
   422         24
   449         28