##TITLE=Library Entry 46099
##JCAMP-DX=Revision 4.10 
##DATA TYPE=MASS SPECTRUM
##SAMPLE DESCRIPTION=A.A.Kutin, Moscow, Russia
##NAMES=HP
##CAS NAME=Chromone, 2-trifluoromethyl-6-nitro-
##MOLFORM=C10H4F3NO4
##CAS REGISTRY NO=309286-94-0
##MP= -300
##BP= -300
##MW= 259
##$RETENTION INDEX=0
##$CONDENSED SPECTRUM=NO
##NPOINTS= 134
##XYDATA=(XY..XY) 1 
    33          5
    34          0
    37         71
    38         52
    39         34
    41         39
    43         12
    44         14
    46         48
    50        100
    51         66
    53        133
    55         12
    56         10
    57          8
    58          3
    61        131
    62        266
    63        236
    64         18
    65         13
    66          5
    69        143
    71         15
    74        418
    75        999
    76         55
    77         12
    79         69
    80          9
    81         15
    82          3
    85         22
    86         38
    87         93
    88         68
    89         16
    90         16
    91         43
    92          8
    93          8
    94          6
    95          3
    97          4
    98          7
    99          9
   100          2
   101          2
   102          3
   103          5
   104          6
   105         13
   107        288
   108         14
   109          1
   111          5
   112          9
   113          1
   116         80
   117         10
   119         49
   121         12
   122          1
   123          3
   125          5
   126          1
   127          0
   128          0
   131         31
   132          2
   135         30
   137        262
   138         41
   139          5
   140          0
   141          0
   143          3
   145         43
   146          3
   147          1
   149          1
   150          0
   151          0
   153          2
   157        417
   158         28
   159          1
   162          0
   165         26
   166         26
   167          2
   168          0
   169          0
   173        104
   174          6
   175          0
   179          0
   182          0
   185         54
   186          3
   187          0
   190          0
   191          0
   193          1
   194          0
   199          1
   201         46
   202          3
   203          0
   207          0
   213        500
   214         45
   215          3
   216          0
   225          0
   227          6
   229        159
   230         15
   231          2
   237          0
   240         51
   241          5
   243         16
   244          1
   245          0
   247          0
   249          0
   252          0
   253          0
   259        981
   260         94
   261         11
   262          1
   263          0