##TITLE=Library Entry 4609
##JCAMP-DX=Revision 4.10 
##DATA TYPE=MASS SPECTRUM
##SAMPLE DESCRIPTION=A.A.Kutin, Moscow, Russia
##NAMES=HP
##CAS NAME=Piperazine, 1-(2-fluoro-5-methyl-4-nitrophenyl)-4-methyl-
##MOLFORM=C12H16FN3O2
##CAS REGISTRY NO=309279-89-8
##MP= -300
##BP= -300
##MW= 253
##$RETENTION INDEX=0
##$CONDENSED SPECTRUM=NO
##NPOINTS= 166
##XYDATA=(XY..XY) 1 
    33          4
    35          1
    37          0
    38          5
    39         33
    42        999
    43        796
    44         72
    46         22
    47          0
    50         15
    51         29
    52         16
    53         10
    54         54
    55         37
    56        129
    57        149
    58         29
    59          8
    60          1
    62         23
    63         37
    64          8
    65         13
    66          4
    67          7
    68         13
    70        264
    71        340
    72         15
    73          2
    74         10
    75         32
    76         16
    77         22
    78          8
    79          3
    80         12
    81         68
    82         41
    83         90
    84         16
    85         10
    86          5
    87         11
    88         11
    89         40
    90         14
    91          5
    92          7
    93          9
    94         22
    95         45
    96         62
    97         34
    98         11
    99         33
   100          7
   101         11
   102         11
   103         14
   104         11
   105         13
   107        229
   108        123
   109        112
   110         34
   111          5
   112          5
   114          2
   115          8
   116         16
   117         15
   118          4
   120         10
   121         28
   122         27
   123         16
   124         17
   125          3
   127         11
   128          2
   130          7
   131          2
   132          3
   133          5
   134         25
   135         77
   136         78
   137         61
   138         12
   139          3
   140          0
   141          0
   142          0
   143          2
   144          3
   145          4
   146          3
   147          2
   148         16
   149         11
   150         15
   151         11
   152         31
   153          4
   154          0
   159          6
   160          2
   162         14
   163         15
   165        178
   166         18
   168         10
   169          2
   170          0
   172          0
   173          2
   175          4
   176          2
   177          3
   178          2
   179          4
   180          2
   181         13
   182         47
   183         28
   184          1
   185          0
   187          0
   189          0
   190          2
   191         12
   193         49
   194          6
   196         15
   197         14
   198          1
   203          2
   204          5
   205          9
   206         20
   207          6
   209         20
   210         34
   211         63
   212          6
   218          0
   220          0
   221          1
   223          2
   224          4
   225          1
   232          0
   233          3
   234          1
   235          1
   236          4
   237         10
   238         13
   239          1
   252        146
   253        638
   254         83
   255          5