##TITLE=Library Entry 5430
##JCAMP-DX=Revision 4.10 
##DATA TYPE=MASS SPECTRUM
##SAMPLE DESCRIPTION=A.A.Kutin, Moscow, Russia
##NAMES=HP
##CAS NAME=Thiazolidin-4-one, 2-(4-bromophenyl)-2-methyl-
##MOLFORM=C10H10BrNOS
##CAS REGISTRY NO=309294-12-0
##MP= -300
##BP= -300
##MW= 271
##$RETENTION INDEX=0
##$CONDENSED SPECTRUM=NO
##NPOINTS= 200
##XYDATA=(XY..XY) 1 
    33         12
    34         15
    35          4
    36          5
    37          6
    38         18
    39         40
    40         59
    42        999
    43        339
    44        372
    45        259
    46        332
    47        263
    48        287
    50        151
    51        101
    52         29
    53          4
    54          4
    55          2
    56          3
    58         54
    59         88
    60         14
    61         12
    62         25
    63         39
    64         21
    65         23
    66          7
    67          1
    68         10
    69         12
    70          4
    71          3
    72         11
    73         22
    74         96
    75        160
    76        176
    77        117
    78         28
    79         35
    80         16
    81         14
    82         25
    83          4
    84          2
    85          3
    86          6
    87          5
    88         24
    89         51
    90         72
    91        435
    92         37
    93         26
    94          7
    95          4
    96          4
    97          1
    98          4
    99          5
   100          4
   101         26
   102        145
   103        155
   104         49
   105         14
   106          4
   107          3
   108          9
   109         13
   110          2
   111          0
   115         33
   116        113
   117         39
   118         40
   119         59
   120         15
   121         15
   122         21
   123         10
   124          2
   125          0
   127          2
   128          5
   129          9
   130          8
   131         13
   132          4
   133          5
   134         31
   135          8
   136          2
   137          7
   141          1
   142          0
   143          3
   144          3
   145         12
   146         17
   147          8
   148         12
   149         56
   150         18
   151          7
   152          0
   155         96
   156         13
   157        100
   158         12
   159         10
   160         11
   161         39
   163        117
   164         10
   165         11
   166          1
   169         10
   171         13
   172          2
   173          0
   175          0
   177          6
   178          3
   179          1
   180         13
   181         26
   182        421
   183         97
   184        404
   185         73
   186          5
   187          1
   188          2
   189          0
   190          0
   191          2
   192          5
   193          3
   194          0
   196         17
   197         70
   198        455
   199        121
   200        411
   201         55
   202          4
   203          2
   208          1
   209          4
   210          6
   211          1
   212          8
   213          2
   214          5
   215          8
   216          6
   217          1
   220          6
   221          0
   222          1
   224        359
   225         37
   226        345
   227         38
   228         68
   229         13
   230         62
   231         14
   232          3
   236          0
   237          3
   238        120
   239         17
   240        113
   241         14
   242          3
   252          1
   253          2
   254          3
   256        594
   257         77
   258        615
   259         70
   260         31
   261          1
   265          0
   266          0
   267          1
   269          2
   271        267
   272         40
   273        282
   274         34
   275         12
   279          0