##TITLE=Library Entry 13600
##JCAMP-DX=Revision 4.10 
##DATA TYPE=MASS SPECTRUM
##SAMPLE DESCRIPTION=A.A.Kutin, Moscow, Russia
##NAMES=HP
##CAS NAME=Ethanone, 1-[3-fluoro-6-methyl-4-(1-pyrrolidinyl)phenyl]-
##MOLFORM=C13H16FNO
##CAS REGISTRY NO=309280-70-4
##MP= -300
##BP= -300
##MW= 221
##$RETENTION INDEX=0
##$CONDENSED SPECTRUM=NO
##NPOINTS= 113
##XYDATA=(XY..XY) 1 
    37          2
    38         34
    39        340
    40        183
    41        557
    42        444
    43        999
    44         22
    45          7
    50         38
    51        167
    52         41
    53         28
    55        244
    56         71
    57         84
    58          2
    59          2
    62         21
    63         58
    64         13
    65         24
    66         39
    67         20
    68         48
    69         45
    70         86
    71         26
    73          4
    74         18
    75         55
    76         24
    77         67
    78         68
    80          4
    81         10
    82          7
    83         23
    84         29
    85          2
    86          3
    87          8
    89         59
    90          8
    91         23
    93         19
    94          4
    95          4
    96          4
    97          4
    98          7
   100          3
   101         59
   103         72
   105         37
   106          3
   107        171
   108        143
   109        143
   110         18
   111          7
   115          2
   116          2
   117          2
   120          3
   122          6
   123          5
   124          1
   128         13
   131         31
   132          2
   133         29
   134         33
   135         90
   136         95
   137         93
   138          9
   142          8
   145          2
   147          7
   148         57
   149         33
   150         70
   151         22
   152         26
   154          8
   159          7
   160          8
   161         11
   162         10
   163         15
   164         52
   165         70
   166          6
   171          2
   174          4
   176         17
   177         40
   178        148
   179         30
   180          6
   192         28
   193          9
   204          9
   206        913
   207         95
   208          7
   218          3
   219          8
   220        232
   221        456
   222         79
   223          5