##TITLE=Library Entry 86824
##JCAMP-DX=Revision 4.10 
##DATA TYPE=MASS SPECTRUM
##SAMPLE DESCRIPTION=A.A.Kutin, Moscow, Russia
##NAMES=HP
##CAS NAME=Benzenamine, 3-fluoro-4-methyl-N-(5-bromo-2-thenylideno)-
##MOLFORM=C12H9BrFNS
##CAS REGISTRY NO=309288-10-6
##MP= -300
##BP= -300
##MW= 297
##$RETENTION INDEX=0
##$CONDENSED SPECTRUM=NO
##NPOINTS= 175
##XYDATA=(XY..XY) 1 
    33         33
    34          4
    37         36
    38         91
    39        231
    40         38
    41          7
    42          3
    45        240
    47         19
    50         92
    51        106
    52         27
    53          7
    54          2
    57        219
    58         30
    59         61
    61         21
    62         47
    63        121
    64         39
    65         12
    66          2
    69        126
    70         36
    71         18
    72          4
    73          6
    74         16
    75         35
    76         25
    77         37
    78          8
    79         10
    81        135
    82        166
    83        567
    84         33
    85         15
    86         15
    87         15
    88         16
    89         62
    90          8
    91          5
    93         53
    95        238
    96         43
    97         28
    99         25
   100         18
   101          9
   102          7
   103          2
   104          4
   105          7
   107        178
   109        999
   110         73
   111          5
   113          6
   114          3
   115          3
   117         24
   119         26
   120         13
   121         40
   122         12
   123         13
   124         54
   125         47
   126          9
   127         10
   128          2
   129          1
   130          1
   131          4
   132         10
   133         27
   134         31
   136        131
   137         11
   138          7
   139          5
   140          7
   141         10
   142          4
   143          1
   144          3
   145         10
   146         25
   147         37
   148         57
   150         22
   151          1
   152          4
   153          5
   154          7
   155          1
   156          2
   157          9
   158         19
   159         17
   160         28
   162         66
   163         13
   164         52
   165          6
   166          5
   167          0
   169          2
   170          4
   171         16
   172         26
   173         13
   174         33
   175          8
   176         15
   177          4
   178          1
   182          1
   183          6
   184         29
   185         70
   186         39
   187         12
   188         16
   189         60
   190         48
   191         46
   192         23
   193          3
   194          0
   195          0
   196          6
   197          8
   198         12
   199          4
   200         15
   201          4
   202         21
   203         50
   204          7
   205          2
   206          0
   214          3
   216         61
   217         67
   218        259
   219         41
   220         14
   221          1
   269          2
   270          6
   271          3
   272          6
   273          0
   277          0
   278          1
   279          1
   280          1
   282          9
   283          1
   284          7
   285          0
   291          1
   292          1
   296        496
   297        783
   298        511
   299        754
   300        115
   301         39
   302          4