##TITLE=Library Entry 67655
##JCAMP-DX=Revision 4.10 
##DATA TYPE=MASS SPECTRUM
##SAMPLE DESCRIPTION=A.A.Kutin, Moscow, Russia
##NAMES=HP
##CAS NAME=Furane-2-thiocarboxylic acid, S-[5-(3-bromophenyl)-1,3,4-oxadiazo
l-2-yl] ester
##MOLFORM=C13H7BrN2O3S
##CAS REGISTRY NO=309286-49-5
##MP= -300
##BP= -300
##MW= 350
##$RETENTION INDEX=0
##$CONDENSED SPECTRUM=NO
##NPOINTS= 124
##XYDATA=(XY..XY) 1 
    33          2
    34          0
    37         31
    39        316
    41         13
    42          1
    44         11
    45          3
    46          1
    47          0
    50         60
    51         29
    52          9
    53         11
    54          2
    55          2
    56          0
    58          3
    59          2
    60          4
    62         30
    63         10
    64          5
    65          2
    67         43
    68          2
    70          6
    71          2
    74         28
    75         60
    76         61
    78         14
    79          2
    80          2
    81          3
    82          1
    83          0
    84          0
    85          2
    86          8
    87          9
    88         18
    90         11
    91          1
    95        999
    96         32
    97          3
    99          3
   100          1
   102         28
   104          6
   105          1
   107          1
   109          0
   111          0
   112          2
   113          0
   114          0
   115          0
   117          5
   119          3
   120          0
   125          0
   126          1
   127          2
   128          1
   129          2
   131          2
   137          0
   139          0
   140          0
   141          0
   142          0
   143          0
   153          0
   155         61
   157         62
   158          2
   159          0
   167          1
   168          0
   169          2
   170          0
   171          0
   178          0
   181          6
   183        128
   185        126
   186          4
   196          7
   198          7
   199          0
   200          0
   201          0
   206          0
   208          0
   223          0
   225          1
   226          0
   243          0
   256          6
   258          7
   259          0
   260          0
   262          3
   264          3
   265          0
   272          0
   290          0
   292          0
   308          0
   310          0
   322         37
   323          6
   324         36
   325          5
   326          1
   327          0
   350         37
   351          6
   352         38
   353          6
   354          2
   355          0