##TITLE=Library Entry 68138
##JCAMP-DX=Revision 4.10 
##DATA TYPE=MASS SPECTRUM
##SAMPLE DESCRIPTION=A.A.Kutin, Moscow, Russia
##NAMES=HP
##CAS NAME=Benzo[c]pyrazole, 2-(3-fluorophenyl)-3-(3-fluorophenylamino)-4,6-
dinitro-1-oxide-
##MOLFORM=C19H11F2N5O5
##CAS REGISTRY NO=309275-45-4
##MP= -300
##BP= -300
##MW= 427
##$RETENTION INDEX=0
##$CONDENSED SPECTRUM=NO
##NPOINTS= 202
##XYDATA=(XY..XY) 1 
    33          1
    36          0
    37          2
    38          3
    39          9
    40          0
    41          2
    42          5
    43         12
    44          2
    46         32
    47          0
    48          0
    50          7
    51         21
    52          6
    53          1
    55          1
    56          3
    57         27
    58          2
    59          1
    61          4
    62         34
    63         24
    64          9
    65          3
    66          1
    68          5
    69         39
    70          4
    71          1
    72          2
    75        463
    76         28
    77          8
    78          2
    79          1
    81         21
    82         34
    83        103
    84          7
    86          3
    87          7
    88          8
    89         31
    90         10
    91          5
    92          5
    93         13
    95        999
    96         53
    98          2
    99          5
   100          4
   101          2
   102          2
   103          2
   104          1
   106          2
   107          9
   108         17
   109         28
   110         56
   111         10
   112          1
   114          1
   115          0
   116          2
   117          1
   120         18
   123         67
   124          7
   125          1
   126          1
   127          0
   129          0
   130          1
   131          4
   132          3
   133          4
   134          4
   135          0
   137         13
   138          3
   139          0
   140          0
   141          0
   143          1
   144          3
   145          3
   146          2
   147          2
   148          4
   149          6
   150          1
   152          1
   153          1
   155          3
   157         49
   158         18
   159          2
   160          0
   161          1
   162          0
   163          4
   164          8
   165          1
   166          0
   168         11
   169         37
   170          6
   171          4
   172          4
   173          0
   175          0
   176          0
   178          0
   179          0
   180          0
   182         12
   183         13
   184         18
   185          2
   186          0
   187          0
   193          0
   194          2
   195         12
   197          5
   198          1
   199          0
   200          2
   201          0
   202          0
   203          0
   204          0
   208          0
   209          1
   210          1
   211          3
   212          6
   213          4
   214          0
   223          0
   224          0
   225          8
   226          1
   228          2
   229          0
   231          0
   237          0
   239          0
   241          4
   242          1
   243          4
   245          0
   246          0
   250          0
   256          0
   257          0
   258          1
   259          0
   269          0
   271          5
   272          0
   277          0
   279          0
   285          0
   286          2
   287         19
   288          6
   289          1
   290          1
   299          0
   301          0
   303          1
   305          3
   306          0
   314          0
   316         15
   317        229
   318         26
   319          3
   320          0
   332          0
   334          6
   335          1
   336          0
   350          0
   352          0
   378          0
   380          0
   383          0
   384          0
   405          0
   409          1
   410          0
   425          1
   427         68
   428         12
   429          1