##TITLE=Library Entry 89144
##JCAMP-DX=Revision 4.10 
##DATA TYPE=MASS SPECTRUM
##SAMPLE DESCRIPTION=A.A.Kutin, Moscow, Russia
##NAMES=HP
##CAS NAME=Pent-2-en-1-one, 4,4,5,5-tetrafluoro-3-phenyl-1-(2-thienyl)-
##MOLFORM=C15H10F4OS
##CAS REGISTRY NO=309286-91-7
##MP= -300
##BP= -300
##MW= 314
##$RETENTION INDEX=0
##$CONDENSED SPECTRUM=NO
##NPOINTS= 214
##XYDATA=(XY..XY) 1 
    33          7
    34          2
    39        523
    40         18
    42          4
    43          6
    45         82
    47          5
    50         86
    51        168
    52         26
    53         21
    55          4
    57         64
    58         20
    59          4
    60          1
    62         32
    63         49
    65         13
    66          2
    69         35
    70          5
    71          6
    74         48
    75         61
    76         67
    77         95
    78         15
    79          5
    81         36
    83        196
    84         76
    85         16
    86         14
    87         14
    88          7
    89          9
    91         14
    92         21
    93          8
    94          5
    95          8
    97         23
    98         23
    99         18
   101         59
   102        118
   103         17
   105        178
   106         21
   107         23
   108         22
   109         29
   111        999
   113        105
   114         10
   115         20
   116          4
   117          7
   118          2
   119          5
   120          6
   121          7
   122         14
   123         15
   124          3
   125         13
   126         30
   127         35
   128          8
   129         11
   131         13
   133        131
   134         17
   137         93
   139         18
   140          5
   141         10
   143          5
   144          3
   145          5
   146          3
   147          8
   151        105
   152         43
   153         14
   154          1
   155          2
   156          2
   157          7
   158          4
   159          4
   160         10
   161          2
   163         18
   164         11
   165          3
   166          0
   167          1
   168          5
   169          7
   170         10
   171          8
   172          1
   173          0
   175          2
   176          2
   177          2
   179         10
   180          9
   181          7
   182         24
   183         51
   184         91
   185         64
   186         12
   187          5
   188          5
   189          6
   190          2
   191          2
   192          0
   193          0
   195          7
   196          2
   197          5
   198          1
   199          3
   201         25
   202         11
   203          2
   204          4
   205          1
   206          1
   207          5
   208          1
   209          1
   211          6
   213        156
   214         24
   215         54
   216          9
   217          5
   218          1
   219          0
   220          5
   221          1
   222          0
   223          0
   225          1
   226          2
   227          2
   228          2
   230         22
   231         75
   232         11
   233         14
   235         50
   236          6
   237          2
   238          0
   239          0
   240          0
   241          1
   242          4
   243          3
   244          3
   245          3
   246          4
   247          3
   248          0
   249          0
   251          0
   253          3
   254          0
   255          2
   256          0
   257          0
   262         98
   263         19
   264          6
   265          5
   267          6
   268          0
   269          0
   271          1
   273          0
   274          0
   275          1
   276          0
   277          0
   279          0
   281         15
   282          3
   283          0
   285         10
   286          7
   287          1
   288          0
   293          1
   294          1
   295          7
   296          3
   297          3
   298          0
   299          0
   307          0
   313        999
   314        606
   315        132
   316         34
   317          5
   318          0