##TITLE=Library Entry 72030
##JCAMP-DX=Revision 4.10 
##DATA TYPE=MASS SPECTRUM
##SAMPLE DESCRIPTION=A.A.Kutin, Moscow, Russia
##NAMES=HP
##CAS NAME=Piperazine, 1-(4-acetylphenylsulfonyl)-4-methyl-
##MOLFORM=C13H18N2O3S
##CAS REGISTRY NO=309271-25-8
##MP= -300
##BP= -300
##MW= 282
##$RETENTION INDEX=0
##$CONDENSED SPECTRUM=NO
##NPOINTS= 96
##XYDATA=(XY..XY) 1 
    33          0
    34          0
    36          0
    38          0
    39          3
    40          3
    41         13
    42        108
    43         91
    44         37
    45          2
    46          0
    48          0
    49          0
    50         10
    51          4
    52          0
    53          0
    54         11
    55         23
    56        289
    57         30
    58         38
    59          1
    60          0
    62          0
    63          2
    64          1
    65          3
    66          0
    67          0
    68          2
    69          4
    70         63
    71         12
    72         19
    74          2
    75          3
    76         15
    77          7
    78          0
    79          0
    80          0
    81          0
    82          1
    83          3
    84          6
    85          1
    86          1
    89          2
    90          1
    91         10
    92          1
    93          0
    95          1
    96          1
    97         17
    99        999
   100         58
   101          1
   102          0
   103          0
   104         12
   105          5
   106          0
   108          0
   109          0
   117          0
   119          6
   120          0
   121          0
   124          0
   127          0
   129          5
   130          0
   131          0
   132          0
   133          1
   134          0
   136          0
   137          0
   152          1
   153          0
   176          0
   183          0
   185          0
   217          0
   231          0
   267          0
   268          0
   280          0
   281          6
   282         27
   283          4
   284          1
   285          0