##TITLE=Library Entry 73466
##JCAMP-DX=Revision 4.10 
##DATA TYPE=MASS SPECTRUM
##SAMPLE DESCRIPTION=A.A.Kutin, Moscow, Russia
##NAMES=HP
##CAS NAME=Benzofurane-2-carboxamide, 3-[2-(4-morpholyl)-1-oxoethylamino]-
##MOLFORM=C15H17N3O4
##CAS REGISTRY NO=309279-77-4
##MP= -300
##BP= -300
##MW= 303
##$RETENTION INDEX=0
##$CONDENSED SPECTRUM=NO
##NPOINTS= 151
##XYDATA=(XY..XY) 1 
    29         20
    30         12
    39          0
    40          1
    41         17
    42         64
    43         42
    44         26
    46          0
    52          0
    53          1
    54          6
    55          7
    56        176
    57         13
    58          3
    59          0
    60          0
    63          0
    66          0
    67          0
    68          2
    70         43
    71         17
    72         22
    73          0
    74          0
    77          7
    78          0
    79          0
    80          0
    86         35
    88          0
    89          0
    91          0
    92          0
    94          0
    96          2
    97          1
    98         24
    99         65
   100        999
   101         81
   102         10
   103         16
   104          9
   105         11
   106          1
   109          0
   110          0
   111          1
   112          0
   115          1
   116          2
   119          0
   120          1
   125          1
   126          7
   127        230
   128         13
   129          3
   130          6
   131          1
   132          2
   133          1
   134          1
   135          1
   141          0
   142          0
   143          0
   144          1
   145          1
   146          3
   147         17
   148          1
   152          1
   153          0
   157          0
   158          1
   159         10
   160          8
   161          1
   164          0
   166          0
   167          0
   170          0
   171          0
   172         11
   173          3
   174          1
   175          2
   176         53
   177          9
   178          0
   181          0
   184          0
   185          1
   186         27
   187          4
   188          1
   189          3
   193          0
   199          0
   200          0
   201          3
   202          1
   203         21
   204          1
   205          0
   207          0
   209          0
   213          0
   216          0
   217          0
   218         15
   219          3
   220          0
   223          0
   224          0
   225          0
   226          0
   227          0
   228          0
   236          0
   238          0
   244          0
   246          0
   255          0
   256          0
   258          0
   259          0
   260          6
   261          1
   265          0
   266          0
   269          0
   272          0
   275          0
   277          0
   283          0
   285          0
   286          0
   287          0
   298          0
   299          0
   300          0
   301          1
   302          4
   303        139
   304         23
   305          3