##TITLE=Library Entry 46727
##JCAMP-DX=Revision 4.10 
##DATA TYPE=MASS SPECTRUM
##SAMPLE DESCRIPTION=A.Mazepa, Phys.-Chem.Institute, Odessa, Ukraine
##NAMES=HP
##CAS NAME=6-Bromo-4-phenyl-2-piperazin-1-yl-quinazoline
##MOLFORM=C18H17BrN4
##CAS REGISTRY NO=309292-92-0
##MP= -300
##BP= -300
##MW= 368
##$RETENTION INDEX=0
##$CONDENSED SPECTRUM=NO
##NPOINTS= 200
##XYDATA=(XY..XY) 1 
    50        102
    51        251
    52         56
    53         20
    54         93
    55         97
    56        591
    57        200
    58         39
    67         14
    68         38
    69         43
    73          8
    74         82
    75        187
    76        132
    77        999
    78        102
    79         14
    80         10
    84          7
    85         94
    86         69
    87         37
    88         54
    89         54
    90         17
    91         48
    92          7
    93          6
    97          4
    98         16
    99         34
   100         72
   101         86
   102        121
   103         60
   104        165
   105         18
   106          3
   112         10
   113         22
   114         15
   115         24
   116         22
   117         19
   118          5
   123         14
   124         17
   125         26
   126         70
   127         61
   128         34
   129         24
   130         29
   131          6
   137         10
   138         13
   139         22
   140         15
   141          7
   147          4
   148          6
   149         31
   150        101
   151        153
   152         89
   153         27
   154         20
   155         13
   156         16
   157          6
   162          6
   163         33
   164         38
   165         34
   166          9
   172          3
   173          2
   174          5
   175         40
   176        118
   177        233
   178        103
   179         42
   180         36
   181         16
   182         31
   183         14
   184          9
   185         11
   186          3
   199          2
   200          2
   201          5
   202         59
   203        190
   204        174
   205        291
   206         63
   207         47
   208         10
   209         40
   210          6
   216          6
   217         12
   218         28
   219         39
   220         41
   221         68
   222         19
   223          6
   224          2
   230         10
   231         11
   232         51
   233         90
   234         47
   235          8
   236          5
   237          2
   242          1
   243          8
   244         20
   245         21
   246         34
   247         74
   248         19
   249          4
   250          2
   251          2
   256          3
   257          8
   258         17
   259         20
   260         17
   261          6
   262          3
   263          2
   264          3
   279          2
   280          1
   281         11
   282          8
   283        168
   284        117
   285        210
   286        107
   287         48
   288          8
   289          7
   290          3
   291          2
   296          4
   297         11
   298         27
   299         56
   300        508
   301        128
   302        488
   303         84
   304          5
   305          1
   309          5
   310         15
   311         11
   312        330
   313        131
   314        317
   315        122
   316         21
   317          2
   319          1
   323          2
   324         53
   325         23
   326        342
   327         79
   328        272
   329         58
   330          4
   335          2
   336          2
   337         12
   338         71
   339         24
   340         84
   341         28
   342          6
   343          4
   344          1
   365          2
   366          4
   367         23
   368         84
   369         31
   370        100
   371         16
   372          3
   373          1