##TITLE=Library Entry 51785
##JCAMP-DX=Revision 4.10 
##DATA TYPE=MASS SPECTRUM
##SAMPLE DESCRIPTION=A.A.Kutin, Moscow, Russia
##NAMES=HP
##CAS NAME=Piperidine-4-carboxylic acid, 1-(4-iodophenylsulfonyl)-, ethyl es
ter
##MOLFORM=C14H18INO4S
##CAS REGISTRY NO=309281-77-4
##MP= -300
##BP= -300
##MW= 423
##$RETENTION INDEX=0
##$CONDENSED SPECTRUM=NO
##NPOINTS= 134
##XYDATA=(XY..XY) 1 
    33          8
    34          2
    39         60
    40         26
    42        297
    43         21
    44         13
    45         13
    46          1
    48          6
    50        138
    51         18
    53         42
    55        261
    56         41
    57          9
    58          3
    59          2
    60          1
    61          1
    63         14
    64          9
    65          5
    67         17
    68         12
    69         12
    70          7
    71          3
    73         40
    74         34
    76        292
    77         37
    78          7
    80         38
    82        999
    83         50
    84         12
    85          2
    86          2
    87          1
    89          2
    90          2
    91          2
    92          3
    93          1
    94          1
    96         19
    97          3
    98          4
    99          4
   101         19
   102          1
   103          1
   104          2
   105          1
   106          0
   108          6
   110         16
   111          3
   112          4
   113          1
   114          1
   115          1
   116          0
   117          0
   118          0
   123          1
   124          3
   126         15
   127         19
   128         29
   129          2
   130          2
   131          0
   139          0
   140          8
   141          3
   142          2
   143          0
   149          0
   150          1
   151          2
   152          6
   156        971
   157         60
   158          6
   159          1
   160          0
   164          0
   165          0
   167          2
   168          7
   169          1
   170          0
   171          0
   175          3
   176          0
   177          0
   191          2
   200          0
   203        148
   204          9
   205          0
   217          0
   219          4
   220          0
   221          0
   222          0
   223          1
   224          0
   230          0
   231          0
   234          0
   235          1
   251         40
   252          2
   253          1
   254          0
   265          0
   267         44
   268          2
   269          1
   284          0
   296          8
   297          0
   344          0
   348          4
   350         15
   351          1
   358          3
   359          0
   378         20
   379          2
   380          0