##TITLE=Library Entry 14657
##JCAMP-DX=Revision 4.10 
##DATA TYPE=MASS SPECTRUM
##SAMPLE DESCRIPTION=A.A.Kutin, Moscow, Russia
##NAMES=HP
##CAS NAME=Isoxazole, 3-(2-chloro-6-fluorophenyl)-4-(2-ethyl-1-piperidylcarb
onyl)-5-methyl-
##MOLFORM=C18H20ClFN2O2
##CAS REGISTRY NO=309267-97-8
##MP= -300
##BP= -300
##MW= 350
##$RETENTION INDEX=0
##$CONDENSED SPECTRUM=NO
##NPOINTS= 229
##XYDATA=(XY..XY) 1 
    33          3
    36          2
    37          1
    39         37
    41        161
    43        999
    45          2
    46          0
    49          0
    50          2
    51          3
    52          3
    53         18
    55        253
    56         70
    57          8
    58          2
    59          0
    61          0
    62          1
    63          2
    64          0
    65          3
    66          3
    67         15
    68         21
    69         24
    70         15
    71          1
    72          1
    74          2
    75          4
    76          3
    77          1
    78          1
    79          2
    80          6
    81          9
    82         30
    83         50
    84        209
    85         12
    87          2
    88          0
    89          0
    91          1
    92          1
    93          6
    94         11
    95          7
    96         13
    97          5
    98          3
    99          2
   100          3
   101          0
   103          0
   104          0
   105          2
   106          5
   107          3
   108          3
   109          6
   110         12
   111         29
   112         27
   113          2
   114          0
   117          4
   118          1
   119          4
   120          6
   121          1
   122          2
   123          2
   124          6
   125          2
   126          1
   128          1
   129          7
   130          2
   132         23
   133          9
   134          3
   135          1
   136          2
   137          0
   138          3
   140          6
   141         18
   142          6
   143          6
   144          3
   145          3
   146          1
   147          1
   148          3
   150          2
   151          1
   152          1
   153          2
   154          1
   155          4
   156          5
   157          7
   158          2
   160         37
   162         21
   163          1
   164          0
   166          1
   168         75
   169          9
   170         22
   171          3
   172          0
   173          0
   174          1
   175          1
   176          1
   177          2
   178          2
   179          1
   180          6
   181          3
   182          1
   183          1
   184          0
   185          0
   187          0
   188          2
   189          1
   190          0
   191          0
   192          1
   196        660
   197         75
   198        190
   199         19
   201          3
   202          1
   203          1
   204          4
   205          0
   208          0
   210          2
   211          1
   212          1
   213          1
   215          1
   216          0
   217          0
   218          0
   219          2
   220          0
   222          1
   223          0
   224          0
   229          0
   230          1
   231          4
   232          0
   233          2
   235          2
   236          7
   238        331
   239         37
   240         99
   241         11
   243          2
   244          0
   245          1
   247          2
   248          0
   249          0
   250          0
   251          0
   253          0
   254          0
   255          1
   257          1
   258          0
   259          3
   260          0
   267          1
   268          2
   269          0
   271          0
   273          1
   275          0
   279          1
   281          0
   283          0
   285         21
   286          3
   287          1
   293          0
   294          0
   295          0
   297          0
   301          2
   303          8
   304          2
   305          2
   306          0
   307          0
   308          0
   309          0
   312          0
   315         17
   316          4
   317          3
   318          6
   319         17
   321        675
   322        130
   323        219
   324         35
   325          3
   333          1
   335          2
   336          0
   337          0
   348          1
   349          1
   350         41
   351         10
   352         13
   353          2