##TITLE=Library Entry 2948
##JCAMP-DX=Revision 4.10 
##DATA TYPE=MASS SPECTRUM
##SAMPLE DESCRIPTION=A.A.Kutin, Moscow, Russia
##NAMES=HP
##CAS NAME=Furazano[3,4-b]pyrazine, 5-(1-perhydroazepinyl)-6-(2-fluorophenyl
amino)-
##MOLFORM=C16H17FN6O
##CAS REGISTRY NO=309288-03-7
##MP= -300
##BP= -300
##MW= 328
##$RETENTION INDEX=0
##$CONDENSED SPECTRUM=NO
##NPOINTS= 230
##XYDATA=(XY..XY) 1 
    33         61
    34          6
    36          8
    39        255
    41        999
    42        182
    43        179
    44         72
    45          8
    50         29
    51         35
    53        167
    55        946
    56        102
    57         58
    59          4
    63         27
    64         15
    65         26
    66         51
    67        106
    68        147
    69        142
    70         54
    71         13
    75        159
    76         24
    77         27
    78         23
    79         65
    80        103
    81        129
    82         82
    83        172
    84         30
    85          5
    89         17
    90         55
    91         18
    92         17
    93         41
    94         99
    95        313
    96        135
    98        230
    99         16
   100          8
   102         80
   103          9
   104          7
   105         13
   106         26
   107         42
   108         72
   109         82
   110         54
   111         77
   112         12
   114          5
   115          8
   116         12
   117         13
   118         12
   119         17
   121        173
   122        381
   123         96
   124         21
   125         20
   126          6
   127         12
   128          9
   129          8
   131          8
   132         12
   133         29
   134         39
   135        124
   136         83
   137        104
   138         16
   139          5
   140          4
   142         20
   143         13
   144         10
   145         21
   147        215
   148         44
   149         45
   150         62
   151         16
   152         10
   153          8
   154          6
   156          5
   159         29
   160         54
   161         66
   162        224
   163         39
   164         16
   165          7
   166          4
   168          5
   169         10
   170          6
   171          9
   172         12
   173         22
   174         75
   175         39
   176         35
   177         62
   178         14
   179          5
   180          5
   181          9
   182          6
   183          6
   184          6
   185          8
   186         14
   187         79
   188         56
   189         72
   190         26
   191         21
   192         75
   193         11
   195          6
   196         17
   197          8
   198         11
   199         17
   200         22
   201         35
   202         28
   203         25
   204          8
   205          5
   206          4
   207          6
   208          6
   209         28
   210         15
   211         10
   212         12
   213         18
   214         23
   215         35
   216         59
   217         25
   218         25
   219          8
   222          8
   223          7
   224         10
   225         11
   226         32
   227         58
   228         70
   229         40
   230         27
   231         18
   232         27
   233         33
   234          7
   235          6
   236         17
   237          8
   239         28
   240         21
   241         20
   242         28
   243         19
   244         21
   245         34
   246         19
   247         16
   248          4
   250          8
   251         36
   252         13
   253         10
   254         27
   255         17
   256         46
   257         32
   258         14
   259         27
   260         17
   261          6
   265         12
   266          4
   267          6
   268         10
   269         14
   271        147
   272         28
   273         16
   278         62
   279         15
   280          5
   281         16
   282          7
   283          6
   285        113
   286         21
   287          5
   294          7
   296         23
   297         40
   298        252
   299         52
   300          6
   306          5
   307         10
   308         67
   309        246
   310         50
   311         12
   312          5
   314          5
   321          4
   324         13
   327        235
   328        685
   329        131
   330         15