##TITLE=Library Entry 82112
##JCAMP-DX=Revision 4.10 
##DATA TYPE=MASS SPECTRUM
##SAMPLE DESCRIPTION=A.A.Kutin, Moscow, Russia
##NAMES=HP
##CAS NAME=Pyridine-3-carbonitrile, 1,2-dihydro-4-methoxymethyl-6-methyl-2-o
xo-1-(2-oxo-2-phenylethyl)-
##MOLFORM=C17H16N2O3
##CAS REGISTRY NO=309281-94-5
##MP= -300
##BP= -300
##MW= 296
##$RETENTION INDEX=0
##$CONDENSED SPECTRUM=NO
##NPOINTS= 170
##XYDATA=(XY..XY) 1 
    37          0
    38          1
    39         10
    40          1
    41          4
    42          5
    43          1
    45         17
    46          0
    50         13
    51         46
    52          5
    53          4
    54          5
    55          7
    56          2
    57          0
    58          0
    59          1
    61          0
    62          1
    63          8
    64          9
    65         16
    66          3
    67          2
    68          1
    69          0
    70          0
    71          0
    74          3
    75          5
    77        283
    78         22
    79          4
    80          3
    81          1
    82          1
    83          0
    87          0
    88          1
    89          4
    90          6
    91         20
    92          7
    93          4
    94          2
    95          0
    96          0
   102          4
   103          5
   105        999
   106         64
   107          5
   108          1
   109          0
   110          1
   111          0
   114          0
   115          0
   116          1
   117          4
   118          7
   119          9
   120          4
   121          1
   122          0
   124          0
   125          0
   126          0
   127          0
   128          0
   129          1
   131         29
   132         40
   133          9
   134          2
   135          0
   136          0
   137          0
   139          0
   140          0
   141          0
   142          0
   143          0
   144          0
   145          0
   146          1
   147          8
   148          5
   149          0
   150          0
   151          0
   152          0
   153          0
   154          0
   159         44
   160         22
   161          4
   162          2
   163          1
   164          0
   165          0
   166          0
   167          0
   168          0
   170          0
   171          0
   175          0
   176          5
   177          1
   178          1
   179          1
   180          0
   181          0
   182          0
   187          0
   191         53
   192          6
   193          1
   194          0
   195          0
   196          0
   205          0
   206          0
   207          1
   208          0
   209          0
   210          0
   217          0
   218          0
   219          4
   220          1
   221          1
   222          0
   223          0
   224          0
   232          0
   234          0
   235          2
   236          2
   237          2
   238          0
   239          0
   246          1
   247          1
   248          2
   249          2
   250          0
   251          0
   252          0
   253          1
   254          0
   263          1
   264          1
   265          6
   266          4
   267          3
   268         12
   269          2
   270          0
   279         24
   280          4
   281         10
   282          1
   283          0
   296        320
   297         63
   298          7
   299          0