##TITLE=Library Entry 13391
##JCAMP-DX=Revision 4.10 
##DATA TYPE=MASS SPECTRUM
##SAMPLE DESCRIPTION=Asinex Ltd, Moscow, Russia
##NAMES=HP
##CAS NAME=N-(2,5-Dichloro-4,6-dimethyl-pyridin-3-yl)-butyramide
##MOLFORM=C11H14Cl2N2O
##CAS REGISTRY NO=309283-99-6
##MP= -300
##BP= -300
##MW= 260
##$RETENTION INDEX=0
##$CONDENSED SPECTRUM=NO
##NPOINTS= 166
##XYDATA=(XY..XY) 1 
    33          1
    34          3
    35          5
    36         27
    37          7
    38         28
    39        169
    40         78
    41        256
    43        999
    45          2
    47          2
    49         13
    50          9
    51         31
    52         14
    53         12
    54          7
    55         22
    56          3
    57          2
    58          2
    59          1
    60          1
    61          7
    62         15
    63         40
    64         31
    65        111
    66         35
    67          6
    68          2
    69          7
    71        310
    73         27
    74          4
    75         14
    76         14
    77         15
    78         10
    79          2
    80          1
    81          1
    82          0
    83          1
    84          1
    85          5
    86          9
    87          6
    88          3
    90         49
    91         17
    92         37
    93          8
    94          2
    95          0
    96          0
    97          2
    98          4
    99         18
   100          8
   101         17
   102          8
   103          5
   104          2
   105          2
   106          0
   107          0
   108          0
   109          0
   110          0
   111          2
   112          5
   113          3
   114          4
   115          1
   116          2
   117          8
   118          8
   119         23
   120          6
   121          2
   122          0
   123          1
   124          1
   126         16
   127          9
   128         12
   129          4
   130          2
   131          0
   132          0
   133          0
   135          2
   137          1
   138          1
   139          1
   140          3
   141          1
   142          1
   143          0
   144          0
   145          1
   146          0
   147          0
   148          0
   149          2
   150          0
   151          1
   153         20
   154         10
   155         34
   156          7
   157          8
   158          1
   159          0
   160          0
   161          1
   162          9
   163          2
   164          5
   165          1
   166          1
   167          1
   168          0
   169          0
   174          0
   175          0
   179          0
   181          7
   182          1
   183          2
   184          0
   190        462
   192        306
   193         26
   194         39
   195          5
   196          5
   197          2
   198          1
   199          0
   201          0
   202          0
   203          0
   209          1
   211          0
   216          1
   217          3
   218          1
   219          1
   220          0
   221          1
   225        338
   226         46
   227         92
   228         11
   229          0
   232          0
   245          0
   247          0
   260          6
   261          1
   262          3
   263          0
   264          0