##TITLE=Library Entry 89563
##JCAMP-DX=Revision 4.10 
##DATA TYPE=MASS SPECTRUM
##SAMPLE DESCRIPTION=A.A.Kutin, Moscow, Russia
##NAMES=HP
##CAS NAME=3,13-Dioxatetracyclo[7.5.0.0(2,6).0(12,14)]tetradecan-4-one, 8,12
-dimethyl-5-(3-methyl-1-piperidyl)methyl-
##MOLFORM=C21H33NO3
##CAS REGISTRY NO=309254-56-6
##MP= -300
##BP= -300
##MW= 347
##$RETENTION INDEX=0
##$CONDENSED SPECTRUM=NO
##NPOINTS= 167
##XYDATA=(XY..XY) 1 
    33          0
    36          0
    39         17
    41         49
    42         29
    43         34
    44         14
    45          1
    50          0
    51          2
    52          2
    53         10
    55         47
    56          8
    57          6
    58          8
    59          0
    62          0
    63          0
    65          4
    66          2
    67          9
    68          9
    69         19
    70          7
    71          4
    72          0
    73          0
    74          0
    77         10
    78          4
    79         11
    80          5
    81         10
    82          8
    83          7
    84          9
    85          1
    88          0
    89          0
    91         21
    92          5
    93         13
    94          6
    95          9
    96         13
    98        163
    99         22
   100         18
   101          1
   102          0
   103          3
   104          3
   105         15
   106          4
   107          9
   108          6
   109          9
   110         44
   112        999
   113         34
   115          4
   116          3
   117          6
   118          3
   119          9
   120          3
   121          6
   122          2
   123          4
   124          9
   125          5
   126          2
   127          1
   128          2
   129          2
   131          8
   132          2
   133          6
   134          3
   135          4
   136          5
   137          1
   138          5
   139          1
   140          0
   141          0
   143          1
   144          1
   145          5
   146          6
   147          4
   148          2
   149          3
   150          3
   152          5
   154          3
   155          0
   156          0
   157          1
   158          1
   159          3
   160          2
   161          4
   162          4
   163          3
   164          2
   165          1
   166          0
   167          2
   169         30
   170          4
   171          2
   173          1
   174          1
   175          1
   176          4
   177          3
   178          2
   179          0
   181          0
   182          0
   183          0
   185          0
   186          0
   187          1
   188          1
   189          3
   190          2
   191          0
   192          0
   201          0
   202          0
   203          0
   204          1
   205          0
   206          2
   216          0
   218          1
   220          0
   221          0
   230          0
   231          0
   232          1
   248          0
   258          0
   259          0
   260          0
   274          0
   276          2
   280          0
   287          1
   288          7
   289          1
   290          2
   291          0
   302          0
   303          2
   304          1
   331          0
   332          2
   333          0
   343          0
   345          0
   346          3
   347          7
   348          2