##TITLE=Library Entry 13482
##JCAMP-DX=Revision 4.10 
##DATA TYPE=MASS SPECTRUM
##SAMPLE DESCRIPTION=A.A.Kutin, Moscow, Russia
##NAMES=HP
##CAS NAME=Isoxazole-4-carboxamide, 3-(2-chloro-6-fluorophenyl)-5-methyl-N-(
4-methoxy-2-nitrophenyl)-
##MOLFORM=C18H13ClFN3O5
##CAS REGISTRY NO=309267-92-3
##MP= -300
##BP= -300
##MW= 405
##$RETENTION INDEX=0
##$CONDENSED SPECTRUM=NO
##NPOINTS= 224
##XYDATA=(XY..XY) 1 
    33          3
    34          0
    35          0
    36          2
    38          5
    39         16
    40          6
    41         10
    43        999
    45          2
    50          8
    51         17
    52         22
    53          7
    54          7
    55          4
    56          2
    57          4
    58          0
    59          1
    60          0
    61          1
    62          5
    63         15
    64          6
    65         10
    66          6
    67          7
    68          8
    69          4
    70          0
    71          0
    72          0
    73          1
    74          3
    75          5
    76          6
    77         14
    78          8
    79         26
    80         12
    81          6
    82          2
    83          2
    84          1
    85          0
    86          0
    87          1
    88          1
    89          2
    90          6
    91          5
    92          4
    93          7
    94          8
    95          7
    96          1
    97          1
    98          1
   100          4
   101          1
   102          1
   103          2
   104          3
   106         29
   107         11
   108          4
   109          6
   110          2
   111          1
   112          1
   115          0
   116          0
   117          4
   118          1
   119          3
   120         13
   122         13
   123          2
   124          0
   125          1
   126          1
   128          1
   129          3
   130          2
   131          2
   132         16
   133          8
   134          4
   135          2
   137          7
   138          1
   139          0
   140          0
   141         15
   143          7
   144          2
   145          2
   146          1
   147          1
   148          2
   149          1
   150          1
   151          2
   152          0
   153          7
   154          1
   155          2
   156          2
   157          3
   158          1
   159          1
   160          1
   161          2
   162          6
   163          0
   164          0
   165          0
   166          1
   168         70
   169          8
   170         20
   171          2
   172          1
   173          1
   174          1
   175          0
   176          2
   177          0
   178          3
   179          0
   180          1
   181          2
   182          1
   183          0
   184          0
   186          0
   187          0
   188          0
   189          0
   190          1
   191          0
   193          6
   196        549
   197         61
   198        158
   199         12
   200          1
   202          0
   204          1
   205          0
   208          0
   209          0
   210          1
   211          0
   212          0
   215          0
   217          0
   219          0
   220          1
   221          0
   222          0
   223          0
   225          0
   234          0
   236          1
   238         78
   239         11
   240         22
   241          3
   242          0
   251          0
   252          0
   253          0
   266          0
   267          0
   269          0
   275          0
   281          0
   283          0
   286          0
   301          1
   302          0
   303          0
   304          0
   315          0
   317          3
   318          0
   319          1
   320          0
   321          0
   323          0
   324          0
   325          0
   330          0
   331          0
   340          0
   341          0
   346          0
   352          0
   355          0
   356          0
   357          2
   359         99
   360         18
   361         31
   362          5
   363          0
   366          0
   368          1
   370         65
   371         11
   372          2
   375          0
   377          0
   400          0
   402          0
   403          2
   404          4
   405         96
   406         21
   407         32
   408          7
   409          1