##TITLE=Library Entry 87766
##JCAMP-DX=Revision 4.10 
##DATA TYPE=MASS SPECTRUM
##SAMPLE DESCRIPTION=A.A.Kutin, Moscow, Russia
##NAMES=HP
##CAS NAME=Thiophene-2-carboxamide, N-(benzo[c][1,2,5]-thiadiazol-5-yl)-
##MOLFORM=C11H7N3OS2
##CAS REGISTRY NO=309281-05-8
##MP= -300
##BP= -300
##MW= 261
##$RETENTION INDEX=0
##$CONDENSED SPECTRUM=NO
##NPOINTS= 52
##XYDATA=(XY..XY) 1 
    33         22
    37         22
    39        382
    40         42
    41          7
    44          7
    45         54
    46         47
    47          2
    49          4
    50         22
    51         14
    52         21
    53         28
    55          1
    57         55
    58         19
    59          8
    64         24
    65         26
    66         13
    69         12
    70         15
    71         11
    72          3
    73          0
    75          8
    76         13
    77         15
    79          3
    81         13
    82         39
    83        131
    84         12
    85          9
    91         13
    92          6
    96         10
    97          2
   103          2
   111        999
   112         63
   113         43
   117          4
   123         52
   124          2
   145          7
   150         19
   151          1
   261        108
   262         16
   263         12