##TITLE=Library Entry 44950
##JCAMP-DX=Revision 4.10 
##DATA TYPE=MASS SPECTRUM
##SAMPLE DESCRIPTION=NIST Mass Spectrometry Data Center
##NAMES=HP
##CAS NAME=Glycolaldehyde dimethyl acetal
##MOLFORM=C4H10O3
##CAS REGISTRY NO=30934-97-5
##MP= -300
##BP= -300
##MW= 106
##$RETENTION INDEX=0
##$CONDENSED SPECTRUM=NO
##NPOINTS= 31
##XYDATA=(XY..XY) 1 
    14          4
    15         86
    16          2
    17          1
    18          2
    19          3
    26          4
    27         13
    29        141
    30         17
    31        298
    32         11
    33         28
    41          1
    42         15
    43        233
    44         19
    45        273
    46          6
    47        203
    48          4
    58          5
    59         17
    60          5
    61          2
    73          4
    74         12
    75        999
    76         33
    77          4
   105          1