##TITLE=Library Entry 100642
##JCAMP-DX=Revision 4.10 
##DATA TYPE=MASS SPECTRUM
##SAMPLE DESCRIPTION=NIST Mass Spectrometry Data Center, 2010
##NAMES=HP
##CAS NAME=Benzoic acid, 2-amino-, propyl ester
##MOLFORM=C10H13NO2
##CAS REGISTRY NO=30954-98-4
##MP= -300
##BP= -300
##MW= 179
##$RETENTION INDEX=1538
##$CONDENSED SPECTRUM=NO
##NPOINTS= 76
##XYDATA=(XY..XY) 1 
    15          2
    26          3
    27         30
    28          9
    29         11
    30          2
    31          3
    37          3
    38         11
    39         57
    40          7
    41         40
    42          7
    43         17
    44          5
    45          1
    46          2
    49          1
    50          6
    51          6
    52         23
    53          7
    54          3
    55          1
    56          1
    57          1
    59          1
    60          2
    61          3
    62          8
    63         35
    64         43
    65        183
    66         27
    67          2
    68          1
    74          3
    75          3
    76          6
    77          4
    78          2
    79          1
    80          4
    81          1
    86          1
    88          1
    89          2
    90         13
    91         50
    92        312
    93         56
    94          3
   104          1
   105          1
   106          1
   108          1
   117          1
   119        999
   120        307
   121         26
   122          2
   128          1
   130          1
   132          7
   133          1
   136          7
   137        142
   138         11
   139          1
   146          7
   147          1
   150          1
   161          1
   179        372
   180         42
   181          4