##TITLE=Library Entry 20656
##JCAMP-DX=Revision 4.10 
##DATA TYPE=MASS SPECTRUM
##SAMPLE DESCRIPTION=NIST Mass Spectrometry Data Center, 1990.
##NAMES=HP
##CAS NAME=3-Hexene, 3,4-dimethyl-
##MOLFORM=C8H16
##CAS REGISTRY NO=30951-95-2
##MP= -300
##BP= -300
##MW= 112
##$RETENTION INDEX=0
##$CONDENSED SPECTRUM=NO
##NPOINTS= 53
##XYDATA=(XY..XY) 1 
    14         12
    15         17
    16          6
    26         11
    27        107
    28        124
    29         85
    32         31
    37          2
    39        211
    40         42
    41        324
    42         23
    43         64
    44          8
    45          2
    50         26
    51         61
    52         26
    53        129
    54          2
    55        999
    56         90
    57         29
    62          6
    63         18
    64          4
    65         41
    66         14
    67        111
    68         22
    69        219
    70         27
    71          2
    74          4
    75          2
    77         37
    78          9
    79         45
    80         10
    81         46
    82          2
    83        785
    84         64
    85          2
    91          9
    93          3
    95         12
    97         72
    98          5
   110          1
   112        237
   113         21