##TITLE=Library Entry 46669
##JCAMP-DX=Revision 4.10 
##DATA TYPE=MASS SPECTRUM
##SAMPLE DESCRIPTION=NIST Mass Spectrometry Data Center, 1994
##NAMES=HP
##CAS NAME=4-Phenoxybenzonitrile
##MOLFORM=C13H9NO
##CAS REGISTRY NO=3096-81-9
##MP= -300
##BP= -300
##MW= 195
##$RETENTION INDEX=0
##$CONDENSED SPECTRUM=NO
##NPOINTS= 79
##XYDATA=(XY..XY) 1 
    14          1
    18          4
    26         28
    27         97
    28         26
    29          5
    37         72
    38        123
    39        395
    40         30
    41          9
    42          3
    50        289
    51        854
    52         68
    53         21
    54          2
    55         11
    57          3
    61         25
    62         77
    63        193
    64        122
    65        149
    66         31
    67          2
    68          9
    69          2
    70         74
    73         16
    74         89
    75        148
    76        143
    77        999
    78         74
    79          3
    83         27
    84         61
    86          7
    87         12
    88         17
    89         17
    90         46
    91         10
    92          8
    93          8
    94         31
    98         31
    99          9
   100          8
   101          9
   102         48
   103          6
   111          2
   112          3
   113         17
   114         13
   115         24
   116          5
   119          8
   127          6
   128          5
   137          4
   138         10
   139         60
   140        121
   141         23
   153          3
   154          3
   164         12
   166        256
   167        458
   168         63
   169          9
   180          3
   194        150
   195        766
   196        114
   197         11