##TITLE=Library Entry 34262
##JCAMP-DX=Revision 4.10 
##DATA TYPE=MASS SPECTRUM
##SAMPLE DESCRIPTION=D.HENNEBERG, MAX-PLANCK INSTITUTE, MULHEIM, WEST GERMAN
Y
##NAMES=HP
##CAS NAME=Cyclopentanemalononitrile
##MOLFORM=C8H10N2
##CAS REGISTRY NO=30963-90-7
##MP= -300
##BP= -300
##MW= 134
##$RETENTION INDEX=0
##$CONDENSED SPECTRUM=NO
##NPOINTS= 77
##XYDATA=(XY..XY) 1 
    22          1
    23          0
    24          2
    25          1
    26         38
    27        226
    28         57
    29         60
    30          5
    33          2
    35          2
    37         31
    38         62
    39        425
    40        106
    41        928
    42        525
    43         31
    47          0
    48          3
    49          5
    50         26
    51         62
    52         81
    53         80
    54         88
    55         30
    56          6
    59          1
    61          2
    62          8
    63         21
    64         19
    65         54
    66        120
    67        568
    68        144
    69        999
    70         52
    71          4
    72          1
    73          9
    74          1
    75          7
    76         13
    77         24
    78         17
    79        146
    80        128
    81        153
    82          8
    88          0
    89          1
    90          2
    91          3
    92         11
    93         61
    94         81
    95          5
    96          0
    97          1
   101          0
   102          0
   103          0
   104          4
   105         34
   106        211
   107         48
   108          2
   109          1
   110          0
   117          3
   118          1
   119          8
   120          0
   130          1
   133         12