##TITLE=Library Entry 72027
##JCAMP-DX=Revision 4.10 
##DATA TYPE=MASS SPECTRUM
##SAMPLE DESCRIPTION=A.A.Kutin, Moscow, Russia
##NAMES=HP
##CAS NAME=Pyrrol-2(5H)-one, 4-acetyl-5-(3-fluorophenyl)-3-hydroxy-1-[2-(1-p
iperazinyl)ethyl]-
##MOLFORM=C18H22FN3O3
##CAS REGISTRY NO=309724-52-5
##MP= -300
##BP= -300
##MW= 347
##$RETENTION INDEX=0
##$CONDENSED SPECTRUM=NO
##NPOINTS= 110
##XYDATA=(XY..XY) 1 
    33          8
    36          1
    37          0
    38          4
    42        184
    43        161
    44         77
    45         19
    46          8
    50          2
    51          5
    56        296
    57         34
    58         17
    60          1
    61          0
    62          1
    63          1
    64          0
    65          1
    68         11
    70        153
    71         12
    72          5
    74          2
    75          9
    77          4
    78          0
    79          0
    80          1
    81          2
    84         49
    85          7
    86          1
    87          1
    88          0
    89          0
    91          0
    92          0
    95         13
    97         25
    99        999
   101          9
   102          2
   103          1
   105          2
   106          1
   107          2
   109         11
   111          6
   112         20
   113          5
   114          0
   115          1
   116          0
   117          0
   121         26
   122          4
   123          4
   125          3
   127          2
   128          0
   129          0
   131          1
   133          4
   134          1
   135          3
   136          1
   137          0
   138          0
   139          0
   140          1
   141          0
   145          1
   146          1
   147          4
   149         41
   150          3
   151          0
   160          0
   162          2
   163          1
   164          1
   173          0
   174          0
   176          0
   177          0
   178          0
   188          0
   191          9
   192          1
   193          0
   202          0
   203          0
   204          0
   206          0
   207          0
   218          0
   219          1
   220          1
   229          0
   234          0
   261          0
   262          2
   291          0
   304          0
   305          1
   345          0
   347         20
   348          2