##TITLE=Library Entry 80105
##JCAMP-DX=Revision 4.10 
##DATA TYPE=MASS SPECTRUM
##SAMPLE DESCRIPTION=Asinex Ltd, Moscow, Russia
##NAMES=HP
##CAS NAME=Methanone, (6H-dibenzo[c,E]-1,2-triazin-6-yl 5,5-dioxide)(phenyl)
-
##MOLFORM=C19H13NO3S
##CAS REGISTRY NO=309733-90-2
##MP= -300
##BP= -300
##MW= 335
##$RETENTION INDEX=0
##$CONDENSED SPECTRUM=NO
##NPOINTS= 143
##XYDATA=(XY..XY) 1 
    38          0
    39          1
    40          2
    50          2
    51         12
    52          1
    62          0
    63          2
    64          1
    65          0
    69          0
    74          1
    75          2
    76          5
    77        140
    78         12
    79          0
    83          0
    86          0
    87          2
    88          1
    89          3
    90          0
    91          0
    95          0
    96          0
    98          0
    99          0
   100          1
   101          1
   102          1
   103          0
   104          3
   105        999
   106         85
   107          5
   108          1
   109          0
   110          0
   111          1
   112          1
   113         10
   114          4
   115         10
   116          4
   117          0
   118          2
   119          0
   121          1
   122          0
   123          0
   124          0
   125          0
   126          3
   127          5
   128          3
   129          0
   132          0
   134          0
   135          0
   136          0
   137          4
   138          9
   139         37
   140         51
   141          6
   142          0
   144          0
   145          1
   146          0
   147          0
   149          0
   150          1
   151          2
   152          2
   153          2
   154          2
   155          4
   156          0
   158          0
   159          0
   161          1
   162          0
   163          0
   164         15
   165          5
   166         55
   167         14
   168          6
   169          1
   170          0
   171          2
   172          0
   173          0
   174          0
   175          0
   176          0
   177          0
   178          0
   181          0
   182         12
   183          1
   184          0
   185          1
   186          1
   187          1
   188          0
   189          0
   190          0
   196          0
   197          0
   198          7
   199          1
   200          0
   201          0
   202          0
   209          0
   212          0
   213          1
   214          2
   215          1
   216          0
   226          0
   227          0
   230          3
   231          8
   232          1
   233          0
   238          0
   239          0
   240          2
   241          6
   242          1
   252          0
   254          0
   269          0
   270          0
   271          0
   309          0
   335        118
   336         24
   337          8
   338          1