##TITLE=Library Entry 99810
##JCAMP-DX=Revision 4.10 
##DATA TYPE=MASS SPECTRUM
##SAMPLE DESCRIPTION=A.A.Kutin, Moscow, Russia
##NAMES=HP
##CAS NAME=Benzamide, 2-methyl-N-(1,2,3,4-tetrahydro-4,4,6-trimethyl-2-thiox
o-1-pyrimidyl)-
##MOLFORM=C15H19N3OS
##CAS REGISTRY NO=309741-05-7
##MP= -300
##BP= -300
##MW= 289
##$RETENTION INDEX=0
##$CONDENSED SPECTRUM=NO
##NPOINTS= 176
##XYDATA=(XY..XY) 1 
    33          1
    34          1
    35          0
    36          0
    37          1
    39         79
    40         22
    41         80
    42        100
    43         53
    44         14
    45          5
    46          0
    47          0
    48          0
    50          5
    51         15
    52          7
    53         26
    54         12
    55         41
    56         12
    57         12
    58          9
    59          6
    60         11
    61          1
    62          4
    63         15
    65         99
    66         12
    67         28
    68          5
    69          5
    70         11
    71          4
    72          6
    73          6
    74          1
    75          2
    76          1
    77          9
    78          3
    79          8
    80          7
    81         13
    82         29
    83          7
    84          4
    85          3
    86          1
    87          1
    89         20
    91        321
    92         19
    93          4
    94          7
    95         16
    96         25
    97         18
    98          7
    99          9
   100          5
   101          0
   102          1
   103          0
   104          2
   105          2
   106          2
   107          6
   108          2
   109          3
   111         26
   112          4
   113          2
   114          2
   115          4
   116          5
   119        999
   120         73
   121          5
   122          1
   123          5
   124          6
   125          8
   126          1
   127          0
   128          0
   129          0
   130          0
   131          1
   132          2
   133          4
   134          3
   135          4
   136          2
   137          0
   138          0
   139          6
   140          6
   141         26
   142          2
   143          1
   144          0
   145          0
   146          0
   147          0
   148          0
   149          3
   150         17
   151          2
   152          0
   153          1
   154          1
   155          2
   156          4
   157          3
   158          1
   159          0
   164          0
   166          0
   167          0
   170          2
   171          3
   172          2
   173          2
   174          0
   175          2
   176         11
   177          1
   182          0
   185          0
   186          0
   189          0
   190          0
   191          0
   192          0
   196          0
   197          0
   198          0
   199          0
   209          0
   213          6
   214          1
   215          1
   216          0
   219          0
   229          1
   230          0
   231          4
   232          0
   240          6
   241          0
   242          0
   245          0
   246          0
   253          0
   254          0
   256        121
   257         20
   258          2
   259          0
   270          0
   271          1
   272          1
   274        137
   275         22
   276          8
   277          1
   283          0
   286          0
   287          0
   289         74
   290         13
   291          4
   292          0