##TITLE=Library Entry 17890
##JCAMP-DX=Revision 4.10 
##DATA TYPE=MASS SPECTRUM
##SAMPLE DESCRIPTION=A.A.Kutin, Moscow, Russia
##NAMES=HP
##CAS NAME=Isoxazol-3-ol, 4,5-dinitro-
##MOLFORM=C3HN3O6
##CAS REGISTRY NO=309727-37-5
##MP= -300
##BP= -300
##MW= 175
##$RETENTION INDEX=0
##$CONDENSED SPECTRUM=NO
##NPOINTS= 116
##XYDATA=(XY..XY) 1 
    33         16
    35          1
    36          3
    38         46
    39         14
    41        149
    42         36
    43         64
    44        237
    46        999
    48          7
    50          5
    52         63
    53         67
    54         74
    55         10
    56          4
    57          3
    60        194
    62          4
    64          7
    65          2
    66          4
    68         47
    69        166
    70         21
    72         67
    74          1
    75          0
    76          0
    77          1
    78          1
    79          1
    80          6
    81         14
    82          2
    83          2
    85         18
    86          3
    88         20
    89          1
    90          0
    91          1
    92          0
    93          0
    94          1
    95          2
    96          5
    97         14
    98          4
    99          1
   100          1
   101          3
   102          0
   103          0
   104          0
   105          0
   106          1
   107          0
   108          0
   109          0
   110          0
   111          3
   112          2
   113          4
   114          2
   115          0
   116          0
   117          0
   118          0
   120          1
   121          1
   122          0
   123          0
   124          0
   125          0
   127          1
   128          4
   129         11
   130          4
   131          0
   132          0
   133          0
   134          0
   135          0
   137          0
   138          0
   139          0
   140          0
   141          0
   142          0
   143          0
   144          0
   145          0
   146          0
   147          0
   148          0
   149          0
   150          0
   151          0
   154          0
   155          0
   156          0
   158          2
   159          0
   160          0
   161          0
   163          0
   164          0
   171          1
   172          2
   174         77
   175          4
   176          0
   177          0
   179          0