##TITLE=Library Entry 5123
##JCAMP-DX=Revision 4.10 
##DATA TYPE=MASS SPECTRUM
##SAMPLE DESCRIPTION=A.A.Kutin, Moscow, Russia
##NAMES=HP
##CAS NAME=Imidazo[4,5-E]1,2,4-triazin-6-one, perhydro-4,5,7-trimethyl-3-thi
oxo-
##MOLFORM=C7H13N5OS
##CAS REGISTRY NO=309742-27-6
##MP= -300
##BP= -300
##MW= 215
##$RETENTION INDEX=0
##$CONDENSED SPECTRUM=NO
##NPOINTS= 152
##XYDATA=(XY..XY) 1 
    33         93
    34         41
    35          6
    36          7
    38         30
    39         42
    40        119
    42        999
    43        223
    44        179
    45        143
    46         54
    47         92
    48         11
    49          4
    50         10
    51         19
    52         26
    53         43
    54         54
    55        169
    56        176
    57        229
    58        164
    59        163
    60        152
    61         23
    62         28
    63          5
    64         15
    65          5
    66         14
    67         41
    68         41
    69        103
    70         76
    71         90
    72        131
    73        164
    74        449
    75         84
    76         48
    77         23
    78          6
    79          2
    80          3
    81          9
    83        170
    84         25
    85         25
    86         26
    87         18
    88         89
    90         92
    91         14
    92          4
    93          1
    94          1
    95          5
    96         11
    97         37
    98         18
    99         19
   100          9
   101          7
   102         10
   104        142
   105        287
   106         17
   107         14
   108          2
   111        149
   112        571
   113        120
   115         79
   116         31
   117         13
   118         24
   119          1
   120          1
   122          0
   123          7
   124          5
   125         19
   126         62
   127         67
   128         78
   129         46
   130         32
   131          8
   132          3
   133          0
   137          2
   138          2
   139          6
   140         17
   141         38
   142         23
   143         36
   144         54
   145         13
   146          7
   147         25
   148          1
   149          1
   151          1
   152          6
   153          4
   154          4
   155          6
   156         16
   157         43
   158         57
   159         35
   160          7
   161          5
   162          2
   164          3
   165         10
   166          3
   168          2
   169          6
   170          4
   171         14
   172         31
   173          4
   174          5
   175          0
   176          8
   177          0
   178          4
   179          3
   180          1
   182          1
   183          4
   184         18
   185          4
   186          1
   188          3
   194          1
   197          5
   198          2
   199          4
   200         20
   201          7
   202         14
   203          3
   213          4
   215        163
   216         19
   217          8
   218          2