##TITLE=Library Entry 87735
##JCAMP-DX=Revision 4.10 
##DATA TYPE=MASS SPECTRUM
##SAMPLE DESCRIPTION=A.A.Kutin, Moscow, Russia
##NAMES=HP
##CAS NAME=Benzo[b]thiophene-3-carboxamide, 4,5,6,7-tetrahydro-2-[2,2,2-trif
luoro-1-(trifluoromethyl)-1-(2-thiophenylcarboxamido)ethylamino]-
##MOLFORM=C17H15F6N3O2S2
##CAS REGISTRY NO=309731-48-4
##MP= -300
##BP= -300
##MW= 471
##$RETENTION INDEX=0
##$CONDENSED SPECTRUM=NO
##NPOINTS= 142
##XYDATA=(XY..XY) 1 
    33         31
    36          3
    37         44
    39        523
    40         32
    41         46
    42         17
    44        173
    45        281
    46         10
    48         13
    49         15
    50         59
    51         74
    53         68
    54          9
    55         16
    57         81
    58        116
    59         20
    60         13
    62         20
    63         33
    65         73
    66         23
    67         29
    69        277
    71         52
    74          2
    75         13
    76         26
    77         69
    78         60
    79         39
    80         22
    81         48
    82         41
    83        135
    84         24
    85         10
    87         10
    89         19
    90         29
    91         78
    93         30
    94         21
    95         19
    96         41
    97         26
    98          9
   102          3
   104          7
   105          8
   107         23
   108         17
   111        999
   112         56
   113         31
   114          4
   116         24
   117         19
   119         23
   120         15
   121         40
   122         20
   123         38
   124         11
   125          5
   127        156
   128         15
   129          4
   133         19
   134         39
   135         26
   136         11
   137          5
   138          4
   139          2
   144          7
   145         11
   146          5
   149          4
   150         31
   151         87
   152         32
   157          2
   158          3
   160          9
   161         17
   162          9
   163          7
   164         11
   166          3
   176         11
   178         48
   179        170
   181          9
   182          2
   184          6
   195          3
   196         66
   197          3
   202         10
   204          8
   208          1
   210          7
   227         10
   228         48
   230         49
   231          7
   232          4
   246         11
   247         11
   254          3
   255         32
   256          2
   258          8
   259          2
   272         15
   273         32
   275        259
   276         21
   277         10
   278         11
   288          2
   297         11
   298         23
   299        190
   300         20
   325          1
   326         28
   327        105
   328         18
   341          5
   342          9
   344        154
   345         17
   346          7
   470          2
   471         40
   472          5
   473          4