##TITLE=Library Entry 64765
##JCAMP-DX=Revision 4.10 
##DATA TYPE=MASS SPECTRUM
##SAMPLE DESCRIPTION=A.A.Kutin, Moscow, Russia
##NAMES=HP
##CAS NAME=Propenone, 3-(4-benzyloxyphenyl)-1-(3,4-methylenedioxyphenyl)-
##MOLFORM=C23H18O4
##CAS REGISTRY NO=309740-10-1
##MP= -300
##BP= -300
##MW= 358
##$RETENTION INDEX=0
##$CONDENSED SPECTRUM=NO
##NPOINTS= 102
##XYDATA=(XY..XY) 1 
    38          2
    39         17
    40          3
    41          3
    43          0
    44          0
    50          3
    51         10
    52          2
    53          2
    55          1
    57          0
    62          8
    63         35
    65        101
    66          5
    71          0
    74          1
    75          3
    76          5
    77          8
    78          1
    79          1
    86          0
    87          1
    89         35
    91        999
    92         64
    93          3
    99          0
   101          1
   102          5
   103          1
   105          3
   107          0
   113          0
   115          2
   117          2
   118          6
   119          6
   121         30
   122          1
   125          0
   126          4
   127          6
   128          1
   129          0
   130          0
   135          0
   139          2
   141          0
   145          2
   146          3
   147          2
   149         69
   150          8
   151         10
   152         46
   153         39
   154          4
   155          1
   163          2
   164          1
   165          5
   166          0
   168          0
   171          0
   173          1
   174          1
   175          0
   178          1
   180          1
   181         27
   182          4
   183          0
   185          0
   192          0
   195          0
   201          0
   209          8
   210          2
   211          4
   212         29
   213          3
   222          1
   225          0
   237          6
   238          1
   239         12
   240          2
   248          0
   251          0
   252          0
   266          9
   267         51
   268         10
   269          1
   357          3
   358        255
   359         64
   360          8
   361          0