##TITLE=Library Entry 73289
##JCAMP-DX=Revision 4.10 
##DATA TYPE=MASS SPECTRUM
##SAMPLE DESCRIPTION=A.A.Kutin, Moscow, Russia
##NAMES=HP
##CAS NAME=2,5-Piperazinedione, 1,4-bis[(dihydro-2H-1,3-oxazin-3(4H)-yl)meth
yl]-
##MOLFORM=C14H24N4O4
##CAS REGISTRY NO=309731-11-1
##MP= -300
##BP= -300
##MW= 312
##$RETENTION INDEX=0
##$CONDENSED SPECTRUM=NO
##NPOINTS= 98
##XYDATA=(XY..XY) 1 
    33         19
    34          0
    36          0
    37          0
    42        474
    43         63
    44         21
    45         20
    52          0
    54          2
    56         48
    58        388
    60          0
    66          0
    67          2
    68         21
    70        233
    71         84
    73          1
    78          0
    80          0
    82          4
    83         11
    84         22
    86        494
    88          9
    89          0
    91          0
    95          1
    99        480
   100        999
   102        172
   104          0
   110          1
   112         34
   113         61
   115         10
   116          0
   117          0
   119          1
   124          2
   125          5
   127         46
   128         19
   129          1
   137          0
   138          2
   139          5
   140          7
   141         10
   142          2
   143          2
   152          1
   153          1
   154          5
   155          8
   156         30
   157         26
   158          1
   166          1
   167          5
   168         10
   169          3
   170          6
   171          1
   172          0
   180          1
   182         19
   183          3
   184          8
   185          2
   187          1
   194          1
   195          3
   196          9
   197          3
   198          4
   199          2
   200          0
   201          0
   209          4
   211        110
   212         46
   213          7
   214          1
   223          0
   225         14
   226         10
   227         18
   228          1
   229          0
   253          0
   267          0
   269          0
   310          1
   312         32
   313          4
   314          0