##TITLE=Library Entry 79527
##JCAMP-DX=Revision 4.10 
##DATA TYPE=MASS SPECTRUM
##SAMPLE DESCRIPTION=A.A.Kutin, Moscow, Russia
##NAMES=HP
##CAS NAME=Benzoic acid, (4-hydroxymino-2,2,6,6-tetramethyl-1-piperidyl) est
er
##MOLFORM=C16H22N2O3
##CAS REGISTRY NO=309745-08-2
##MP= -300
##BP= -300
##MW= 290
##$RETENTION INDEX=0
##$CONDENSED SPECTRUM=NO
##NPOINTS= 144
##XYDATA=(XY..XY) 1 
    33          0
    34          1
    35          0
    36          1
    37          0
    38          1
    39         10
    40         28
    41         27
    42         22
    43          8
    44         13
    45          1
    46          0
    47          0
    48          0
    49          0
    50          4
    51         16
    52          1
    53          5
    54          5
    55         27
    56         71
    57         10
    58         15
    59          9
    60          0
    62          0
    63          0
    64          0
    65          1
    66          1
    67          8
    68          3
    69          8
    70         12
    71          4
    72          2
    73          1
    74          2
    75          1
    76          3
    77         88
    78          8
    79          4
    80          4
    81          8
    82         20
    83          7
    84          3
    85          1
    86          0
    87          0
    91          1
    92          0
    93          1
    94          6
    95          6
    96          8
    97          5
    98         30
    99          2
   100          0
   101          0
   102          0
   105        999
   106         73
   107          6
   108          2
   109          2
   110          2
   111          1
   112          9
   113         10
   114          0
   115          0
   117          0
   118          0
   119          1
   120          1
   121          2
   122          6
   123          3
   124          2
   125          0
   126          0
   127          4
   128          0
   129          0
   131          0
   133          0
   134          0
   135          1
   136          2
   137          6
   138         11
   139          3
   140          6
   141          1
   145          0
   147          0
   149          3
   150          0
   151          1
   152          1
   153          4
   154          1
   155          6
   156          0
   157          0
   161          0
   162          0
   164          0
   165          0
   166          0
   167          0
   168          1
   169          1
   170          3
   171          1
   172          0
   175          0
   178         86
   179         10
   180          1
   185          2
   186          0
   200          0
   201          1
   202          0
   218          0
   257          0
   259          2
   260          0
   269          0
   273          0
   275         65
   276         12
   277          1
   283          0
   290         22
   291          3
   292          0