##TITLE=Library Entry 59950
##JCAMP-DX=Revision 4.10 
##DATA TYPE=MASS SPECTRUM
##SAMPLE DESCRIPTION=A.A.Kutin, Moscow, Russia
##NAMES=HP
##CAS NAME=Pyridine-3-carbonitrile, 2-benzylthio-4-methyl-6-phenyl-
##MOLFORM=C20H16N2S
##CAS REGISTRY NO=309732-46-5
##MP= -300
##BP= -300
##MW= 316
##$RETENTION INDEX=0
##$CONDENSED SPECTRUM=NO
##NPOINTS= 202
##XYDATA=(XY..XY) 1 
    33          1
    34          2
    36          1
    39        155
    41         56
    42          2
    43          2
    45        125
    47          6
    51        142
    52         25
    53          4
    54          0
    55          0
    57          4
    58          4
    59          2
    60          0
    63         85
    65        356
    66         17
    67          0
    69         17
    70          9
    71          6
    72          1
    74         11
    75         17
    77        125
    78         60
    79          8
    80          1
    82          8
    83          9
    84          2
    85          1
    86          3
    87          6
    89         57
    91        999
    92         62
    93          5
    95         19
    96          6
    97          2
    98          1
    99          4
   100          4
   101          5
   102         35
   103         11
   104         21
   106          4
   107          4
   108          1
   109          1
   110          0
   111          0
   113          9
   114          6
   115         20
   116          6
   117          5
   118          0
   119          1
   121         44
   122         28
   123         21
   124          4
   125          6
   126          6
   127         21
   128         26
   129          4
   130          1
   132          0
   134          3
   135          0
   137          2
   138          5
   139         28
   140         32
   141          9
   142          2
   143          2
   144          2
   145          2
   146          1
   147          0
   148          0
   149          1
   150          3
   151          8
   152         14
   153          8
   154         11
   155          2
   156          1
   158         58
   160          0
   163          0
   164         12
   165          9
   166         29
   167         15
   168          7
   169          7
   170          1
   171          7
   172          2
   173          1
   176          0
   177          2
   178          6
   179         40
   180          8
   181          5
   182          3
   183          2
   184          1
   185          0
   189          0
   190          0
   191          5
   192         30
   193         42
   194         38
   195         28
   196          7
   197          1
   198          3
   199          1
   203          0
   204          0
   205          2
   206          4
   207          1
   208          0
   209          0
   210          7
   211          2
   212          3
   213          2
   214          1
   215          0
   216          0
   222          0
   223          2
   224          3
   225         16
   226         10
   227          2
   228          0
   229          0
   237          5
   238         12
   239         77
   240         14
   241          5
   242          1
   243          0
   244          0
   253          0
   254          2
   255          1
   256          3
   257          2
   258          2
   259          0
   266          3
   267          4
   268          8
   269          3
   270          0
   271          1
   272          0
   276          1
   279          1
   280          3
   281         11
   282         28
   283        264
   284         63
   285          7
   286          0
   287          0
   288          1
   289          0
   290          0
   299          0
   300          1
   301         12
   302          2
   303          0
   313          0
   314          0
   315         32
   316        311
   317         75
   318         22
   319          3
   320          0