##TITLE=Library Entry 85273
##JCAMP-DX=Revision 4.10 
##DATA TYPE=MASS SPECTRUM
##SAMPLE DESCRIPTION=A.A.Kutin, Moscow, Russia
##NAMES=HP
##CAS NAME=Acetamide, 2-(7-amino-7H-1,2,4-triazolo[3,2-c]1,2,4-triazol-3-ylt
hio)-N-(6-methyl-2-pyridyl)-
##MOLFORM=C11H12N8OS
##CAS REGISTRY NO=309744-99-8
##MP= -300
##BP= -300
##MW= 304
##$RETENTION INDEX=0
##$CONDENSED SPECTRUM=NO
##NPOINTS= 120
##XYDATA=(XY..XY) 1 
    36         18
    37         15
    38         56
    39        244
    40        131
    41        135
    42        218
    43        201
    44        107
    45         70
    46         59
    47          4
    50         18
    51         41
    52         60
    53        151
    54         37
    55         37
    56         20
    57         39
    58         73
    59         74
    60         17
    62          8
    63         41
    64         71
    65        235
    66        113
    67         44
    68         61
    69         26
    70         46
    71         14
    73        167
    74         14
    75          6
    76          7
    77         29
    78         41
    80        401
    81        291
    82         40
    83         16
    84         57
    85         50
    90          2
    91        137
    92        435
    93        159
    94         34
    97          5
    99        143
   100        181
   101          5
   102         13
   104         10
   105         41
   106         25
   108        999
   109        198
   110         65
   111          5
   112         77
   114         25
   119         51
   120         55
   121        136
   122         11
   125         29
   127          7
   130          5
   132          4
   133         34
   134         55
   135        938
   136         75
   137         24
   139         16
   141         16
   143        245
   144         16
   145         19
   148        269
   149        199
   150         81
   151         13
   154         39
   156         92
   157          8
   158          6
   159         15
   160         16
   161          4
   163          3
   164         16
   165          6
   168         91
   169         31
   170        521
   171         42
   172         12
   173         10
   174          6
   175         39
   176          2
   179         16
   181         15
   182          8
   196        122
   197         22
   203         44
   206          7
   207         11
   218         18
   231         19
   239          5
   245         13
   304        361
   305         56
   306         16