##TITLE=Library Entry 22970
##JCAMP-DX=Revision 4.10 
##DATA TYPE=MASS SPECTRUM
##SAMPLE DESCRIPTION=A.A.Kutin, Moscow, Russia
##NAMES=HP
##CAS NAME=Propan-1-one, 1-[3-fluoro-4-(4-phenylsulfonyl-1-piperazinyl)pheny
l]-
##MOLFORM=C19H21FN2O3S
##CAS REGISTRY NO=309740-01-0
##MP= -300
##BP= -300
##MW= 376
##$RETENTION INDEX=0
##$CONDENSED SPECTRUM=NO
##NPOINTS= 203
##XYDATA=(XY..XY) 1 
    33          1
    34          1
    35          4
    36          1
    37          2
    38          3
    39         14
    40         23
    41         33
    42         72
    43         28
    44         17
    45          5
    47         12
    48          8
    49          4
    50         22
    51         70
    52          8
    53          5
    54         27
    55         80
    56        999
    57         83
    58         16
    59          1
    60          1
    61          0
    62          1
    63          4
    64          6
    65          6
    66          2
    67          2
    68          5
    69         10
    70          7
    71         10
    72          1
    73          2
    74          6
    75         22
    76         18
    77        214
    78         29
    79          4
    80          1
    81          6
    82          6
    83         62
    84         12
    85         38
    86          1
    87          4
    88          0
    89          3
    90          2
    91          7
    92          2
    93          4
    94         21
    95         32
    96         11
    97          7
    98          2
    99          2
   100          2
   101          4
   102         16
   103          8
   104          4
   105          4
   106          1
   107          9
   108         17
   109         13
   110          5
   111          2
   112          4
   113          6
   114          1
   115          2
   116          2
   117          2
   118          2
   119          1
   120          5
   121         16
   122         35
   123         21
   124          5
   125          5
   126          2
   127          1
   128          1
   129          1
   130          1
   131          3
   132          2
   133          2
   134          2
   135          9
   136         20
   137         20
   138          5
   139          1
   141         32
   142          4
   143          2
   144          0
   145          0
   146          0
   147          1
   148          6
   149         15
   150         98
   151         17
   152          9
   153          1
   154          0
   155          0
   156          0
   157          0
   158          1
   159          0
   160          1
   161          1
   162          2
   164         17
   165          9
   166          3
   167          3
   168          0
   169          0
   170          1
   171          2
   172          0
   173          0
   174          0
   175          1
   176          6
   177          6
   178         65
   179         18
   180         17
   181          2
   182          1
   183          4
   184          0
   185          0
   186          0
   187          0
   188          0
   189          0
   190          1
   191          1
   192          4
   193          2
   194         50
   195         15
   196          2
   197          0
   203          0
   204          0
   205          5
   206         20
   207          7
   208         33
   209          4
   210          0
   215          1
   218          0
   219          0
   221          2
   222          0
   223          0
   224          5
   225         27
   226          3
   227          1
   231          0
   233         22
   235        756
   236        117
   237          9
   238          0
   252          0
   264          0
   265          0
   279          0
   280          0
   283          0
   295          2
   333          0
   347         14
   348          2
   349          0
   366          0
   375          2
   376        100
   377         20
   378          6
   379          0