##TITLE=Library Entry 4590
##JCAMP-DX=Revision 4.10 
##DATA TYPE=MASS SPECTRUM
##SAMPLE DESCRIPTION=A.A.Kutin, Moscow, Russia
##NAMES=HP
##CAS NAME=Acetamide, N-(4-amino-3-furazanyl)-2-(3-quinuclidinyloxy)-
##MOLFORM=C11H17N5O3
##CAS REGISTRY NO=309735-23-7
##MP= -300
##BP= -300
##MW= 267
##$RETENTION INDEX=0
##$CONDENSED SPECTRUM=NO
##NPOINTS= 161
##XYDATA=(XY..XY) 1 
    36         71
    38         45
    39        109
    40         92
    41        308
    42        999
    43        749
    44        439
    45         19
    46          3
    48          0
    49          2
    50         15
    51         26
    52         32
    53        183
    54        105
    55        192
    56        108
    57        139
    58        279
    59         18
    60          6
    62          1
    63          6
    64          4
    65         18
    66         15
    67         52
    68         89
    69        121
    70        390
    71         60
    72         32
    73         41
    74          3
    75          3
    76          4
    77         16
    78         11
    79         26
    80         43
    81         47
    82        200
    83         98
    84         78
    85         32
    86         46
    87          1
    89          0
    91         14
    92         10
    93         21
    94         50
    95         44
    96        179
    97         87
    98        256
    99        134
   100        434
   101         18
   102          2
   103          1
   104          4
   105          8
   106         11
   107         11
   108         46
   109         40
   110        116
   112        237
   113         16
   114          3
   115          0
   116          0
   117          1
   118          2
   119          6
   120         16
   121         12
   122         22
   123         26
   124         22
   127        704
   128         38
   129          2
   130          0
   131          0
   132          3
   133          3
   134          6
   135          9
   136          8
   137         21
   138         19
   140        298
   141         35
   142         10
   143          1
   144          1
   145          4
   146          5
   147          4
   148          6
   149          7
   150          6
   151          8
   152         11
   153          4
   154          2
   155          0
   156          1
   158         45
   159         22
   160          7
   161          7
   162          8
   163          5
   164         12
   165          8
   166          9
   167          9
   168          4
   169          4
   171          2
   173          3
   174          2
   175          0
   176         15
   178         29
   180          8
   181          7
   182          6
   183         14
   184          7
   185          9
   186          0
   190          1
   191          2
   192          9
   194          3
   195          1
   196          0
   202          4
   203          2
   205          2
   206          0
   207          1
   208          1
   209          4
   210          5
   219          0
   220          1
   222          4
   223          1
   228          3
   248          0
   249          7
   250          2
   265          0
   267          3