##TITLE=Library Entry 48592
##JCAMP-DX=Revision 4.10 
##DATA TYPE=MASS SPECTRUM
##SAMPLE DESCRIPTION=A.A.Kutin, Moscow, Russia
##NAMES=HP
##CAS NAME=1,2,4-Triazolo[4,3-b]pyridazine-6-hydrazine, 3-pentafluoroethyl-
##MOLFORM=C7H5F5N6
##CAS REGISTRY NO=309732-20-5
##MP= -300
##BP= -300
##MW= 268
##$RETENTION INDEX=0
##$CONDENSED SPECTRUM=NO
##NPOINTS= 112
##XYDATA=(XY..XY) 1 
    37        382
    38        504
    39        201
    40        176
    41         71
    42        105
    43        193
    45         16
    46          9
    47         10
    50        190
    51        314
    52        801
    54         98
    55         37
    56         21
    57         29
    58          1
    60          2
    62         65
    63        126
    64        246
    65         93
    67        220
    69        462
    71          8
    73         10
    74         22
    76        233
    77        106
    79        999
    81         52
    83          5
    84          4
    87          3
    88         14
    89         23
    90         47
    91         39
    92         20
    94        258
    96         14
    97          3
   100         96
   101          5
   102          6
   103         12
   104         28
   105          4
   106          3
   107          8
   108          2
   109          0
   112          9
   113         25
   114         20
   115          6
   116          2
   119         97
   121         31
   122         14
   124         12
   126         16
   127          6
   128          2
   137          1
   138          5
   141        176
   142         11
   143          4
   144          6
   145         14
   146         10
   147         17
   148          1
   149          6
   152          3
   156          0
   157          0
   161          1
   162          0
   164         41
   166          1
   168          7
   169        120
   170         26
   171         10
   172          4
   183          9
   184          8
   191        111
   192          5
   197          9
   199        161
   200         10
   203          1
   212          0
   215          0
   219         26
   220          1
   224          4
   228          4
   238          3
   239          6
   248        120
   249         93
   250          8
   253          0
   265          5
   268        757
   269         56
   270          2