##TITLE=Library Entry 38300
##JCAMP-DX=Revision 4.10 
##DATA TYPE=MASS SPECTRUM
##SAMPLE DESCRIPTION=A.A.Kutin, Moscow, Russia
##NAMES=HP
##CAS NAME=Furazan-3-carboxamide, 4-amino-N-(2-tetrahydrofurfuryl)-
##MOLFORM=C8H12N4O3
##CAS REGISTRY NO=309735-27-1
##MP= -300
##BP= -300
##MW= 212
##$RETENTION INDEX=0
##$CONDENSED SPECTRUM=NO
##NPOINTS= 59
##XYDATA=(XY..XY) 1 
    33          0
    34          2
    38          3
    39         43
    40         43
    41        137
    42         59
    43        321
    44         32
    45          2
    51          1
    53         32
    54         41
    55         63
    56         27
    57         20
    58          9
    59          2
    64          0
    65          2
    67         37
    68          8
    69         10
    70         64
    71        999
    72         47
    73          2
    77          1
    80          1
    82         31
    83         21
    84         74
    85         12
    86          4
    91          1
    92          2
    95          0
    96          0
    97          0
   100          1
   109          1
   110          4
   111         23
   112         20
   124          0
   128          5
   129          1
   134          2
   137          1
   140          0
   141          3
   142          7
   143          0
   148          1
   149          0
   152          0
   176          0
   182          4
   212          3