##TITLE=Library Entry 64604
##JCAMP-DX=Revision 4.10 
##DATA TYPE=MASS SPECTRUM
##SAMPLE DESCRIPTION=A.A.Kutin, Moscow, Russia
##NAMES=HP
##CAS NAME=Quinoline-3-carbonitrile, 1,4,5,6,7,8-hexahydro-2-benzylthio-4-(4
-chlorophenyl)-5-oxo-
##MOLFORM=C23H19ClN2OS
##CAS REGISTRY NO=309732-08-9
##MP= -300
##BP= -300
##MW= 406
##$RETENTION INDEX=0
##$CONDENSED SPECTRUM=NO
##NPOINTS= 230
##XYDATA=(XY..XY) 1 
    33          0
    34          0
    35          0
    36          5
    38          6
    39         47
    41         41
    42          4
    43          6
    45         17
    47          0
    50          6
    51         22
    52          6
    53          3
    55         43
    57          6
    58          0
    59          0
    60          1
    61          1
    62          4
    63         24
    65        138
    66          6
    67          1
    68          1
    69          3
    70          3
    71          1
    72          0
    73          1
    74          2
    75         14
    76          5
    77          9
    78          3
    79          1
    80          0
    81          0
    82          2
    83          2
    84          3
    85          2
    86          2
    87          2
    88          3
    89         21
    91        999
    92         72
    93          3
    94          1
    95          1
    96          1
    97          1
    98          0
    99          2
   100          1
   101          3
   102          2
   103          1
   104          1
   105          1
   106          2
   107          1
   108          2
   109          1
   111          6
   112          2
   113          3
   114          3
   115          5
   116          4
   117          1
   118          0
   119          0
   121         12
   122          1
   123          6
   124          1
   125          6
   126          5
   127          6
   128          3
   129          1
   132          0
   133          0
   134          1
   135          0
   136          2
   137          2
   138          5
   139          6
   140          5
   141          8
   142          4
   143          2
   144          0
   145          0
   146          0
   147          1
   148          1
   149          4
   150          2
   151          4
   152          6
   153          5
   154          1
   155          1
   156          0
   157          0
   158          0
   159          0
   160          0
   161          1
   162          2
   163          3
   164         11
   165         14
   166          7
   167          2
   168          0
   169          0
   170          1
   171          1
   172          2
   173          4
   174          6
   175          4
   176          7
   177          4
   178          4
   179          4
   180          1
   181          0
   182          0
   183          1
   184          0
   185          0
   186          0
   187          2
   188          1
   189          2
   190          5
   191          5
   192          5
   193          3
   194          1
   195          0
   196          2
   197          1
   198          1
   199          1
   200          4
   201          2
   202          2
   203          2
   204          2
   205          2
   206          0
   207          0
   208          0
   213          0
   214          1
   215          1
   216          1
   217          4
   218          3
   219          1
   220          0
   221          0
   222          0
   223          1
   224          4
   225          2
   226          1
   227          1
   228          1
   229          1
   230          0
   232          1
   234          0
   235          0
   237          0
   238          0
   239          0
   251          1
   252          2
   253          1
   254          1
   255          0
   256          1
   258          0
   259          0
   260          0
   261          2
   262          1
   263          0
   271          0
   273          0
   279          3
   280          3
   281          2
   282          0
   283          9
   284          1
   285          3
   286          1
   287          2
   288          2
   289          1
   290          1
   293          0
   294          0
   295         67
   296         12
   297          5
   298          0
   299          0
   304          0
   313          0
   314          1
   315        146
   316         28
   317         55
   318         11
   319          3
   406          3
   407          1
   408          1