##TITLE=Library Entry 47880
##JCAMP-DX=Revision 4.10 
##DATA TYPE=MASS SPECTRUM
##SAMPLE DESCRIPTION=A.A.Kutin, Moscow, Russia
##NAMES=HP
##CAS NAME=Pyrrol-2(5H)-one, 4-bromo-3-hydroxy-5-(4-methoxyphenyl)-1-phenyl-
##MOLFORM=C17H14BrNO3
##CAS REGISTRY NO=309741-78-4
##MP= -300
##BP= -300
##MW= 359
##$RETENTION INDEX=0
##$CONDENSED SPECTRUM=NO
##NPOINTS= 228
##XYDATA=(XY..XY) 1 
    33          9
    34          2
    35          3
    36          6
    37         21
    38         71
    39        205
    40         69
    41         50
    42         11
    43         12
    44         17
    46         25
    47         13
    48          3
    50        113
    51        340
    52         65
    53        185
    54         16
    55         16
    56          3
    57         10
    58          1
    59          1
    61         20
    62         79
    63        254
    64        156
    65        212
    66         68
    67         10
    68          5
    69         12
    70          5
    71          3
    74         46
    75         80
    77        999
    78        114
    79         96
    80        131
    81         54
    82        129
    83         25
    85         23
    86         12
    87         23
    89        425
    90        166
    91        123
    92        171
    93        122
    94         11
    96         14
    97         10
    98         11
    99          5
   100          8
   101         63
   102         79
   103         68
   104        175
   105         53
   106         24
   107         14
   108         50
   109          9
   110          6
   112         26
   113         16
   114          7
   115         20
   116         53
   117        265
   118        176
   119         77
   120        144
   121         78
   122          8
   123          2
   125          6
   126         92
   128          9
   129         18
   130         20
   132        805
   133        211
   134         58
   135         39
   136          3
   137          6
   138          2
   140        148
   142          2
   143         11
   144         43
   145        126
   146        100
   147         17
   148         11
   149         10
   150          4
   151         10
   152         21
   153         12
   154         10
   155          8
   157          9
   158         13
   159        126
   160        479
   161        554
   162         64
   163          9
   164          5
   165         19
   166         15
   167         51
   168         12
   169         23
   171        104
   173        101
   174          7
   175          1
   176          4
   177          9
   178         12
   179         19
   180         58
   181         35
   182          8
   183          4
   184          3
   185          0
   187          1
   189          1
   190          7
   191         10
   192          6
   193         22
   194          8
   195         13
   196          7
   197         20
   198          4
   199         14
   200          1
   201          2
   202          3
   203          1
   204          1
   205          1
   206          2
   207          6
   208         58
   209         46
   210        226
   211         62
   212         89
   213         25
   214         79
   215          7
   216          1
   217          1
   218          1
   219          5
   220          9
   221          3
   222          5
   223         33
   224         52
   225         18
   226          5
   227          6
   234          5
   235          3
   236         13
   237         12
   239        836
   240        111
   241        750
   242         88
   243          8
   248          1
   249          7
   250          8
   251         39
   252         94
   253         18
   254          4
   262          1
   264          5
   265          3
   266          0
   275          0
   278          4
   280        935
   281        183
   282         26
   283          3
   284          0
   286          0
   288          2
   289          0
   290          2
   292          0
   314          1
   316          1
   317          3
   319          6
   321          3
   324          1
   325         22
   326          9
   327          2
   330          2
   331          1
   332          2
   333          1
   354         19
   355          5
   356          1
   359        349
   360         76
   361        328
   362         63
   363          7