##TITLE=Library Entry 79843
##JCAMP-DX=Revision 4.10 
##DATA TYPE=MASS SPECTRUM
##SAMPLE DESCRIPTION=A.A.Kutin, Moscow, Russia
##NAMES=HP
##CAS NAME=5H-Thiazolo[3,2-a]pyridine-8-carbonitrile, 2,3,6,8-tetrahydro-3-h
ydroxy-5-oxo-3-phenyl-7-(2-thienyl)-
##MOLFORM=C18H14N2O2S2
##CAS REGISTRY NO=309732-39-6
##MP= -300
##BP= -300
##MW= 354
##$RETENTION INDEX=0
##$CONDENSED SPECTRUM=NO
##NPOINTS= 230
##XYDATA=(XY..XY) 1 
    33          2
    34          2
    36          1
    38          4
    39         47
    40         25
    41         11
    43         33
    45         72
    46          6
    47          7
    48          0
    50         11
    51         59
    52         11
    53          5
    55          8
    57         12
    58         11
    59          3
    60          4
    61          1
    63         17
    65         45
    66         10
    67          2
    69         15
    70          7
    71          7
    73          3
    74          8
    75          6
    77        322
    78         49
    79          7
    80          2
    81          3
    82          5
    83          6
    84          9
    86         14
    87          1
    88          3
    89          8
    90         11
    91         64
    92          7
    93          4
    94          2
    95          4
    96          5
    97         10
    98          3
    99          1
   100          1
   101          1
   102          6
   103          8
   105        999
   106         63
   107          9
   108          7
   109         25
   110         16
   111          7
   112          2
   113          1
   114          1
   115          3
   116          2
   117          2
   118          1
   119          4
   120         39
   121         15
   122          7
   123          5
   124          1
   125          1
   127          2
   128          1
   129          2
   130          0
   131          1
   132          1
   133          8
   134         36
   135         11
   136          3
   137         24
   138          3
   139          2
   140          2
   141          1
   142          1
   143          0
   146          9
   147          4
   148         14
   149          5
   150          1
   151          4
   152          4
   153          2
   154          0
   155          0
   156          0
   157          0
   158          0
   159          3
   160          9
   161         28
   162          5
   163          2
   164          0
   165          3
   166          2
   167          1
   168          0
   169          0
   171          3
   172          0
   173          4
   174          7
   175          2
   176          2
   177          4
   178          5
   179          1
   180          2
   181          0
   182          0
   183          0
   185          0
   186          0
   187          1
   188          1
   189          0
   190          1
   191          1
   192          2
   193          2
   194          1
   195          0
   196          0
   197          0
   199          0
   200          0
   201          0
   202          0
   203          3
   204          1
   205          1
   206          3
   207          4
   208          0
   209          0
   210          0
   214          0
   215          1
   216          3
   217          1
   218          1
   219          1
   220          0
   221          9
   222          1
   223          1
   224          0
   225          0
   226          0
   227          0
   228          0
   231          0
   232          0
   233          5
   234          4
   235         19
   236          5
   237          2
   238          0
   239          0
   241          0
   242          1
   243          0
   247          1
   248          1
   249        192
   250         28
   251         20
   252          2
   253          1
   254          0
   255          0
   256          0
   265          0
   269          0
   270          0
   271          0
   277          0
   279          0
   282          0
   283          1
   284          0
   293          2
   294          2
   295          1
   296          0
   297          0
   300          0
   303          0
   309          0
   310          0
   311          0
   312          0
   316          1
   321          1
   322          0
   325          1
   326         13
   327          2
   328          1
   336          1
   337          0
   353          2
   354         82
   355         17
   356          8
   357          1
   358          0