##TITLE=Library Entry 100081
##JCAMP-DX=Revision 4.10 
##DATA TYPE=MASS SPECTRUM
##SAMPLE DESCRIPTION=A.A.Kutin, Moscow, Russia
##NAMES=HP
##CAS NAME=Benzimidazole-2-methanol, 1-isopropyl-.alpha.-(4-methylphenyl)-.a
lpha.-(phenyl)-
##MOLFORM=C24H24N2O
##CAS REGISTRY NO=309724-78-5
##MP= -300
##BP= -300
##MW= 356
##$RETENTION INDEX=0
##$CONDENSED SPECTRUM=NO
##NPOINTS= 110
##XYDATA=(XY..XY) 1 
    33        256
    34          6
    39        327
    40        197
    41        268
    43        382
    44         46
    50        109
    51        170
    52         39
    53          4
    55          9
    62         39
    63         98
    65        307
    66         26
    75         26
    77        760
    78         59
    79          8
    89         56
    91        682
    92         83
    94          2
    95          4
   102         43
   103         23
   105        762
   106         39
   107         14
   110          2
   115         21
   116         19
   119        999
   120        103
   121        113
   122          5
   124          2
   128         23
   129          7
   130          2
   131         69
   132         48
   133         52
   134          6
   137         15
   138          2
   139          5
   143         14
   145        328
   146        146
   147         23
   151         19
   152         35
   153          4
   159          9
   160         93
   161         16
   165         50
   166         40
   167         27
   175         14
   178         16
   179         29
   180         43
   181         47
   193         17
   194         31
   195         39
   196         92
   197         12
   205         20
   206         27
   207         34
   208         47
   209         44
   219          2
   220         12
   221         65
   222         30
   223        209
   224        104
   225          7
   235         21
   237        332
   238        111
   249         12
   251         37
   252         14
   263          5
   265         63
   267         66
   279         62
   280         25
   281         19
   282          6
   292          8
   293          4
   295         77
   296         21
   297         22
   313        575
   314         98
   315          5
   337         22
   338         10
   340          4
   356        696
   357        110
   358         10