##TITLE=Library Entry 37758
##JCAMP-DX=Revision 4.10 
##DATA TYPE=MASS SPECTRUM
##SAMPLE DESCRIPTION=A.A.Kutin, Moscow, Russia
##NAMES=HP
##CAS NAME=Morpholine-4-carboxylic acid, 2-formylphenyl ester
##MOLFORM=C12H13NO4
##CAS REGISTRY NO=309727-95-5
##MP= -300
##BP= -300
##MW= 235
##$RETENTION INDEX=0
##$CONDENSED SPECTRUM=NO
##NPOINTS= 112
##XYDATA=(XY..XY) 1 
    33          3
    34          0
    36          1
    37          6
    38         25
    39        112
    40         17
    42        363
    44         43
    45         81
    46          1
    47          0
    50         31
    51         73
    52          8
    53         12
    54         19
    55         29
    56        140
    57         12
    58          5
    59          0
    60          0
    61          3
    62         10
    63         34
    64         23
    65         72
    66          8
    67          1
    70        999
    72          7
    74          8
    75          6
    76         18
    77         60
    78          7
    79          6
    80          0
    81          0
    82          0
    84         15
    86         92
    87          6
    88          2
    89          0
    90          1
    91          3
    92         14
    93         15
    94          3
    95          0
    97          0
   100          0
   101          0
   102          0
   103          0
   104          8
   105         26
   106          3
   107          1
   108          0
   109          0
   112          9
   114        847
   115         44
   116          5
   117          0
   118          2
   119          3
   121        215
   122         28
   123          2
   124          0
   128          0
   129          0
   130          0
   131          0
   132          3
   133          1
   134          0
   135          1
   137          0
   139          0
   143          0
   144          0
   145          0
   146          7
   147          1
   148         11
   149          4
   150          0
   158          0
   160          2
   161          0
   162          1
   163          0
   173          2
   174          1
   176          0
   182          0
   189          0
   190          2
   191         11
   192         13
   193          1
   206          0
   207          0
   233          1
   235         50
   236          6
   237          0