##TITLE=Library Entry 65604
##JCAMP-DX=Revision 4.10 
##DATA TYPE=MASS SPECTRUM
##SAMPLE DESCRIPTION=A.A.Kutin, Moscow, Russia
##NAMES=HP
##CAS NAME=2H-Pyrido[1,2-a]1,3,5triazine, 4-ethoxy-2,2-bis(trifluoromethyl)-
9-methyl-
##MOLFORM=C12H11F6N3O
##CAS REGISTRY NO=309739-95-5
##MP= -300
##BP= -300
##MW= 327
##$RETENTION INDEX=0
##$CONDENSED SPECTRUM=NO
##NPOINTS= 90
##XYDATA=(XY..XY) 1 
    34          2
    36          1
    37          0
    38          5
    39         71
    40         85
    41         12
    42          6
    43         10
    44         42
    45          0
    50          6
    51         25
    52         33
    53         19
    54          2
    55          0
    56          1
    57          1
    62          0
    63         20
    64         39
    65        162
    66         16
    68          0
    69         38
    70          4
    76          3
    77          5
    78         20
    79         10
    80          2
    90          9
    91          9
    92        999
    93         58
    96          0
   103          0
   104          0
   105         23
   106          8
   110          4
   117          4
   118          1
   120          0
   132          2
   133          7
   134          2
   140          0
   142         17
   143          0
   144          6
   160         47
   161          2
   166          0
   167         14
   168          1
   181          0
   186          1
   187         91
   188          5
   191          0
   192          1
   200          3
   201          1
   210          4
   211          1
   213          0
   227          0
   228          1
   229          3
   230        698
   231         68
   232          2
   235          0
   237          2
   254          0
   255          8
   256         13
   257          2
   258        368
   259         42
   260          8
   272          0
   280         11
   282          2
   308          9
   326          0
   327         65
   328          6