##TITLE=Library Entry 53851
##JCAMP-DX=Revision 4.10 
##DATA TYPE=MASS SPECTRUM
##SAMPLE DESCRIPTION=A.A.Kutin, Moscow, Russia
##NAMES=HP
##CAS NAME=Morpholine, 4-[2-(4-ethyl-1-piperazinyl)-5-nitrophenylsulfonyl]-
##MOLFORM=C16H24N4O5S
##CAS REGISTRY NO=309731-13-3
##MP= -300
##BP= -300
##MW= 384
##$RETENTION INDEX=0
##$CONDENSED SPECTRUM=NO
##NPOINTS= 226
##XYDATA=(XY..XY) 1 
    33         21
    34          1
    39         14
    42        671
    43         68
    44         44
    45          5
    46          1
    48          1
    50         10
    51         14
    52         17
    54         63
    56        712
    57        742
    58        156
    60          2
    63         24
    64         11
    65          9
    66          3
    68         23
    70        243
    71         82
    72        144
    75         26
    76         48
    77         35
    78         20
    79          5
    80          5
    84        999
    85        175
    86        147
    89         29
    90         24
    91         14
    92         10
    93          3
    94          2
    96         36
    97         11
    98         16
    99         11
   100         25
   103         70
   104         24
   105          9
   106          6
   107          2
   108          2
   109          2
   110          2
   111          4
   112          3
   113         14
   114          3
   115          5
   116         11
   117         24
   118         11
   119         12
   120         11
   121          3
   122          4
   123          1
   128          5
   130         66
   131         62
   132         15
   133          8
   134          8
   135          7
   136          5
   137          4
   138          4
   139          1
   141          0
   142          2
   143          7
   144         15
   145          9
   146          6
   147          6
   148         10
   149         44
   150         17
   151          9
   152          2
   154          0
   155          1
   156          5
   157          9
   158         10
   159          9
   160         11
   161         21
   162          6
   163          8
   164         30
   165          7
   166          1
   167          1
   169          1
   170          1
   172         25
   173          6
   174          5
   176         52
   177         85
   178         83
   179         24
   180          2
   181          2
   182          0
   183          1
   185          3
   186         12
   187         11
   188          9
   189          8
   190         14
   191         19
   192         42
   193         11
   194          4
   195          8
   196          0
   197          1
   199          0
   200          0
   201          1
   202          5
   203          4
   204         14
   205         17
   206         25
   207          9
   208          2
   209          0
   211          1
   213          1
   214          0
   215          1
   216          4
   218         51
   220        109
   221         13
   222          3
   223          4
   224          1
   225          3
   227          2
   228          0
   229          2
   230          1
   231          3
   232         17
   233         52
   235        346
   236         46
   237          4
   238          1
   240          0
   241          3
   242          1
   243          1
   246          0
   248          1
   250          3
   251          0
   253          0
   254          1
   255          0
   256          1
   257          0
   263          1
   264          1
   265          0
   266          0
   267          0
   268          1
   269          2
   270          4
   271          1
   280          2
   282         11
   283          2
   284          3
   285          0
   296          6
   297          2
   298          2
   299          5
   300          6
   301          2
   302          0
   308          0
   310         35
   311          4
   312          2
   313          2
   314          0
   315          0
   325          0
   327         15
   328          5
   329          0
   337          2
   340          0
   341          3
   342          1
   354          0
   366          0
   369         81
   370         13
   371          3
   372          0
   380          0
   381          1
   382         10
   383         28
   384         73
   385         16
   386          4
   387          0