##TITLE=Library Entry 109673
##JCAMP-DX=Revision 4.10 
##DATA TYPE=MASS SPECTRUM
##SAMPLE DESCRIPTION=A.A.Kutin, Moscow, Russia
##NAMES=HP
##CAS NAME=Pyrrolidine-2,5-dione, 3-[4-(4-chlorobenzyl)-1-piperazinyl]-1-eth
yl-
##MOLFORM=C17H22ClN3O2
##CAS REGISTRY NO=309740-26-9
##MP= -300
##BP= -300
##MW= 335
##$RETENTION INDEX=0
##$CONDENSED SPECTRUM=NO
##NPOINTS= 189
##XYDATA=(XY..XY) 1 
    35          0
    36          1
    37          0
    38          2
    39         13
    40          9
    41         41
    42        107
    43         14
    44         31
    45          2
    46          0
    47          0
    49          0
    50          6
    51          8
    52          3
    53          6
    54         66
    55        160
    56        150
    57         22
    58         25
    60          0
    62          5
    63         30
    64          9
    65          9
    66          1
    67          6
    68         30
    69         21
    70         37
    71         14
    72         19
    73          9
    74          4
    75         15
    76          4
    77          9
    78          2
    80          3
    81          9
    82         54
    83         40
    84         72
    85         14
    86          2
    87          4
    89        146
    90         79
    91         23
    92          1
    93          0
    94          1
    95          4
    96         12
    97         11
    98         16
    99         63
   100          5
   101         15
   102          3
   103          6
   104          2
   105          1
   106          1
   107          2
   109          7
   110         14
   111         27
   112         10
   113          5
   114          2
   115          2
   116          2
   117          7
   118         10
   119          3
   120          0
   121          1
   122          0
   123          4
   125        999
   126         83
   127        392
   128         25
   130         11
   131          4
   132         10
   133          1
   134          2
   135          1
   136          0
   137          5
   138         24
   139         12
   140         16
   141          4
   142          4
   143          1
   144          2
   145          2
   146          2
   147          1
   148          0
   149          1
   150          1
   151          4
   152         28
   153         45
   154         79
   155         47
   156         24
   157          2
   158          0
   163          0
   164          3
   165         21
   166         60
   167        106
   168         55
   169         34
   170         10
   171          3
   172          0
   173          1
   174          2
   175          0
   177          0
   178          3
   180         57
   181         43
   182         38
   183         37
   184          5
   185          0
   192          1
   193          1
   194          7
   195          3
   196          4
   197          1
   198          0
   205          0
   206          0
   207          4
   208         13
   209         90
   210        325
   211         59
   212          5
   213          0
   221          1
   222          0
   223          0
   224          1
   233          0
   234          0
   235          2
   236          0
   237          1
   238          0
   261          0
   263          1
   264          0
   265          0
   278          0
   279          0
   281          0
   283          0
   292          1
   293          0
   294          0
   300          0
   301          0
   305          3
   306          3
   307          3
   308          1
   309          0
   318          0
   320          0
   333          0
   335        123
   336         27
   337         40
   338          7
   339          0