##TITLE=Library Entry 76169
##JCAMP-DX=Revision 4.10 
##DATA TYPE=MASS SPECTRUM
##SAMPLE DESCRIPTION=A.A.Kutin, Moscow, Russia
##NAMES=HP
##CAS NAME=Imidazo[1,2-b]benzisothiazol-3(2H)-one, 2-(3-nitrobenzylidene)-,
 5,5-dioxide
##MOLFORM=C16H9N3O5S
##CAS REGISTRY NO=309740-15-6
##MP= -300
##BP= -300
##MW= 355
##$RETENTION INDEX=0
##$CONDENSED SPECTRUM=NO
##NPOINTS= 167
##XYDATA=(XY..XY) 1 
    33          5
    34          8
    36          4
    37          5
    38         23
    39         66
    40         37
    41         12
    42          7
    43         18
    44        110
    45         14
    46          5
    48         15
    49          4
    50         59
    51        125
    52         35
    53          6
    54          2
    55          9
    56          2
    57         10
    58          2
    59          0
    60          4
    61          6
    62         47
    63         69
    64         51
    65         15
    66          2
    67          1
    68          2
    69         14
    70         10
    71          5
    73          4
    74         25
    75        152
    76        103
    77         21
    78         11
    79         20
    80          3
    81         12
    82         19
    83          6
    84          2
    85          2
    86          5
    87         22
    88         71
    89         61
    90         21
    91         11
    92          4
    93          3
    95         46
    96          7
    97          2
    98          3
    99          6
   100         11
   102        999
   103        102
   104         10
   105          5
   106          7
   107          5
   108         39
   110          1
   111          2
   112          3
   114         72
   115        177
   116         21
   117          4
   118          2
   119          9
   120          3
   122         26
   124          1
   125          0
   126          1
   127          3
   128          2
   130         47
   131         11
   132          1
   134         18
   135          4
   136          7
   137          2
   138          0
   139          3
   140          3
   141          0
   142          1
   143          6
   144          2
   145         14
   146          5
   149          5
   150          8
   151          6
   152          9
   153          2
   154          1
   156          2
   157          2
   158          0
   161        233
   162         23
   163         15
   164         11
   166        329
   167         28
   168         14
   169          1
   171          2
   174          0
   175          0
   176          3
   177          5
   178          5
   179          0
   188          7
   189         15
   190         45
   191         10
   192          2
   193          1
   194          1
   201          0
   202          0
   203          0
   204          1
   205         13
   206          6
   215         18
   216         44
   217         80
   218         13
   219          3
   220          3
   221          0
   228          0
   229          0
   232          0
   233          4
   234          1
   244          6
   245          4
   246         21
   247          2
   263         62
   264         10
   309          1
   326          0
   327         18
   328          2
   352          0
   355        165
   356         29
   357          9
   358          0