##TITLE=Library Entry 35933
##JCAMP-DX=Revision 4.10 
##DATA TYPE=MASS SPECTRUM
##SAMPLE DESCRIPTION=A.A.Kutin, Moscow, Russia
##NAMES=HP
##CAS NAME=2-Pyrazolin-5-ol,1-(2-benzothiazolyl)-3-trifluoromethyl-5-phenyl-
##MOLFORM=C17H12F3N3OS
##CAS REGISTRY NO=309736-99-0
##MP= -300
##BP= -300
##MW= 363
##$RETENTION INDEX=0
##$CONDENSED SPECTRUM=NO
##NPOINTS= 151
##XYDATA=(XY..XY) 1 
    33          9
    34          2
    35          0
    36          7
    37         48
    38         80
    39        168
    40         38
    41         59
    42         75
    43         44
    44         33
    45        136
    46         10
    47          9
    50        295
    51        418
    52         66
    53         32
    54          7
    55          9
    56          7
    57         22
    58         26
    59         28
    60         12
    61         30
    62         52
    63        126
    64         49
    65        111
    66         13
    67          7
    69        999
    70         50
    71         17
    72          5
    74        132
    75         71
    76         82
    77        582
    78        132
    79         20
    80          6
    81         19
    82         58
    84         19
    85          5
    86          6
    87          8
    88          8
    89         43
    90         68
    91         89
    92         13
    93         14
    94         13
    95         29
    96         52
    97         10
    98          6
    99          3
   100          2
   101         11
   102         16
   103         37
   105        594
   106         45
   108        147
   109         80
   110         10
   111          5
   112          1
   113          0
   115          0
   117          2
   118         12
   119         11
   120         35
   121         31
   122         50
   123         32
   124         11
   125          2
   126          0
   127          0
   128          0
   129          2
   130          0
   131          1
   132          4
   133          9
   134         16
   135         64
   136         23
   137          5
   138          3
   139         11
   140          1
   141          1
   142          0
   143          0
   144          1
   147        411
   148        243
   149         75
   150         42
   151          8
   152          2
   153          0
   159          1
   161          0
   162          3
   163          8
   165        356
   166         32
   167         16
   168          1
   169          0
   178          0
   179          0
   180          0
   181          1
   183          0
   191          1
   192          6
   193          0
   194          0
   197          0
   199          0
   210          0
   211          0
   213          1
   214          5
   215         32
   216        177
   217         19
   218          1
   219          0
   237          0
   240          0
   250          0
   258          1
   261          3
   262          1
   294          1
   346          0
   363          4
   364          0
   381          0
   382          0