##TITLE=Library Entry 6207
##JCAMP-DX=Revision 4.10 
##DATA TYPE=MASS SPECTRUM
##SAMPLE DESCRIPTION=A.A.Kutin, Moscow, Russia
##NAMES=HP
##CAS NAME=Benzothiophene-3-carboxamide, 4,5,6,7-tetrahydro-2-[2,2,2-trifuor
o-1-trifluoromethyl-1-(2-methyl-1-oxopropylamino)ethylamino]-
##MOLFORM=C16H19F6N3O2S
##CAS REGISTRY NO=309731-49-5
##MP= -300
##BP= -300
##MW= 431
##$RETENTION INDEX=0
##$CONDENSED SPECTRUM=NO
##NPOINTS= 166
##XYDATA=(XY..XY) 1 
    33         10
    37          7
    38         23
    39        117
    41        345
    43        999
    45        112
    46          5
    47          3
    50          8
    51         17
    52         27
    53         17
    54         15
    55         15
    56          1
    57          6
    58         16
    59         11
    61          4
    62          3
    63         17
    64          9
    65         32
    66         14
    67         12
    69         59
    70         76
    71        299
    72         16
    73          2
    76          7
    77         47
    78         25
    79         25
    80         10
    81          3
    82          8
    83          6
    85         12
    86          4
    88         33
    89         14
    90         21
    91         60
    92         13
    93         13
    94          7
    96         20
    97         25
   103          6
   105          8
   106         13
   107          3
   108          7
   109          6
   110          2
   111          6
   116         13
   117         31
   118         19
   119          9
   120          2
   121         19
   122         23
   123         40
   124          9
   125          4
   130          0
   133         13
   134         24
   135         17
   136          8
   137          4
   138          2
   143          2
   144          6
   146          3
   147          2
   148         10
   149         14
   150         26
   151         43
   152          8
   153          1
   159          2
   160          5
   161         13
   162          7
   163          1
   164          0
   166          1
   176         11
   177         20
   178         82
   179         98
   180         13
   181          5
   182          2
   184          3
   186          2
   188          1
   189          2
   190          1
   194          3
   195         17
   196         54
   197          3
   198          2
   203          2
   204          8
   205          5
   206          7
   208          0
   210          4
   222          2
   223          3
   228         14
   229          3
   230         31
   231          7
   232         11
   233          5
   245          2
   246         17
   247          4
   248          1
   249          1
   255         11
   257          2
   258          1
   259          1
   272          9
   273         17
   274         33
   275        211
   276         25
   277         11
   278          3
   295          1
   296          1
   297         11
   299        146
   300         11
   301          4
   305          3
   322          2
   324          7
   325          4
   326         25
   327        140
   328         36
   329          6
   330          1
   340          2
   341          5
   343         26
   344        112
   345         20
   346          3
   427          4
   428         13
   429         14
   431        115
   432         19
   433          1