##TITLE=Library Entry 59893
##JCAMP-DX=Revision 4.10 
##DATA TYPE=MASS SPECTRUM
##SAMPLE DESCRIPTION=A.A.Kutin, Moscow, Russia
##NAMES=HP
##CAS NAME=Benzimidazole-2-methanol, .alpha.-(4-benzyloxyphenyl)-1-isopropyl
-
##MOLFORM=C24H24N2O2
##CAS REGISTRY NO=309724-63-8
##MP= -300
##BP= -300
##MW= 372
##$RETENTION INDEX=0
##$CONDENSED SPECTRUM=NO
##NPOINTS= 140
##XYDATA=(XY..XY) 1 
    33         19
    34          0
    35          2
    36         14
    39         75
    41         73
    43         45
    44          3
    50         10
    51         28
    52          9
    53          2
    55          2
    57          0
    63         36
    65        160
    67          1
    74          3
    75          8
    77         46
    78          6
    79          7
    80         10
    81          5
    82          8
    88          1
    91        999
    93          8
    94          2
    95          2
   101          0
   102         13
   104         10
   105         10
   106          1
   114          0
   115          3
   118        105
   119         31
   121         18
   122          1
   123          0
   127          2
   128          3
   129          3
   131         17
   132          6
   133          2
   134          1
   135          3
   140          0
   143          6
   145         52
   146         21
   147         30
   148         41
   149          3
   151          1
   153          3
   154          1
   155          2
   156          4
   157          1
   159          7
   160          3
   161          3
   165          1
   167          2
   168          4
   169          2
   171          1
   172          0
   173          8
   175         88
   176          5
   179          0
   181          9
   182         11
   183          7
   184          1
   187          2
   189         14
   190          1
   192          5
   193         18
   194         10
   195          2
   197         13
   198          1
   205          1
   207          6
   208          2
   209          4
   210          4
   211         12
   212          1
   219          4
   220          4
   221         18
   222          6
   223          7
   225        148
   226         19
   227          1
   234          0
   235          2
   236          2
   239         48
   240          3
   249          4
   250          1
   251          2
   252          6
   253          1
   263          2
   264          3
   265          5
   266          0
   267          1
   275          1
   279          0
   281         80
   282         15
   283          1
   284          0
   295          2
   312          3
   313          5
   327          0
   329         23
   330          6
   343          4
   344          0
   355          8
   356          3
   370          0
   371         11
   372         82
   373         17
   374          1