##TITLE=Library Entry 89746
##JCAMP-DX=Revision 4.10 
##DATA TYPE=MASS SPECTRUM
##SAMPLE DESCRIPTION=A.A.Kutin, Moscow, Russia
##NAMES=HP
##CAS NAME=Benzamide, 3-(cyclohexyl)methylaminosulfonyl-N-phenyl-
##MOLFORM=C20H24N2O3S
##CAS REGISTRY NO=309735-66-8
##MP= -300
##BP= -300
##MW= 372
##$RETENTION INDEX=0
##$CONDENSED SPECTRUM=NO
##NPOINTS= 146
##XYDATA=(XY..XY) 1 
    38          2
    39         29
    40         20
    41         76
    42        213
    43         34
    44         27
    45          0
    48          1
    50         28
    51         24
    52          7
    53         13
    54         16
    55        115
    56         60
    57         59
    58          9
    62          5
    63         13
    64         24
    65         70
    66         11
    67         18
    68         92
    69         40
    70        108
    71          9
    72          3
    73          2
    74          9
    75         65
    76        338
    77        137
    78         18
    79         15
    80          5
    81         26
    82         26
    83         28
    84         19
    85          8
    86         28
    87          2
    89          8
    91         63
    92         57
    93         37
    94         23
    95         14
    96         30
    97          9
    98          7
    99          2
   102          3
   103         32
   104        342
   105        123
   106         13
   107         14
   108          9
   109         10
   110         16
   112        999
   113         73
   114          5
   115         19
   116          3
   117         12
   118         19
   119         22
   120         19
   121         27
   122         19
   123          8
   124         24
   125          4
   126          2
   127          4
   128          8
   129          2
   130          4
   131          7
   132         12
   133         13
   134         11
   135          2
   136          5
   137          6
   139         18
   140         12
   141         14
   142          2
   144          8
   145          8
   146          2
   150          9
   151         11
   152         60
   153         19
   154          7
   155          3
   159          1
   160         29
   161          8
   162         10
   165         30
   166         26
   167         77
   168         26
   169         60
   170        414
   171         63
   172          5
   173          1
   176         17
   177          1
   178          5
   184          0
   185          1
   194          4
   195         21
   196         78
   197        333
   198         67
   199         16
   200          1
   209         10
   210          3
   211          6
   224         16
   225          5
   226          1
   227         14
   235          4
   245          1
   252          7
   261          3
   267          1
   280          2
   329         76
   330         11
   331          5
   347          2
   372         29
   373          4