##TITLE=Library Entry 21733
##JCAMP-DX=Revision 4.10 
##DATA TYPE=MASS SPECTRUM
##SAMPLE DESCRIPTION=A.A.Kutin, Moscow, Russia
##NAMES=HP
##CAS NAME=Pyridine-3-carbonitrile, 5,6-dihydro-4-methyl-2-(2-methyl-2-prope
nylthio)-6-oxo-
##MOLFORM=C11H12N2OS
##CAS REGISTRY NO=309731-97-3
##MP= -300
##BP= -300
##MW= 220
##$RETENTION INDEX=0
##$CONDENSED SPECTRUM=NO
##NPOINTS= 153
##XYDATA=(XY..XY) 1 
    33          7
    34          6
    37         26
    39        897
    40        125
    41        160
    42         38
    43         43
    45        323
    46         44
    47         81
    48          2
    51        411
    52        178
    53        355
    55        999
    57         55
    58         38
    59         94
    60         24
    61          9
    63         70
    64         70
    65         37
    66         76
    67         59
    69         60
    70         56
    71         71
    72         19
    73         44
    75         28
    76         62
    78        472
    79         73
    80         22
    81         10
    82         24
    83         62
    84         18
    85         54
    86         49
    87         58
    88         17
    89         16
    90         22
    91         25
    92         28
    93         27
    94         37
    95         17
    96         19
    97         10
    98          2
    99          0
   101          4
   102          2
   103         16
   104          9
   105         82
   106         34
   107         22
   108          9
   110        108
   111         20
   112          9
   116         32
   117         32
   118         20
   119         28
   120         13
   121         39
   122         38
   123          9
   124          9
   125          3
   128          0
   129          3
   130         20
   131          8
   132         29
   133         60
   134         45
   135         27
   136         10
   137         54
   138         94
   139         12
   140          4
   141          2
   142         18
   143         22
   144         12
   145          8
   146          5
   147         14
   148         64
   149         28
   150         25
   151         37
   152         13
   153          8
   154          1
   155          2
   156          1
   157         15
   158          8
   159         35
   160         24
   161         51
   162         21
   163          8
   164          4
   165         18
   166         44
   167         22
   168          5
   169         17
   170          5
   171         26
   172        158
   173         46
   174         12
   175         21
   176         11
   177         19
   178          6
   179        110
   180         70
   181          7
   185         46
   186         36
   187        851
   188        107
   189          8
   190          5
   191         33
   192         16
   193          4
   194          1
   201          4
   202          3
   203          7
   204          8
   205        931
   206        110
   207         46
   208          3
   219         71
   220        472
   221         66
   222         23
   223          0