##TITLE=Library Entry 86160
##JCAMP-DX=Revision 4.10 
##DATA TYPE=MASS SPECTRUM
##SAMPLE DESCRIPTION=A.A.Kutin, Moscow, Russia
##NAMES=HP
##CAS NAME=1,2,5-Oxadiazole-3-carboxaldehyde, 4-methyl-, dimethylhydrazone,
 2-oxide
##MOLFORM=C6H10N4O2
##CAS REGISTRY NO=309741-80-8
##MP= -300
##BP= -300
##MW= 170
##$RETENTION INDEX=0
##$CONDENSED SPECTRUM=NO
##NPOINTS= 46
##XYDATA=(XY..XY) 1 
    37         24
    39        156
    40         71
    41        203
    42        356
    43        325
    44         79
    49          2
    50         44
    51         64
    52        142
    53         39
    55         55
    56         32
    58        376
    60          0
    63          6
    65         56
    66         36
    67         66
    68         44
    69          6
    71          5
    77          1
    78          1
    80         28
    81         17
    82         45
    85          1
    87         49
    88          0
    92          0
    95        353
    96         20
    97          4
   105          2
   109        999
   110        528
   112         37
   113          2
   125          0
   140          0
   154          2
   168          2
   170        252
   171         11