##TITLE=Library Entry 2998
##JCAMP-DX=Revision 4.10 
##DATA TYPE=MASS SPECTRUM
##SAMPLE DESCRIPTION=A.A.Kutin, Moscow, Russia
##NAMES=HP
##CAS NAME=Tetrazolo[5,1-a]phthalazine, 6-(1-azepanyl)-
##MOLFORM=C14H16N6
##CAS REGISTRY NO=309739-98-8
##MP= -300
##BP= -300
##MW= 268
##$RETENTION INDEX=0
##$CONDENSED SPECTRUM=NO
##NPOINTS= 226
##XYDATA=(XY..XY) 1 
    33          1
    34          2
    36          0
    37          9
    39        341
    40        103
    41        999
    42        359
    43        160
    44         21
    45         17
    46          4
    47          0
    48          0
    49          1
    50         45
    51         62
    52         27
    53         65
    54         70
    55        462
    56        934
    57         45
    59         11
    60          2
    61         13
    62         34
    63         35
    64         26
    65         21
    66          6
    67         25
    68         20
    69        160
    70         20
    71         14
    73          3
    74         11
    75         57
    76         44
    77         25
    78          7
    79          6
    80         12
    81         10
    82         16
    83         30
    84         93
    85         10
    86          7
    87         17
    88         42
    89         31
    90         12
    91          9
    92          2
    93          6
    94          4
    95          4
    96          9
    97          8
    98         14
    99          5
   100          8
   101         50
   102        145
   103         26
   104          7
   105          4
   106          2
   107          2
   108         11
   109         10
   110          7
   111          3
   112          6
   113          6
   114         19
   115         28
   116         30
   117          9
   118          2
   119          1
   120          1
   121          2
   122          1
   123          2
   124         15
   125         11
   126          4
   128        118
   129        622
   130         74
   131         17
   132          5
   133          3
   134          4
   135         30
   136         16
   137          3
   138          4
   139          2
   140          8
   141          6
   142         54
   143         31
   144         20
   145          8
   146          3
   147          1
   148          4
   149         19
   150          4
   151          2
   152          3
   153          3
   155        113
   156         35
   157         29
   158         17
   159          3
   160          9
   161          4
   162         18
   163          4
   164          2
   165          1
   166          2
   167          9
   168          9
   169        127
   170         57
   171         22
   172          3
   173          2
   174          3
   175          2
   176         10
   177          3
   178          4
   179          1
   180          1
   181          5
   182          6
   183        127
   184         64
   185         14
   186          6
   187          2
   188          7
   189          2
   190          3
   191          4
   192          1
   193          1
   194          1
   195          1
   197         86
   198         13
   199          2
   200          3
   201          1
   202          4
   203          4
   204          4
   205          0
   206          1
   207          0
   209          1
   211         54
   212         40
   213          6
   214          1
   215          0
   216          0
   217          0
   218          1
   219          5
   220          2
   221          0
   222          0
   223          0
   224          0
   225          1
   226          1
   227          0
   228          0
   229          0
   230          0
   231          0
   232          2
   233          0
   234          0
   235          0
   236          0
   237          1
   238          0
   239          0
   240          0
   241          0
   244          0
   245          1
   246          4
   247          5
   248          3
   249          0
   250          0
   251          0
   252          0
   253          0
   255          0
   256          0
   259          0
   261          0
   262          0
   263          0
   264          0
   265          0
   266          0
   267          1
   268         38
   269          8
   270          0
   271          0
   272          0
   273          0