##TITLE=Library Entry 12048
##JCAMP-DX=Revision 4.10 
##DATA TYPE=MASS SPECTRUM
##SAMPLE DESCRIPTION=A.A.Kutin, Moscow, Russia
##NAMES=HP
##CAS NAME=Acetamide, N-[4-(1-tetrazolyl)phenyl]-
##MOLFORM=C9H9N5O
##CAS REGISTRY NO=309742-07-2
##MP= -300
##BP= -300
##MW= 203
##$RETENTION INDEX=0
##$CONDENSED SPECTRUM=NO
##NPOINTS= 131
##XYDATA=(XY..XY) 1 
    33          0
    34          1
    36          1
    37         17
    38         42
    39         64
    40         27
    41         29
    43        999
    44         32
    47          2
    48          0
    50         42
    51         96
    52        189
    53         93
    54         20
    55          9
    56          1
    57          2
    59          0
    60          2
    61         10
    62         29
    63         75
    64         57
    65         80
    66         12
    67          3
    68          0
    69          2
    70          0
    71          0
    72          0
    73          1
    74          7
    75          9
    76         16
    77         43
    78         83
    79        247
    80         36
    81          3
    82          0
    83          1
    84          0
    85          0
    86          0
    87          2
    88          3
    89          5
    90         27
    91         28
    92         25
    93         15
    94          1
    95          0
    96          0
    97          0
    98          0
   100          0
   101          0
   102          1
   103          4
   104         20
   105        219
   106        751
   107         54
   108          6
   109          1
   111          0
   112          0
   115          0
   116          1
   117          2
   118          5
   119          4
   120          2
   121          2
   122          0
   123          0
   125          0
   127          0
   128          0
   129          0
   130          0
   131          6
   132         46
   133        792
   134         84
   135          9
   136          2
   137          0
   139          0
   140          0
   141          0
   143          6
   144          1
   145          2
   146          3
   148        111
   149         10
   150          3
   151          0
   152          1
   154          0
   155          0
   157          0
   158          0
   159          2
   160          0
   161          6
   162          3
   163          0
   167          0
   168          0
   169          0
   170          0
   171          0
   173          0
   175         13
   176          1
   177          2
   178          1
   179          0
   183          1
   188          1
   189          0
   203         40
   204          4
   205          0