##TITLE=Library Entry 9292
##JCAMP-DX=Revision 4.10 
##DATA TYPE=MASS SPECTRUM
##SAMPLE DESCRIPTION=A.A.Kutin, Moscow, Russia
##NAMES=HP
##CAS NAME=Propenamide, 2-acetamido-3-phenyl-N-(3-hydroxypropyl)-
##MOLFORM=C14H18N2O3
##CAS REGISTRY NO=309720-06-7
##MP= -300
##BP= -300
##MW= 262
##$RETENTION INDEX=0
##$CONDENSED SPECTRUM=NO
##NPOINTS= 138
##XYDATA=(XY..XY) 1 
    33         21
    35          1
    36          0
    38         21
    39         85
    40         36
    41        130
    43        999
    44        113
    45         27
    46         10
    47          2
    48          0
    49          0
    50         25
    51         52
    52         16
    53          5
    54         10
    56        176
    57         42
    58         64
    59         53
    61         10
    62         22
    63         72
    64         31
    65         56
    66          6
    67          1
    68          4
    69          6
    70          9
    71          3
    72         13
    74        408
    75         64
    76         80
    77         57
    78         13
    79          6
    81          1
    82          7
    83          6
    84         22
    86         21
    87          7
    89        189
    90        195
    91        300
    92         26
    93          2
    96          0
    97          3
    98          7
    99         25
   100         11
   101         10
   102         25
   103         15
   104         45
   105         55
   106         13
   107          4
   108          1
   109          4
   111          9
   112          1
   114          2
   116         97
   117        342
   118        294
   119        148
   120         20
   121          1
   126          0
   128          4
   129         73
   130         27
   131         13
   132         12
   133          3
   134          4
   135          4
   136          0
   142          2
   143          6
   144         26
   145         15
   146         15
   147         42
   148         11
   149          3
   156          2
   157          1
   158          6
   159         22
   160         12
   161         12
   162         10
   163         16
   164         29
   165          3
   172          6
   173         12
   174          5
   175         16
   176         14
   177          1
   185          5
   186          6
   187         53
   188         21
   189         13
   190          7
   191          0
   199          7
   200         15
   201         38
   202         10
   203         17
   204          3
   205          1
   206          0
   219         24
   220        215
   221         31
   222          1
   226          0
   227          0
   232          0
   243          2
   244         31
   245          4
   261         15
   262         87
   263         13
   264          2