##TITLE=Library Entry 1935
##JCAMP-DX=Revision 4.10 
##DATA TYPE=MASS SPECTRUM
##SAMPLE DESCRIPTION=A.A.Kutin, Moscow, Russia
##NAMES=HP
##CAS NAME=Pyridine-3-carbonitrile, 1,6-dihydro-4-methyl-6-oxo-2-(2-propynyl
thio)-
##MOLFORM=C10H8N2OS
##CAS REGISTRY NO=309732-19-2
##MP= -300
##BP= -300
##MW= 204
##$RETENTION INDEX=0
##$CONDENSED SPECTRUM=NO
##NPOINTS= 130
##XYDATA=(XY..XY) 1 
    37         92
    39        999
    40         58
    41         49
    42         30
    43         22
    45        300
    46         17
    47         12
    48          3
    51        310
    52        156
    53         58
    54         22
    55         11
    56          7
    57         16
    58         28
    59         34
    60         15
    61          8
    63         94
    64         72
    65         30
    66         66
    67         47
    69        152
    70         98
    71        217
    72        102
    73         15
    75         44
    76         71
    78        345
    79         63
    80         15
    81          8
    82         28
    83         54
    84         16
    86         54
    87          5
    88         11
    89         30
    90         31
    91         28
    92         22
    93         27
    94         41
    95         16
    96         14
    97          4
    98          2
    99          3
   101          0
   102          4
   103         14
   104         21
   105         67
   106         32
   107         22
   108         11
   109         13
   110         99
   111         11
   112          6
   113          4
   114          7
   115         10
   116         55
   117         31
   118         12
   119          4
   120          6
   121         30
   122         21
   123          6
   124          7
   125          1
   129          5
   130          3
   131         25
   132         27
   133         27
   134         34
   135         26
   136         48
   137         46
   138         50
   139          5
   140          1
   141          6
   142         44
   143        128
   144         15
   145          2
   146          3
   147          4
   148         25
   149         36
   150         28
   151          5
   152          0
   159         15
   160          6
   161         31
   162          5
   163          8
   164         10
   165         23
   166          8
   167          0
   170          0
   171         82
   172         13
   173          2
   174          9
   175        428
   176        586
   177         86
   178         44
   179          3
   185          6
   186         13
   187          2
   189          7
   203        173
   204        400
   205         56
   206         17