##TITLE=Library Entry 73194
##JCAMP-DX=Revision 4.10 
##DATA TYPE=MASS SPECTRUM
##SAMPLE DESCRIPTION=A.A.Kutin, Moscow, Russia
##NAMES=HP
##CAS NAME=Acetamide, 2-[3-cyano-4-trifluoromethyl-6-(2-thienyl)-2-pyridylth
io]-N,N-diethyl-
##MOLFORM=C17H16F3N3OS2
##CAS REGISTRY NO=309741-21-7
##MP= -300
##BP= -300
##MW= 399
##$RETENTION INDEX=0
##$CONDENSED SPECTRUM=NO
##NPOINTS= 229
##XYDATA=(XY..XY) 1 
    33          2
    34          1
    37          0
    38          3
    39         21
    40         10
    41         21
    42         94
    43         57
    44        253
    45         85
    46         13
    47          8
    48          1
    50          2
    51          3
    52          1
    53          1
    54          4
    55          5
    56         65
    57         27
    58         97
    59          5
    60          2
    61          1
    62          2
    63          8
    64          4
    65          1
    66          1
    69         28
    70         33
    71         75
    72        620
    73         30
    74         10
    75          5
    76          3
    77          1
    78          0
    80          1
    81          3
    82          9
    83          4
    84          6
    85         90
    86         31
    87          4
    88          3
    89          2
    90          1
    91          0
    92          0
    93          3
    94          3
    95          2
    96         23
    97          4
   100        999
   101         51
   102          4
   103          1
   104          2
   105          1
   106          2
   107          5
   108         11
   109          4
   110          2
   111          2
   113        157
   114        244
   115         16
   116          1
   117          0
   118          6
   119          1
   120          2
   121          1
   122          0
   123          1
   124          1
   125          1
   126          2
   127          1
   128          1
   129          5
   130          2
   131          2
   132          7
   133          4
   134          7
   136          1
   137          1
   138          0
   139          4
   140          2
   141          1
   142          1
   143          1
   144          2
   145          3
   146          7
   147          1
   150          5
   151          2
   152          1
   156          4
   157         12
   158          6
   159          4
   160          1
   162          1
   163          1
   164          2
   165          0
   169          1
   170          2
   171          3
   172          3
   173          0
   175          1
   176          3
   177          3
   178          2
   181          1
   182          2
   183          7
   184         12
   185         10
   186          2
   187          0
   188          2
   189          4
   190          1
   191          2
   192          1
   194          0
   195          1
   196          0
   197          3
   198          0
   200          3
   201          2
   202          2
   203          2
   204          0
   205          0
   206          2
   207          1
   208          6
   209          4
   210          1
   213          1
   214          2
   215          2
   216          3
   217          0
   220          0
   221          1
   222          1
   223          1
   226          4
   227          3
   228          2
   229          2
   230          4
   231          1
   232          0
   233         20
   234          4
   235          2
   238          0
   240          2
   241          3
   242          4
   245          0
   246          0
   247          1
   252          2
   253          8
   254          5
   255         11
   256          1
   258          0
   259          3
   260          0
   265          4
   266          4
   267          2
   268          0
   272          1
   273          0
   279          4
   280          2
   281          1
   282         45
   283          7
   284          3
   285          5
   286         21
   287          5
   288          2
   295          6
   296          1
   297          4
   298          8
   299         47
   300         22
   301          7
   302          2
   309          0
   311          0
   324          1
   325          0
   326          6
   327         10
   328          2
   329          1
   366          9
   367          1
   380          3
   381          0
   384          0
   399         38
   400          8
   401          4
   402          0