##TITLE=Library Entry 109321
##JCAMP-DX=Revision 4.10 
##DATA TYPE=MASS SPECTRUM
##SAMPLE DESCRIPTION=A.A.Kutin, Moscow, Russia
##NAMES=HP
##CAS NAME=4H-Pyrazolo[3,4-d]pyrimidin-4-one, 1,5-dihydro-1-phenyl-5-[2-(1-p
iperidyl)-2-oxoethyl]-
##MOLFORM=C18H19N5O2
##CAS REGISTRY NO=309735-28-2
##MP= -300
##BP= -300
##MW= 337
##$RETENTION INDEX=0
##$CONDENSED SPECTRUM=NO
##NPOINTS= 130
##XYDATA=(XY..XY) 1 
    33          0
    34          4
    37          0
    38          6
    39         39
    40         95
    41        339
    42        162
    43         86
    44        185
    45          9
    50         10
    51         59
    52         19
    53         14
    54         19
    55        103
    56        122
    57         33
    58         17
    59          3
    60          1
    62          1
    63          9
    64         12
    65         16
    66          5
    67         23
    69        353
    70         51
    71         16
    72         18
    73        160
    74          6
    75          3
    76         16
    77        188
    78         20
    79          5
    80          7
    81          6
    82         30
    83        282
    84        278
    85         26
    86          5
    88          3
    89         15
    90         10
    91         21
    92          7
    93          5
    94          0
    95          7
    97        862
    98         83
    99          5
   101          1
   102         11
   103         12
   104         10
   105          6
   106          2
   108          1
   109          2
   110          3
   112        221
   113         23
   114         17
   115         13
   116         24
   117          7
   118          8
   119          9
   120          5
   121          2
   122          0
   125        999
   126         79
   127          6
   128          4
   129         12
   130          3
   131          4
   132          3
   133          3
   134          1
   136          1
   141         35
   142         18
   143         36
   144         11
   145          4
   146          0
   147          0
   148          1
   149          4
   150          0
   151          0
   152          0
   155          2
   156          5
   157          3
   158          0
   168         41
   169         29
   170         10
   171         10
   182          0
   184          6
   185          0
   194          1
   195         34
   196        115
   197         19
   198          6
   211          4
   212         16
   213          3
   223          4
   225        127
   226         35
   227          2
   252         29
   253         55
   254          6
   335          0
   336          3
   337         81
   338         15