##TITLE=Library Entry 76014
##JCAMP-DX=Revision 4.10 
##DATA TYPE=MASS SPECTRUM
##SAMPLE DESCRIPTION=Chemical Concepts
##NAMES=HP
##CAS NAME=Octanoic acid, 2-methyl-, ethyl ester
##MOLFORM=C11H22O2
##CAS REGISTRY NO=30982-02-6
##MP= -300
##BP= -300
##MW= 186
##$RETENTION INDEX=1225
##$CONDENSED SPECTRUM=NO
##NPOINTS= 90
##XYDATA=(XY..XY) 1 
    26         12
    27        187
    29        401
    30         11
    31          2
    33          0
    34          0
    36          0
    38          2
    39         84
    40          6
    41        361
    42        102
    43        366
    44          4
    45         68
    46          3
    47          3
    50          2
    51          4
    52          3
    53         23
    54          7
    55        187
    56         98
    57        394
    58         20
    59         19
    60         50
    61         48
    65          3
    66          3
    67         12
    68         13
    69        101
    70         75
    71        249
    72         13
    73         77
    74        491
    75         45
    76          2
    77          1
    78          0
    79          3
    80          3
    81          5
    82          4
    83         44
    84         19
    85         21
    86          2
    87        152
    88        183
    89         31
    95          1
    97         21
    98         31
    99          7
   100          1
   101         61
   102        999
   103         60
   104          6
   111         12
   112          8
   113         39
   114          5
   115        181
   116         16
   125          2
   127          1
   129         78
   130          5
   136          0
   139          2
   140          2
   141         94
   142          7
   143         33
   144          3
   155          1
   157         30
   158          3
   159          2
   171          3
   172          0
   173          0
   186         10
   187          0