##TITLE=Library Entry 22814
##JCAMP-DX=Revision 4.10 
##DATA TYPE=MASS SPECTRUM
##SAMPLE DESCRIPTION=Insect Chem. Ecol. Lab., USDA, Beltsville, MD 20705
##NAMES=HP
##CAS NAME=Nonanoic acid, 2-methylpropyl ester
##MOLFORM=C13H26O2
##CAS REGISTRY NO=30982-03-7
##MP= -300
##BP= -300
##MW= 214
##$RETENTION INDEX=1446
##$CONDENSED SPECTRUM=NO
##NPOINTS= 117
##XYDATA=(XY..XY) 1 
    41        398
    42        111
    43        345
    45         23
    47          0
    50          0
    51          2
    52          1
    53         20
    54          9
    55        247
    56        999
    57        293
    58         29
    60        203
    61         48
    62          1
    63          0
    65          2
    66          0
    67         26
    68         17
    69         63
    70         25
    71        127
    73        124
    74         13
    75          2
    77          2
    78          0
    79          5
    80          2
    81         27
    82          4
    83         29
    84         28
    85         12
    86         10
    87         36
    88          0
    89         12
    91          1
    93          3
    94          2
    95          6
    96         12
    97         26
    98         33
    99          7
   100          0
   101         26
   102          3
   103          7
   104          0
   105          0
   107          1
   108          0
   109          2
   110          1
   111          5
   112          9
   113          7
   114          1
   115         57
   116         74
   117         14
   118          0
   119          0
   120          0
   121          4
   122          3
   123          9
   124          0
   125          4
   127         37
   129         59
   130          5
   131          3
   132          0
   135          0
   137          0
   138          5
   139         13
   141        521
   142         50
   143          7
   144          5
   145         30
   146          2
   147          0
   153          0
   155          7
   156          1
   157         17
   158        126
   159        502
   160         45
   161          4
   169          0
   170          0
   171          6
   172          2
   173          7
   174          0
   175          0
   178          1
   184          0
   185         11
   186          3
   187          0
   199         11
   200          1
   212          2
   213         27
   214        131
   215         18
   216          2