##TITLE=Library Entry 28908
##JCAMP-DX=Revision 4.10 
##DATA TYPE=MASS SPECTRUM
##SAMPLE DESCRIPTION=A.A.Kutin, Moscow, Russia
##NAMES=HP
##CAS NAME=Pyrrol-2(5H)-one, 4-benzoyl-5-(3-fluorophenyl)-2-hydroxy-1-(2-dim
ethylaminoethyl)-
##MOLFORM=C21H21FN2O3
##CAS REGISTRY NO=309923-66-8
##MP= -300
##BP= -300
##MW= 368
##$RETENTION INDEX=0
##$CONDENSED SPECTRUM=NO
##NPOINTS= 106
##XYDATA=(XY..XY) 1 
    33          1
    36          0
    39          2
    40          5
    42         64
    43         21
    44         16
    45          2
    50          4
    51         21
    52          2
    53          3
    54          1
    56         27
    58        999
    59         30
    60          0
    62          0
    63          1
    65          0
    68          0
    69          4
    71         81
    72          7
    74          2
    75          6
    77        106
    78          9
    79          1
    80          0
    81          0
    82          1
    83          2
    84          0
    85          2
    86          0
    89          2
    90          0
    91          4
    92          0
    94          2
    95          6
    96          2
    97          0
    98          0
    99          1
   101         10
   102          4
   103          2
   105        128
   106          7
   107          2
   109         10
   110          0
   113          1
   115          2
   116          1
   117          0
   118          0
   120         11
   121          4
   122          3
   123          1
   128          0
   129          1
   130          2
   131          3
   132          0
   133          1
   134          0
   135          1
   136          1
   144          0
   145          1
   147          8
   148          5
   149          4
   150          1
   151          0
   152          0
   157          0
   158          0
   165          0
   170          2
   171          1
   175          1
   176          4
   177          2
   178          1
   183          2
   185          1
   194          0
   196          7
   197          5
   198          0
   201          1
   202          1
   205          0
   207          1
   209          1
   225          3
   226          1
   253          3
   368         31
   369          5
   370          0