##TITLE=Library Entry 87794
##JCAMP-DX=Revision 4.10 
##DATA TYPE=MASS SPECTRUM
##SAMPLE DESCRIPTION=A.A.Kutin, Moscow, Russia
##NAMES=HP
##CAS NAME=4H-Chromen-4-one, 3-(2-thenoyl)-
##MOLFORM=C14H8O3S
##CAS REGISTRY NO=309923-44-2
##MP= -300
##BP= -300
##MW= 256
##$RETENTION INDEX=0
##$CONDENSED SPECTRUM=NO
##NPOINTS= 135
##XYDATA=(XY..XY) 1 
    33         26
    34         72
    36          7
    37         27
    38        100
    39        697
    40         61
    41        172
    42         74
    43        208
    44         87
    45        112
    46          5
    48         24
    49          6
    50        112
    51         94
    53        359
    54         29
    55        122
    56        124
    57        213
    58         33
    59          9
    60         51
    61         24
    62         76
    63        229
    64        146
    65        116
    66         21
    67         27
    68         20
    69        119
    70         75
    71        120
    72         16
    73         42
    74         55
    75         66
    76         69
    77         83
    78         19
    79         19
    81         53
    82         83
    83        211
    84         90
    85         31
    86         14
    87         14
    88         19
    89         93
    90         21
    91         67
    92        200
    93         89
    94         11
    95         13
    96         16
    97         18
    98         31
    99         13
   100          7
   101         37
   102         22
   103         18
   104         21
   105         28
   106          7
   108        161
   109         26
   111        999
   112        118
   113         68
   114          6
   115          7
   117         17
   118         24
   119         43
   120        526
   121        450
   122         39
   123          9
   125          7
   126         25
   128        119
   129         36
   130          5
   131         10
   135         18
   136         13
   137          2
   139          7
   140          3
   141         16
   143          3
   144          3
   145         27
   146          6
   149         23
   150          3
   151          2
   152         25
   153          8
   155          2
   157         12
   165          5
   167          4
   168         24
   169          1
   171        145
   172         44
   173        233
   174         30
   184          6
   193          2
   194          7
   195          9
   199         11
   200        118
   201         14
   202         11
   211          5
   225         22
   226         30
   227        261
   228        363
   229         60
   230         12
   252          4
   255         78
   256        455
   257         72
   258         21