##TITLE=Library Entry 56292
##JCAMP-DX=Revision 4.10 
##DATA TYPE=MASS SPECTRUM
##SAMPLE DESCRIPTION=Patti Price, Georgia Bureau of Investigation, Decatur,
 Georgia
##NAMES=HP
##CAS NAME=Nicametate
##MOLFORM=C12H18N2O2
##CAS REGISTRY NO=3099-52-3
##MP= -300
##BP= -300
##MW= 222
##$RETENTION INDEX=1628
##$CONDENSED SPECTRUM=NO
##NPOINTS= 26
##XYDATA=(XY..XY) 1 
    44         16
    50         27
    51         91
    56         39
    57         15
    58         74
    68          1
    69          3
    70         13
    71         22
    78        130
    82          3
    84         20
    85          4
    86        999
    87         58
    98          3
    99         47
   105          4
   106         86
   115          3
   123          5
   150         72
   207          8
   208          2
   222          6