##TITLE=Library Entry 71212
##JCAMP-DX=Revision 4.10 
##DATA TYPE=MASS SPECTRUM
##SAMPLE DESCRIPTION=A.A.Kutin, Moscow, Russia
##NAMES=HP
##CAS NAME=Benzofurane-2-carboxamide, 3-[3-(1-piperidyl)-1-oxopropylamino]-
##MOLFORM=C17H21N3O3
##CAS REGISTRY NO=309921-31-1
##MP= -300
##BP= -300
##MW= 315
##$RETENTION INDEX=0
##$CONDENSED SPECTRUM=NO
##NPOINTS= 143
##XYDATA=(XY..XY) 1 
    34          1
    36          0
    38          0
    39          8
    40         31
    41         60
    42         76
    43         17
    44         54
    45          4
    46          0
    50          4
    51          5
    52          2
    53          4
    54          9
    55         86
    56         26
    57         10
    58          2
    60          0
    62          0
    63          1
    64          0
    65          2
    66          0
    67          4
    68         10
    69         25
    70         26
    71          2
    72          0
    73          5
    74          1
    75          3
    76         11
    77         16
    78          2
    79          1
    80          2
    81          1
    82         10
    83         26
    84        238
    85         34
    86          6
    87          0
    88          0
    89          1
    90          0
    91          1
    92          0
    93          1
    94          2
    95          3
    96         71
    97         58
    98        999
    99         72
   100          1
   101          0
   102         11
   103         17
   104         10
   105          2
   106          0
   108          0
   109          0
   110          8
   111         26
   112         17
   113          3
   114          0
   115          0
   116          2
   117          0
   118          0
   119          0
   120          4
   121          0
   122          0
   123          0
   124          0
   128          0
   129          1
   130          5
   131          0
   132          3
   133          0
   134          0
   135          0
   136          0
   137          0
   138         11
   139          9
   140          4
   141          0
   143          0
   144          0
   145          0
   146          1
   147          3
   148          1
   149          1
   153          0
   154          0
   157          1
   158          1
   159          9
   160          9
   161          1
   170          0
   171          0
   172          9
   173          1
   174          0
   176         30
   177          4
   178          0
   180          0
   182          0
   184          0
   185          1
   186         12
   187          3
   188          0
   189          2
   190          0
   202          0
   203          0
   213          1
   214          1
   215          0
   230          2
   231          0
   266          0
   267          0
   271          3
   272          0
   314          0
   315         35
   316          6
   317          0