##TITLE=Library Entry 80018
##JCAMP-DX=Revision 4.10 
##DATA TYPE=MASS SPECTRUM
##SAMPLE DESCRIPTION=A.A.Kutin, Moscow, Russia
##NAMES=HP
##CAS NAME=Oxazol-5(4H)-one, 4-(2-chlorophenylamino)methylene-2-phenyl-
##MOLFORM=C16H11ClN2O2
##CAS REGISTRY NO=309936-95-6
##MP= -300
##BP= -300
##MW= 298
##$RETENTION INDEX=0
##$CONDENSED SPECTRUM=NO
##NPOINTS= 142
##XYDATA=(XY..XY) 1 
    36          0
    37          1
    38          5
    39         21
    40          4
    41          2
    42          0
    43          1
    44          1
    45          2
    47          0
    51        195
    52         12
    53          5
    54          0
    55          0
    56          0
    57          1
    61          2
    63         39
    64          6
    65          4
    66          0
    68          0
    69          1
    70          0
    71          0
    73          6
    75        109
    77        562
    78         21
    79          0
    80          0
    81          0
    82          0
    84          2
    85          8
    87          7
    89         28
    90          6
    91          6
    92          1
    93          0
    94          0
    96          0
    97          0
    99          6
   100          3
   102         51
   103         19
   105        999
   106         53
   107          3
   108          0
   109          1
   111         46
   113         18
   114          5
   115          6
   116          6
   117          1
   118          0
   123          1
   124          3
   125          0
   126          1
   127          2
   128          4
   129          4
   130          3
   131          1
   132          0
   133          0
   135          0
   138         46
   140         17
   141          1
   143          0
   145          0
   149         10
   150          4
   151          9
   152          1
   153          2
   154          0
   161          0
   163          1
   165         28
   167         10
   168          0
   171          0
   177          2
   178          1
   179          0
   180          0
   187          0
   190          1
   191          0
   192          0
   205          0
   206          0
   207          1
   208          0
   213          0
   214          5
   215          3
   217          0
   218          2
   219          4
   220          0
   227          0
   229          0
   233          0
   234          1
   235          3
   236          0
   243          0
   245         14
   246          2
   247          0
   253         30
   254         11
   255         10
   256          3
   257          0
   262          0
   263         31
   264          5
   265          0
   278          4
   279          3
   280          0
   281          0
   284          0
   292          0
   294          0
   295          0
   298        273
   299         47
   300         84
   301         15
   302          1