##TITLE=Library Entry 39440
##JCAMP-DX=Revision 4.10 
##DATA TYPE=MASS SPECTRUM
##SAMPLE DESCRIPTION=A.A.Kutin, Moscow, Russia
##NAMES=HP
##CAS NAME=Acetamide, 2-(1H-purin-6-ylthio)-N-[(tetrahydro-2-furanyl)methyl]
-
##MOLFORM=C12H15N5O2S
##CAS REGISTRY NO=309923-62-4
##MP= -300
##BP= -300
##MW= 293
##$RETENTION INDEX=0
##$CONDENSED SPECTRUM=NO
##NPOINTS= 192
##XYDATA=(XY..XY) 1 
    33          4
    34          7
    36          3
    37          2
    38         34
    39        120
    40         80
    41        341
    42        183
    43        821
    44         80
    45         93
    46         36
    47         26
    48          4
    49          1
    50          3
    51         11
    52         16
    53         57
    54         34
    55         77
    56         83
    57         45
    58         27
    59         14
    60         24
    61          1
    62          1
    63          3
    64         15
    65         88
    66        109
    67         78
    68         22
    69         27
    70        138
    71        999
    72         72
    74          6
    75          2
    76          5
    77         16
    78          4
    79          9
    80         14
    81         10
    82         34
    83         48
    84        247
    85         42
    86          6
    87          2
    88          1
    89          2
    90          2
    91         13
    92        105
    93        142
    94         36
    95          5
    96         12
    97         95
    98         31
    99         15
   100         18
   101          5
   102          6
   103          5
   104          6
   105          7
   106         23
   107          3
   108          4
   109         10
   110         14
   111         25
   112         13
   113          9
   114          6
   115          2
   116          1
   117          3
   119        300
   120        146
   121         82
   122          7
   124         36
   125         92
   126         14
   127          6
   128          4
   129          2
   130          1
   131          1
   132          2
   133          6
   134         17
   135          4
   136         28
   137         27
   138         54
   139         15
   141        848
   142         84
   143          8
   144          1
   145          0
   146          0
   147          3
   148          9
   149          6
   150         17
   152        384
   153        959
   154         87
   155         44
   156          5
   157          3
   158          0
   159          0
   160          0
   161          7
   162          6
   163          7
   164         47
   165        495
   166        306
   167         50
   168         15
   169          1
   170          0
   171          7
   172          0
   173          0
   174          0
   175          0
   176          1
   177          1
   178          2
   179          1
   180          1
   181          1
   182          0
   183          1
   185          0
   189          1
   190          6
   191         11
   192         61
   193        647
   194         69
   195         31
   196          2
   204          0
   207          0
   208          2
   209         11
   210        127
   211         14
   212          6
   213          0
   218          2
   219          4
   220          8
   221          3
   222         11
   223        159
   224         21
   225          9
   226          0
   233          4
   234          1
   235          7
   236          1
   237          0
   238          1
   250         19
   251          3
   252         12
   253          2
   254          0
   260          0
   261          1
   264          1
   265          9
   266          4
   267          1
   283          0
   292          1
   293          8
   294          1