##TITLE=Library Entry 65479
##JCAMP-DX=Revision 4.10 
##DATA TYPE=MASS SPECTRUM
##SAMPLE DESCRIPTION=Japan AIST/NIMC Database- Spectrum MS-NW-6857
##NAMES=HP
##CAS NAME=3-(Chloromethyl)pyridine
##MOLFORM=C6H6ClN
##CAS REGISTRY NO=3099-31-8
##MP= -300
##BP= -300
##MW= 127
##$RETENTION INDEX=0
##$CONDENSED SPECTRUM=NO
##NPOINTS= 43
##XYDATA=(XY..XY) 1 
    25          3
    26         12
    27          9
    28          5
    39        164
    40         10
    41          6
    44          3
    45         14
    46          4
    48          2
    49          9
    50         15
    51         21
    52         11
    53          2
    54          2
    60          2
    61         12
    62         25
    63         70
    64         44
    65        342
    66         20
    67          2
    73         15
    74          2
    75          6
    76          1
    78          4
    90          5
    91         17
    92        999
    93         72
    94          3
    99          9
   100          2
   101          4
   126         10
   127        437
   128         36
   129        146
   130          9