##TITLE=Library Entry 51000
##JCAMP-DX=Revision 4.10 
##DATA TYPE=MASS SPECTRUM
##SAMPLE DESCRIPTION=A.A.Kutin, Moscow, Russia
##NAMES=HP
##CAS NAME=1,3,5-Triazine-2,4-diamine, 6-chloro-N-(2-furfuryl)-N'-(3,4-methy
lenedioxyphenyl)-
##MOLFORM=C15H12ClN5O3
##CAS REGISTRY NO=309922-74-5
##MP= -300
##BP= -300
##MW= 345
##$RETENTION INDEX=0
##$CONDENSED SPECTRUM=NO
##NPOINTS= 230
##XYDATA=(XY..XY) 1 
    35          2
    36         13
    37          4
    38         20
    39         59
    40         36
    41         36
    42         11
    43         21
    44         11
    45          1
    50         26
    51         81
    52         78
    53        314
    54         24
    55         33
    56          3
    57          7
    60          2
    61          3
    62         48
    63         43
    64         25
    65         53
    66         27
    67         29
    68         79
    69         32
    70          5
    71          6
    73          2
    74          1
    75          4
    76         18
    77         75
    78         75
    79         46
    80         55
    81        999
    82         62
    83          8
    84          3
    85          1
    87         23
    88          4
    89         11
    90         10
    91         25
    92         18
    93         50
    94         30
    95         30
    96        198
    97         15
    98          3
    99          1
   100          1
   101          1
   102          4
   103         20
   104         31
   105         45
   106         49
   107         11
   108          8
   109          8
   110          1
   111          2
   112          6
   113          6
   114          4
   115          7
   116          4
   117         13
   118         12
   119         26
   120         41
   121        124
   122         23
   123          4
   125          2
   126          4
   127         10
   128          7
   129         13
   130         22
   131         19
   132         19
   133         24
   134         26
   135         20
   136         72
   137         37
   138          5
   139          4
   140          4
   141          7
   142          3
   144         32
   145         18
   146         79
   147         59
   148         48
   149         11
   150          3
   151          1
   152          2
   153          1
   154          3
   155          6
   156          6
   157         14
   158         40
   160         22
   161        126
   162        259
   163         61
   164         14
   165          2
   166          3
   167          5
   168          2
   169          1
   170          5
   171         10
   172         28
   173         34
   174          5
   175          5
   176          1
   180          3
   181          5
   182         12
   183          8
   184          7
   185          3
   186         24
   187         45
   188        116
   189         23
   190          5
   191          1
   192          2
   194          4
   195          3
   196          4
   197          2
   198          5
   199          3
   200          7
   201          8
   202          2
   203          2
   206          1
   207          1
   208          2
   209          5
   210          1
   211          2
   212          1
   213          8
   214         22
   215          7
   216          2
   220          2
   221          1
   222          3
   223          8
   224         38
   225          9
   226         12
   227          3
   228          5
   229          5
   230          3
   234          1
   236          1
   238          4
   239          3
   240          6
   241          4
   242          1
   249          8
   250          6
   251          5
   252         14
   253          8
   254          7
   255          7
   256          1
   264          5
   265         12
   266          9
   267          5
   268          4
   276          1
   277          4
   278          3
   279          2
   280         28
   281         10
   282         14
   283          5
   286          5
   288          4
   289          1
   290         12
   291          4
   292          7
   293         17
   294          2
   302          2
   308          9
   309          9
   310        141
   311         28
   312          3
   314          1
   316         52
   317         11
   318         18
   319          2
   328          5
   344         10
   345        343
   346         63
   347        113
   348         19
   349          1