##TITLE=Library Entry 86327
##JCAMP-DX=Revision 4.10 
##DATA TYPE=MASS SPECTRUM
##SAMPLE DESCRIPTION=A.A.Kutin, Moscow, Russia
##NAMES=HP
##CAS NAME=4H-1,2,4-Triiazol-4-amine, 3-(2-fluorobenzylthio)-5-phenyl-
##MOLFORM=C15H13FN4S
##CAS REGISTRY NO=309921-37-7
##MP= -300
##BP= -300
##MW= 300
##$RETENTION INDEX=0
##$CONDENSED SPECTRUM=NO
##NPOINTS= 181
##XYDATA=(XY..XY) 1 
    33          2
    34          0
    36          1
    37          1
    38          6
    39         33
    40         23
    41          4
    42          2
    43         16
    44         20
    45         35
    46          5
    47          2
    49          0
    50         27
    51         60
    52         14
    53          2
    54          0
    55          5
    56          6
    57         38
    58          4
    59         17
    60         36
    61          4
    62         15
    63         45
    64         10
    65          7
    67          0
    68          1
    69          6
    70          9
    71          3
    72          1
    73          1
    74         24
    75         22
    76         75
    77        218
    78         18
    79          1
    80          1
    81         13
    82          6
    83        158
    84         10
    85          2
    86          3
    87          4
    88          4
    89         27
    90          5
    91          8
    92          3
    93          2
    95         13
    96          8
    97          8
    98          0
    99          0
   100          1
   101         15
   102        133
   103        175
   104        135
   105         28
   106          3
   107         40
   108         17
   109        999
   110         81
   111          8
   112          1
   113          0
   114          1
   115          0
   116          0
   117          1
   118          9
   119         27
   120          5
   121         23
   122         49
   124        694
   125         54
   126          3
   127          1
   128          1
   129          1
   130          0
   131          1
   132          1
   133          1
   134          8
   135         14
   136          3
   137          4
   138          5
   139         37
   140          6
   141         15
   142          2
   143          1
   144          0
   145          0
   146         17
   147         10
   148          3
   149          4
   150          1
   151          0
   152         19
   153          5
   154          1
   155          0
   160          0
   161         26
   162          2
   163          1
   164          3
   165          0
   166         38
   167          5
   168          2
   169          0
   171          2
   173         11
   174          1
   177          1
   178          2
   179          1
   180          8
   181          2
   183          1
   188          1
   190          2
   191          3
   192         32
   193          3
   194          1
   196         68
   197         13
   198          6
   199          1
   205          2
   211          1
   212          0
   222         23
   223          3
   224          0
   225          6
   226          1
   240          2
   241          0
   247          3
   251          3
   252          3
   253          1
   254          2
   255          2
   256          0
   264          3
   265          0
   267          6
   268          1
   269          1
   280          2
   281         12
   282          5
   283         15
   284         18
   285          8
   286          1
   299          6
   300        362
   301         68
   302         21
   303          2