##TITLE=Library Entry 79109
##JCAMP-DX=Revision 4.10 
##DATA TYPE=MASS SPECTRUM
##SAMPLE DESCRIPTION=A.A.Kutin, Moscow, Russia
##NAMES=HP
##CAS NAME=Benzamide, N-hydroxy-N-(2-hydroxy-3-phenoxypropyl)-
##MOLFORM=C16H17NO4
##CAS REGISTRY NO=309921-11-7
##MP= -300
##BP= -300
##MW= 287
##$RETENTION INDEX=0
##$CONDENSED SPECTRUM=NO
##NPOINTS= 132
##XYDATA=(XY..XY) 1 
    33          0
    34          1
    35          0
    36          3
    37          1
    38          4
    39         20
    40         32
    41          6
    42          2
    43         12
    44         17
    45          2
    46         12
    47          0
    48          0
    50         14
    51         61
    52          5
    53          2
    54          0
    55          5
    56          4
    57          7
    58          1
    59          0
    60          0
    61          0
    62          1
    63          5
    64          4
    65         21
    66         10
    67          1
    68          0
    69          1
    70          1
    71         15
    72          7
    73          1
    74          3
    75          3
    76         13
    77        297
    78         26
    79         11
    80          0
    81          0
    82          0
    83          0
    84          0
    85          0
    88          0
    89          1
    90          0
    91         14
    92          2
    93          5
    94         63
    95          7
    96          0
    97          0
   102          0
   103          2
   105        999
   106         81
   107         22
   108          5
   109          0
   110          0
   111          0
   115          0
   116          0
   117          1
   118          1
   119          9
   120          3
   121          5
   122          3
   123          1
   129          0
   130          1
   131          0
   133         33
   134         15
   135          5
   136          4
   137          1
   138          0
   139          0
   141          0
   146          3
   147          0
   148          3
   149          1
   150          6
   151          0
   152          0
   153          0
   158          0
   159          0
   160          5
   161          0
   162          0
   163          0
   164          2
   165          0
   174          4
   175          3
   176         67
   177          8
   178          7
   179          1
   180          6
   181          0
   183          0
   192          0
   193          3
   194         27
   195          3
   197          0
   198          1
   199          0
   211          0
   252          2
   253          2
   254          0
   268          0
   269          2
   270          0
   287          5
   288          0