##TITLE=Library Entry 56530
##JCAMP-DX=Revision 4.10 
##DATA TYPE=MASS SPECTRUM
##SAMPLE DESCRIPTION=Institute of Organic Chemistry, USSR, 1990
##NAMES=HP
##CAS NAME=9-[4-(4'-Chlorophenyl)-semicarbazono]-2,7-bis-[2-(diethylamino)-e
thoxy]fluorene
##MOLFORM=C32H40ClN5O3
##CAS REGISTRY NO=309944-77-2
##MP= -300
##BP= -300
##MW= 577
##$RETENTION INDEX=0
##$CONDENSED SPECTRUM=NO
##NPOINTS= 127
##XYDATA=(XY..XY) 1 
    55         52
    56         56
    57        144
    58         60
    59          5
    63         18
    64         14
    65         40
    66          5
    67         20
    68          8
    69         44
    70         60
    71        104
    72         44
    73         10
    74          4
    81         25
    82         21
    83        140
    84         36
    85         92
    86        999
    87         76
    88          4
    89          9
    90         22
    91         14
    92         29
    93         10
    94         10
    95         25
    96         13
    97         52
    98         17
    99         30
   100        400
   101         44
   102          7
   109         21
   110          9
   111         40
   112         14
   113         29
   114          7
   115          3
   125         24
   126          9
   127        140
   128         12
   129         52
   130          4
   137          9
   138          5
   139         12
   140          4
   141          9
   142          2
   149         88
   150         15
   151          9
   152          4
   153         72
   154          6
   155         23
   156          3
   165          9
   166          3
   167         40
   168          5
   169          6
   170          2
   178         10
   179          4
   180          2
   181          4
   182          3
   183          6
   184          2
   185          3
   186          6
   187          1
   193          4
   194          3
   195          4
   196          2
   197          4
   198          2
   207          4
   208          4
   209          3
   210          3
   211          3
   212          2
   221          2
   222          2
   223          5
   224          3
   225          4
   226          2
   237          4
   238          2
   239          2
   240          4
   262          5
   263          3
   264          2
   265          2
   279          9
   280          4
   281          1
   291          3
   292          2
   396          6
   397          2
   408          3
   409         13
   410         12
   411          2
   425          4
   426         21
   427          6
   439          3
   452          2
   453          2
   454          5
   455          2