##TITLE=Library Entry 39493
##JCAMP-DX=Revision 4.10 
##DATA TYPE=MASS SPECTRUM
##SAMPLE DESCRIPTION=A.A.Kutin, Moscow, Russia
##NAMES=HP
##CAS NAME=Pyrrolidine-3-carboxamide, 1-(4-bromophenyl)-N-tetrahydrofurfuryl
-5-oxo-
##MOLFORM=C16H19BrN2O3
##CAS REGISTRY NO=309921-66-2
##MP= -300
##BP= -300
##MW= 366
##$RETENTION INDEX=0
##$CONDENSED SPECTRUM=NO
##NPOINTS= 215
##XYDATA=(XY..XY) 1 
    34          0
    36          2
    37          1
    38          6
    39         75
    40         49
    41        328
    42         62
    43        356
    44         37
    45          4
    46          0
    48          0
    50         16
    51         17
    52          9
    53         11
    54         19
    55        161
    56         43
    57         19
    58          8
    59          2
    60          2
    61          0
    62          4
    63         22
    64         10
    65          9
    66          3
    67         23
    68         32
    69         20
    70         14
    71        999
    72         52
    73          4
    74          6
    75         29
    76         42
    77         37
    78         12
    79          8
    80         10
    81          7
    82         32
    83         16
    84        140
    85         41
    86          4
    87          1
    88          1
    89          7
    90         33
    91         15
    92          7
    93          3
    94          1
    95          3
    96          8
    97          3
    98         20
    99         16
   100         14
   101          4
   102         43
   103         20
   104         37
   105         49
   106         33
   107          3
   108          1
   109          1
   110          9
   111          8
   112         37
   113         19
   114          6
   115          3
   116          6
   117         25
   118          7
   119          5
   120          1
   122          2
   123          1
   124          3
   125          5
   126         12
   127          3
   128          7
   129         14
   130        141
   131         29
   132         11
   133          2
   134          1
   135          0
   136          3
   137          2
   138          6
   139          3
   140         19
   141          5
   142          2
   143          4
   144          2
   145          8
   146          2
   147          0
   149          2
   150          1
   152          2
   153         11
   154          5
   155         69
   156          8
   157         63
   158         17
   159         49
   160         34
   161          5
   162          0
   163          0
   164          2
   165          1
   166          0
   167          2
   168          3
   169         10
   170          4
   171         31
   172          6
   173         17
   174          1
   176          0
   177          1
   181          5
   182         58
   183        331
   184        426
   185         47
   186        330
   187         28
   188          1
   189          0
   195          1
   197         40
   198          7
   199         35
   200          5
   203          1
   204          4
   205          4
   206          0
   208         25
   209          9
   210         44
   211         10
   212         14
   213          3
   217          0
   218          1
   223          3
   224          4
   225          3
   226          4
   236          1
   237         44
   238        367
   239        112
   240        386
   241         63
   242          6
   243          0
   250          0
   251          0
   252          0
   253          0
   254          0
   255          1
   256          0
   257          1
   264          1
   265          3
   266          6
   267          6
   268          4
   269          0
   281          1
   282         39
   283          9
   284         39
   285          8
   286          0
   287          4
   288          5
   289          0
   294          0
   295          4
   296         50
   297         10
   298         45
   299          6
   323          3
   324          0
   325          3
   326          0
   338          0
   340          0
   366         93
   367         20
   368         96
   369         18
   370          2