##TITLE=Library Entry 109961
##JCAMP-DX=Revision 4.10 
##DATA TYPE=MASS SPECTRUM
##SAMPLE DESCRIPTION=A.A.Kutin, Moscow, Russia
##NAMES=HP
##CAS NAME=Pyrrolidine-2,5-dione, 3-[4-(4-chlorobenzyl)-1-piperazinyl]-
##MOLFORM=C15H18ClN3O2
##CAS REGISTRY NO=309923-33-9
##MP= -300
##BP= -300
##MW= 307
##$RETENTION INDEX=0
##$CONDENSED SPECTRUM=NO
##NPOINTS= 189
##XYDATA=(XY..XY) 1 
    35          2
    36          8
    37          2
    38          7
    39         35
    40         17
    41         85
    42        193
    43         37
    44         59
    45          5
    46          1
    47          0
    49          1
    50         12
    51         19
    52          9
    53         11
    54        108
    55        200
    56        224
    57         40
    58         63
    59          2
    61          2
    62         10
    63         50
    64         12
    65         18
    66          3
    67          6
    68         30
    69         33
    70         40
    71         36
    72         36
    73         17
    74          7
    75         21
    76          5
    77         16
    78          6
    79          1
    80          6
    81         14
    82         43
    83         42
    84         56
    85         19
    86          4
    87          3
    89        164
    90         80
    91         39
    92          4
    93          1
    94          2
    95          4
    96          7
    97         16
    98         25
    99         95
   100          6
   101         15
   102          5
   103          9
   104         10
   105          2
   106          1
   107          2
   108          2
   109          7
   110          8
   111         27
   112          8
   113          5
   114          3
   115          3
   116          4
   117         10
   118         15
   119          5
   120          3
   121         44
   122          9
   123          4
   125        999
   126         79
   127        358
   128         27
   129          2
   130         18
   131          7
   132         19
   133          3
   134          5
   135          1
   136          1
   137          7
   138         40
   139         58
   140         32
   141         29
   142          5
   143          1
   144          2
   145          4
   146          5
   147          2
   149          0
   150          1
   151          6
   152         44
   153        131
   154        144
   155         91
   156         40
   157          4
   158          0
   159          1
   160          0
   164          5
   165         49
   166        100
   167         97
   168         72
   169         38
   170         12
   171          5
   172          0
   173          3
   174          4
   175          5
   176          0
   178          5
   179          3
   180         79
   181         38
   182        602
   183         68
   184          6
   185          0
   187          3
   188          0
   192          2
   193          1
   194         10
   195          4
   196          9
   197          1
   198          0
   206          0
   207          6
   208         11
   209        122
   210         23
   211         38
   212          6
   213          0
   221          0
   234          0
   235          3
   236          1
   237          1
   238          1
   239          0
   245          0
   250          0
   251          0
   259          0
   263          0
   271          5
   272          1
   273          2
   274          0
   277          6
   278          3
   279          5
   280          1
   281          1
   292          0
   303          0
   305          1
   306          5
   307        226
   308         42
   309         75
   310         12
   311          1