##TITLE=Library Entry 78408
##JCAMP-DX=Revision 4.10 
##DATA TYPE=MASS SPECTRUM
##SAMPLE DESCRIPTION=A.A.Kutin, Moscow, Russia
##NAMES=HP
##CAS NAME=Pyrrol-2(5H)-one, 4-benzoyl-5-(3-fluorophenyl)-3-hydroxy-1-(2-met
hoxyethyl)-
##MOLFORM=C20H18FNO4
##CAS REGISTRY NO=309923-64-6
##MP= -300
##BP= -300
##MW= 355
##$RETENTION INDEX=0
##$CONDENSED SPECTRUM=NO
##NPOINTS= 230
##XYDATA=(XY..XY) 1 
    33          4
    38          1
    39         12
    40          7
    41         10
    42         18
    43         33
    45        428
    46          7
    47          0
    51        118
    53         27
    54          2
    55          6
    56         10
    57         10
    58         33
    59         18
    61          1
    62          3
    63         10
    64          2
    65          3
    66          1
    69         24
    70         17
    71          2
    73         14
    74         16
    75         41
    77        448
    78         36
    79          4
    81          5
    83         13
    84          1
    85          1
    87          4
    88          3
    89         12
    90          3
    91          5
    92          1
    93          4
    94         14
    95         17
    96         10
    97          3
    99         15
   101         58
   102         34
   103         12
   105        999
   106         62
   107         16
   109         75
   110          5
   111          1
   112          1
   113          2
   114          2
   115          5
   116          2
   117          2
   118          3
   120         66
   121         23
   122         18
   123          9
   124          3
   125          2
   126          2
   127          1
   128          2
   129          7
   130         22
   131         12
   132          5
   133         11
   134          7
   135          9
   136         12
   137          2
   138          1
   139          2
   140          0
   141          0
   142          1
   144          3
   145          3
   147         47
   148         24
   149         28
   150          9
   151          7
   152          4
   153          3
   155          0
   156          1
   157          4
   158          4
   159          2
   160          1
   162         18
   163          5
   164          6
   165          5
   166          0
   167          0
   168          2
   169          3
   170          9
   171          3
   172          2
   173          4
   174          2
   175          6
   176         21
   177         14
   178         13
   179          5
   180          1
   181          2
   183         18
   185         64
   186         10
   187          2
   188          1
   189          5
   190          5
   191          2
   192          2
   193          1
   194          7
   195          5
   196         42
   197         26
   198          6
   199          3
   200          1
   201         14
   202          2
   203          4
   204          4
   205         10
   206          4
   207         14
   208          4
   209         13
   210          3
   211          3
   212          1
   216          0
   217          3
   218          6
   219         10
   220          3
   221          3
   222         31
   223          8
   224          5
   225         31
   226         37
   227          6
   228          1
   230          0
   231          4
   232          4
   233          1
   234          1
   235          1
   236          1
   237          1
   238          4
   240         58
   241         29
   242          4
   243          0
   244          0
   245          5
   246          5
   247          2
   248          2
   249          2
   250         10
   251          7
   253        325
   254         55
   255         10
   256          1
   260          1
   261          0
   262          0
   264          0
   266          4
   267          2
   268          5
   269          1
   274          1
   275          2
   276          1
   277          2
   278          0
   279          2
   280          1
   281          2
   282          4
   283          1
   284          0
   294          4
   295          1
   296          1
   297         25
   298          7
   299          1
   303          0
   310         10
   311          2
   322          1
   323         16
   324          4
   325          1
   326          1
   327          0
   337          0
   340          2
   355        249
   356         49
   357          6
   358          0