##TITLE=Library Entry 14362
##JCAMP-DX=Revision 4.10 
##DATA TYPE=MASS SPECTRUM
##SAMPLE DESCRIPTION=A.A.Kutin, Moscow, Russia
##NAMES=HP
##CAS NAME=Propan-1-one, 1-[4-[2-dluoro-4-(3,4-dimethylbenzoyl)phenyl]-1-pip
erazinyl]-
##MOLFORM=C23H27FN2O2
##CAS REGISTRY NO=309923-28-2
##MP= -300
##BP= -300
##MW= 382
##$RETENTION INDEX=0
##$CONDENSED SPECTRUM=NO
##NPOINTS= 230
##XYDATA=(XY..XY) 1 
    36          2
    38          4
    39         60
    41        309
    42        152
    43        999
    44         44
    45          3
    50          8
    51         21
    52          6
    53         15
    54         28
    55         69
    56        402
    57         66
    58         13
    59          1
    62          2
    63         14
    64          4
    65         14
    66          2
    67          3
    68          9
    69         40
    70         40
    71        402
    72         17
    73          2
    74          3
    75         22
    76         12
    77        116
    78         41
    79         97
    80          7
    81          5
    82          4
    83          9
    84          7
    85         22
    86          3
    87          3
    88          2
    89         14
    90          7
    91         10
    92          2
    93          5
    94         32
    95         45
    96         14
    97          2
    98          9
    99         18
   100          9
   101          7
   102         32
   103         92
   104         34
   105        201
   106         19
   107         14
   108         30
   109         16
   110          3
   111          2
   112         36
   113          9
   114          5
   115          4
   116          7
   117          3
   118          2
   119          9
   120          7
   121         37
   122         48
   123         22
   124          4
   125          2
   126          7
   127          4
   128          4
   129          2
   130          2
   131          7
   133        319
   134         35
   135         14
   136         23
   137         27
   138          7
   139          2
   140          3
   141          3
   144          1
   145          1
   146          3
   147          2
   148          9
   149         18
   150        131
   151         18
   152         11
   153          2
   155          3
   156          1
   157          5
   158          2
   159          3
   160          1
   161          1
   162          5
   163          6
   164         42
   165         16
   166          6
   167          1
   169          3
   170          9
   171          4
   175          2
   176          9
   177          9
   178         29
   179          9
   180          5
   181          4
   182          4
   183         68
   184         19
   185          4
   189          1
   190          3
   191          9
   192          6
   193          3
   194          8
   195          5
   196         21
   197         19
   198         12
   199          4
   205          5
   206         14
   207          9
   208          5
   209          5
   210          6
   211          9
   212         34
   213         90
   214         15
   221          2
   222          2
   223          2
   224          3
   225          6
   226         25
   227         53
   228         13
   229          2
   233          1
   234          2
   235          1
   236          3
   238          4
   239          3
   240         21
   241         19
   242         14
   243         13
   244          2
   248          1
   249          2
   250          1
   251          3
   252          4
   253          4
   254        119
   255         39
   256         67
   257         16
   258          2
   262          2
   263          3
   264          3
   266          2
   267          2
   268         16
   269        229
   270        364
   271         61
   272          5
   277          5
   280          2
   282        578
   283        117
   284         36
   285          6
   291          6
   292         48
   293         10
   294          5
   295         14
   296          4
   297         20
   298          3
   309          3
   310         10
   311        116
   312         47
   313         10
   314          5
   325          7
   326          3
   339         16
   340         10
   341          1
   353          3
   354          1
   362         26
   363          7
   367         20
   368          5
   382        222
   383         60
   384          9