##TITLE=Library Entry 12389
##JCAMP-DX=Revision 4.10 
##DATA TYPE=MASS SPECTRUM
##SAMPLE DESCRIPTION=A.A.Kutin, Moscow, Russia
##NAMES=HP
##CAS NAME=3-Pyrroline-2-carboxylic acid, 3-acetyl-1-(4-bromophenyl)-4-hydro
xy-2-methoxy-5-oxo-, methyl ester
##MOLFORM=C15H14BrNO6
##CAS REGISTRY NO=309921-23-1
##MP= -300
##BP= -300
##MW= 383
##$RETENTION INDEX=0
##$CONDENSED SPECTRUM=NO
##NPOINTS= 215
##XYDATA=(XY..XY) 1 
    34          2
    35          3
    37          5
    38         14
    39         56
    40         70
    41         34
    42         67
    43        999
    44         72
    45         17
    47         19
    48          1
    49          0
    50         57
    51         29
    52         13
    53         31
    54         14
    55         46
    56         22
    57         33
    58         22
    59        109
    60          7
    61          5
    62         14
    63         86
    64         38
    65         13
    66         14
    67         27
    68         23
    69        174
    70         23
    71         21
    72          4
    73          2
    74         33
    75        183
    76        151
    77         41
    78         10
    79         34
    80         74
    81         45
    82         91
    83         64
    84         77
    85         86
    86         15
    87         16
    88         22
    89         36
    90        138
    91         42
    92         13
    93         12
    94          2
    95          5
    96          5
    97          5
    98          9
    99         48
   100          8
   101         15
   102         44
   103         23
   104         14
   105         10
   106          7
   107          8
   109         13
   110          5
   111         66
   112         16
   113         17
   114         54
   115        155
   116         38
   117         61
   118         18
   119         58
   120          7
   121         10
   123          3
   125         10
   126         23
   127         11
   128         23
   129         32
   130         12
   131         18
   132         19
   133          7
   134          7
   136          2
   139          4
   140          3
   141         12
   142         25
   143        893
   144         86
   145         28
   146         20
   147          6
   148          3
   149          3
   154         16
   155        169
   156         43
   157        159
   158         16
   159         24
   160         10
   161          1
   162          2
   163          1
   167          6
   168          7
   169         50
   170         34
   171        102
   172         45
   173         27
   174         37
   175         15
   177          1
   180          2
   181          4
   182         19
   183          8
   184         31
   185        352
   186        101
   187         16
   188          9
   189          2
   190          6
   191          2
   192          0
   193          4
   194         32
   195         16
   196         42
   197        105
   198         35
   199        110
   200         27
   201          6
   202        119
   203         26
   207          2
   208          7
   210          9
   211          2
   212         14
   213          5
   214         11
   216          2
   217         43
   218          6
   219          2
   221         41
   222        348
   223         80
   224        356
   225         36
   226          6
   237          5
   238          0
   239          5
   240          1
   245          3
   246          1
   250          1
   251          0
   252          4
   253          5
   254         13
   255          6
   256         10
   264        147
   265         26
   266        153
   267         16
   279          0
   280          6
   281          2
   282          5
   283          1
   294          4
   295          4
   296         46
   298         52
   299          3
   308          2
   310         14
   312          7
   321          2
   322          3
   323         31
   324        220
   325         64
   326        204
   327         28
   328          1
   336          4
   338          5
   351          4
   353          3
   382          1
   383         71
   385         71
   386          6