##TITLE=Library Entry 47018
##JCAMP-DX=Revision 4.10 
##DATA TYPE=MASS SPECTRUM
##SAMPLE DESCRIPTION=A.A.Kutin, Moscow, Russia
##NAMES=HP
##CAS NAME=Pyridazine-3,4(3H,4H)-dione, 6-phenyl-5-phenylazo-
##MOLFORM=C16H10N4O2
##CAS REGISTRY NO=309923-21-5
##MP= -300
##BP= -300
##MW= 290
##$RETENTION INDEX=0
##$CONDENSED SPECTRUM=NO
##NPOINTS= 130
##XYDATA=(XY..XY) 1 
    33         10
    34          0
    35          0
    36          1
    37          9
    38         23
    39         33
    40          9
    41          5
    42          1
    43          2
    44          2
    45          0
    50        102
    51        291
    52         20
    53          6
    54          1
    55          1
    56          0
    57          1
    58          0
    59          0
    60          0
    61          4
    62          9
    63         20
    64         24
    65          8
    66          1
    67          0
    68          0
    69          1
    70          0
    71          0
    72          0
    74         29
    75         37
    77        999
    78         52
    80          1
    81          0
    82          0
    83          0
    84          0
    85          1
    86          1
    87          1
    88          2
    89          1
    91         20
    92          2
    93          1
    94          0
    95          0
    98          3
    99          1
   100          1
   101          6
   102          3
   103          7
   105        408
   106         26
   109          0
   110          0
   111          0
   112          0
   113          1
   114          1
   115          1
   117          0
   118          0
   119          6
   120          0
   121          0
   123          0
   126          0
   127          0
   129         10
   130          1
   131          1
   132          0
   133          0
   134          0
   135          0
   139          1
   140          0
   141          0
   143          0
   144          0
   145          0
   150          0
   151          1
   152          2
   153          1
   154          1
   155          0
   157          4
   158          1
   159          0
   165          0
   166          0
   167          0
   168          0
   171          1
   172          0
   176          1
   177          1
   178          5
   179          1
   180          0
   181          0
   186          0
   204          0
   205          3
   206          1
   207          0
   233          0
   234          0
   235          0
   236          0
   261          0
   262          0
   280          0
   285          0
   287          2
   290        181
   291         32
   292          3
   293          0