##TITLE=Library Entry 85693
##JCAMP-DX=Revision 4.10 
##DATA TYPE=MASS SPECTRUM
##SAMPLE DESCRIPTION=A.A.Kutin, Moscow, Russia
##NAMES=HP
##CAS NAME=5-Methyl-N-(3-nitrophenyl)-2-furamide
##MOLFORM=C12H10N2O4
##CAS REGISTRY NO=309951-13-1
##MP= -300
##BP= -300
##MW= 246
##$RETENTION INDEX=0
##$CONDENSED SPECTRUM=NO
##NPOINTS= 85
##XYDATA=(XY..XY) 1 
    34          0
    37         10
    38         48
    39         66
    40         45
    41         34
    43         93
    44         26
    46          6
    50         62
    51         81
    52         94
    53        335
    54         19
    55         13
    57         11
    58          0
    59          0
    60          0
    61          4
    62         14
    63         51
    64         47
    65         23
    66          4
    67          2
    68          0
    69          3
    70          1
    71          1
    73          1
    74          6
    75         11
    76         24
    77          7
    78          4
    79         11
    80         10
    81          9
    82          0
    83          0
    84          0
    85          1
    86          1
    88          0
    90          9
    91         17
    92          6
    93          2
    95          6
    97          0
   100          1
   102          0
   103          0
   104          1
   105          4
   109        999
   111          3
   115          0
   116          0
   117          0
   118          1
   119          1
   121          9
   122          0
   123          0
   128          0
   131          2
   137          6
   138          3
   143          0
   144          0
   145          0
   146          1
   147          0
   171          0
   173          0
   174          2
   199          0
   216          2
   217          0
   244          1
   246        110
   247          7
   248          0