##TITLE=Library Entry 84162
##JCAMP-DX=Revision 4.10 
##DATA TYPE=MASS SPECTRUM
##SAMPLE DESCRIPTION=A.A.Kutin, Moscow, Russia
##NAMES=HP
##CAS NAME=Methanone, [5-(3-hydroxy-3-methyl-1-bytynyl)-2-furyl][4-(2-pyridy
l)-1-piperazinyl]-
##MOLFORM=C19H21N3O3
##CAS REGISTRY NO=309921-34-4
##MP= -300
##BP= -300
##MW= 339
##$RETENTION INDEX=0
##$CONDENSED SPECTRUM=NO
##NPOINTS= 129
##XYDATA=(XY..XY) 1 
    39          8
    40         10
    41         17
    42         33
    43        111
    44         11
    50         10
    51         39
    52         35
    53         16
    54          5
    55         20
    56        152
    57          3
    59          6
    62          7
    63         97
    64          5
    65         11
    66          8
    67          7
    68          4
    69          7
    70         10
    71          1
    74          1
    75          5
    77         96
    78        230
    79        238
    80         21
    81          4
    83         10
    84          3
    89          6
    90          3
    91         54
    92         21
    93         35
    94         37
    95         38
   103         27
   104         26
   105         84
   106        134
   107        999
   108         65
   109          4
   117         16
   118         38
   119        559
   120        299
   121        267
   122         19
   123          2
   129          4
   131         25
   133        941
   134        165
   135         49
   145        164
   146         96
   147         28
   148         41
   149         32
   150          1
   158         11
   159         20
   160         31
   161        114
   162        158
   163         24
   164          4
   171          3
   172          9
   174          4
   175          6
   176         23
   177        124
   178         15
   184          3
   185          2
   186         10
   188          9
   190         13
   191          1
   192          7
   198          4
   199          8
   201          6
   202          3
   204          3
   205          2
   210          1
   212          3
   213          1
   214          5
   215          2
   220         17
   221          4
   223          1
   226          4
   227          3
   228          7
   234          7
   245         38
   246          4
   252          7
   253          7
   270          2
   271         35
   272          2
   278          4
   280         83
   281         17
   282          3
   294          1
   296          2
   306         14
   311          5
   321          7
   322         23
   323          2
   324         48
   325          8
   338         63
   339        342
   340         71
   341         11