##TITLE=Library Entry 15653
##JCAMP-DX=Revision 4.10 
##DATA TYPE=MASS SPECTRUM
##SAMPLE DESCRIPTION=J. CHARALAMBOUS NORTHERN POLYTECHNIC, HOLLOWAY, LONDON,
 UK
##NAMES=HP
##CAS NAME=Copper, bis(4-chloro-3,5-cyclohexadiene-1,2-dione 2-oximato-N2,O1
)-
##MOLFORM=C12H6Cl2CuN2O4
##CAS REGISTRY NO=30993-28-3
##MP= -300
##BP= -300
##MW= 375
##$RETENTION INDEX=0
##$CONDENSED SPECTRUM=NO
##NPOINTS= 87
##XYDATA=(XY..XY) 1 
    26        275
    27        137
    28        379
    29        137
    30        241
    37        241
    38        344
    39        275
    43         34
    44        999
    49        137
    50        344
    51        379
    52        103
    53        275
    54        103
    60        620
    61        206
    62        551
    63        551
    64        241
    65        275
    66         68
    67        103
    72        103
    73        551
    74        103
    75        275
    76        379
    77        103
    78        206
    79        172
    85         68
    86         68
    87         68
    91         68
    93        241
    97         68
    98        275
    99         34
   100        275
   101        344
   112        172
   113        103
   114         68
   117        103
   121         68
   125         68
   126        103
   127        206
   128        172
   129        103
   140        379
   142        103
   153         68
   156        103
   157        551
   158         68
   159        172
   161        344
   162         34
   163        275
   164         17
   165         68
   169         34
   175        103
   189        344
   190         34
   191        241
   193         68
   203         34
   205        103
   207         68
   219        551
   220         68
   221        448
   223         68
   240        137
   242         68
   244         34
   282        172
   284        103
   375        172
   376         34
   377        206
   378         34
   379         68