##TITLE=Library Entry 56875
##JCAMP-DX=Revision 4.10 
##DATA TYPE=MASS SPECTRUM
##SAMPLE DESCRIPTION=A.A.Kutin, Moscow, Russia
##NAMES=HP
##CAS NAME=Morpholine, 4-[4-(1-adamantyl)benzyl]-
##MOLFORM=C21H29NO
##CAS REGISTRY NO=309921-49-1
##MP= -300
##BP= -300
##MW= 311
##$RETENTION INDEX=0
##$CONDENSED SPECTRUM=NO
##NPOINTS= 204
##XYDATA=(XY..XY) 1 
    34          0
    38          0
    39         36
    40         16
    41        118
    42         68
    43         45
    44          8
    45          6
    48          0
    50          1
    51          7
    52          4
    53         29
    54         20
    55         70
    56        190
    57         32
    58          6
    59          3
    63          6
    64          5
    65         27
    66          9
    67         47
    68          7
    69         15
    70         12
    71         16
    72          4
    73          0
    74          0
    75          1
    76          4
    77         59
    78         24
    79         99
    80         12
    81         24
    82          8
    83         15
    84         20
    86        999
    87         47
    88          4
    89         22
    90         29
    91        210
    92         27
    93         78
    94         20
    95         13
    96          3
    97         10
    98         18
    99         22
   100        127
   101          8
   102          7
   103         19
   104         52
   105         74
   106         12
   107         19
   108          3
   109          3
   110          1
   111          7
   112         12
   113          6
   115        100
   116         32
   117         53
   118         17
   119         13
   120         12
   121          3
   122          0
   123          1
   124          0
   125          2
   127         28
   128         77
   129         54
   130         18
   131        152
   132         26
   133          6
   135        394
   136         44
   137          3
   138          0
   139          5
   140          2
   141         45
   142         20
   143         21
   144         14
   145         10
   146         70
   147          8
   148          1
   149          1
   150          0
   151          3
   152         18
   153         27
   154         20
   155         38
   156         13
   157          8
   158          2
   159          2
   160          1
   161          0
   162          0
   163          0
   165         21
   166          9
   167         60
   168         33
   169         35
   170          8
   171          3
   172          2
   173          0
   174          0
   175          1
   176         36
   177          5
   178          3
   179          3
   180          3
   181         31
   182         11
   183          7
   184          2
   185          1
   186          1
   187          0
   189          1
   190          3
   191          1
   192          0
   193          1
   194          2
   195          7
   196          5
   197          2
   198          0
   199          0
   200          0
   202          1
   203          0
   205          0
   206          0
   207          0
   208          0
   209          1
   210          1
   211          0
   212          0
   214          0
   215          0
   216          0
   217          0
   218          0
   219          0
   222          0
   223         11
   225        484
   226         95
   227          8
   228          0
   238         36
   239         46
   240          8
   241          0
   242          0
   251          0
   252          9
   253         12
   254          2
   255          0
   259          4
   260          0
   261          1
   262          0
   264          0
   266          9
   267          1
   268          0
   272          0
   273          0
   280         76
   281         17
   282          1
   310         54
   311        235
   312         49
   313          5
   314          1
   315          0
   316          0