##TITLE=Library Entry 87739
##JCAMP-DX=Revision 4.10 
##DATA TYPE=MASS SPECTRUM
##SAMPLE DESCRIPTION=A.A.Kutin, Moscow, Russia
##NAMES=HP
##CAS NAME=4H-Chromen-4-one, 6-chloro-3-(2-thenoyl)-
##MOLFORM=C14H7ClO3S
##CAS REGISTRY NO=309923-52-2
##MP= -300
##BP= -300
##MW= 290
##$RETENTION INDEX=0
##$CONDENSED SPECTRUM=NO
##NPOINTS= 194
##XYDATA=(XY..XY) 1 
    33          1
    34          4
    35          4
    36         19
    37         20
    38         53
    39        427
    40         41
    41         10
    42          3
    43          8
    44         18
    45         65
    46          2
    47          3
    49          9
    50         36
    51         20
    53        307
    54         11
    55          9
    57         60
    58         24
    59          2
    60          5
    61         22
    62         65
    63        145
    64         12
    65          4
    66          4
    68          4
    69         49
    70         10
    71          8
    72          8
    73         51
    74         56
    75         61
    76          7
    77         14
    78          3
    79          5
    81         23
    82         37
    83        145
    84         32
    85         19
    86         20
    87         30
    88         14
    89          6
    90          3
    91          6
    92          6
    93          5
    94          2
    95          4
    96          5
    97         16
    98         39
    99         54
   100         15
   101         10
   102          1
   103          1
   104          1
   105          2
   106          2
   108        129
   109         22
   111        999
   112         68
   113         50
   114          4
   115          2
   116          2
   117          1
   118          1
   119          4
   120          7
   121          2
   122          4
   123         48
   124          6
   125         19
   126         80
   127         32
   128         22
   129          9
   130          1
   132          0
   133          0
   134          2
   135         20
   136         17
   137          6
   138          7
   139          9
   140          2
   141          2
   143          2
   145         59
   146         21
   147          3
   148          0
   149          1
   150          1
   151          3
   152          3
   154        276
   155        181
   156         97
   157         60
   158          4
   162          0
   163          9
   164          1
   165          2
   167          0
   169          3
   170          5
   171         71
   172         10
   173          4
   179          7
   180          2
   181          3
   182          1
   183          1
   189          2
   191          0
   197          1
   198          0
   199          9
   200          0
   201          0
   202         13
   203          1
   204          5
   205          7
   206          8
   207        102
   208         14
   209         34
   210          3
   211          2
   213          0
   217          1
   218          5
   219          0
   220          1
   221          0
   225          0
   226          6
   227         10
   228          1
   229          4
   230          0
   231          0
   233          6
   234         39
   235          7
   236         17
   237          1
   238          1
   240          2
   241          3
   242          2
   245          2
   246          1
   247          0
   255          1
   256          4
   257          2
   259          2
   261         98
   262        219
   263         67
   264         76
   265         12
   266          3
   272          0
   273          2
   274          0
   275          0
   276          0
   287          0
   289         40
   290        242
   291         53
   292         90
   293         13
   294          4