##TITLE=Library Entry 4229
##JCAMP-DX=Revision 4.10 
##DATA TYPE=MASS SPECTRUM
##SAMPLE DESCRIPTION=Chemical Concepts
##NAMES=HP
##CAS NAME=2H-2-Chromenone,7-[(2-propenyl)oxy]
##MOLFORM=C12H10O3
##CAS REGISTRY NO=31005-03-5
##MP= -300
##BP= -300
##MW= 202
##$RETENTION INDEX=0
##$CONDENSED SPECTRUM=NO
##NPOINTS= 86
##XYDATA=(XY..XY) 1 
    26          8
    27         18
    28          4
    29          4
    37         14
    38         43
    39        250
    40         15
    41        999
    42         48
    43          8
    49          6
    50         84
    51        243
    52         30
    53         26
    54          8
    55         41
    61         17
    62         77
    63        185
    64         53
    65         28
    66         13
    69         85
    74         20
    75         18
    76         42
    77        201
    78         75
    79         46
    80          7
    81          9
    86         11
    87         15
    88         13
    89        109
    90         18
    91         27
    92         31
    93         11
    94         52
    95          9
    96          7
   103         16
   104         17
   105        168
   106         27
   107          7
   108         10
   115         23
   116         10
   117         37
   118         27
   119         15
   120          9
   121         10
   127          8
   128         16
   129         17
   131         36
   132         22
   133        207
   134        208
   135         21
   145         37
   146         49
   147         54
   148         24
   149         11
   159         42
   160         27
   161         39
   162         97
   163         11
   174        177
   175         30
   176          3
   184          4
   185         14
   187         98
   188         14
   201         26
   202        695
   203        123
   204         14