##TITLE=Library Entry 2789
##JCAMP-DX=Revision 4.10 
##DATA TYPE=MASS SPECTRUM
##SAMPLE DESCRIPTION=Chemical Concepts
##NAMES=HP
##CAS NAME=8-Cyclohexadecen-1-one
##MOLFORM=C16H28O
##CAS REGISTRY NO=3100-36-5
##MP= -300
##BP= -300
##MW= 236
##$RETENTION INDEX=0
##$CONDENSED SPECTRUM=NO
##NPOINTS= 128
##XYDATA=(XY..XY) 1 
    26         11
    27        186
    28         86
    29        297
    30         11
    31          7
    37          5
    38          6
    39        238
    40         63
    41        999
    42        164
    43        374
    44         16
    46          2
    50          8
    51         12
    52         11
    53        160
    54        249
    55        881
    56         87
    57        113
    58         86
    59         28
    62          9
    63          3
    65         47
    66         56
    67        632
    68        184
    69        278
    70         99
    71        168
    72         12
    73          3
    75          2
    77         52
    78         40
    79        286
    80        319
    81        481
    82        278
    83        220
    84        151
    85         57
    86          3
    87          7
    89          4
    91         61
    92         57
    93        182
    94        200
    95        368
    96        246
    97        213
    98        247
    99         35
   100          7
   101          4
   103          2
   104          5
   105         40
   106         24
   107         80
   108         83
   109        153
   110         85
   111        132
   112         59
   113         12
   114          4
   115          3
   117          4
   119         47
   120         22
   121         89
   122         82
   123         91
   124         57
   125         66
   126         38
   127          5
   128          2
   133         35
   134         22
   135         72
   136         36
   137         65
   138         22
   139         39
   140         11
   141          7
   147         32
   148         13
   149         25
   150         19
   151         35
   152         91
   153         21
   154          9
   155          5
   161         27
   162          7
   163          8
   164          4
   165         54
   166         17
   175         18
   176         10
   177          5
   178          4
   179          8
   180          7
   181          7
   189         12
   190          5
   192          3
   193         12
   194          4
   195          6
   203          3
   207          6
   218          7
   221          6
   236        141
   237         25
   238          5