##TITLE=Library Entry 12858
##JCAMP-DX=Revision 4.10 
##DATA TYPE=MASS SPECTRUM
##SAMPLE DESCRIPTION=Div. of Experiment Therapeutics WRAIR, WRAMC, Washingto
n DC 20307
##NAMES=HP
##CAS NAME=4-Acetamido-2-methallylphenol
##MOLFORM=C12H15NO2
##CAS REGISTRY NO=31011-02-6
##MP= -300
##BP= -300
##MW= 205
##$RETENTION INDEX=0
##$CONDENSED SPECTRUM=NO
##NPOINTS= 93
##XYDATA=(XY..XY) 1 
    41        181
    42        107
    43        999
    44         27
    45          6
    49          7
    50         29
    51        103
    52        117
    53        168
    54         63
    55        117
    56         15
    57          7
    59          1
    60          1
    62         14
    63         46
    64         23
    65        156
    66        109
    67         59
    68         18
    69          9
    70          6
    74          8
    75         13
    76         16
    77        178
    78         56
    79         78
    80        104
    81         34
    82         12
    83         11
    84          1
    88          5
    89         20
    90         11
    91        113
    92         40
    93        107
    94         98
    95         19
    96          1
   101          3
   102         14
   103         54
   104         32
   105         32
   106         64
   107         31
   108         31
   109         35
   110          1
   115         43
   116         17
   117         55
   118         47
   119         35
   120        212
   121        218
   122        140
   123         39
   127         11
   128         10
   129          5
   130         55
   131         43
   132         18
   133         42
   134         67
   135         25
   136          6
   143          7
   144         19
   145         23
   146        105
   147         55
   148        588
   149         75
   150          6
   160          9
   161          6
   162         72
   163        648
   164         84
   165          7
   174          4
   190         24
   205        438
   206         76
   207          7