##TITLE=Library Entry 73518
##JCAMP-DX=Revision 4.10 
##DATA TYPE=MASS SPECTRUM
##SAMPLE DESCRIPTION=Div. of Experiment Therapeutics WRAIR, WRAMC, Washingto
n DC 20307
##NAMES=HP
##CAS NAME=5-[3-(Dibutylamino)propylamino]-2,2-dimethyl-2,3-dihydrofuro[3,2-
g]quinoline
##MOLFORM=C24H37N3O
##CAS REGISTRY NO=31010-88-5
##MP= -300
##BP= -300
##MW= 383
##$RETENTION INDEX=0
##$CONDENSED SPECTRUM=NO
##NPOINTS= 125
##XYDATA=(XY..XY) 1 
    41         93
    42         42
    43         39
    44        106
    45          3
    47          5
    48          1
    49          3
    51          1
    53          2
    54          2
    55         26
    56         21
    57         62
    58         93
    59          2
    63          1
    65          1
    67          0
    68          4
    69          7
    70         21
    71          5
    72          3
    77          4
    78          1
    82          3
    83          0
    84          5
    85          7
    86          3
    88          2
    89          0
    91          5
    92          0
    98         23
   100        999
   101         73
   102          4
   103          1
   106          3
   112         14
   113          2
   114          6
   115          5
   116          3
   117          2
   126         33
   127          7
   128         21
   129          7
   130          4
   131          2
   132          0
   140         32
   142        400
   143         41
   144          6
   145          2
   149         26
   154          7
   155          6
   156         71
   157         11
   158          2
   163         12
   167          3
   168          8
   169         10
   170         42
   171         22
   172         12
   173          4
   181          2
   182          5
   183          7
   184          8
   185         12
   186          5
   187          0
   192         12
   193          0
   195          1
   196          2
   197          9
   198          7
   199         12
   200          3
   209          3
   210          3
   211         12
   212          5
   213          6
   214          4
   215         24
   216          3
   222          1
   223          0
   225         16
   226         13
   227         73
   228         99
   229         14
   237          1
   239         11
   240          4
   241         56
   242          9
   253         10
   254         24
   255         29
   256          6
   270          3
   282          1
   326         29
   327          7
   338          5
   340         98
   341         23
   342          3
   382          3
   383        272
   384         77
   385         26
   386          3