##TITLE=Library Entry 87383
##JCAMP-DX=Revision 4.10 
##DATA TYPE=MASS SPECTRUM
##SAMPLE DESCRIPTION=C.J.W.BROOKS CHEM. DEPT., THE UNIVERSITY GLASGOW, U.K.
##NAMES=HP
##CAS NAME=Pregna-4,17(20)-dien-3-one, 20,21-[(methylborylene)bis(oxy)]-
##MOLFORM=C22H31BO3
##CAS REGISTRY NO=31012-59-6
##MP= -300
##BP= -300
##MW= 354
##$RETENTION INDEX=0
##$CONDENSED SPECTRUM=NO
##NPOINTS= 105
##XYDATA=(XY..XY) 1 
    39         40
    40         20
    41        100
    42         20
    43         60
    51         10
    53         70
    54         20
    55         80
    56         10
    57         10
    65         40
    66         20
    67         80
    68         30
    69         20
    77         80
    78         20
    79        120
    80         30
    81         80
    82         20
    83         10
    84         10
    85         10
    91        130
    92         20
    93         60
    94         20
    95         40
    96         20
    97         50
    98         10
   103         10
   104         10
   105         80
   106         20
   107         50
   108         20
   109        280
   110        999
   111        100
   112         10
   115         20
   116         10
   117         30
   118         10
   119         50
   120         20
   121         40
   122         30
   123         50
   124         80
   125         20
   128         10
   129         20
   130         10
   131         30
   132         10
   133         40
   134         20
   135         20
   136         10
   137         10
   138         10
   141         10
   143         20
   145         30
   146         10
   147         20
   148         20
   149         20
   155         10
   157         20
   159         30
   160         10
   161         20
   162         10
   171         30
   173         20
   174         20
   175         10
   185         10
   187         20
   189         10
   199         10
   201         20
   203         10
   209         10
   211         20
   213         10
   215         10
   225         10
   227         30
   229         30
   230         10
   231         20
   243         20
   244         20
   338         10
   339         40
   340         10
   353         50
   354        190
   355         50