##TITLE=Library Entry 56261
##JCAMP-DX=Revision 4.10 
##DATA TYPE=MASS SPECTRUM
##SAMPLE DESCRIPTION=Div. of Experiment Therapeutics WRAIR, WRAMC, Washingto
n DC 20307
##NAMES=HP
##CAS NAME=6-[(3-Diethylaminopropylamino)-2,2-dimethyl-2,3-dihydroxyfurano[2
,3-H]quinoline
##MOLFORM=C20H29N3O
##CAS REGISTRY NO=31011-11-7
##MP= -300
##BP= -300
##MW= 327
##$RETENTION INDEX=0
##$CONDENSED SPECTRUM=NO
##NPOINTS= 145
##XYDATA=(XY..XY) 1 
    41         28
    42         46
    43         20
    44         45
    45          1
    47          1
    49          9
    51          7
    52          4
    53          4
    54          4
    55          8
    56         44
    57         16
    58        144
    59          7
    63          4
    64          1
    65          4
    66          1
    67          1
    68          2
    69          0
    70         21
    71         26
    72        251
    73         16
    74          2
    75          2
    76          2
    77          8
    78          5
    79          2
    83          0
    84         43
    85          9
    86        999
    87         54
    88          2
    89          4
    90          3
    91          5
    92          3
    93          0
    96          0
    98         77
    99         19
   100         98
   101          9
   102          4
   103          3
   104          2
   105          1
   106          1
   112         10
   113         40
   114         11
   115          5
   116          4
   117         10
   118          4
   119          1
   127          4
   128          6
   129          4
   130          3
   131          3
   140          2
   141          2
   142          4
   143          7
   144          5
   145          5
   149         30
   154          4
   155          5
   156         14
   157          5
   158          2
   159          1
   164          8
   167          2
   168          3
   169          8
   170          5
   171         17
   172         18
   173          5
   181          3
   182          5
   183         11
   184          9
   185         10
   186          4
   187          2
   193          2
   194          0
   195          3
   196          3
   197         12
   198         11
   199         14
   200          4
   201          1
   207          0
   209          4
   210          6
   211         22
   212          7
   213         46
   214         10
   215         28
   216          4
   222          5
   223          3
   225         25
   227        103
   228         69
   229          8
   237          5
   239         70
   240         15
   241         38
   242         10
   243          2
   253         11
   254         11
   255          9
   256          2
   268          3
   269          0
   282          0
   283          1
   298         23
   299          8
   300          2
   310          4
   311          1
   312          7
   313          3
   326          0
   327        249
   328         59
   329         16
   330          2