##TITLE=Library Entry 79461
##JCAMP-DX=Revision 4.10 
##DATA TYPE=MASS SPECTRUM
##SAMPLE DESCRIPTION=J. MADSEN,DEP. ORG. CHEM.,TECH. UNIV. DENMARK,LYNGBY,DE
NMARK
##NAMES=HP
##CAS NAME=Hippuric acid p-nitrophenyl ester
##MOLFORM=C15H12N2O5
##CAS REGISTRY NO=3101-11-9
##MP= -300
##BP= -300
##MW= 300
##$RETENTION INDEX=0
##$CONDENSED SPECTRUM=NO
##NPOINTS= 56
##XYDATA=(XY..XY) 1 
    26          6
    27         20
    28          3
    29          6
    30         25
    32          1
    37          6
    38         24
    39         87
    40          1
    42          4
    44          4
    49          3
    50         52
    51        144
    52         15
    53         17
    54          3
    55          3
    56          5
    61          4
    62         12
    63         32
    64         20
    65        102
    66          6
    74         13
    75         16
    76         29
    77        433
    78         31
    81         16
    89          4
    90          4
    92          4
    93         32
    94          3
   103          3
   104          8
   105        999
   106         74
   107          5
   109         40
   110          3
   117         57
   118          5
   122          3
   123          7
   134        139
   135         12
   139        139
   140         10
   161        141
   162        430
   163         44
   164          4