##TITLE=Library Entry 84649
##JCAMP-DX=Revision 4.10 
##DATA TYPE=MASS SPECTRUM
##SAMPLE DESCRIPTION=Div. of Experiment Therapeutics WRAIR, WRAMC, Washingto
n DC 20307
##NAMES=HP
##CAS NAME=4-Acetamidophenyl methallyl ether
##MOLFORM=C12H15NO2
##CAS REGISTRY NO=31011-01-5
##MP= -300
##BP= -300
##MW= 205
##$RETENTION INDEX=0
##$CONDENSED SPECTRUM=NO
##NPOINTS= 73
##XYDATA=(XY..XY) 1 
    41         17
    42         16
    43        496
    44         10
    45          1
    47          3
    48          1
    49         18
    50          8
    51         24
    52         47
    53         90
    54         16
    55        193
    56          9
    57          1
    60          0
    62          3
    63         17
    64         14
    65         31
    66          6
    67          2
    68          2
    74          0
    75          0
    76          1
    77          5
    78          5
    79         13
    80         85
    81         25
    82          2
    83          2
    84          9
    86          6
    88          1
    90          2
    91          7
    92          8
    93          7
    94          4
   105          1
   106          6
   108        999
   109        101
   110          6
   115          1
   117          2
   118          2
   119          1
   120          3
   121          2
   122          3
   132          0
   134          4
   135          2
   145          5
   146         13
   147          2
   148          8
   150         71
   151          7
   162          8
   163         16
   164          3
   187          0
   188          2
   190          3
   204          8
   205        110
   206         34
   207          4