##TITLE=Library Entry 32430
##JCAMP-DX=Revision 4.10 
##DATA TYPE=MASS SPECTRUM
##SAMPLE DESCRIPTION=F.GAYMARD, FACULTY OF SCIENCE, NICE UNIV., NICE, FRANCE
##NAMES=HP
##CAS NAME=Cyclopentane, 1,2-dichloro-, cis-
##MOLFORM=C5H8Cl2
##CAS REGISTRY NO=31025-65-7
##MP= -300
##BP= -300
##MW= 138
##$RETENTION INDEX=0
##$CONDENSED SPECTRUM=NO
##NPOINTS= 19
##XYDATA=(XY..XY) 1 
    38         30
    39        110
    40         50
    41        320
    42         50
    43         80
    61         15
    62        100
    63         30
    64         30
    65         50
    66         30
    67        999
    68         65
    75        110
    76        160
    77         30
    78         30
   138         24