##TITLE=Library Entry 44151
##JCAMP-DX=Revision 4.10 
##DATA TYPE=MASS SPECTRUM
##SAMPLE DESCRIPTION=O A MAMER, MCGILL UNIVERSITY, MONTRE
##NAMES=HP
##CAS NAME=Phosphoric acid, bis(trimethylsilyl) 2,3-bis[(trimethylsilyl)oxy]
propyl ester
##MOLFORM=C15H41O6PSi4
##CAS REGISTRY NO=31038-11-6
##MP= -300
##BP= -300
##MW= 460
##$RETENTION INDEX=1780
##$CONDENSED SPECTRUM=NO
##NPOINTS= 145
##XYDATA=(XY..XY) 1 
    14         23
    15         62
    16         12
    17         10
    18         41
    26         12
    27         14
    28         31
    29         12
    30          5
    31          5
    32          5
    39         10
    41         46
    42          9
    43         32
    44         37
    45        104
    46          7
    47         13
    51          5
    52          8
    55         14
    56          9
    57         12
    58         14
    59         92
    60          9
    61         14
    69          5
    71          7
    72         26
    73        999
    74         87
    75        120
    76          8
    77          9
    79         10
    85         10
    87          8
    88          5
    89         10
    99          8
   101        128
   102         14
   103        151
   104         15
   105          9
   113         32
   115         21
   116         45
   117         28
   118          5
   119         10
   121          4
   129        106
   130         20
   131         73
   132          9
   133         95
   134         12
   135         24
   137          7
   145          5
   147        222
   148         35
   149         31
   151          6
   163          7
   179          5
   181          5
   189          6
   191         14
   193         17
   195         15
   196          5
   197          6
   203         21
   204          7
   205         22
   206          5
   207         41
   208          9
   209          9
   211         93
   212         14
   213         10
   217         10
   218         51
   219         31
   220          8
   221          8
   225         26
   226         13
   227         43
   228          7
   241         24
   242          6
   243         35
   244          7
   256         65
   257         13
   258          6
   269          9
   283         12
   285         29
   286          8
   287          5
   299        438
   300        111
   301         64
   302         12
   303          4
   313         11
   314         21
   315        120
   316         32
   317         17
   327          8
   328         40
   329         13
   330          7
   341         27
   342          9
   343          7
   357        442
   358        133
   359         66
   360         15
   361          5
   370         98
   371         30
   372         16
   373         23
   374          8
   387         46
   388         17
   389         21
   390          6
   415          8
   417          6
   445        114
   446         41
   447         23
   448          6