##TITLE=Library Entry 19087
##JCAMP-DX=Revision 4.10 
##DATA TYPE=MASS SPECTRUM
##SAMPLE DESCRIPTION=NIST Mass Spectrometry Data Center, 1990.
##NAMES=HP
##CAS NAME=9-Nonadecene
##MOLFORM=C19H38
##CAS REGISTRY NO=31035-07-1
##MP= -300
##BP= -300
##MW= 266
##$RETENTION INDEX=1893
##$CONDENSED SPECTRUM=NO
##NPOINTS= 71
##XYDATA=(XY..XY) 1 
    14          2
    16          0
    18         19
    27        152
    28         51
    29        399
    30          5
    32          5
    39        120
    41        907
    42        168
    43        843
    44         33
    51          5
    53         89
    54        306
    55        999
    56        455
    57        693
    58         28
    65         27
    66         32
    67        276
    68        154
    69        693
    70        431
    71        292
    72         16
    77         22
    79         51
    80         22
    81        132
    82        202
    83        716
    84        254
    85        171
    86          8
    91         13
    93         10
    95         54
    96        125
    97        625
    98        153
    99         43
   100          5
   109         18
   110         63
   111        310
   112         88
   113         24
   123         13
   124         40
   125        142
   126         53
   127         10
   137          8
   138         20
   139         48
   140         32
   141          6
   152         13
   153         26
   154         18
   166          9
   167         13
   168         12
   181          8
   182          7
   238          6
   266         81
   267         17