##TITLE=Library Entry 43878
##JCAMP-DX=Revision 4.10 
##DATA TYPE=MASS SPECTRUM
##SAMPLE DESCRIPTION=BAY 0296
##NAMES=HP
##CAS NAME=3,5-Dioxa-4-phospha-2-silaheptan-7-oic acid, 2,2-dimethyl-4-[(tri
methylsilyl)oxy]-6-[[(trimethylsilyl)oxy]methyl]-, trimethylsilyl ester, 4-o
xide
##MOLFORM=C15H39O7PSi4
##CAS REGISTRY NO=31038-14-9
##MP= -300
##BP= -300
##MW= 474
##$RETENTION INDEX=1797
##$CONDENSED SPECTRUM=NO
##NPOINTS= 210
##XYDATA=(XY..XY) 1 
    41         14
    42          4
    43         20
    44         23
    45        104
    46          7
    47         13
    53          2
    55         41
    56          4
    57          5
    58          7
    59         50
    60          5
    61         13
    63          2
    66          2
    68          7
    69          4
    70          4
    71          5
    72         25
    73        999
    74         79
    75        111
    76          7
    77          7
    83          2
    85          9
    87          5
    88          2
    89          7
    93          2
    95          2
    98          2
    99          7
   100          2
   101         54
   102         18
   103         50
   104          5
   105          5
   107          2
   113          2
   115          9
   116         54
   117         18
   118          4
   119         11
   120          2
   121          5
   123          2
   127          2
   129         14
   130          9
   131         21
   132          4
   133        111
   134         16
   135         32
   136          4
   137          7
   142          9
   143         86
   144         11
   145          9
   147        204
   148         34
   149         43
   150          5
   151          9
   153          4
   157          2
   159          2
   161          4
   163          2
   165          4
   167          4
   173          2
   175          4
   177          7
   179          5
   181          9
   183          5
   189         18
   190          4
   191         18
   192          4
   193         23
   194          5
   195         21
   196          7
   197          9
   203          4
   204         11
   205          7
   206          4
   207         61
   208         13
   209         13
   210          7
   211        139
   212         21
   213         14
   214          4
   215          4
   217        175
   218         36
   219         27
   220          5
   221          7
   222          2
   223          2
   225         32
   226          7
   227         46
   228          7
   229          4
   231          7
   232          4
   233          2
   237          2
   238          2
   241          2
   243         14
   244          2
   253          9
   254          2
   255          5
   256          2
   266          2
   267          4
   268         11
   269         13
   270          4
   271          4
   283         18
   284         13
   285         50
   286         13
   287          7
   288          2
   297          7
   298         57
   299        357
   300         93
   301         57
   302         11
   303          4
   307          1
   308          1
   313         11
   314         18
   315        279
   316         75
   317         50
   318         11
   319          4
   327          5
   328          5
   329          4
   341         43
   342         11
   343          9
   344          2
   355          4
   356          4
   357         23
   358          7
   359          5
   360          2
   369        239
   370         68
   371         54
   372         13
   373         13
   374          4
   375          2
   383          4
   384         36
   385         14
   386         29
   387        168
   388         64
   389         54
   390         16
   391          7
   392          2
   415         13
   416          9
   417          5
   418          2
   429          7
   430          4
   431         18
   432          5
   433          4
   444         68
   445         27
   446         14
   447          4
   448          2
   459        321
   460        118
   461         71
   462         18
   463          5
   464          2
   474          4
   475          2