##TITLE=Library Entry 44153
##JCAMP-DX=Revision 4.10 
##DATA TYPE=MASS SPECTRUM
##SAMPLE DESCRIPTION=Exported from NIST MS Search
##NAMES=HP
##CAS NAME=3,5-Dioxa-4-phospha-2-silaoctan-8-oic acid, 2,2-dimethyl-4,7-bis[
(trimethylsilyl)oxy]-, trimethylsilyl ester, 4-oxide
##MOLFORM=C15H39O7PSi4
##CAS REGISTRY NO=31038-13-8
##MP= -300
##BP= -300
##MW= 474
##$RETENTION INDEX=0
##$CONDENSED SPECTRUM=NO
##NPOINTS= 125
##XYDATA=(XY..XY) 1 
    41          4
    42          4
    43         32
    44         32
    45        121
    46          4
    47         16
    55         28
    56          4
    57          4
    58          4
    59         81
    60         12
    71          4
    72         28
    73        999
    74         81
    75        113
    76          4
    77         12
    85          4
    87          4
    88          4
    89          4
    99          4
   101        141
   102         16
   103         16
   115         12
   116         64
   117         24
   119         12
   129          8
   131         24
   133         93
   134         12
   135         28
   136          4
   137          4
   143         56
   144          4
   145          4
   146         12
   147        352
   148         48
   149         32
   150          4
   151          8
   189          8
   191          8
   193         20
   194          4
   195         24
   196         24
   197         12
   198          4
   206          4
   207         36
   208          4
   209          4
   210          4
   211        129
   212         28
   213         12
   217        121
   218         28
   219         16
   224         24
   225         36
   226         16
   227        323
   228         52
   229         28
   231          4
   243         16
   269          8
   282          4
   283         20
   284         32
   285         36
   286         12
   287          8
   298         24
   299        437
   300        109
   301         68
   302          8
   313         12
   314         24
   315        202
   316         60
   317         36
   318          4
   325          4
   326          4
   327          4
   328         20
   329          4
   341         32
   342          4
   343          4
   355          4
   356         40
   357        510
   358        145
   359         81
   360         20
   369         20
   386         20
   387        198
   388         72
   389         56
   390         20
   391          8
   415         16
   416          4
   417          4
   431         32
   432          8
   433          4
   458         12
   459        246
   460         97
   461         56
   462         16