##TITLE=Library Entry 69330
##JCAMP-DX=Revision 4.10 
##DATA TYPE=MASS SPECTRUM
##SAMPLE DESCRIPTION=A.A.Kutin, Moscow, Russia
##NAMES=HP
##CAS NAME=Oxamide, N-furfuryl-N'-(2,4-dimethylphenyl)-
##MOLFORM=C15H16N2O3
##CAS REGISTRY NO=310457-15-9
##MP= -300
##BP= -300
##MW= 272
##$RETENTION INDEX=0
##$CONDENSED SPECTRUM=NO
##NPOINTS= 208
##XYDATA=(XY..XY) 1 
    33         14
    35          9
    37         11
    38         27
    39        126
    40         61
    41         90
    42         70
    44         90
    45          8
    46          1
    48          1
    49          1
    50         25
    51        107
    53        415
    55         56
    56         16
    57         25
    58          6
    59          4
    60          4
    61          2
    62          6
    63         28
    65         68
    66         16
    67         17
    68         26
    69         55
    70         13
    71         12
    72          2
    73          3
    74          7
    75          7
    77        180
    78         39
    79         84
    81        766
    82         81
    83          9
    84          5
    85          4
    86          1
    87          2
    88          2
    89         14
    91        105
    92         23
    93         24
    96        999
    97         60
    98          7
    99          2
   100          2
   102          8
   103         54
   104         25
   105        113
   106         61
   107         23
   108          4
   109          4
   111          5
   112          6
   113          4
   115          4
   116          8
   117         12
   118         49
   119         47
   120        235
   121        184
   122        115
   123         17
   125         13
   126          1
   127          3
   128          4
   129          3
   130         12
   132         49
   133         13
   134          3
   135          7
   136         13
   137          3
   138          8
   139          1
   140          1
   141          1
   142          1
   143          2
   144          2
   146         51
   147        151
   148        133
   149         27
   150          2
   151          1
   152          2
   153          1
   154          1
   155          1
   156          1
   157          2
   158          2
   159          2
   160          3
   161          4
   162          1
   163          2
   164          1
   165          1
   167          9
   168          1
   170          2
   171          7
   172          2
   173          1
   174          1
   175          3
   176          1
   177          1
   178          0
   179          0
   180          0
   181          1
   182          0
   183          0
   184          2
   185          2
   186          1
   187          3
   188          1
   189          2
   190          1
   191         16
   192          2
   193          0
   194          0
   195          0
   196          0
   197          0
   198          1
   199          5
   200         14
   201          2
   202          0
   203          0
   204          1
   206          1
   207          0
   209          0
   210          0
   211          0
   212          1
   213          0
   214          0
   215          0
   216          0
   217          0
   218          0
   219          0
   220          0
   221          1
   222          0
   223          0
   224          0
   225          0
   226          0
   227          0
   228          6
   229          8
   230          1
   231          0
   232          1
   233          0
   237          0
   238          0
   239          0
   240          0
   241          0
   243          1
   244         12
   245          1
   246          0
   248          0
   253          0
   254          0
   255          0
   257          0
   258          4
   259          0
   260          0
   262          0
   265          0
   268          1
   269          2
   270          4
   272        442
   273         69
   274          8
   275          1
   276          0
   278          0
   279          0