##TITLE=Library Entry 99000
##JCAMP-DX=Revision 4.10 
##DATA TYPE=MASS SPECTRUM
##SAMPLE DESCRIPTION=A.A.Kutin, Moscow, Russia
##NAMES=HP
##CAS NAME=3-Buten-2-one, 1,1,1-trifluoro-4-(2-pyridylamino)-
##MOLFORM=C9H7F3N2O
##CAS REGISTRY NO=310452-86-9
##MP= -300
##BP= -300
##MW= 216
##$RETENTION INDEX=0
##$CONDENSED SPECTRUM=NO
##NPOINTS= 46
##XYDATA=(XY..XY) 1 
    38         29
    39        165
    40         12
    41         30
    42         14
    44         68
    45          2
    49          2
    50         19
    51        198
    52        126
    53         31
    54          8
    55          9
    57          9
    59         61
    63          3
    64         23
    65         43
    66         22
    67         19
    68         14
    69         50
    70          2
    73         22
    75          2
    76          8
    78        765
    79        118
    80          4
    89          2
    91         10
    92         27
    94          8
    95          4
   105        177
   106          9
   116          8
   119        999
   120         56
   131          4
   146         13
   147        215
   148         15
   216        182
   217         11