##TITLE=Library Entry 31597
##JCAMP-DX=Revision 4.10 
##DATA TYPE=MASS SPECTRUM
##SAMPLE DESCRIPTION=Japan AIST/NIMC Database- Spectrum MS-IW-2913
##NAMES=HP
##CAS NAME=Dimethylsulfoxonium formylmethylide
##MOLFORM=C4H8O2S
##CAS REGISTRY NO=31043-74-0
##MP= -300
##BP= -300
##MW= 120
##$RETENTION INDEX=0
##$CONDENSED SPECTRUM=NO
##NPOINTS= 49
##XYDATA=(XY..XY) 1 
    12          1
    13          2
    14          8
    15         61
    16          1
    26          3
    27         35
    28         33
    29         69
    30          5
    31         92
    32         27
    33         22
    34         34
    35         49
    36          6
    37          2
    38          1
    39          2
    41          3
    43          5
    44         30
    45        192
    46        103
    47         72
    48         56
    49         13
    50          7
    51          2
    56          1
    57          5
    58          8
    59          8
    60         16
    61        161
    62         65
    63        999
    64         28
    65         58
    66          1
    75          1
    76          2
    77          9
    78        968
    79         47
    80         48
    81          2
    92          1
   105          1