##TITLE=Library Entry 42787
##JCAMP-DX=Revision 4.10 
##DATA TYPE=MASS SPECTRUM
##SAMPLE DESCRIPTION=Exported from NIST MS Search
##NAMES=HP
##CAS NAME=6-Ethyl-2,4,7-pteridinetriol, 3TMS derivative
##MOLFORM=C17H32N4O3Si3
##CAS REGISTRY NO=31053-51-7
##MP= -300
##BP= -300
##MW= 424
##$RETENTION INDEX=0
##$CONDENSED SPECTRUM=NO
##NPOINTS= 100
##XYDATA=(XY..XY) 1 
    41         20
    42         20
    43         40
    44         20
    45         60
    46         10
    47         10
    55         10
    56         10
    57         20
    58         30
    59         40
    60         10
    61         20
    68         10
    69         10
    70         20
    71         10
    72         30
    73        999
    74         70
    75        320
    76         30
    77         10
    83         10
    84         30
    85         10
    86         20
    87         10
    93         20
    94         10
    95         10
    97         10
    98         10
    99         20
   100        150
   101         20
   102         10
   103         40
   111         10
   113         10
   114         20
   115         10
   116        240
   117         40
   118         10
   119         10
   121         10
   124         10
   130         10
   131         50
   132         20
   133         40
   134         10
   144         10
   147        590
   148         90
   149         50
   157         10
   171         10
   172         10
   174         30
   175         10
   182         10
   188         30
   189         10
   190         10
   197         10
   198         10
   203         40
   204         10
   205         10
   207         10
   247         10
   277         10
   278         10
   293         10
   307         10
   321         80
   322         20
   323         10
   337         20
   338         10
   339         10
   350         10
   351         20
   352         10
   369         10
   379         10
   395         30
   396         10
   397         10
   409        370
   410        150
   411         60
   412         20
   424        580
   425        210
   426        100
   427         30