##TITLE=Library Entry 44232
##JCAMP-DX=Revision 4.10 
##DATA TYPE=MASS SPECTRUM
##SAMPLE DESCRIPTION=Exported from NIST MS Search
##NAMES=HP
##CAS NAME=Pteridine, 2,4,7-tris[(trimethylsilyl)oxy]-
##MOLFORM=C15H28N4O3Si3
##CAS REGISTRY NO=31053-49-3
##MP= -300
##BP= -300
##MW= 396
##$RETENTION INDEX=0
##$CONDENSED SPECTRUM=NO
##NPOINTS= 99
##XYDATA=(XY..XY) 1 
    41         30
    43         50
    45         10
    55         40
    56         20
    57        110
    67         10
    68         10
    69         40
    70         20
    71        130
    72         30
    73        999
    74        100
    75        160
    76         10
    77         10
    81         10
    83         20
    84         50
    85         30
    86         40
    87         10
    92         10
    97         10
    99         20
   100        210
   101         20
   102         20
   110         10
   111         10
   116         10
   117         20
   119         10
   124         20
   125         10
   127         10
   128         10
   129         10
   130         10
   131         60
   132         20
   133         40
   134         10
   141         10
   142         10
   144         10
   145         10
   147        300
   148         40
   149         30
   151         10
   157         10
   158         30
   159         10
   160         10
   167         10
   171         10
   172         10
   174         60
   175         10
   176         10
   181         10
   182         20
   183         10
   184         10
   191         10
   198         10
   219         20
   220         10
   222         10
   233         10
   249         20
   250         10
   254         10
   265         10
   293        100
   294         30
   295         10
   296         10
   307         30
   308         10
   309         10
   322         10
   323         20
   324         10
   366         10
   367         10
   379         10
   380         10
   381        390
   382        120
   383         60
   384         10
   395         60
   396        810
   397        260
   398        100
   399         30