##TITLE=Library Entry 67858
##JCAMP-DX=Revision 4.10 
##DATA TYPE=MASS SPECTRUM
##SAMPLE DESCRIPTION=J.VOTH UNIV. OF CALIFORNIA, DAVIS, CALIFORNIA, 95616, U
SA
##NAMES=HP
##CAS NAME=Cyclohexene, 1-iodo-4-methyl-
##MOLFORM=C7H11I
##CAS REGISTRY NO=31053-85-7
##MP= -300
##BP= -300
##MW= 222
##$RETENTION INDEX=0
##$CONDENSED SPECTRUM=NO
##NPOINTS= 116
##XYDATA=(XY..XY) 1 
    12          2
    13          3
    14          9
    15         64
    16          2
    17          3
    18         11
    25          2
    26         44
    27        352
    28         42
    29         95
    30          2
    31          1
    32          0
    36          1
    37         20
    38         52
    39        330
    40         52
    41        266
    42         39
    43         34
    44          3
    45         15
    46          5
    47          1
    48          1
    49          8
    50        117
    51        194
    52        116
    53        803
    54         60
    55        383
    56         21
    57          3
    58          2
    59          1
    60          3
    61         17
    62         30
    63         54
    64         13
    65         93
    66         74
    67        321
    68         34
    69          8
    70          5
    71          4
    72          1
    73         11
    74         11
    75         11
    76          5
    77        158
    78         49
    79        181
    80         84
    81         26
    82          4
    83          3
    84          3
    85          3
    86          3
    87          2
    88         26
    89          7
    90         11
    91         56
    92          9
    93         59
    94         33
    95        999
    96         79
    97          7
    98          1
   101          2
   102          1
   103          1
   105          1
   107          5
   108          1
   109          2
   110          2
   111          1
   112          2
   115          2
   121          1
   122          2
   123          2
   125          1
   127        158
   128         44
   129          6
   130          8
   132          3
   139          2
   140          2
   141          5
   152          4
   153          3
   155          1
   165          3
   167          5
   180        109
   181          5
   182          1
   192          1
   193          8
   207          2
   208          5
   222        618
   223         48
   224          2