##TITLE=Library Entry 49241
##JCAMP-DX=Revision 4.10 
##DATA TYPE=MASS SPECTRUM
##SAMPLE DESCRIPTION=Exported from NIST MS Search
##NAMES=HP
##CAS NAME=Tetracyclo[3.3.1.0(2,8).0(4,6)]nonane
##MOLFORM=C9H12
##CAS REGISTRY NO=3105-29-1
##MP= -300
##BP= -300
##MW= 120
##$RETENTION INDEX=0
##$CONDENSED SPECTRUM=NO
##NPOINTS= 49
##XYDATA=(XY..XY) 1 
    26          6
    27        124
    28         16
    29         14
    37          6
    38         22
    39        403
    40         40
    41        409
    42          6
    50         32
    51        108
    52         42
    53         62
    54         18
    55         32
    62         20
    63         46
    64         14
    65        126
    66        546
    67         46
    68         10
    74          6
    75         18
    76          8
    77        351
    78        610
    79        999
    80        134
    81         20
    89         18
    90         16
    91        642
    92        192
    93         50
   102         10
   103         50
   104         20
   105        289
   106         24
   107         16
   108         20
   115         40
   116         16
   117         44
   119         56
   120        997
   121         96