##TITLE=Library Entry 71111
##JCAMP-DX=Revision 4.10 
##DATA TYPE=MASS SPECTRUM
##SAMPLE DESCRIPTION=J.VOTH UNIV. OF CALIF, DAVIS, CALIFORNIA, 95616, USA
##NAMES=HP
##CAS NAME=Cyclohexene, 1-(1,1-dimethylethoxy)-
##MOLFORM=C10H18O
##CAS REGISTRY NO=31053-82-4
##MP= -300
##BP= -300
##MW= 154
##$RETENTION INDEX=0
##$CONDENSED SPECTRUM=NO
##NPOINTS= 80
##XYDATA=(XY..XY) 1 
    12          1
    13          2
    14         10
    15         64
    16          1
    17          0
    18          2
    25          1
    26         30
    27        291
    28         64
    29        243
    30          5
    31         12
    36          0
    37          9
    38         22
    39        255
    40         50
    41        448
    42         94
    43         80
    44          5
    45          2
    49          2
    50         13
    51         50
    52         29
    53        110
    54         29
    55        273
    56         56
    57        397
    58        217
    59         55
    60          2
    61          2
    62          5
    63          7
    64          2
    65         17
    66         16
    67         29
    68         40
    69         58
    70        801
    71         46
    72          4
    73          3
    74          1
    75          1
    76          1
    77         29
    78          9
    79         50
    80         27
    81        120
    82         10
    83        170
    84          9
    85          0
    93          1
    94          5
    95         15
    96         24
    97        252
    98        999
    99         69
   100          5
   101          0
   109          0
   111          1
   112          4
   121          2
   127          6
   128          1
   139         17
   140          2
   154         20
   155          2