##TITLE=Library Entry 67845
##JCAMP-DX=Revision 4.10 
##DATA TYPE=MASS SPECTRUM
##SAMPLE DESCRIPTION=Exported from NIST MS Search
##NAMES=HP
##CAS NAME=Tricyclo[4.3.1.1(3,8)]undecan-1-ol
##MOLFORM=C11H18O
##CAS REGISTRY NO=31061-64-0
##MP= -300
##BP= -300
##MW= 166
##$RETENTION INDEX=0
##$CONDENSED SPECTRUM=NO
##NPOINTS= 47
##XYDATA=(XY..XY) 1 
    39         20
    40         50
    41         60
    42         10
    43         50
    44        380
    53         20
    54         10
    55         50
    57         20
    65         10
    66         10
    67         60
    68         30
    69         10
    70         10
    71         10
    77         40
    78         20
    79         60
    80         20
    81         50
    82         20
    83         20
    91         30
    92         20
    93         40
    94        100
    95        999
    96        110
    97         30
   105         10
   106         10
   107         10
   108         50
   109        100
   110         50
   111         10
   123         30
   124         10
   135         20
   148         30
   150         10
   151         10
   166        160
   167         10
   168         10