##TITLE=Library Entry 16263
##JCAMP-DX=Revision 4.10 
##DATA TYPE=MASS SPECTRUM
##SAMPLE DESCRIPTION=Exported from NIST MS Search
##NAMES=HP
##CAS NAME=Tricyclo[4.3.1.1(3,8)]undecane-1-carboxylic acid
##MOLFORM=C12H18O2
##CAS REGISTRY NO=31061-65-1
##MP= -300
##BP= -300
##MW= 194
##$RETENTION INDEX=0
##$CONDENSED SPECTRUM=NO
##NPOINTS= 67
##XYDATA=(XY..XY) 1 
    39         50
    40         90
    41         80
    42         20
    43         60
    44        999
    45         50
    46         20
    47         20
    50         30
    51         30
    52         20
    53         30
    54         20
    55         30
    56         20
    57         20
    58         20
    63         20
    64         20
    65         30
    66         30
    67        120
    68         20
    69         40
    70         20
    71         20
    73         20
    75         70
    76         20
    77         70
    78         80
    79        130
    80         50
    81        120
    82         20
    83         20
    91         20
    92         50
    93        190
    94         50
    95         50
    96         10
   103         20
   105         30
   106         20
   107        120
   108         30
   109         20
   113         20
   117         20
   119         30
   120         10
   121         30
   122         10
   123         10
   133         10
   134         10
   135         30
   136         10
   147         10
   148         10
   149        999
   150        190
   151         20
   194         60
   195         20