##TITLE=Library Entry 49764
##JCAMP-DX=Revision 4.10 
##DATA TYPE=MASS SPECTRUM
##SAMPLE DESCRIPTION=W.VOELTER CHEM. INST., UNIV., TUBINGEN, GERMANY, F.R.G.
##NAMES=HP
##CAS NAME=Trifluoroacetyl-.alpha.-fenchol
##MOLFORM=C12H17F3O2
##CAS REGISTRY NO=31076-73-0
##MP= -300
##BP= -300
##MW= 250
##$RETENTION INDEX=0
##$CONDENSED SPECTRUM=NO
##NPOINTS= 46
##XYDATA=(XY..XY) 1 
    27        140
    29        110
    39        170
    41        410
    43        140
    51         30
    53        110
    54         70
    55        310
    56         30
    57         20
    59         20
    65         40
    66         40
    67        310
    68         80
    69        190
    70         60
    77         80
    78         70
    79        270
    80        100
    81        999
    82        120
    83        130
    91         70
    93        220
    94         40
    95         40
   105         20
   107        160
   108         20
   109         50
   121        130
   122        190
   123        130
   125         20
   136        100
   137         30
   153         10
   167         10
   168         20
   180         10
   207         10
   235         20
   250         10