##TITLE=Library Entry 16986
##JCAMP-DX=Revision 4.10 
##DATA TYPE=MASS SPECTRUM
##SAMPLE DESCRIPTION=Japan AIST/NIMC Database- Spectrum MS-NW-5345
##NAMES=HP
##CAS NAME=(R)-(-)-2-Pentanol
##MOLFORM=C5H12O
##CAS REGISTRY NO=31087-44-2
##MP= -300
##BP= -300
##MW= 88
##$RETENTION INDEX=0
##$CONDENSED SPECTRUM=NO
##NPOINTS= 41
##XYDATA=(XY..XY) 1 
    14          2
    15         19
    17          3
    18         10
    19          1
    26          8
    27         87
    28         11
    29         44
    30          1
    31         52
    32          1
    35          1
    37          3
    38          6
    39         45
    40          6
    41         61
    42         27
    43        105
    44         71
    45        999
    46         22
    47          3
    50          2
    51          3
    52          1
    53          5
    54          1
    55        196
    56          9
    57          8
    58          3
    59          3
    69          3
    70         14
    71          6
    72          1
    73         76
    74          4
    87          5