##TITLE=Library Entry 77571
##JCAMP-DX=Revision 4.10 
##DATA TYPE=MASS SPECTRUM
##SAMPLE DESCRIPTION=F. TURECEK,HEYROVSKY INST PHYS CHEM & ELECTROCHEM,PRAGU
E,CZECH
##NAMES=HP
##CAS NAME=Tricyclo[6.2.2.0(2,7)]dodeca-6,9-diene
##MOLFORM=C12H16
##CAS REGISTRY NO=31080-94-1
##MP= -300
##BP= -300
##MW= 160
##$RETENTION INDEX=0
##$CONDENSED SPECTRUM=NO
##NPOINTS= 69
##XYDATA=(XY..XY) 1 
    26         30
    27        160
    29         50
    38         20
    39        260
    40         30
    41        220
    42         20
    43         50
    50         50
    51        170
    52         70
    53        100
    54         30
    55         60
    56         20
    57         50
    62         20
    63         90
    64         50
    65        170
    66         40
    67        100
    68         20
    69         40
    70         10
    71         20
    76         40
    77        250
    78        190
    79        260
    80        240
    81         70
    82         40
    83         30
    89         30
    90         10
    91        770
    92        150
    93         40
    94         20
    95         30
    96         10
    97         20
   101         10
   102         30
   103        110
   104        999
   105        170
   106         30
   115        170
   116         80
   117        430
   118        100
   119        100
   126         10
   127         30
   128         80
   129         90
   130         40
   131        310
   132        820
   133        100
   134         30
   145         65
   146         10
   159         30
   160        480
   161         60