##TITLE=Library Entry 28
##JCAMP-DX=Revision 4.10 
##DATA TYPE=MASS SPECTRUM
##SAMPLE DESCRIPTION=L.BARTON UNIV. MISSOURI-ST.LOUIS, ST.LOUIS, MISSOURI, U
SA
##NAMES=HP
##CAS NAME=1,2,4,3,5-Trioxadiborolane, 3,5-dimethyl-
##MOLFORM=C2H6B2O3
##CAS REGISTRY NO=31083-12-2
##MP= -300
##BP= -300
##MW= 100
##$RETENTION INDEX=0
##$CONDENSED SPECTRUM=NO
##NPOINTS= 65
##XYDATA=(XY..XY) 1 
    10         14
    11         44
    12         16
    13         22
    14         68
    15        999
    16         20
    18          2
    23          4
    24          8
    25         19
    26         39
    27         57
    28         93
    29        185
    30         10
    31         51
    33          8
    34         36
    35         10
    36          6
    37         21
    38         14
    39         25
    40         52
    41        108
    42        120
    43        152
    44         27
    45         31
    47         14
    48          6
    49         14
    50         69
    51         10
    52         29
    53         43
    54         52
    55         92
    56        110
    57         90
    58        174
    59         53
    64          6
    65          2
    66          6
    67         28
    68         92
    69        143
    70         61
    71         80
    72          8
    73          6
    83         42
    84        222
    85        425
    86         11
    87          6
    95          4
    96          5
    97          7
    98         14
    99         68
   100        136
   101          6