##TITLE=Library Entry 35398
##JCAMP-DX=Revision 4.10 
##DATA TYPE=MASS SPECTRUM
##SAMPLE DESCRIPTION=Philip Morris R&D
##NAMES=HP
##CAS NAME=.alpha.-Damascone
##MOLFORM=C13H20O
##CAS REGISTRY NO=31089-90-4
##MP= -300
##BP= -300
##MW= 192
##$RETENTION INDEX=1384
##$CONDENSED SPECTRUM=NO
##NPOINTS= 104
##XYDATA=(XY..XY) 1 
    36          3
    37          1
    38          4
    39         42
    40          8
    41        149
    42          7
    43         41
    44          5
    45          0
    47          0
    48          0
    49          2
    50          2
    51          7
    52          2
    53         16
    54          1
    55         32
    56          1
    57         38
    58          2
    59          0
    62          0
    63          2
    64          0
    65         14
    66          2
    67         41
    68          8
    69        999
    70         42
    71          4
    73          0
    74          0
    76          0
    77         20
    78          3
    79         32
    80          3
    81        167
    82         11
    83          3
    84          2
    85          0
    86          1
    89          0
    91         26
    92          3
    93         20
    94          3
    95         23
    96          3
    97          0
    98          0
   103          1
   104          0
   105          7
   106          1
   107         33
   108         13
   109         11
   110          2
   111          0
   112          1
   115          0
   117          1
   119          2
   120          0
   121         17
   122         22
   123        122
   124         14
   125          0
   127          0
   128          0
   129          0
   131          0
   132          0
   133          0
   134          0
   135         32
   136         10
   137          2
   138          0
   142          0
   144          0
   145          0
   147          0
   149          7
   150          1
   157          0
   159          1
   160          0
   161          0
   163          2
   164          1
   174          0
   175          0
   177         17
   178          2
   192        128
   193         17
   194          1