##TITLE=Library Entry 1563
##JCAMP-DX=Revision 4.10 
##DATA TYPE=MASS SPECTRUM
##SAMPLE DESCRIPTION=Exported from NIST MS Search
##NAMES=HP
##CAS NAME=1-Propanol, 2-bromo-3,3,3-trifluoro-
##MOLFORM=C3H4BrF3O
##CAS REGISTRY NO=311-86-4
##MP= -300
##BP= -300
##MW= 192
##$RETENTION INDEX=0
##$CONDENSED SPECTRUM=NO
##NPOINTS= 94
##XYDATA=(XY..XY) 1 
    13          1
    14          8
    15         26
    17          5
    18         24
    25          2
    26         13
    27         24
    28         19
    29        119
    30         12
    31        999
    32         17
    33         13
    41          4
    42         15
    43         45
    44         24
    45         30
    46         10
    47          3
    49         36
    50          5
    51         19
    55          2
    56          3
    57          3
    59          4
    61          1
    62          5
    63         28
    64         32
    65         24
    67          7
    69         66
    70          1
    71          5
    73          6
    75         13
    76          2
    77          8
    79         18
    80          6
    82         12
    83          6
    91         68
    92         15
    93         25
    94         10
    95         26
    96          4
   104          1
   105          9
   106          1
   107         10
   108          0
   109          4
   110          1
   111         30
   112          3
   113         25
   121          1
   122          3
   123         25
   124          4
   125         28
   126          1
   127          5
   131          6
   141          3
   142        703
   143         67
   144        691
   145         62
   146          2
   155          3
   157          1
   161          6
   162         15
   163          8
   164         14
   165          1
   169          1
   171          4
   172        441
   173         18
   174        432
   175         20
   176          4
   177          6
   191          3
   192          4
   193          3
   194          4