##TITLE=Library Entry 36721
##JCAMP-DX=Revision 4.10 
##DATA TYPE=MASS SPECTRUM
##SAMPLE DESCRIPTION=Japan AIST/NIMC Database- Spectrum MS-IW-3056
##NAMES=HP
##CAS NAME=Perfluorotributylamine
##MOLFORM=C12F27N
##CAS REGISTRY NO=311-89-7
##MP= -300
##BP= -300
##MW= 671
##$RETENTION INDEX=0
##$CONDENSED SPECTRUM=NO
##NPOINTS= 84
##XYDATA=(XY..XY) 1 
    31         13
    50         30
    69        999
    70         12
    76          2
    78          1
    81          3
    82          7
    93          8
    95          4
    96          4
   100        110
   101          4
   112          4
   113         36
   114         31
   119         95
   120          2
   126          1
   127          1
   131        383
   132         12
   138          1
   143          1
   145          5
   146          1
   150         19
   151          1
   158          2
   162          1
   163          4
   164          9
   169         28
   176          7
   181         15
   182          1
   183          9
   196          1
   200          2
   201         28
   202          1
   214          8
   219        664
   220         28
   226          4
   228         10
   231          5
   246         18
   247          1
   248          1
   264        111
   265          6
   266          3
   269          1
   276          1
   281          2
   284          1
   295          1
   296          2
   314          3
   326          2
   364          2
   376          6
   378          4
   396         13
   397          1
   414         37
   415          3
   426          6
   428          1
   446          3
   448         13
   449          1
   464         17
   465          1
   466         20
   467          2
   484         18
   485          1
   502         51
   503          5
   576          3
   614          9
   615          1