##TITLE=Library Entry 85891
##JCAMP-DX=Revision 4.10 
##DATA TYPE=MASS SPECTRUM
##SAMPLE DESCRIPTION=Japan AIST/NIMC Database- Spectrum MS-NW-6784
##NAMES=HP
##CAS NAME=Diethyl p-nitrophenyl phosphate
##MOLFORM=C10H14NO6P
##CAS REGISTRY NO=311-45-5
##MP= -300
##BP= -300
##MW= 275
##$RETENTION INDEX=1903
##$CONDENSED SPECTRUM=NO
##NPOINTS= 231
##XYDATA=(XY..XY) 1 
    14          4
    15         18
    16          3
    17          6
    18         29
    19          4
    25          2
    26         35
    27        165
    28         54
    29        360
    30        148
    31         20
    32         13
    35          1
    36          1
    37          9
    38         58
    39        100
    40          6
    41         14
    42          9
    43         50
    44          9
    45        114
    46          7
    47         78
    48          4
    49          4
    50         77
    51         45
    52         39
    53         37
    54         18
    55         12
    56          4
    57          5
    59          2
    60          2
    61         10
    62         52
    63        221
    64        171
    65        204
    66         18
    67          5
    68         11
    69          4
    70          2
    71         11
    72          1
    73          6
    74         38
    75        153
    76         88
    77         32
    78          9
    79         37
    80         27
    81        535
    82         42
    83         23
    84          3
    85          5
    86          1
    87          2
    88          2
    89          4
    90          6
    91        142
    92         75
    93        112
    94         40
    95          9
    96          5
    97          2
    98          2
    99        417
   100          7
   101          8
   102         12
   103         52
   104          8
   105          4
   106          9
   107         17
   108         19
   109        999
   110         89
   111         26
   112          2
   113          3
   115          5
   116          2
   117         17
   118          3
   119        135
   120         25
   121         20
   122         33
   123         71
   124          9
   125         12
   126         13
   127        280
   128         11
   129          5
   130          1
   131        136
   132         49
   133          8
   134         11
   135          4
   136          7
   137         40
   138          5
   139        375
   140         34
   141          7
   142          1
   143          9
   144          2
   145          6
   146          1
   147          2
   148          4
   149        501
   150         68
   151         14
   152         44
   153          6
   154          3
   155         65
   156         65
   157          9
   158          3
   159          8
   160          1
   161          3
   162          2
   163          2
   164          2
   165          2
   166         21
   167          8
   168          1
   169          2
   170          1
   171         35
   172         29
   173         93
   174         34
   175          9
   176          1
   177          2
   179          1
   181          3
   182          3
   183          6
   184         10
   185         24
   186         18
   187          6
   188          2
   189         42
   190          4
   191          2
   193          1
   194          1
   195          2
   196          1
   197          1
   198          1
   199         13
   200         32
   201         68
   202         38
   203         99
   204         11
   205          3
   206          1
   207          2
   211          2
   212          3
   213          5
   214          4
   215          4
   216          3
   217          8
   218          4
   219        164
   220        185
   221         18
   222          5
   223          1
   225          1
   226          1
   227          3
   228         14
   229         22
   230         63
   231         54
   232        152
   233         15
   234          3
   235          2
   237          1
   239          1
   240          1
   242          1
   243          2
   244          2
   245          7
   246         81
   247        264
   248         73
   249          9
   250          2
   256          1
   257          5
   258         42
   259         27
   260         34
   261          6
   271          1
   273          1
   274         16
   275        436
   276         51
   277          8
   278          1