##TITLE=Library Entry 82022
##JCAMP-DX=Revision 4.10 
##DATA TYPE=MASS SPECTRUM
##SAMPLE DESCRIPTION=Exported from NIST MS Search
##NAMES=HP
##CAS NAME=Isoxazole, 3-(4-nitrophenyl)-5-phenyl-
##MOLFORM=C15H10N2O3
##CAS REGISTRY NO=31108-56-2
##MP= -300
##BP= -300
##MW= 266
##$RETENTION INDEX=0
##$CONDENSED SPECTRUM=NO
##NPOINTS= 28
##XYDATA=(XY..XY) 1 
    77        620
    78         40
    89         80
    96         60
   103         20
   104         70
   105        999
   106         80
   116         20
   120         20
   143         20
   144        140
   145         20
   150        130
   151         20
   165         20
   189         30
   190         20
   191         30
   192         20
   219         20
   220         20
   236         20
   250         10
   265         50
   266        790
   267        120
   268         10