##TITLE=Library Entry 5511
##JCAMP-DX=Revision 4.10 
##DATA TYPE=MASS SPECTRUM
##SAMPLE DESCRIPTION=NIST Mass Spectrometry Data Center, 1994
##NAMES=HP
##CAS NAME=Ethyl n-propyl sulfone
##MOLFORM=C5H12O2S
##CAS REGISTRY NO=31110-65-3
##MP= -300
##BP= -300
##MW= 136
##$RETENTION INDEX=0
##$CONDENSED SPECTRUM=NO
##NPOINTS= 67
##XYDATA=(XY..XY) 1 
    12          1
    13          1
    14          4
    15         44
    16          1
    18          2
    19          1
    26         69
    27        597
    28         88
    29        330
    30          6
    32          1
    33          2
    34          2
    35          2
    37          6
    38         20
    39        184
    40         30
    41        531
    42        118
    43        999
    44         30
    45         16
    46          7
    47          8
    48         24
    49          8
    50          8
    51          1
    55          1
    56          2
    57          8
    58          5
    59          2
    60          1
    61          2
    62          2
    63         21
    64          8
    65         25
    66        228
    67          9
    68         12
    69          1
    71          1
    73          2
    75          2
    76          6
    77         15
    78          7
    79          3
    80         35
    81          1
    82          1
    92          0
    94        140
    95        115
    96          9
    97          5
   106          1
   107          7
   108         21
   109          1
   136          7
   137          3