##TITLE=Library Entry 25552
##JCAMP-DX=Revision 4.10 
##DATA TYPE=MASS SPECTRUM
##SAMPLE DESCRIPTION=Chemical Concepts
##NAMES=HP
##CAS NAME=Pentanoic acid, 2-methyl-2-propyl-
##MOLFORM=C9H18O2
##CAS REGISTRY NO=31113-56-1
##MP= -300
##BP= -300
##MW= 158
##$RETENTION INDEX=0
##$CONDENSED SPECTRUM=NO
##NPOINTS= 92
##XYDATA=(XY..XY) 1 
    26          5
    27        239
    28         17
    29        219
    30          5
    31         19
    36          0
    37          0
    38          3
    39        103
    40         23
    41        446
    42         43
    43        664
    44         20
    45        113
    46          4
    47          3
    50          2
    51          8
    52          3
    53         35
    54          6
    55        169
    56         51
    57        999
    58         46
    59         69
    60          5
    61          1
    63          0
    64          0
    65          8
    66          2
    67         19
    68         10
    69        138
    70         22
    71        922
    72         56
    73         34
    74         10
    75          1
    77          3
    78          0
    79          3
    80          1
    81          4
    82          2
    83         14
    84          5
    85         12
    86          4
    87        730
    88         35
    89          3
    91          1
    93          0
    95          2
    96          2
    97         12
    98          9
    99          3
   100          1
   101          8
   102          5
   107          0
   109          1
   111          8
   112         12
   113        483
   114         42
   115         40
   116        774
   117         55
   118          4
   125          0
   127          0
   129         85
   130          7
   131          0
   138          0
   139          0
   141          2
   143          3
   144          0
   156          0
   157          2
   158          0
   159         43
   160          5
   161          0