##TITLE=Library Entry 42763
##JCAMP-DX=Revision 4.10 
##DATA TYPE=MASS SPECTRUM
##SAMPLE DESCRIPTION=D.HENNEBERG, MAX-PLANCK INSTITUTE, MULHEIM, WEST GERMAN
Y
##NAMES=HP
##CAS NAME=Pyrimidine, 2,4,6-tris[(trimethylsilyl)oxy]-
##MOLFORM=C13H28N2O3Si3
##CAS REGISTRY NO=31111-39-4
##MP= -300
##BP= -300
##MW= 344
##$RETENTION INDEX=1596
##$CONDENSED SPECTRUM=NO
##NPOINTS= 261
##XYDATA=(XY..XY) 1 
    25          2
    26          1
    27          4
    28         19
    29          8
    31          2
    32          9
    34          0
    35          1
    38          1
    39          0
    40          2
    41          2
    42          4
    43         33
    44         38
    45        227
    46         16
    47         16
    48          1
    49          4
    50          0
    52          1
    53          2
    54          2
    55          5
    56          3
    57         10
    58         14
    59         41
    60          6
    61          8
    62          2
    63          4
    64          3
    65          5
    66          7
    67          6
    68          4
    69         47
    70         16
    71         13
    72         52
    73        999
    74         94
    75         88
    76          5
    77         32
    78          1
    79          0
    80          2
    81          2
    82          1
    83          5
    84          6
    85         10
    86         18
    87          6
    88          2
    89          2
    90          1
    91          2
    93          9
    94          1
    95          4
    96          2
    97          4
    98          5
    99         48
   100         81
   101         15
   102          8
   103          9
   104          3
   105          3
   106          0
   107          1
   108          2
   109          1
   110          2
   111          2
   112          2
   113         10
   114          3
   115         11
   116          8
   117         34
   118          6
   119          8
   120          0
   121          2
   122          1
   123          1
   124          3
   125          3
   126          5
   127          3
   128          2
   129          4
   130         11
   131         97
   132         27
   133         58
   134         10
   135          5
   136          2
   138          1
   139          2
   140          5
   141          2
   142          3
   143          5
   144          3
   145          2
   146          6
   147        532
   148         85
   149         45
   150          4
   151          2
   153          1
   154          3
   155          2
   156          9
   157          9
   158          8
   159          5
   160          3
   161          5
   162          1
   166          0
   167          3
   168          1
   171         10
   172          5
   173         14
   174         15
   175          4
   177          0
   178          1
   180          2
   181          2
   182          3
   183          1
   184          9
   185          4
   186          5
   187          3
   188          6
   189          2
   190          1
   191          2
   192          1
   193          1
   194          1
   195          1
   196          2
   197          4
   198          5
   199          1
   200          3
   201          2
   202          2
   203          1
   204          3
   205          3
   206          3
   207          2
   208          2
   209          1
   211          2
   212         11
   213          3
   214          6
   215          3
   216          3
   217          0
   218          1
   219          0
   220          1
   221          1
   222          0
   223          1
   225          1
   226          1
   227          1
   229          3
   230          3
   231          3
   233          1
   234          0
   237          1
   240          4
   241         16
   242          4
   243          1
   244          1
   245         14
   246          3
   247          1
   248          0
   249          1
   251          1
   252          2
   253          4
   254          5
   255          6
   256          3
   257          5
   259          1
   261          5
   262          2
   263          1
   264          1
   265          0
   267          1
   268          2
   270         45
   271         12
   272          7
   276          1
   277          0
   280          0
   281          0
   282          1
   287          1
   290          1
   293          0
   295          0
   296          2
   298          1
   299          3
   301          1
   303          0
   304          0
   306          1
   307          1
   308          1
   309          5
   313         16
   314         16
   315         14
   317          4
   319          2
   323          2
   325          3
   327         20
   329        491
   330        150
   331         78
   332         18
   333          6
   336          2
   338          4
   339          6
   343        298
   344        314
   345        116
   346         46
   347         13
   348          4