##TITLE=Library Entry 23104
##JCAMP-DX=Revision 4.10 
##DATA TYPE=MASS SPECTRUM
##SAMPLE DESCRIPTION=Exported from NIST MS Search
##NAMES=HP
##CAS NAME=Butane, 1-(ethylsulfonyl)-
##MOLFORM=C6H14O2S
##CAS REGISTRY NO=31124-38-6
##MP= -300
##BP= -300
##MW= 150
##$RETENTION INDEX=0
##$CONDENSED SPECTRUM=NO
##NPOINTS= 55
##XYDATA=(XY..XY) 1 
    25         10
    26         50
    27        300
    28        200
    29        930
    30         30
    32         10
    34         10
    38         10
    39         80
    40         20
    41        560
    42         30
    43         30
    44         20
    45         20
    46         10
    47         10
    48         20
    49         10
    50         20
    51         10
    53         20
    54         10
    55         80
    56        170
    57        999
    58         40
    59         10
    61         10
    63         30
    64         20
    65         20
    66        110
    67         20
    68         10
    75         10
    76         20
    77         20
    78         40
    80         70
    94         40
    95        330
    96         20
    97         20
   108         20
   121         70
   122         10
   123         10
   133         14
   134          4
   135          1
   150         18
   151          2
   152          1