##TITLE=Library Entry 59595
##JCAMP-DX=Revision 4.10 
##DATA TYPE=MASS SPECTRUM
##SAMPLE DESCRIPTION=NIST Mass Spectrometry Data Center
##NAMES=HP
##CAS NAME=Benzyl phenyl sulfone
##MOLFORM=C13H12O2S
##CAS REGISTRY NO=3112-88-7
##MP= -300
##BP= -300
##MW= 232
##$RETENTION INDEX=0
##$CONDENSED SPECTRUM=NO
##NPOINTS= 40
##XYDATA=(XY..XY) 1 
    13          1
    16          2
    27         10
    28          1
    37          3
    38         10
    39         81
    40          5
    41         18
    44          3
    45          6
    50         41
    51        126
    52         10
    53          4
    62          9
    63         43
    64         14
    65        164
    66          9
    69          4
    74         10
    75          7
    77         80
    78          8
    89         36
    91        999
    92         76
    93          3
    97          4
   115          3
   125          3
   152         12
   153          7
   165         18
   166          7
   167         21
   168          4
   232         35
   233          5