##TITLE=Library Entry 7657
##JCAMP-DX=Revision 4.10 
##DATA TYPE=MASS SPECTRUM
##SAMPLE DESCRIPTION=Exported from NIST MS Search
##NAMES=HP
##CAS NAME=Sulfone, butyl propyl
##MOLFORM=C7H16O2S
##CAS REGISTRY NO=31124-39-7
##MP= -300
##BP= -300
##MW= 164
##$RETENTION INDEX=0
##$CONDENSED SPECTRUM=NO
##NPOINTS= 60
##XYDATA=(XY..XY) 1 
    25         10
    26         40
    27        440
    28        180
    29        580
    30         20
    31         10
    32         10
    34         10
    37         10
    38         20
    39        230
    40         30
    41        880
    42        100
    43        999
    44         50
    45         30
    46         10
    47         20
    48         20
    50         10
    51         10
    53         20
    54         10
    55         70
    56        160
    57        950
    58         50
    59         10
    61         10
    63         30
    64         20
    65         20
    66         10
    67         20
    71         10
    76         20
    80         20
    81         30
    91         10
    93         10
    94         20
   105         10
   107         10
   108         20
   109        260
   110         20
   111         20
   121         42
   122         21
   123         10
   132          3
   135         14
   147          8
   148          2
   149          2
   164          8
   165          4
   166          1