##TITLE=Library Entry 109870
##JCAMP-DX=Revision 4.10 
##DATA TYPE=MASS SPECTRUM
##SAMPLE DESCRIPTION=Div. of Experiment Therapeutics, WRAIR, WRAMC, Wash. DC
 20307
##NAMES=HP
##CAS NAME=4-Ethoxybenzene, 4,4'-dithiobis-
##MOLFORM=C16H18O2S2
##CAS REGISTRY NO=31121-13-8
##MP= -300
##BP= -300
##MW= 306
##$RETENTION INDEX=0
##$CONDENSED SPECTRUM=NO
##NPOINTS= 120
##XYDATA=(XY..XY) 1 
    41         10
    42          4
    43         16
    44          4
    45        115
    47         18
    48          4
    49         52
    50          9
    51         31
    52          6
    53        104
    55         19
    56          1
    57          8
    58         13
    59          4
    60          1
    61          2
    62          6
    63         31
    64         10
    65         23
    66          3
    67          2
    69         77
    70         49
    71         26
    72          3
    73          2
    74          2
    75          2
    76          2
    77          5
    78          1
    79          5
    81        146
    82         25
    84         44
    85         13
    86         23
    88          4
    89          1
    91         13
    92          5
    93          5
    94          4
    95         16
    96         26
    97        174
    98         22
    99          8
   100          1
   102          0
   103          0
   105          0
   106          0
   107          1
   108         23
   109          5
   110          2
   111          2
   112          0
   113          1
   115          1
   119          0
   120          0
   121          1
   122          1
   124          5
   125        999
   126        102
   127         61
   128          5
   129          3
   131          0
   134          0
   135          2
   137          5
   138          0
   139          2
   140          1
   141          0
   149          0
   151          4
   153        754
   154         96
   155         41
   156          2
   157          9
   158          0
   159          1
   160          1
   166          0
   167          3
   168          0
   169          0
   171          1
   181          0
   182          0
   183          2
   185          7
   186          2
   187          1
   199          4
   200          1
   201          0
   216          1
   217          0
   219          0
   242          1
   246          0
   274          2
   276          2
   277          0
   278          1
   306        543
   307        100
   308         57
   309          9