##TITLE=Library Entry 23009
##JCAMP-DX=Revision 4.10 
##DATA TYPE=MASS SPECTRUM
##SAMPLE DESCRIPTION=H. Fales, LC, NHLBI, NIH, Bethesda, MD 20892
##NAMES=HP
##CAS NAME=Powelline, 6-hydroxy-
##MOLFORM=C17H19NO5
##CAS REGISTRY NO=31128-98-0
##MP= -300
##BP= -300
##MW= 317
##$RETENTION INDEX=0
##$CONDENSED SPECTRUM=NO
##NPOINTS= 232
##XYDATA=(XY..XY) 1 
    41        145
    42        147
    43        151
    44        138
    45         43
    46          6
    47          8
    49         16
    51        208
    53        199
    54        110
    55         20
    56        999
    57         28
    58         68
    59         15
    60          7
    63        157
    64         19
    65        143
    66         35
    67         45
    68         39
    69         43
    70         52
    71         58
    72         24
    73         16
    74         23
    75         47
    77        245
    78         66
    79         56
    80         35
    81         24
    82         31
    83          7
    84         46
    85         28
    86         25
    87         21
    88         24
    89         79
    90         35
    91         97
    92         28
    93         27
    94         27
    95         16
    96         11
    97          7
    98         18
    99         21
   100         15
   101         31
   102         56
   103         56
   104         31
   105         33
   106         21
   107         28
   108         13
   109          8
   110          7
   111          8
   113         32
   115        203
   116         44
   117         34
   118         29
   119         21
   120         21
   121         14
   122         12
   123         10
   124          5
   126         25
   127         59
   128         64
   129         40
   130         31
   131         44
   132         23
   133         21
   134         12
   135         16
   136          4
   137         12
   139         22
   140         17
   141         32
   142         21
   143         37
   144         30
   145         33
   146         16
   147         24
   148         13
   149          9
   150          7
   151         12
   152         25
   153         20
   154         16
   155         20
   156         15
   157         31
   158         22
   159         28
   160         19
   161         18
   162          6
   163          8
   164          7
   165         30
   166         10
   167         11
   168         15
   169         20
   170         19
   171         42
   172         20
   173         33
   174         14
   175         32
   176          8
   177         12
   178         10
   179         12
   180          8
   181         13
   182         11
   183         16
   184         13
   185         36
   186         24
   187         37
   188         21
   189         57
   190         32
   191         15
   192         10
   193          7
   194          4
   195          8
   196         11
   197         14
   198         14
   199         25
   200         22
   201         55
   202         50
   203         46
   204         27
   205         29
   206         14
   207          6
   208          4
   209          4
   210          7
   211         20
   212         15
   213         28
   214         30
   215         98
   216         97
   217         53
   218         54
   219         47
   220         14
   221          3
   222          3
   223          4
   224          6
   225          6
   226         12
   227         26
   228         56
   229         61
   230         29
   231         35
   233        195
   234         29
   235          5
   238          4
   239         17
   240         13
   241         26
   242         22
   243         63
   244        208
   245         77
   246         37
   247         19
   248          7
   252          3
   253          9
   254         18
   255         16
   256         40
   257         20
   258         27
   259         12
   260         18
   261         23
   262         85
   263         12
   267          4
   268          6
   269          8
   270         28
   271         29
   272         18
   273         12
   274         43
   275          7
   282         20
   283          4
   284          8
   285          4
   286         11
   287         12
   288         36
   289          8
   298         12
   299         65
   300         39
   301         24
   302          7
   317        269
   318         55
   319          9