##TITLE=Library Entry 55944
##JCAMP-DX=Revision 4.10 
##DATA TYPE=MASS SPECTRUM
##SAMPLE DESCRIPTION=A.A.Kutin, Moscow, Russia
##NAMES=HP
##CAS NAME=Indole, 2-(4-morpholylmethyl)-5-nitro-
##MOLFORM=C13H15N3O3
##CAS REGISTRY NO=311324-21-7
##MP= -300
##BP= -300
##MW= 261
##$RETENTION INDEX=0
##$CONDENSED SPECTRUM=NO
##NPOINTS= 173
##XYDATA=(XY..XY) 1 
    33          3
    34          1
    35          0
    36          1
    37          3
    38         14
    39         37
    40         22
    41         52
    42         75
    43         45
    44         18
    45         15
    46          6
    47          0
    48          0
    50         42
    51         74
    52         45
    53         15
    54         34
    56        641
    57         84
    58         21
    59          4
    61          7
    62         26
    63         50
    64         31
    65         25
    66          4
    67          3
    68          5
    69          6
    70         11
    71         21
    72         14
    74         28
    75         52
    76         64
    77         58
    78         47
    79         13
    80          7
    81          1
    82          1
    83          1
    86        999
    87         81
    88         17
    89         37
    90         18
    91          8
    92         18
    93          2
    94          0
    95          0
    96          0
    98         10
    99         24
   100         38
   101         60
   102        140
   103         58
   104          8
   105          4
   106          2
   107          5
   108          3
   109          0
   110          0
   111          0
   112          1
   113          2
   114          9
   115         19
   116         33
   117         54
   118          8
   119          1
   120          0
   121          0
   122          1
   123          1
   124          0
   125          0
   126          3
   127         22
   128        148
   129        473
   130         74
   131          6
   132          1
   133          0
   134          0
   135          0
   139          0
   140          3
   141          5
   142         28
   143         22
   144         17
   145         17
   146         15
   147          1
   149          0
   150          0
   151          0
   152          0
   153          1
   154          3
   155          8
   156         10
   157          5
   158          7
   159         27
   160         17
   161          2
   162          0
   163          0
   165          0
   166          0
   167          0
   168          1
   169          3
   170          2
   171          2
   172          5
   175        611
   176        291
   177         29
   178          3
   179          0
   181          0
   182          0
   183          1
   184          1
   185          1
   186          0
   188         74
   189         19
   190          3
   191          0
   193          0
   195          0
   196          0
   199          0
   201          4
   202          9
   203          8
   204          2
   205          0
   209          0
   213          0
   214          3
   215          2
   216          3
   217          1
   222          0
   229          0
   230          4
   231          3
   232          0
   244          0
   245          1
   246          0
   255          0
   257          0
   259          3
   260         11
   261        116
   262         17
   263          2