##TITLE=Library Entry 47304
##JCAMP-DX=Revision 4.10 
##DATA TYPE=MASS SPECTRUM
##SAMPLE DESCRIPTION=A.A.Kutin, Moscow, Russia
##NAMES=HP
##CAS NAME=Acetamide, 2-(2-benzoxazolylthio)-N-(4-ethylphenyl)-
##MOLFORM=C17H16N2O2S
##CAS REGISTRY NO=311318-09-9
##MP= -300
##BP= -300
##MW= 312
##$RETENTION INDEX=0
##$CONDENSED SPECTRUM=NO
##NPOINTS= 191
##XYDATA=(XY..XY) 1 
    33         32
    34         19
    35          0
    37         53
    38        126
    39        366
    40         97
    41        140
    42         89
    43         82
    44         62
    45        171
    46         54
    47         27
    48          8
    50        103
    51        239
    52        165
    53         97
    54         32
    55         22
    56          9
    57         18
    58         22
    59         17
    60         12
    61         26
    62         74
    63        274
    64        245
    65        276
    66         50
    67         22
    68         10
    69         32
    70         38
    71         18
    72         18
    73          7
    74         15
    75         32
    77        999
    78        352
    79        179
    80         38
    81          8
    82         13
    83         10
    84          6
    85          5
    86          3
    87          6
    88         10
    89         56
    90        106
    91        495
    92        169
    93        188
    94         35
    95         40
    96         53
    97          9
    98          8
    99          1
   100          0
   102         33
   103         81
   104        173
   105        175
   106        777
   107         71
   108         12
   109         13
   110          4
   111          3
   112          5
   113          2
   114          2
   115         10
   116         28
   117         44
   118        142
   119        256
   120        288
   121        472
   122        290
   123         31
   124         18
   125          7
   126          2
   127          3
   128          8
   129          5
   130         24
   132        860
   133        142
   134        217
   135         32
   136         44
   137         28
   138          6
   139          3
   140          2
   141          2
   142          6
   143          3
   144          6
   145         16
   146         67
   147         22
   148         42
   149         22
   150         89
   151        212
   152        622
   153         72
   154         30
   155          5
   156          8
   158          8
   161        775
   162         92
   163         86
   164        408
   165        668
   166         79
   167         35
   168          4
   169          3
   170         24
   171         10
   172          1
   175          2
   177        137
   178         20
   179          8
   180          2
   181          0
   182          1
   183          0
   184          1
   185          0
   191        170
   192        847
   193         97
   194         46
   195          9
   196          2
   197          4
   198          0
   199          0
   209          1
   210          1
   211          1
   221          1
   223         39
   224          6
   225          1
   226          3
   227         18
   228          3
   229          2
   235          0
   236          2
   237          7
   238         60
   239         26
   240          4
   241          1
   243          0
   249          2
   250          7
   251          1
   253          1
   254          1
   255          1
   265          1
   269          1
   270          0
   280          0
   282          0
   283         13
   284          2
   295          0
   308          5
   309          6
   310          8
   312        380
   313         66
   314         22
   315          3