##TITLE=Library Entry 14178
##JCAMP-DX=Revision 4.10 
##DATA TYPE=MASS SPECTRUM
##SAMPLE DESCRIPTION=Asinex Ltd, Moscow, Russia
##NAMES=HP
##CAS NAME=N-[4-(Diaminomethylene-sulfamoyl)-2-nitro-phenyl]-acetamide
##MOLFORM=C9H11N5O5S
##CAS REGISTRY NO=311315-98-7
##MP= -300
##BP= -300
##MW= 301
##$RETENTION INDEX=0
##$CONDENSED SPECTRUM=NO
##NPOINTS= 202
##XYDATA=(XY..XY) 1 
    33          1
    34          2
    35          2
    36         14
    37          7
    38         25
    39         48
    40         28
    41         38
    42        103
    43        999
    44         88
    45         15
    46          6
    47          1
    48         11
    50         19
    51         35
    52         61
    53         17
    54          9
    55          8
    56          3
    57          6
    58         35
    59         25
    60         32
    61         10
    62         37
    63         86
    64         79
    65         23
    66         14
    67          7
    68          4
    69          9
    70          4
    71          2
    72          3
    73          2
    74          9
    75         16
    76         21
    77         25
    78         28
    79         25
    80         21
    81          4
    82          3
    83          3
    84          2
    85          2
    86          4
    87          2
    88         11
    89         22
    90         46
    91         78
    92         24
    93         11
    94         11
    95         15
    96          4
    97          1
    98          1
    99          0
   100          4
   101          1
   102          2
   103          6
   104         11
   105         43
   106        189
   107         72
   108         16
   109          2
   110          2
   111          0
   112          0
   113          0
   114          0
   115          3
   116          3
   117          6
   118          4
   119          7
   120          7
   121          7
   122         29
   123         25
   124          4
   125          1
   126          0
   127          2
   128          0
   129          0
   130          0
   131          2
   132         11
   133         20
   134          5
   135          6
   136         20
   137         24
   138          5
   139          6
   140          2
   141          0
   144          1
   145          2
   147         28
   148         13
   149          4
   150          3
   151          7
   152         24
   153        153
   154         23
   155          2
   156          0
   159          1
   160          2
   161          3
   162          2
   163          0
   164          0
   165          1
   166          0
   167          1
   168          0
   169          0
   170          0
   171          1
   173          0
   174          0
   175          1
   176          1
   177          5
   178         22
   179          5
   180          1
   181          0
   182          1
   183          8
   184          1
   185          5
   186          0
   187          0
   189          0
   190          0
   192          0
   193          5
   194          9
   195         42
   196          4
   197          0
   198          2
   199          4
   200         10
   201         56
   202          4
   203          3
   204          0
   206          0
   207          1
   211          0
   213         10
   214          0
   215          1
   217         40
   218          3
   219          1
   220          0
   224          0
   225          1
   226          0
   236          0
   237          2
   238          3
   239          1
   240          3
   241          5
   242         47
   243         10
   244          3
   252          0
   253          1
   255         39
   256          9
   257         11
   259        331
   260         31
   261         17
   262          1
   270          0
   284          0
   285          0
   286          0
   301         94
   302         11
   303          4
   304          0