##TITLE=Library Entry 2184
##JCAMP-DX=Revision 4.10 
##DATA TYPE=MASS SPECTRUM
##SAMPLE DESCRIPTION=A.A.Kutin, Moscow, Russia
##NAMES=HP
##CAS NAME=1,2,5-Triazole, 1-(3-propenyl)-3-nitro-4-formamido-, 2-oxide
##MOLFORM=C6H7N5O4
##CAS REGISTRY NO=311314-76-8
##MP= -300
##BP= -300
##MW= 213
##$RETENTION INDEX=0
##$CONDENSED SPECTRUM=NO
##NPOINTS= 87
##XYDATA=(XY..XY) 1 
    34          4
    36          6
    37          5
    38         25
    39        231
    40        156
    41        999
    42         88
    43         89
    44         81
    45          8
    46         10
    47          0
    51          2
    52         12
    53         73
    54         74
    55         27
    56         19
    57         17
    58          2
    59          0
    60          2
    62          0
    64          1
    66         93
    67         31
    68         62
    69        197
    70         57
    71         16
    72          0
    73          2
    77          2
    78          2
    80         99
    81         78
    82          9
    83         11
    84          9
    85          2
    86          0
    91          1
    92          1
    93         42
    94         26
    95          7
    96          4
    98          9
   101          0
   105          0
   106          1
   107          2
   108          0
   109          5
   110          2
   111         18
   112          5
   113          1
   120          0
   121         22
   122         36
   123          4
   124          0
   127          0
   129          1
   133          3
   134          3
   135          0
   139         11
   140          2
   149          1
   150          0
   153          0
   155          0
   165          0
   167          5
   168          1
   169          4
   171          1
   181          1
   185          1
   195          0
   197          4
   211          0
   213         48
   214          4