##TITLE=Library Entry 17713
##JCAMP-DX=Revision 4.10 
##DATA TYPE=MASS SPECTRUM
##SAMPLE DESCRIPTION=A.A.Kutin, Moscow, Russia
##NAMES=HP
##CAS NAME=1,2,3-1H-Triazole-4-carboxylic acid, 1-(4-amino-3-furazanyl)-5-me
thoxymethyl-, methyl ester
##MOLFORM=C8H10N6O4
##CAS REGISTRY NO=311314-83-7
##MP= -300
##BP= -300
##MW= 254
##$RETENTION INDEX=0
##$CONDENSED SPECTRUM=NO
##NPOINTS= 140
##XYDATA=(XY..XY) 1 
    33         20
    34          0
    37          9
    38         15
    39         26
    40         25
    41         23
    42         34
    43         21
    45        999
    46         17
    47          5
    50          1
    51          7
    52         33
    53         66
    54         78
    55         50
    56          9
    57         21
    58         21
    59         37
    60          4
    61          3
    64         14
    66         21
    67         21
    68         26
    69         37
    70          6
    71          4
    72          8
    73          2
    75         64
    77          6
    78         25
    79         14
    80         37
    81         12
    82         16
    83         18
    84         29
    85         32
    87         21
    88          1
    89          2
    90          0
    91          0
    92          2
    93         17
    94         16
    95          8
    96          8
    97          8
    98         11
    99          4
   100          6
   101          1
   102          0
   104          1
   105          7
   106          6
   107         20
   108         21
   109         37
   110         55
   111         12
   112         28
   113          7
   114          3
   115          1
   116          0
   117          0
   119          1
   120          9
   121         14
   122          7
   123         16
   124         10
   125          8
   126          6
   127          5
   128         17
   129          1
   131          0
   132         13
   133         37
   134         11
   135         17
   136         28
   137         96
   138         36
   139          9
   140          5
   141          5
   142         33
   144          0
   146          0
   148          3
   149          5
   150         25
   151         11
   152          5
   153          3
   154         11
   155          3
   156          1
   161          0
   163         56
   164        102
   165         37
   166         19
   167         12
   168          5
   169         16
   170          2
   171          0
   177          0
   178         10
   179         10
   180          5
   181          8
   182          1
   183          1
   192          0
   193         23
   195         62
   196          7
   197          2
   209          7
   210          0
   211          1
   213          0
   222          0
   223          0
   224          1
   225          1
   239          0
   254         17
   255          1