##TITLE=Library Entry 76680
##JCAMP-DX=Revision 4.10 
##DATA TYPE=MASS SPECTRUM
##SAMPLE DESCRIPTION=A.A.Kutin, Moscow, Russia
##NAMES=HP
##CAS NAME=1-Phenyl-2-phenylsulphonyloxyethylene
##MOLFORM=C14H12O3S
##CAS REGISTRY NO=311330-92-4
##MP= -300
##BP= -300
##MW= 260
##$RETENTION INDEX=0
##$CONDENSED SPECTRUM=NO
##NPOINTS= 136
##XYDATA=(XY..XY) 1 
    33          0
    34          1
    36          0
    37         10
    38         46
    39        290
    40         27
    41          5
    42          1
    43          1
    44          3
    45         15
    46          0
    47          1
    48          9
    49          3
    50         70
    51        190
    52         31
    53         13
    54          1
    55          6
    56          0
    57          1
    58          1
    60          0
    61          5
    62         25
    63         81
    64         34
    65        272
    66         37
    67          2
    68          0
    69          2
    70          0
    71          0
    73          2
    74         28
    75         32
    76         62
    77        392
    78         30
    79          6
    80          1
    81          1
    82          1
    83          0
    84          0
    85          0
    86          1
    87          3
    88          0
    89         11
    90          8
    91         18
    92          3
    93         36
    94         74
    95          5
    96          0
    97          2
    98          2
    99          0
   100          0
   101         12
   102        134
   103        999
   104         92
   105         10
   106          3
   107          4
   108          1
   109          0
   111          0
   113          0
   115          3
   116          2
   117          0
   118         14
   119          2
   120          0
   121          3
   122          0
   123          5
   124          0
   126          0
   127          1
   128          2
   129          0
   132          0
   133          2
   134          6
   135          1
   136          0
   137          0
   139          2
   141          2
   142          0
   148          0
   149          3
   150          0
   151          2
   152          6
   153          4
   154          0
   155          0
   163          0
   164          0
   165          8
   166          4
   167        413
   168         60
   169         23
   170          2
   171          0
   176          0
   177          1
   178          2
   179          3
   180          0
   181          4
   182          0
   194          0
   195         24
   196        415
   197         62
   198          5
   199          1
   203          0
   220          0
   231          0
   260          9
   261          1
   262          0
   263          0