##TITLE=Library Entry 4310
##JCAMP-DX=Revision 4.10 
##DATA TYPE=MASS SPECTRUM
##SAMPLE DESCRIPTION=A.A.Kutin, Moscow, Russia
##NAMES=HP
##CAS NAME=Quinoline-4-carboxamide, 2-(4-methylpent-3-enyl)-N-(2-thiazolyl)-
##MOLFORM=C19H19N3OS
##CAS REGISTRY NO=311321-77-4
##MP= -300
##BP= -300
##MW= 337
##$RETENTION INDEX=0
##$CONDENSED SPECTRUM=NO
##NPOINTS= 230
##XYDATA=(XY..XY) 1 
    33          1
    34          4
    36          1
    38          7
    39        139
    40         47
    41        999
    42         49
    43         69
    44         10
    45        122
    46         11
    47          7
    50         18
    51         84
    52         16
    53         89
    54         17
    55        279
    56         15
    57         20
    58         57
    59         20
    60          7
    61          3
    62         11
    63         33
    64         10
    65         30
    66         10
    67         80
    68         14
    69        507
    70         31
    71         13
    72          5
    73         18
    74         28
    75        159
    76         34
    77         49
    78         11
    79         18
    80          3
    81         18
    82         19
    83         63
    84         22
    85          3
    86         10
    87         10
    88         23
    89         30
    90         35
    91         51
    92          2
    93          5
    94          1
    96          4
    97          8
    98          9
    99         38
   100         86
   101        224
   102         53
   103         12
   104          4
   105         27
   106          1
   110          1
   111          2
   112          4
   113         44
   114        159
   115        210
   116         79
   117         13
   118          4
   119          1
   120          3
   121          2
   125          3
   126         10
   127         92
   128        141
   129         58
   130         30
   131          5
   132          2
   133          3
   134          3
   137          1
   138          3
   139         25
   140        278
   141        233
   142        413
   143        105
   144         14
   145          2
   147          6
   148          5
   150          1
   151          5
   152         18
   153         17
   154         76
   155         38
   156         25
   157          6
   158          1
   159          1
   160          1
   161          1
   163          0
   164          3
   165         12
   166         46
   167        244
   168        180
   169        106
   170        290
   171         39
   172          4
   173          1
   176          0
   177          2
   178         11
   179         15
   180         97
   181         78
   182         50
   183         16
   184          5
   185          1
   186          3
   187          0
   189          0
   190          2
   191         14
   192         31
   193         49
   194        261
   195        125
   196         78
   197         12
   198          2
   199          2
   200          2
   201          2
   204          3
   205          3
   206          9
   207         11
   208         67
   209        417
   210        217
   211         40
   212          8
   213          3
   214          1
   215          0
   219          1
   220          6
   221          2
   222         25
   223          8
   224          2
   225          2
   226          7
   227          8
   228          3
   229          1
   234          1
   235          2
   236          7
   237         26
   238         67
   239         15
   240          7
   241         86
   242         13
   243          5
   251          2
   252          2
   253          3
   254         17
   255          5
   256          6
   257          1
   264          2
   265          3
   266          4
   267          7
   268         11
   269        832
   270        151
   271         65
   272          8
   273          1
   276          0
   278          0
   279          1
   280          1
   281          2
   282         19
   283          9
   284          2
   293          2
   294         35
   295         51
   296         17
   297          4
   298          0
   304          1
   308         23
   309          6
   310          4
   320          3
   322        238
   323         50
   324         18
   325          3
   334          1
   336         73
   337        398
   338         83
   339         34
   340          5
   341          1