##TITLE=Library Entry 53603
##JCAMP-DX=Revision 4.10 
##DATA TYPE=MASS SPECTRUM
##SAMPLE DESCRIPTION=A.A.Kutin, Moscow, Russia
##NAMES=HP
##CAS NAME=1-(4-Amino-furazan-3-yl)-5-pyrrolidin-1-ylmethyl-1H-[1,2,3]triazo
le-4-carboxylic acid ethyl ester
##MOLFORM=C12H17N7O3
##CAS REGISTRY NO=311314-88-2
##MP= -300
##BP= -300
##MW= 307
##$RETENTION INDEX=0
##$CONDENSED SPECTRUM=NO
##NPOINTS= 163
##XYDATA=(XY..XY) 1 
    33          2
    34          0
    36          0
    37          2
    38          7
    39         41
    40         25
    41         95
    42        240
    43         68
    44         15
    45          5
    46          0
    50          1
    51          7
    52         28
    53         42
    54         57
    55        135
    56         35
    57         26
    58          5
    59          1
    60          0
    63          1
    64          8
    65          6
    66         16
    67         24
    68         26
    69         28
    70        158
    71         24
    72          4
    73          1
    76          0
    77          7
    78         12
    79         16
    80         17
    81         11
    82         25
    84        999
    85         55
    86          2
    87          0
    90          0
    91          4
    92          3
    93          8
    94          9
    95          8
    96          5
    97          7
    98          7
    99          1
   100          0
   101          0
   103          0
   104          1
   105          5
   106         10
   107         12
   108         20
   109         11
   110          7
   111          2
   112          6
   113          2
   114          0
   115          0
   117          0
   118          0
   119          2
   120          5
   121         10
   122          8
   123          8
   124          6
   125          3
   126          2
   127          0
   128          0
   129          2
   130          0
   131          1
   132          2
   133         19
   134         11
   135          5
   136          5
   137          3
   138          1
   139          0
   140          1
   143          0
   144          0
   145          0
   146          1
   147          5
   148         13
   149         14
   150          5
   151          5
   152         11
   153          1
   157          0
   158          0
   159          0
   160          1
   161          2
   162          1
   163          2
   164          2
   165          1
   166          0
   167          4
   168          0
   170          0
   171          6
   172          1
   173          1
   174          3
   175         22
   176         32
   177         13
   178          3
   179          3
   180          6
   181          0
   188          0
   189          2
   190          1
   191          0
   192          0
   193          1
   194          0
   195          4
   199          0
   201          2
   203         22
   204          3
   205          2
   206         10
   207          5
   208          0
   216          1
   218          2
   219          1
   221          4
   222          4
   223          1
   232          0
   233          1
   234          0
   247          1
   249          6
   250          1
   262          4
   263          0
   279          0
   307          5
   308          0