##TITLE=Library Entry 53905
##JCAMP-DX=Revision 4.10 
##DATA TYPE=MASS SPECTRUM
##SAMPLE DESCRIPTION=NIST Mass Spectrometry Data Center, 1994
##NAMES=HP
##CAS NAME=D-Campholic acid
##MOLFORM=C10H18O2
##CAS REGISTRY NO=31147-56-5
##MP= -300
##BP= -300
##MW= 170
##$RETENTION INDEX=0
##$CONDENSED SPECTRUM=NO
##NPOINTS= 92
##XYDATA=(XY..XY) 1 
    15         40
    16          0
    17          0
    18          4
    19          4
    26         11
    27        238
    28         45
    29        196
    30          5
    31          7
    37          2
    38         16
    39        313
    40         55
    41        690
    42         94
    43        232
    44         14
    45        117
    46          6
    47          3
    50         13
    51         43
    52         17
    53        131
    54         32
    55        382
    56        100
    57         52
    58          7
    59        101
    60          6
    62          3
    63          9
    65         38
    66         12
    67        148
    68         58
    69        965
    70        133
    71         31
    72          4
    73          9
    74         11
    75          2
    76          2
    77         38
    78          7
    79         39
    80          7
    81         62
    82         34
    83         94
    84        999
    85         82
    86          2
    87        199
    88         11
    89          2
    91         21
    92          3
    93         12
    94          4
    95         42
    96        139
    97        108
    98         10
    99         48
   100         35
   101         17
   105          3
   107          4
   109        126
   110         22
   111          5
   112          3
   113         54
   114         42
   115         16
   116          5
   123          8
   124         11
   125         11
   127         25
   128          7
   137          9
   152         34
   153          4
   155          9
   170         34
   171          4