##TITLE=Library Entry 100783
##JCAMP-DX=Revision 4.10 
##DATA TYPE=MASS SPECTRUM
##SAMPLE DESCRIPTION=V.A.KOPTYUG, ATLAS OF MASS SPECTRA OF ORGANIC COMPOUNDS
##NAMES=HP
##CAS NAME=2,5-Dimethyl-4-(4 -methyl)-benzylpyridine
##MOLFORM=C15H17N
##CAS REGISTRY NO=31146-35-7
##MP= -300
##BP= -300
##MW= 211
##$RETENTION INDEX=0
##$CONDENSED SPECTRUM=NO
##NPOINTS= 82
##XYDATA=(XY..XY) 1 
    29         55
    30         18
    31         17
    38         13
    39        106
    40         63
    41         63
    42         60
    43        296
    45         16
    50         13
    51         48
    52         27
    53         38
    54         12
    55         26
    56         12
    57         14
    58         76
    63         30
    64         13
    65         57
    66         12
    67         15
    68         11
    69         13
    75         10
    76         18
    77        150
    78         64
    79         83
    80         18
    81         11
    82         19
    83         13
   115         58
   116         13
   117         14
   118         68
   119        999
   120        110
   127         10
   128         55
   129         28
   139         17
   141         27
   142         10
   143         13
   151         15
   152         59
   153         56
   154         28
   155         35
   156         13
   165         37
   166         20
   167         22
   168         13
   169         15
   178         13
   179         10
   180         49
   181        150
   182         38
   183         24
   192         10
   193         18
   194         83
   195         85
   196        211
   197         49
   198         46
   199         68
   200         93
   201         56
   202        121
   204         29
   208         14
   209         15
   210        129
   211        553
   212         93