##TITLE=Library Entry 35401
##JCAMP-DX=Revision 4.10 
##DATA TYPE=MASS SPECTRUM
##SAMPLE DESCRIPTION=Exported from NIST MS Search
##NAMES=HP
##CAS NAME=2,6,10-Nonadecatriene, 2,6,10,14-tetramethyl-, (E,E)-
##MOLFORM=C23H42
##CAS REGISTRY NO=31147-35-0
##MP= -300
##BP= -300
##MW= 318
##$RETENTION INDEX=0
##$CONDENSED SPECTRUM=NO
##NPOINTS= 62
##XYDATA=(XY..XY) 1 
    41        350
    42         60
    43        380
    44         70
    55        240
    56        150
    57         50
    58         50
    67        350
    68        260
    69        999
    70         90
    71        100
    81        480
    82        290
    83        250
    85         90
    86         20
    95        340
    96        210
    97        110
   107        100
   108         50
   109        340
   110         70
   111        250
   112         70
   113         20
   121        250
   122         70
   123        120
   124         50
   125         20
   135        300
   136         90
   137        270
   138         80
   139         50
   151         70
   152         20
   165         40
   166         20
   177         20
   178         20
   179         40
   180         20
   193         80
   194         30
   207         50
   208         20
   234         80
   235         40
   247         20
   248         20
   249        100
   250         50
   275         80
   276         20
   303         30
   304         20
   318         80
   319         20