##TITLE=Library Entry 37275
##JCAMP-DX=Revision 4.10 
##DATA TYPE=MASS SPECTRUM
##SAMPLE DESCRIPTION=A.A.Kutin, Moscow, Russia
##NAMES=HP
##CAS NAME=Piperidine-4-ol, 1,2,5-trimethyl-4-(4-tolylmethyl)-
##MOLFORM=C16H25NO
##CAS REGISTRY NO=31146-21-1
##MP= -300
##BP= -300
##MW= 247
##$RETENTION INDEX=0
##$CONDENSED SPECTRUM=NO
##NPOINTS= 103
##XYDATA=(XY..XY) 1 
    33          3
    34          6
    38          1
    39         62
    40        125
    41        163
    42        324
    43        220
    44        417
    45          9
    51         25
    52         19
    53         44
    55         90
    56        185
    57        152
    58        199
    59          8
    62          2
    63          9
    64          6
    65         35
    66          7
    67         25
    68         18
    70        999
    71        106
    72         27
    74          2
    75          3
    77         90
    78         89
    79        116
    80         12
    81         39
    82         19
    83         12
    84         92
    85         16
    86          2
    88          4
    89         12
    91         81
    92          8
    93          1
    94          8
    95          5
    96         10
    97          0
    98         95
    99         14
   100          3
   102          1
   103         37
   104         92
   105        333
   106         39
   107          3
   108         19
   109          0
   110         28
   111          7
   113         10
   115         22
   116          4
   117          7
   118          1
   119          6
   122          7
   124         54
   126         58
   127         22
   128         11
   129          9
   130          3
   131          6
   132          2
   135          0
   138          0
   140          9
   142        352
   143         25
   144          4
   145          5
   149          2
   152          0
   155          2
   157          1
   161          0
   176          0
   195          3
   198          0
   214         17
   215          2
   228          2
   230          7
   232        305
   233         41
   234          1
   245          1
   246         11
   247         74
   248          7