##TITLE=Library Entry 27939
##JCAMP-DX=Revision 4.10 
##DATA TYPE=MASS SPECTRUM
##SAMPLE DESCRIPTION=Japan AIST/NIMC Database- Spectrum MS-NW-2732
##NAMES=HP
##CAS NAME=trans-1,4-Cyclohexanediamine
##MOLFORM=C6H14N2
##CAS REGISTRY NO=3114-70-3
##MP= -300
##BP= -300
##MW= 114
##$RETENTION INDEX=0
##$CONDENSED SPECTRUM=NO
##NPOINTS= 58
##XYDATA=(XY..XY) 1 
    14          1
    15          9
    16          3
    17         42
    18        189
    26          4
    27         23
    28        101
    29         19
    30         91
    31          2
    32          9
    38          2
    39         22
    40          4
    41         77
    42         89
    43        495
    44        101
    45          8
    50          2
    51          4
    52          5
    53         10
    54         25
    55         16
    56        213
    57        152
    58        999
    59         37
    63          1
    65          4
    66          3
    67          9
    68         83
    69         65
    70         15
    71         13
    72          1
    77         12
    78          2
    79         18
    80         10
    81         15
    82         66
    83          6
    84          9
    85         16
    86          5
    93          6
    94          6
    95          2
    96         62
    97        117
    98         12
   113          2
   114          9
   115          1