##TITLE=Library Entry 14655
##JCAMP-DX=Revision 4.10 
##DATA TYPE=MASS SPECTRUM
##SAMPLE DESCRIPTION=Div. of Experiment Therapeutics WRAIR, WRAMC, Washingto
n DC 20307
##NAMES=HP
##CAS NAME=N-[5-Acetyl-5H-dibenzo][b,f][azepin-10-yl]morpholine
##MOLFORM=C20H20N2O2
##CAS REGISTRY NO=31150-25-1
##MP= -300
##BP= -300
##MW= 320
##$RETENTION INDEX=0
##$CONDENSED SPECTRUM=NO
##NPOINTS= 163
##XYDATA=(XY..XY) 1 
    41        196
    43        999
    45        439
    46          2
    47         22
    49         14
    51         61
    52         21
    54        255
    55         46
    56         67
    57         28
    58          3
    59          2
    60         17
    62         16
    63        102
    64         20
    65         26
    66          6
    67          7
    68         18
    69         17
    70         22
    71         41
    72         11
    73         14
    74         19
    75         56
    76         37
    77         47
    78          9
    81         69
    83         54
    84         15
    86         68
    87         18
    88         27
    89         41
    90         21
    91         24
    92          1
    95        149
    98         16
    99          8
   100          9
   101         21
   102         42
   103         19
   104          8
   105         28
   106          6
   109         67
   110         11
   111          8
   112          2
   113         30
   114         20
   115         37
   116         21
   117          8
   123         13
   124          7
   125         13
   126         17
   127         15
   128         11
   129          4
   130          8
   131          6
   137         15
   138         11
   139         24
   140         27
   141          7
   143          7
   149          2
   150         11
   151         47
   152         65
   153         30
   154         10
   161          2
   162         13
   163        104
   164        104
   165        268
   166         45
   167         15
   172          6
   175          2
   176         20
   177         36
   178         83
   179        162
   180        329
   181         52
   182         10
   185          5
   187          1
   188         16
   189         20
   190        156
   191        184
   192        330
   193        350
   194         79
   195         12
   196          2
   202          6
   203         15
   204         99
   205         70
   206         92
   207         46
   208         28
   209          8
   213          6
   215         12
   216         21
   217         68
   218        164
   219        225
   220        107
   221         43
   222         11
   230          6
   231         17
   232         29
   233         68
   234         52
   235         38
   236         11
   243          5
   245         30
   246         27
   247        121
   248         28
   249         10
   250          4
   259          1
   261          4
   262         10
   263         15
   264          4
   272          2
   273         31
   274          6
   275         39
   276         52
   277        725
   278        138
   279         12
   289         51
   290          8
   305         49
   306         10
   317          2
   318         17
   319        686
   320        864
   321        172
   322         28