##TITLE=Library Entry 22406
##JCAMP-DX=Revision 4.10 
##DATA TYPE=MASS SPECTRUM
##SAMPLE DESCRIPTION=Chemical Concepts
##NAMES=HP
##CAS NAME=Hexadecanoic acid, 1,1-dimethylethyl ester
##MOLFORM=C20H40O2
##CAS REGISTRY NO=31158-91-5
##MP= -300
##BP= -300
##MW= 312
##$RETENTION INDEX=0
##$CONDENSED SPECTRUM=NO
##NPOINTS= 140
##XYDATA=(XY..XY) 1 
    26         28
    27        116
    29        316
    30         12
    31         27
    33          7
    36          8
    37         14
    38         18
    39         87
    40         19
    41        444
    42         91
    43        526
    44         21
    45          8
    46          7
    47          7
    49          8
    50         21
    51         12
    52          2
    53         32
    54         46
    55        317
    56        999
    57        622
    58         33
    59         16
    60        278
    61        153
    62          7
    64          7
    65         13
    66         13
    67         28
    68         35
    69        191
    70         30
    71        142
    72         20
    73        303
    74         36
    75         27
    76         12
    77          7
    78         18
    79         22
    80         19
    81         32
    82         37
    83        103
    84         67
    85         74
    86         14
    87         45
    89         15
    92         10
    93          5
    94         16
    95         60
    96          6
    97         77
    98         32
    99         19
   101         48
   102         13
   103         20
   104         14
   105          3
   107          9
   108         11
   109         33
   110         17
   111         27
   112         26
   113         16
   114          8
   115         32
   116         72
   117         48
   118         18
   119         13
   120         15
   121         16
   122         10
   123         20
   124         15
   125         31
   126         13
   127         14
   128         15
   129        108
   130         19
   131          1
   132          9
   135          5
   138          8
   139         14
   141         14
   143         19
   145         18
   147         13
   148          9
   149         13
   150          8
   152         11
   154          8
   157         19
   158          9
   159          8
   163          7
   165          9
   166         10
   168         11
   171         17
   172         10
   176          9
   177          9
   178          7
   179         12
   183          8
   185         28
   190          9
   191         15
   192          8
   201          7
   207          7
   208          8
   213         20
   227         12
   239         62
   240         19
   242          8
   256         24
   257         91
   258         16
   281          8
   312         20
   313          8