##TITLE=Library Entry 6798
##JCAMP-DX=Revision 4.10 
##DATA TYPE=MASS SPECTRUM
##SAMPLE DESCRIPTION=Patti Price, Georgia Bureau of Investigation, Decatur,
 Georgia
##NAMES=HP
##CAS NAME=Dicloxacillin
##MOLFORM=C19H17Cl2N3O5S
##CAS REGISTRY NO=3116-76-5
##MP= -300
##BP= -300
##MW= 469
##$RETENTION INDEX=0
##$CONDENSED SPECTRUM=NO
##NPOINTS= 230
##XYDATA=(XY..XY) 1 
    41        154
    42        188
    43        999
    44        759
    45        308
    46         72
    47        145
    48         86
    49         58
    50        107
    51         65
    52         45
    53         83
    54         71
    55        142
    56         73
    57         42
    58         23
    59         85
    60         46
    61         55
    62         41
    63         52
    64         45
    65         19
    66         23
    67         38
    68         70
    69         64
    70         41
    71         40
    72         33
    73        106
    74        130
    75        204
    76         47
    77         20
    78         14
    79         78
    80         34
    81         30
    82         85
    83         54
    84         59
    85         65
    86         55
    87         78
    88         39
    89         67
    90         13
    91         12
    92          8
    93         12
    94         96
    95         38
    96         34
    97         36
    98         37
    99         80
   100        210
   101         35
   102         24
   103         10
   107         25
   108         27
   109        101
   110         56
   111         69
   112         50
   113         28
   114        170
   115         43
   116         26
   117         11
   118          7
   119          9
   120          9
   121         17
   122         21
   123         61
   124         40
   125         43
   126         75
   127         32
   128         55
   129         27
   130         18
   131         12
   132          7
   133         23
   134         19
   135         59
   136        154
   137         56
   138         64
   139         23
   140         29
   141         23
   142         41
   143         10
   144         22
   145         36
   146         17
   147         28
   148         84
   149         41
   150         49
   151         37
   152         30
   153         18
   154         20
   155         16
   156         26
   157         50
   158         19
   159         74
   160         24
   161         34
   162         14
   163         24
   164         22
   165         20
   166         18
   167         15
   168         12
   169         21
   170         15
   171        479
   172         99
   173        317
   174        308
   175         96
   176         29
   177         18
   178         18
   179         19
   180         21
   181         11
   182         17
   183         36
   184         84
   185         33
   186         55
   187         65
   188        178
   189         32
   190         28
   191         11
   192         16
   193         24
   194        318
   195         60
   196        111
   197         22
   198         10
   199         11
   200         12
   201         15
   202          7
   203         12
   204          8
   205         19
   206          9
   207         21
   208         10
   209         11
   210         13
   211         59
   212        492
   213         92
   214        392
   215         48
   216         99
   217         15
   218         51
   219         34
   220         28
   221         17
   222         13
   223          7
   225          6
   227          9
   228          9
   229         16
   230          8
   231         21
   232          8
   233         21
   234         34
   235        392
   236         64
   237        141
   238         24
   239          9
   247        108
   248         21
   249         45
   250         14
   251         15
   252          6
   253          9
   254         94
   255         20
   256         69
   257         12
   258         20
   259         23
   260          7
   261         14
   263          7
   266         13
   268         13
   270          9
   274          8
   275          8
   283         14
   285         10
   295         18
   297         13
   307        306
   308         52
   309        103
   310         24
   311         12
   321         10
   322          7
   326         10
   398          8
   423         12
   425          9