##TITLE=Library Entry 7375
##JCAMP-DX=Revision 4.10 
##DATA TYPE=MASS SPECTRUM
##SAMPLE DESCRIPTION=D.HENNEBERG, MAX-PLANCK INSTITUTE, MULHEIM, WEST GERMAN
Y
##NAMES=HP
##CAS NAME=5-Hepten-2-one, 4,6-dimethyl-
##MOLFORM=C9H16O
##CAS REGISTRY NO=31162-48-8
##MP= -300
##BP= -300
##MW= 140
##$RETENTION INDEX=1015
##$CONDENSED SPECTRUM=NO
##NPOINTS= 95
##XYDATA=(XY..XY) 1 
    25          0
    26          3
    27         76
    28         24
    29         61
    30          1
    31          1
    32          1
    33          0
    34          0
    35          0
    36          0
    37          4
    38          6
    39        105
    40         20
    41        239
    42         22
    43        999
    44         26
    45          9
    46          0
    47          0
    48          0
    49          1
    50          5
    51         16
    52          6
    53         42
    54         14
    55        596
    56         49
    57         17
    58         14
    59          4
    60          0
    61          0
    62          1
    63          4
    64          0
    65         13
    66          6
    67        152
    68         12
    69         66
    70          5
    71          3
    72          3
    73          0
    74          0
    75          1
    76          0
    77         12
    78          2
    79         19
    80          4
    81         41
    82        224
    83        312
    84         22
    85         76
    86          4
    87          0
    91          7
    92          1
    93          3
    94          6
    95          6
    96         11
    97         68
    98          9
    99          1
   103          0
   105          9
   107         81
   108          8
   109          3
   110          1
   111          4
   112          1
   115          0
   119          1
   120          4
   121          2
   122         82
   123         11
   124          0
   125         70
   126          7
   127          0
   136          0
   138          0
   139          0
   140         35
   141          3