##TITLE=Library Entry 49969
##JCAMP-DX=Revision 4.10 
##DATA TYPE=MASS SPECTRUM
##SAMPLE DESCRIPTION=Asinex Ltd, Moscow, Russia
##NAMES=HP
##CAS NAME=Phenol, 4-[4-chloro-6-(2-furyl)methylamino-1,3,5-triazin-2-ylamin
o]-
##MOLFORM=C14H12ClN5O2
##CAS REGISTRY NO=311788-82-6
##MP= -300
##BP= -300
##MW= 317
##$RETENTION INDEX=0
##$CONDENSED SPECTRUM=NO
##NPOINTS= 229
##XYDATA=(XY..XY) 1 
    33          0
    35          8
    36         29
    37         12
    38         51
    39        187
    40         40
    41         61
    42         24
    43         45
    44          9
    45          3
    49          3
    50         33
    51        100
    52        154
    53        543
    54         47
    55         52
    56          7
    57          8
    58          1
    59          1
    60          4
    62         73
    63         37
    64         46
    65        130
    66         44
    67         47
    68        121
    69         45
    70          6
    71          4
    72          0
    73          4
    74          3
    75          5
    76          6
    77         16
    78         56
    79         64
    81        999
    82         56
    83          6
    84          2
    85          1
    87         24
    88          5
    89         10
    90          8
    91         16
    92         20
    93        106
    94         57
    95         45
    96        231
    97         16
    98          2
    99          1
   100          1
   101          2
   102          2
   103          5
   104         14
   105         23
   106         29
   107         42
   108        109
   109         47
   110          5
   111          1
   112          2
   113          3
   114          3
   115          6
   116          3
   117          6
   118         11
   119         43
   120         69
   121         87
   122         13
   123          3
   124          1
   125          2
   126          2
   127          5
   128         11
   129          9
   130          8
   131         10
   132         15
   133         75
   134        186
   135         85
   136          8
   137          1
   138          1
   139          1
   141         11
   142          2
   143          2
   144         17
   145         31
   146         28
   147         12
   148         36
   149          8
   150          5
   151          2
   152          2
   153          5
   154         21
   155          6
   156         12
   157          8
   159         80
   160        137
   161         25
   162         11
   163         16
   164          1
   167          1
   168          0
   169          2
   170          6
   171          6
   172          8
   173          9
   174          5
   175          9
   176          1
   179          1
   180          1
   181          4
   182          3
   183          8
   184          6
   185         19
   186         21
   187         17
   188         18
   189          2
   192          1
   193          1
   194          5
   195          6
   196         39
   197          7
   198         14
   199          5
   200         10
   201         12
   202          8
   203          2
   204          1
   205          8
   206          1
   207          3
   208          2
   209          6
   210          4
   211          7
   212         12
   213          8
   214          3
   219          1
   220          4
   221         31
   222         15
   223         18
   224          9
   225          8
   226         12
   227         14
   228          3
   234          1
   235          1
   236         14
   237         19
   238         14
   239          8
   240          4
   241          0
   247          1
   248          7
   249          6
   250          9
   251          8
   252         48
   253         19
   254         29
   255         11
   256          2
   258          0
   259          1
   260          4
   261          6
   262         40
   263         13
   264         20
   265         31
   266          5
   272          0
   273          1
   274          4
   275          1
   276          1
   277          1
   279          9
   280         29
   282        290
   283         47
   284          6
   286         14
   288        133
   289         26
   290         36
   291          6
   300         12
   301          2
   302          3
   315        131
   317        464
   318        101
   319        141
   320         23
   321          2