##TITLE=Library Entry 15762
##JCAMP-DX=Revision 4.10 
##DATA TYPE=MASS SPECTRUM
##SAMPLE DESCRIPTION=A.A.Kutin, Moscow, Russia
##NAMES=HP
##CAS NAME=Phosphinic acid, [(methyl)(formyl)amino]methyl(2-phenylethyl)-
##MOLFORM=C11H16NO3P
##CAS REGISTRY NO=311789-96-5
##MP= -300
##BP= -300
##MW= 241
##$RETENTION INDEX=0
##$CONDENSED SPECTRUM=NO
##NPOINTS= 164
##XYDATA=(XY..XY) 1 
    33          4
    34          1
    36         21
    37          6
    38         24
    39         91
    40         25
    41         84
    42        290
    44        999
    45        104
    46         85
    47        102
    48         19
    49         20
    50         68
    51        168
    52         42
    53         18
    54          7
    55         25
    56         16
    58        424
    59         24
    60         13
    61          9
    62         22
    63         65
    64         42
    65        233
    66         17
    67          9
    68          4
    69         19
    70          9
    72        631
    73        634
    74         45
    75         25
    76         36
    77        281
    78        227
    79        151
    80         42
    81          9
    82          7
    83         10
    84          5
    85          6
    86          4
    87          5
    88          3
    89         32
    91        215
    92         26
    93          6
    94          4
    95          8
    96          9
    97          9
    98          5
    99          3
   100          1
   101          6
   102         40
   103        203
   104        514
   105        199
   106         28
   107          6
   108          8
   109          8
   110          2
   111          4
   112          2
   113          1
   115          5
   116          2
   117          8
   118          4
   119          3
   120          7
   121          4
   122          3
   123          4
   125          8
   126          3
   127          2
   128          2
   129          1
   130          0
   131          1
   132          3
   133         14
   134          5
   135          7
   136         25
   137        178
   138          5
   139          2
   140          1
   141          9
   142         41
   143          3
   144          0
   145          0
   146          0
   147          2
   148          1
   149          8
   151         37
   152          3
   153          3
   154          1
   155          0
   156          1
   157          1
   158          0
   159          1
   161          0
   163          1
   164          0
   165          2
   166          0
   167          3
   168          2
   169         51
   170         71
   171          9
   172          0
   173          0
   177          5
   178          1
   179          0
   180          0
   181          1
   183          4
   184          7
   185          0
   188          0
   189          0
   191          0
   193          0
   194          0
   195          0
   197          1
   200          1
   203          0
   206          0
   208          0
   210          0
   212          2
   213          4
   214          0
   223          0
   224          1
   225          1
   227          1
   228          1
   237          0
   238          2
   241        140
   242         17
   243          1