##TITLE=Library Entry 70538
##JCAMP-DX=Revision 4.10 
##DATA TYPE=MASS SPECTRUM
##SAMPLE DESCRIPTION=M. HUSSAIN PROBE INSERTION
##NAMES=HP
##CAS NAME=2H-Quinolizin-2-ol, octahydro-, trans-
##MOLFORM=C9H17NO
##CAS REGISTRY NO=31172-60-8
##MP= -300
##BP= -300
##MW= 155
##$RETENTION INDEX=0
##$CONDENSED SPECTRUM=NO
##NPOINTS= 41
##XYDATA=(XY..XY) 1 
    54        194
    55        761
    56        269
    57        179
    58         97
    59        231
    67        112
    68        119
    69        228
    70        134
    71         75
    74        150
    80         75
    81        134
    82        254
    83        776
    84        224
    85         60
    96        266
    97        999
    98        201
    99        216
   108         89
   110        482
   111        258
   112         89
   113        313
   114         52
   120         57
   126        119
   127         75
   134        179
   135        131
   136        179
   137         67
   138        657
   139         75
   140        122
   154        875
   155        616
   156         64