##TITLE=Library Entry 5464
##JCAMP-DX=Revision 4.10 
##DATA TYPE=MASS SPECTRUM
##SAMPLE DESCRIPTION=Chemical Concepts
##NAMES=HP
##CAS NAME=3,5-Bis(3-nitrobenzylidene)-1-propylpiperidin-4-one
##MOLFORM=C22H21N3O5
##CAS REGISTRY NO=311790-09-7
##MP= -300
##BP= -300
##MW= 407
##$RETENTION INDEX=0
##$CONDENSED SPECTRUM=NO
##NPOINTS= 227
##XYDATA=(XY..XY) 1 
    33         31
    34          9
    36          3
    37          6
    38         12
    39         75
    40        111
    42        999
    43        182
    44         95
    45         12
    46          9
    48          1
    50         28
    51         77
    52         14
    53         23
    55         38
    56         45
    57         33
    58          9
    60          5
    61          7
    62         12
    63         51
    64         28
    65         57
    66         16
    68         20
    69         41
    70         21
    71         15
    73          7
    74         23
    75         36
    77         93
    78         12
    79         12
    81         17
    82          9
    83         13
    84         23
    85          9
    86          9
    87         17
    89         86
    90         16
    91         15
    92          6
    93          9
    94          6
    95         10
    96          9
    97          5
    98          4
    99          9
   101         39
   102         44
   103         23
   104         17
   105         14
   106          9
   108          9
   109          8
   110          5
   111          5
   112         13
   113         32
   114         63
   115        245
   116         68
   117         20
   118          9
   119          8
   120          8
   121          9
   122          8
   124          3
   125          4
   128         66
   129         33
   130         23
   131         12
   132          8
   133          6
   135         11
   136         15
   137          4
   138          1
   139          8
   140          9
   142         30
   143         77
   144         19
   145          9
   146          5
   147          4
   148         17
   149         19
   151         11
   152         10
   153          9
   154          7
   155          6
   156          6
   157          7
   158          7
   160         28
   161         20
   162         10
   163         14
   164          4
   165         16
   166         19
   167         10
   168          7
   169          5
   170          6
   171         17
   172          7
   173          5
   174         12
   175          9
   176         11
   177         10
   178          6
   179          2
   180          5
   181         11
   182          3
   183          2
   184          3
   185          3
   186          4
   187          7
   188         57
   189         27
   190         21
   191          6
   192          1
   194          1
   195          3
   196          2
   197          3
   199          3
   200          2
   201          6
   202          9
   203         11
   204          5
   205          2
   208          1
   210          2
   211          2
   213          6
   214          9
   215         15
   217         52
   218          7
   219          4
   224          1
   225          2
   226          4
   227          6
   228          5
   229          6
   230          6
   231          6
   232          2
   233          1
   239          1
   240          4
   241          6
   242          6
   243         15
   244          8
   245         31
   246          6
   247          1
   253          1
   254          1
   255          3
   256          4
   257         13
   258          5
   259          2
   269          1
   270          3
   271          7
   272          3
   273          3
   274          5
   275          2
   283          2
   284          2
   285          1
   287          1
   295          1
   301          2
   303          2
   304          2
   318          1
   332          4
   348          2
   350         12
   351          4
   360          5
   361          2
   362          6
   363          2
   364          3
   373          4
   374          6
   375          8
   376         11
   378        378
   379         79
   380         12
   381          1
   390         27
   391          7
   392          1
   404          2
   406         18
   407         45
   408         10
   409          2