##TITLE=Library Entry 73187
##JCAMP-DX=Revision 4.10 
##DATA TYPE=MASS SPECTRUM
##SAMPLE DESCRIPTION=A.A.Kutin, Moscow, Russia
##NAMES=HP
##CAS NAME=Acetamide, N-(2-diethylaminocarbonylthio)phenyl-
##MOLFORM=C13H18N2O2S
##CAS REGISTRY NO=311788-50-8
##MP= -300
##BP= -300
##MW= 266
##$RETENTION INDEX=0
##$CONDENSED SPECTRUM=NO
##NPOINTS= 97
##XYDATA=(XY..XY) 1 
    33          2
    34          3
    37          3
    38         12
    39         43
    40         34
    41         36
    42        153
    43        564
    44        391
    45         54
    46          4
    47          3
    50         10
    51         26
    52         33
    53         40
    54         15
    55         10
    56         68
    57         14
    58         28
    59          3
    60          5
    61          4
    62          7
    63         29
    64         18
    65         32
    66          6
    67          5
    69         43
    70         54
    72        932
    73         50
    74          5
    75          2
    76          5
    77          7
    78         14
    80        189
    81         16
    82          9
    83          3
    84          5
    85          0
    86          0
    88          4
    89          0
    90          9
    91         15
    92          9
    93         17
    95         25
    96         64
    97         45
    98         11
   100        999
   101         50
   102          4
   104          3
   105          0
   106          3
   107          0
   108          7
   109          9
   110          1
   111          0
   117          0
   118          1
   119          1
   120          1
   121          1
   122         15
   123         25
   124        180
   125         44
   126         11
   127          1
   132          0
   133          0
   134          2
   135          1
   136          9
   137          0
   138          1
   147          1
   149        164
   150        135
   151         26
   152         13
   153          1
   165          0
   166         11
   167          2
   266         15
   267          2