##TITLE=Library Entry 82723
##JCAMP-DX=Revision 4.10 
##DATA TYPE=MASS SPECTRUM
##SAMPLE DESCRIPTION=A.A.Kutin, Moscow, Russia
##NAMES=HP
##CAS NAME=Propenamide, 2-acetylamino-3-(3,4-methylenedioxyphenyl)-N-benzyl-
##MOLFORM=C19H18N2O4
##CAS REGISTRY NO=311784-08-4
##MP= -300
##BP= -300
##MW= 338
##$RETENTION INDEX=0
##$CONDENSED SPECTRUM=NO
##NPOINTS= 230
##XYDATA=(XY..XY) 1 
    33          1
    34          4
    36          5
    37          6
    38         20
    39         85
    40         60
    41         41
    43        973
    44         65
    45         12
    46          3
    50         94
    51        137
    52         43
    53         26
    54         11
    55         12
    56          7
    57         12
    58          2
    59          1
    60          3
    61          3
    62         20
    63         57
    64         28
    65        195
    66         17
    67          5
    68          5
    69          8
    70          6
    71          7
    72          1
    73          3
    74         18
    75         55
    76        258
    77        216
    78         82
    79         71
    80         14
    81          6
    82          6
    83          5
    84          3
    86          5
    87          9
    88         11
    89         46
    91        991
    92         98
    93         12
    94          5
    95          3
    96          2
    97          3
    98          1
    99          1
   100          2
   101          6
   102         43
   103        187
   104        232
   105        104
   106        999
   107        244
   108         29
   109          4
   110          2
   111          3
   112          4
   113          3
   114          4
   115          9
   116         10
   117          9
   118         11
   119         12
   120          8
   121         13
   122         32
   123          4
   124          1
   125          3
   126          1
   127          3
   128          4
   129          7
   130         30
   131         45
   132        157
   133         37
   134         98
   135        282
   136         50
   137          6
   138          1
   139          2
   140          2
   141          2
   142          3
   143          4
   144          4
   145         20
   146         41
   147         27
   148         64
   149         22
   150         23
   151          5
   152          5
   153          3
   154          3
   155          3
   156          2
   157         15
   158         21
   159         18
   160        157
   161        793
   162        296
   163        167
   164         23
   165          8
   166          3
   167          6
   168          4
   169          1
   170          1
   171          9
   172          4
   173         30
   174         41
   175         75
   176         15
   177         14
   178         14
   179          6
   180          2
   181          2
   182          1
   183          4
   184          2
   185          3
   186          3
   187          8
   188         20
   189          8
   190         13
   191         41
   192         14
   193          5
   194          3
   195          3
   196          1
   199          2
   200          1
   201          2
   202          4
   203         15
   204         21
   205         21
   206          7
   207          4
   208          1
   209          1
   211          3
   213          1
   214          3
   215          1
   216          2
   217          4
   218          2
   219          4
   220         10
   221          7
   222          4
   223          2
   224          2
   225          3
   226          2
   227          1
   228          2
   229          4
   231        424
   232         91
   233         13
   234          2
   235          5
   236          5
   237          3
   238          1
   239          1
   240         13
   241          3
   246          0
   247          2
   248          3
   249          6
   250         22
   251         17
   252         11
   253          3
   262          1
   265          2
   267          1
   277          2
   278         22
   279         26
   280          5
   281          1
   283          1
   293          2
   294          3
   295         21
   296        244
   297         47
   298          6
   319          2
   320         17
   321          3
   322          0
   336          1
   337         17
   338        355
   339         73
   340         10
   341          1