##TITLE=Library Entry 68130
##JCAMP-DX=Revision 4.10 
##DATA TYPE=MASS SPECTRUM
##SAMPLE DESCRIPTION=A.A.Kutin, Moscow, Russia
##NAMES=HP
##CAS NAME=Tetrazolo[1,5-a]furazano[3,4-E]pyrazine, 5-(4-fluorophenylamino)-
##MOLFORM=C10H5FN8O
##CAS REGISTRY NO=311773-90-7
##MP= -300
##BP= -300
##MW= 272
##$RETENTION INDEX=0
##$CONDENSED SPECTRUM=NO
##NPOINTS= 121
##XYDATA=(XY..XY) 1 
    33         21
    37         23
    38        112
    39         89
    40         34
    41         32
    42         20
    43         23
    44         10
    45         16
    46          6
    47          1
    50        135
    51         82
    52        119
    53        250
    54         16
    57        302
    58          9
    59          2
    61         25
    62         47
    63         79
    64         39
    65         13
    66         22
    67         45
    68         63
    69         96
    70         32
    71          4
    75        567
    76         58
    78        143
    79         13
    81         83
    82        102
    83        324
    84         23
    85          4
    86          5
    88         19
    89         19
    90         16
    91          8
    92         12
    93         40
    95        999
    96         88
    97          3
    98          1
   100         21
   101          5
   102          5
   103          0
   105          6
   107         71
   108         68
   109        144
   110        207
   111         18
   113          1
   114          4
   115          2
   116          3
   117          0
   118          1
   120         57
   121         95
   122         61
   123          4
   124          0
   125          0
   127          1
   132          5
   133          9
   135        129
   136        248
   137         22
   138          1
   139          0
   142          4
   143          0
   147        428
   148         23
   149          1
   151          8
   152          1
   159          3
   160         30
   161         75
   162        211
   163         24
   164          1
   167          1
   172         70
   174         25
   176          1
   177          0
   182          0
   185          1
   187        141
   188         14
   189          0
   193          0
   194          0
   199          3
   200          1
   212          0
   214        262
   215         28
   216          1
   225          0
   243          2
   244         19
   245          5
   246         11
   247          1
   253          1
   272        211
   273         23