##TITLE=Library Entry 61394
##JCAMP-DX=Revision 4.10 
##DATA TYPE=MASS SPECTRUM
##SAMPLE DESCRIPTION=A.A.Kutin, Moscow, Russia
##NAMES=HP
##CAS NAME=Carbamic acid, N-(3-cycloheptylamino-3-oxopropyl)-, benzyl ester
##MOLFORM=C18H26N2O3
##CAS REGISTRY NO=311789-20-5
##MP= -300
##BP= -300
##MW= 318
##$RETENTION INDEX=0
##$CONDENSED SPECTRUM=NO
##NPOINTS= 156
##XYDATA=(XY..XY) 1 
    33          1
    37          0
    38          2
    39         27
    40         16
    41         50
    42         24
    43         53
    44         66
    45          5
    46          0
    49          0
    50          7
    51         17
    52          6
    53         12
    54         23
    55        104
    56        126
    57         19
    58          3
    59          5
    60         16
    62          3
    63         17
    65         80
    67         31
    68         14
    69         19
    70         40
    71          6
    72         14
    73          5
    74         12
    75          2
    76          6
    77         35
    78         10
    79         30
    80          5
    81         18
    82         10
    83          4
    84         10
    85          2
    86          3
    87         13
    88         47
    89         56
    91        999
    92         73
    94          8
    95         23
    96         15
    97         31
    98         19
    99          4
   100          2
   101          0
   102          1
   103          1
   104          4
   105         10
   106         13
   107         41
   108         29
   109          2
   110          5
   112        261
   113         41
   114         19
   115         31
   116         11
   117          3
   118          4
   119          4
   120         30
   121          4
   122          0
   123          0
   124          0
   125          0
   126          1
   127          1
   128          0
   129          1
   130          1
   131          1
   132          5
   134          7
   135          1
   136          0
   138          0
   140          5
   141          1
   142          0
   143          0
   144          0
   146         31
   147          4
   148          1
   149          3
   150          2
   151          0
   152          1
   153          2
   154          4
   155          4
   156          1
   157          0
   158          0
   160          5
   161          0
   162          2
   163          0
   164          0
   165          0
   166          3
   167          1
   168          1
   169          0
   171          1
   174          0
   175          0
   177          1
   179         64
   180          9
   181          1
   183         39
   184         14
   185          1
   186          0
   188          1
   189          1
   190          2
   191          0
   202          2
   203          0
   204          0
   206         15
   207          1
   208          2
   209          1
   210          3
   211         36
   212          4
   213          0
   223         57
   224          5
   225          1
   227          8
   228          0
   303          0
   318         36
   319          5
   320          0