##TITLE=Library Entry 66774
##JCAMP-DX=Revision 4.10 
##DATA TYPE=MASS SPECTRUM
##SAMPLE DESCRIPTION=A.A.Kutin, Moscow, Russia
##NAMES=HP
##CAS NAME=Benzoic acid, 3,4-dichloro-6-benzoylamino-
##MOLFORM=C14H9Cl2NO3
##CAS REGISTRY NO=311762-70-6
##MP= -300
##BP= -300
##MW= 309
##$RETENTION INDEX=0
##$CONDENSED SPECTRUM=NO
##NPOINTS= 171
##XYDATA=(XY..XY) 1 
    34          1
    35          0
    36          6
    37         18
    38         16
    39         52
    40         38
    41         14
    42          7
    43         22
    44         14
    45         19
    47          9
    48          2
    49          5
    50         22
    51         27
    52         10
    53          9
    54         16
    55         13
    56          3
    57          3
    59          0
    60         10
    61          7
    62         11
    63         25
    64         24
    65         87
    66         93
    67         11
    68          2
    69          3
    70          4
    71          3
    72         14
    73         35
    74         69
    75         16
    76         11
    77         51
    78         10
    79          2
    81          1
    83         16
    84         16
    85          4
    86          8
    87          7
    88          2
    89          2
    90          3
    91         13
    92         68
    93        999
    94         58
    95          4
    96          3
    97          7
    98          3
    99          3
   100          3
   101          1
   104          2
   105          2
   107         39
   108         18
   109         55
   110         11
   111         20
   112          4
   113          0
   115          0
   118          1
   119          4
   120          5
   121          4
   122          1
   125          0
   126          3
   127          0
   128          0
   133         60
   134          8
   135        155
   136         14
   137         11
   138          2
   139          3
   140          1
   143          0
   144         86
   145         14
   146         63
   147         11
   148         10
   149          3
   150          5
   151          1
   152          2
   154          1
   160          1
   161         15
   162          2
   163         11
   164         38
   165         16
   166          4
   167          0
   170          0
   172        123
   173         22
   174         76
   175         13
   176         17
   177          9
   178          1
   182          3
   184          1
   185          0
   189         14
   190          2
   191         11
   192          1
   193          1
   198          1
   200          2
   201          2
   202          0
   208          0
   209         32
   210          4
   211          1
   212          8
   213          0
   214          3
   216         52
   217        231
   218         60
   219        146
   220         20
   221         26
   222          1
   229          1
   230          0
   233          1
   234          1
   235          3
   236          0
   246          1
   247         13
   248          2
   249          9
   250          5
   251          1
   252          6
   263          1
   265          1
   281          0
   290          1
   291         30
   292          7
   293         19
   294          3
   295          2
   309         78
   310         12
   311         48
   312          7
   313          8