##TITLE=Library Entry 99839
##JCAMP-DX=Revision 4.10 
##DATA TYPE=MASS SPECTRUM
##SAMPLE DESCRIPTION=A.A.Kutin, Moscow, Russia
##NAMES=HP
##CAS NAME=Benzamide, 4-methyl-N-[5-(3-pyridyl)-1,3,4-thiadiazol-2-yl]-
##MOLFORM=C15H12N4OS
##CAS REGISTRY NO=311781-99-4
##MP= -300
##BP= -300
##MW= 296
##$RETENTION INDEX=0
##$CONDENSED SPECTRUM=NO
##NPOINTS= 85
##XYDATA=(XY..XY) 1 
    37          2
    38          5
    39         20
    40          3
    41          5
    42          0
    43          0
    44          0
    45          5
    46          1
    50         20
    51         29
    52          8
    53          2
    54          0
    55          0
    57          1
    58          1
    59          1
    60          0
    62         18
    63         40
    64         16
    65        117
    66          4
    67          0
    69         58
    70          3
    71          3
    74          4
    75          7
    76         14
    77         18
    78         35
    79          6
    80          3
    81          0
    82          2
    83          1
    86          1
    87          1
    89         43
    91        420
    92         32
    93         14
    94          6
    95         18
    97          0
   103          2
   104         11
   105         10
   106          0
   108          4
   109          0
   112          0
   116          1
   119        999
   120         86
   122        113
   123          6
   124          4
   136          1
   139          0
   143          0
   146          0
   149          0
   150          3
   171          1
   177          0
   178          4
   205          2
   208          0
   217          0
   218          0
   254          0
   268         60
   269          8
   270          2
   282          0
   283          0
   295         60
   296        195
   297         37
   298         11
   299          2