##TITLE=Library Entry 63353
##JCAMP-DX=Revision 4.10 
##DATA TYPE=MASS SPECTRUM
##SAMPLE DESCRIPTION=A.A.Kutin, Moscow, Russia
##NAMES=HP
##CAS NAME=Acetamide, 2-benzylthio-N-(4-isopropylbenzyl)-
##MOLFORM=C19H23NOS
##CAS REGISTRY NO=311784-36-8
##MP= -300
##BP= -300
##MW= 313
##$RETENTION INDEX=0
##$CONDENSED SPECTRUM=NO
##NPOINTS= 107
##XYDATA=(XY..XY) 1 
    33          8
    34          0
    36          6
    39        135
    41        134
    43        134
    45        123
    46         17
    47         23
    51         88
    52         14
    53         13
    55         39
    56         16
    57          7
    58          6
    59          3
    60          0
    63         64
    65        211
    66         12
    67          2
    69          4
    70          7
    71         21
    73          4
    74          4
    75         11
    77        113
    78         42
    79         35
    80          5
    81          1
    83          1
    87          3
    89         55
    91        999
    92         54
    93         18
    94          1
    96          0
    99          0
   101          7
   103         55
   105        262
   106        119
   107         16
   108          1
   109          2
   115         63
   117        205
   118         85
   119         32
   120         13
   121         24
   123         42
   124          6
   125          1
   126          0
   127          2
   128          9
   129          9
   130         14
   133        848
   134         71
   136          7
   137         12
   138          3
   144          1
   146        122
   148        336
   149         77
   150          7
   158          0
   160         29
   161          7
   163         65
   165         27
   174         16
   176         76
   177          6
   178          2
   179          1
   180          3
   181          2
   182          0
   187          0
   191        999
   192         68
   193          8
   207          3
   209          0
   213          0
   220          0
   221          3
   222          5
   223          5
   224          1
   267          0
   268         15
   269          0
   310          0
   311          4
   313        214
   314         40
   315         12
   316          0