##TITLE=Library Entry 6302
##JCAMP-DX=Revision 4.10 
##DATA TYPE=MASS SPECTRUM
##SAMPLE DESCRIPTION=A.A.Kutin, Moscow, Russia
##NAMES=HP
##CAS NAME=Pyrimidine-2,4,6-(1H,3H,5H)-trione, 5-(2-isopropoxybenzylidene)-
##MOLFORM=C14H14N2O4
##CAS REGISTRY NO=311781-56-3
##MP= -300
##BP= -300
##MW= 274
##$RETENTION INDEX=0
##$CONDENSED SPECTRUM=NO
##NPOINTS= 132
##XYDATA=(XY..XY) 1 
    34          0
    36          6
    37         14
    39        553
    40         93
    41        794
    43        999
    44        114
    45         17
    50         95
    51        201
    52        158
    53         95
    54         13
    55         20
    56          7
    57         15
    58         12
    59          1
    61         32
    62        199
    63        487
    64        122
    65         85
    66         35
    67         15
    68         15
    69         25
    70        101
    71          7
    73          9
    74         59
    75        105
    76        107
    77        323
    78        146
    79         45
    80         43
    81         20
    82          9
    83          5
    84          1
    85         10
    86         18
    87         72
    88        130
    89        680
    90        267
    91         54
    92         34
    93         14
    94         22
    95          9
    96          2
    98          8
    99          7
   100          9
   101         60
   102         28
   103         50
   104        125
   105         78
   106         27
   107         16
   108         11
   109          5
   113          4
   114         18
   115         57
   116         95
   118        241
   119         22
   120          5
   121          7
   122          1
   124          2
   126          5
   127          7
   128         21
   129          6
   130          4
   131         28
   132         87
   133         79
   134         11
   135          4
   140          0
   142          3
   143         20
   144         53
   145        151
   146         56
   147          8
   149          0
   155          1
   159         38
   160         20
   161        126
   162         14
   170          5
   172        134
   173        180
   174         16
   175          2
   176          1
   180          0
   185          5
   186          3
   187         15
   188         40
   189         22
   190          1
   203          5
   204         10
   212          6
   213         18
   215        450
   216         49
   217          6
   229          2
   230         11
   231         47
   232        170
   233         23
   234          1
   263          1
   266          1
   270          1
   272          1
   274         29
   275          2
   280          1