##TITLE=Library Entry 65579
##JCAMP-DX=Revision 4.10 
##DATA TYPE=MASS SPECTRUM
##SAMPLE DESCRIPTION=Chemical Concepts
##NAMES=HP
##CAS NAME=N-[2,2,2-Trifluoro-1-(5-methyl-2-pyridylamino)-1-(trifluoromethyl
)ethyl]isovaleramide
##MOLFORM=C14H17F6N3O
##CAS REGISTRY NO=311765-73-8
##MP= -300
##BP= -300
##MW= 357
##$RETENTION INDEX=0
##$CONDENSED SPECTRUM=NO
##NPOINTS= 129
##XYDATA=(XY..XY) 1 
    33          3
    34          3
    35          8
    36         26
    37         16
    38         39
    39        290
    40        104
    41        479
    42        123
    43        235
    44        127
    45         11
    46          4
    47          5
    48          2
    50         44
    51         77
    52         81
    53        122
    54         29
    55         63
    57        607
    58         32
    59        175
    60          7
    61          5
    62          8
    63         35
    65        393
    66         57
    67         13
    69        136
    70          7
    71          6
    73         13
    74          1
    75          4
    76         10
    77          9
    78         21
    79         12
    80        149
    81         79
    82         10
    83         20
    85        156
    86         34
    87          4
    88          1
    89          2
    90         11
    92        999
    93         80
    94          6
    95          7
    96         14
    97          6
    98          1
   100          8
   101          4
   102          7
   103          1
   105         10
   106          6
   107        139
   108        417
   109         49
   110          4
   112          1
   113          1
   115          8
   117          4
   118          5
   119         11
   120          5
   121          5
   122          1
   128          1
   132          2
   133         11
   134         26
   135          6
   140          1
   142          9
   143          2
   147          2
   148          1
   149          3
   150          3
   157          3
   158          3
   166          1
   167          2
   168          6
   169          7
   177          1
   182          1
   186          1
   187         66
   188          6
   189          4
   192          7
   202          4
   204        714
   205         67
   206          4
   207          3
   214          3
   218          1
   230          8
   234          8
   235          2
   236          3
   237         29
   238          9
   256        120
   257        193
   258         22
   259          1
   272          4
   273          6
   288        107
   289         13
   300         36
   301          4
   315          5
   357         37
   358          5