##TITLE=Library Entry 9105
##JCAMP-DX=Revision 4.10 
##DATA TYPE=MASS SPECTRUM
##SAMPLE DESCRIPTION=Chemical Concepts
##NAMES=HP
##CAS NAME=Ethyl 2-butyramido-2-[4-chloro-2-(trifluoromethyl)anilino)-3,3,3-
trifluoropropionate
##MOLFORM=C16H17ClF6N2O3
##CAS REGISTRY NO=311764-37-1
##MP= -300
##BP= -300
##MW= 434
##$RETENTION INDEX=0
##$CONDENSED SPECTRUM=NO
##NPOINTS= 199
##XYDATA=(XY..XY) 1 
    33          2
    35          5
    36          9
    37          2
    38          7
    39         32
    41        222
    43        999
    44         60
    45          7
    46          4
    47          8
    48          2
    49          2
    50          5
    51          4
    52          3
    53          2
    55         27
    56          4
    57          6
    58          3
    59         20
    60          1
    61          1
    62          3
    63          9
    64          2
    65          1
    66          1
    67          2
    69         72
    71        791
    72         39
    73          7
    74          5
    75         12
    76          2
    77          3
    78          1
    81          2
    83         14
    85         11
    86          6
    87          7
    88         12
    89          2
    90          3
    91          3
    92          1
    93          3
    94          3
    95          3
    96         17
    97          3
    98          2
    99          5
   100          3
   101          2
   109          3
   110          2
   111          3
   112          4
   113          7
   114          4
   117          2
   119          2
   120          3
   123          2
   124          2
   125         13
   126          3
   127          1
   129          9
   131          5
   132          8
   133          1
   136          5
   138          4
   139          7
   140          3
   141          2
   142          6
   143          7
   144         10
   145          4
   147          2
   148         23
   150         10
   151          2
   152          1
   153          1
   154          1
   155          2
   156          3
   157          2
   158          1
   159          3
   160          9
   161          6
   162          2
   163          3
   165          2
   166          2
   167          2
   168          1
   169          1
   170          6
   171          1
   173          1
   174          3
   175         26
   176          5
   177          9
   179         47
   181         24
   183          4
   185          1
   186         14
   187          3
   188          5
   195        137
   196         13
   197         47
   198          4
   200          3
   201         21
   202          4
   203          9
   204          2
   206         36
   207          3
   208         11
   209          1
   215          1
   216          1
   217          1
   220          2
   221         31
   222          3
   223          9
   224          2
   231         20
   232          2
   233          6
   234         14
   235          2
   236          7
   237          1
   239          1
   240          1
   247          1
   249          2
   251         10
   252         20
   253          4
   254          8
   255          6
   256          7
   257          9
   267          4
   268          2
   269          9
   270          2
   271          8
   272          6
   274         86
   275         10
   276         26
   277          3
   289          5
   291        306
   292         31
   293        108
   294          9
   295         17
   297          9
   300          4
   301          1
   302          1
   317          3
   319          2
   325          1
   326          1
   327          2
   328          3
   347         53
   348          9
   349         17
   350          3
   361         79
   362         11
   363         23
   364          3
   365          2
   434         34
   435          6
   436         10
   437          2