##TITLE=Library Entry 21546
##JCAMP-DX=Revision 4.10 
##DATA TYPE=MASS SPECTRUM
##SAMPLE DESCRIPTION=A.A.Kutin, Moscow, Russia
##NAMES=HP
##CAS NAME=Pyrrolidine-2,5-dione, 3-(4-formylpiperazin-1-yl)-1-(4-methoxyphe
nyl)-
##MOLFORM=C16H19N3O4
##CAS REGISTRY NO=311783-13-8
##MP= -300
##BP= -300
##MW= 317
##$RETENTION INDEX=0
##$CONDENSED SPECTRUM=NO
##NPOINTS= 120
##XYDATA=(XY..XY) 1 
    33         11
    34         14
    36          3
    37         18
    38         35
    39        157
    40        286
    41        367
    42        612
    43        174
    44        155
    45         20
    49          9
    51        229
    52        117
    54        502
    55        999
    56        741
    57        173
    58         77
    60          6
    61          2
    62         16
    63         84
    64         56
    65         40
    66         19
    67         58
    68        158
    69        456
    70        282
    71        130
    72         39
    73         10
    74          6
    76         29
    77         85
    78        201
    79         38
    80         66
    82        454
    83        104
    84        105
    85        138
    87          6
    89          6
    90         48
    91         23
    92         35
    93         11
    94         26
    95         51
    97        236
    98         46
    99         20
   102          9
   103          5
   104         23
   105         43
   106        138
   108         49
   109         40
   111        145
   112        267
   113        898
   115          2
   119          5
   120         25
   121         31
   122         44
   123        123
   124         44
   125         69
   126          5
   127          2
   130          7
   132         16
   134        256
   135         60
   136         10
   137          4
   140        979
   144         13
   146          3
   147          6
   148         27
   149        221
   150          8
   160         16
   162         13
   165          2
   167         82
   168          3
   170          2
   171          5
   175          2
   176         38
   177        143
   178         14
   181         21
   182          3
   188         13
   196          8
   202         13
   203         86
   205        752
   206         71
   207          4
   233         39
   245         20
   246         70
   247         11
   259        109
   260          2
   272          9
   288          6
   289         13
   316         27
   317        278
   318         25