##TITLE=Library Entry 23886
##JCAMP-DX=Revision 4.10 
##DATA TYPE=MASS SPECTRUM
##SAMPLE DESCRIPTION=Chemical Concepts
##NAMES=HP
##CAS NAME=N-[1-(3-Chloro-4-fluoroanilino)-2,2,2-trifluoro-1-(trifluoromethy
l)ethyl]isovaleramide
##MOLFORM=C14H14ClF7N2O
##CAS REGISTRY NO=311766-43-5
##MP= -300
##BP= -300
##MW= 394
##$RETENTION INDEX=0
##$CONDENSED SPECTRUM=NO
##NPOINTS= 186
##XYDATA=(XY..XY) 1 
    33          5
    35          5
    36         10
    37          6
    39        136
    41        515
    42        117
    43        242
    44         70
    45          5
    46          2
    47          3
    48          1
    50         21
    51         14
    52          7
    53         11
    55         66
    57        999
    58         54
    59        107
    60          7
    61          6
    62         10
    63         19
    64          4
    65          3
    66          3
    67          9
    68         11
    69         99
    70          5
    71          4
    72          2
    73          7
    74         13
    75         11
    76          4
    77          3
    78          1
    79          1
    81         27
    82         22
    83         36
    85        341
    86         46
    87          4
    88          2
    89          6
    90          5
    91          9
    93         42
    94         46
    95         10
    96         21
    97          3
    98          2
    99          3
   100         11
   101          4
   102         16
   103          3
   105          1
   106          1
   107          2
   108         18
   109         58
   110         13
   111         16
   112          3
   113          3
   114          1
   115          1
   117         36
   118          7
   119         11
   120          7
   121          1
   122          2
   123          2
   124          3
   125          2
   126          2
   129        203
   130         13
   131         61
   132          5
   134          1
   135          2
   136          4
   137          2
   138          1
   139          1
   140          1
   142          4
   143          6
   144         20
   145        172
   146         21
   147         56
   148          5
   149          1
   150          1
   151          3
   152          1
   154          1
   155          9
   156          5
   157          4
   158          6
   159          1
   160          2
   163          2
   165          1
   166          3
   169          2
   170          8
   171         12
   172          2
   173          4
   174          2
   179          3
   181          4
   182          1
   183          1
   184          1
   185          1
   186          2
   187          1
   188          3
   189          4
   190          4
   192          4
   194          1
   197          4
   199          2
   204          1
   205          4
   206          3
   207          2
   208          3
   212          1
   219          2
   220          2
   221          1
   222          1
   224        295
   225         24
   226         93
   227          8
   236          1
   238          3
   239         19
   241         76
   242          7
   243         20
   244          2
   258          1
   259          2
   267         11
   268          1
   269          4
   270          1
   274          2
   275          1
   277          1
   290         70
   291          7
   293        411
   294         63
   295        117
   296         18
   297          1
   310          1
   325          9
   326          1
   327          3
   339          3
   359          1
   374          5
   375          1
   376          2
   394         70
   395          9
   396         19
   397          3