##TITLE=Library Entry 84770
##JCAMP-DX=Revision 4.10 
##DATA TYPE=MASS SPECTRUM
##SAMPLE DESCRIPTION=A.A.Kutin, Moscow, Russia
##NAMES=HP
##CAS NAME=Benzaldehyde, 2-fluoro-, (5-methyl-4-oxothiazolidin-2-ylideno)hyd
razone
##MOLFORM=C11H10FN3OS
##CAS REGISTRY NO=311783-42-3
##MP= -300
##BP= -300
##MW= 251
##$RETENTION INDEX=0
##$CONDENSED SPECTRUM=NO
##NPOINTS= 176
##XYDATA=(XY..XY) 1 
    33         16
    34         10
    35         12
    36          2
    37         16
    38         38
    39         81
    40         25
    41         23
    42         30
    43         81
    44         49
    45        221
    46         25
    47         12
    48          1
    49         11
    50        103
    51        100
    52         22
    53         21
    54         23
    55        157
    56        221
    57        166
    58        119
    59        460
    60        915
    61        148
    62        156
    63        109
    64         15
    65          5
    66          2
    68         51
    69         92
    70         45
    71          8
    72          7
    73         15
    74         62
    75        252
    76         39
    77         13
    78          4
    79          4
    81        130
    82         80
    83         27
    84          7
    85         28
    86         79
    87         40
    88         71
    89         65
    90         13
    91          6
    92          7
    93         14
    94         61
    95        157
    96         76
    97         16
    98          3
    99          3
   100         10
   101         23
   102        104
   103         14
   104          4
   105         16
   107        774
   108        999
   109        102
   110          7
   111          3
   112          3
   113          1
   114          5
   115         34
   116         15
   117          8
   118         19
   119         14
   121         64
   122        461
   123        312
   124        264
   125         26
   127         12
   128         41
   129         61
   130         15
   131          4
   132          0
   133          4
   134         17
   135         57
   136         46
   137         21
   139         37
   140         15
   141          8
   142          3
   144        174
   145         62
   146          7
   147          3
   148          4
   149          8
   150         15
   151          2
   152          3
   153          4
   154          4
   155          4
   156         20
   157          1
   158          0
   161          2
   162         21
   163         22
   164         20
   165          5
   166          9
   167          5
   168          4
   170        150
   171         66
   172         96
   173         12
   174          0
   175          4
   177         22
   178          2
   179          2
   180          2
   181          2
   182          2
   183          6
   186          0
   187          0
   188          6
   189        137
   190         23
   191         10
   192          3
   193          0
   194          1
   195          1
   196          1
   198          7
   199          1
   201          0
   203         56
   204          7
   205          4
   208          2
   209          0
   215          1
   216          2
   218          3
   222          6
   223          1
   224          2
   229          1
   231         52
   232         43
   233          7
   234          2
   248          1
   250         25
   251        199
   252         26
   253         11
   254          1