##TITLE=Library Entry 6835
##JCAMP-DX=Revision 4.10 
##DATA TYPE=MASS SPECTRUM
##SAMPLE DESCRIPTION=A.A.Kutin, Moscow, Russia
##NAMES=HP
##CAS NAME=Benzene, 1,2,3,4,5,6-hexaacetylamino-
##MOLFORM=C18H24N6O6
##CAS REGISTRY NO=311793-02-9
##MP= -300
##BP= -300
##MW= 420
##$RETENTION INDEX=0
##$CONDENSED SPECTRUM=NO
##NPOINTS= 191
##XYDATA=(XY..XY) 1 
    33          4
    34          3
    35          3
    36         14
    37          6
    38         14
    39         28
    40         68
    41         79
    42        179
    43        999
    44        106
    45        210
    50          3
    51          7
    52         19
    53         23
    54         19
    55         22
    56         11
    57         14
    58         19
    59         11
    60        104
    63          3
    65          4
    66         10
    67         23
    68         11
    69         12
    70          6
    71          6
    72          5
    73          2
    77          7
    78          5
    79         13
    80         18
    81         14
    82         12
    83         12
    84          9
    85         55
    86          3
    91          6
    92          3
    93          7
    94         11
    95          8
    96          8
    97          4
    99          5
   100         32
   101          2
   104          4
   105          8
   106         15
   107         21
   108         23
   109         20
   110          6
   111          7
   112          3
   118          4
   119          5
   120         14
   121         18
   122         11
   123         14
   124          5
   125          3
   127          6
   131          4
   132          6
   133         17
   134          9
   135         10
   136          7
   137          8
   138         22
   139          5
   140         13
   145          6
   146          7
   147         15
   148         18
   149         22
   150         23
   151         10
   152          3
   154          6
   157          3
   159          4
   161          4
   162          8
   163          6
   164         15
   165         19
   166         16
   167         17
   171          6
   172          5
   173          9
   174         14
   175          9
   176         11
   177          7
   178          8
   179          3
   186          3
   187         11
   188         10
   189         20
   190         20
   191        139
   192         57
   193         50
   194         12
   195          3
   199          3
   200          8
   201          8
   202          7
   203          6
   204          3
   205          3
   207          7
   208          3
   209         14
   210          3
   213          4
   215         97
   216         63
   217         45
   218         24
   219         13
   220          7
   231          3
   232          5
   233         56
   234         33
   235         23
   236          9
   237          3
   239          3
   240          7
   241         17
   242          8
   243         11
   244          3
   251         13
   252          6
   257         10
   258         56
   259         55
   260         16
   261         16
   262          3
   267          2
   275         24
   276         46
   277         32
   278          9
   279          8
   283          9
   284          4
   285         16
   293          6
   294         11
   299          4
   300         69
   301         77
   302         38
   303         46
   304         10
   317          5
   318         46
   319         61
   320         11
   321         11
   336         12
   343          4
   345         23
   346          4
   360         59
   361         68
   362         17
   363          8
   378          5
   420         76
   421         17