##TITLE=Library Entry 88303
##JCAMP-DX=Revision 4.10 
##DATA TYPE=MASS SPECTRUM
##SAMPLE DESCRIPTION=A.A.Kutin, Moscow, Russia
##NAMES=HP
##CAS NAME=Propanal, 2,3-dioxo-3-(2-thienyl)-, 1,2-bis(phenylhydrazone)
##MOLFORM=C19H16N4OS
##CAS REGISTRY NO=311787-19-6
##MP= -300
##BP= -300
##MW= 348
##$RETENTION INDEX=0
##$CONDENSED SPECTRUM=NO
##NPOINTS= 229
##XYDATA=(XY..XY) 1 
    33          2
    34          4
    36          4
    37         16
    38         60
    39        611
    40         90
    41         53
    42         15
    43         36
    44         49
    45         37
    46          3
    47          3
    50         43
    51        170
    52         55
    53         81
    54         18
    55         29
    56         13
    57         49
    58         15
    59          8
    60          3
    61          4
    62         14
    63         73
    64        111
    65        628
    66         90
    67         13
    68          7
    69         25
    70         18
    71         17
    72          5
    73          3
    74          7
    75         10
    77        514
    78         52
    79          9
    80         13
    81         14
    82         25
    83        149
    84         37
    85         14
    86          3
    87          2
    88          3
    89         17
    90         17
    91        164
    92        503
    93        752
    94         68
    95         11
    96          9
    97         19
    98          4
    99          2
   100          1
   101          3
   102          6
   103         11
   104         22
   105         56
   106         10
   107         28
   108         14
   109         14
   111        999
   112         73
   113         48
   114          4
   115          8
   116         17
   117         16
   118         25
   119         19
   120          9
   121          5
   122          6
   123          5
   124         16
   125          4
   126          2
   127          3
   128          5
   129          8
   130         15
   131         23
   132         10
   133          3
   134          3
   135          2
   136          2
   137         18
   138         11
   139          4
   140          5
   141          3
   142          1
   143          3
   144         11
   145         13
   146          8
   147          4
   148          1
   149          2
   150          6
   151          3
   152          9
   153          3
   154          5
   155          2
   156          1
   157          9
   158          1
   159          7
   160          2
   161          1
   163          1
   164          0
   165          2
   166          1
   167          3
   168          5
   169          4
   170          4
   171         25
   172        278
   173         40
   174         16
   175         12
   176          2
   177          0
   180          1
   181          3
   182          4
   183          2
   184          2
   185          2
   186          7
   187          6
   188          1
   189          1
   190          1
   191          1
   192          6
   193          2
   195          1
   196          2
   197          4
   198         10
   199          2
   200          2
   201          1
   202          1
   203          1
   204          0
   206          0
   209          1
   210          2
   211          1
   212          1
   213          1
   214          2
   215          2
   216          0
   217          1
   218          0
   219          0
   220          1
   222          4
   223          3
   224          7
   225          3
   226          2
   227          2
   228          1
   229          1
   235          1
   236          2
   237          1
   238          1
   239          1
   241         18
   242          9
   243         13
   244          2
   246          0
   247          0
   251          2
   253         19
   254          6
   255         10
   256         61
   257         13
   258          4
   259          0
   260          0
   263          0
   264          1
   265          3
   266          2
   267          0
   275          0
   276         11
   277          3
   283          1
   301          1
   315         11
   316          2
   319          0
   329         18
   330         14
   331         11
   332          3
   333          0
   344          1
   345          2
   346          3
   348        175
   349         34
   350         10
   351          1