##TITLE=Library Entry 50948
##JCAMP-DX=Revision 4.10 
##DATA TYPE=MASS SPECTRUM
##SAMPLE DESCRIPTION=Asinex Ltd, Moscow, Russia
##NAMES=HP
##CAS NAME=2-Imidazol-1-yl-N-(5-methyl-[1,3,4]thiadiazol-2-yl)-acetamide
##MOLFORM=C8H9N5OS
##CAS REGISTRY NO=311787-27-6
##MP= -300
##BP= -300
##MW= 223
##$RETENTION INDEX=0
##$CONDENSED SPECTRUM=NO
##NPOINTS= 110
##XYDATA=(XY..XY) 1 
    38          1
    39         24
    40         83
    41         63
    42        107
    43         16
    44         13
    45         44
    46         38
    47         12
    48          5
    49          1
    50          1
    51         16
    52         83
    53         68
    54        281
    55         44
    56         51
    57         47
    58        159
    59        384
    60         42
    61         28
    62          2
    63         46
    64          1
    65          6
    66          3
    67         16
    68         47
    69        262
    70         16
    71         10
    72         41
    73         45
    74         76
    75         14
    76          7
    77         15
    78         52
    79         26
    81        999
    82        356
    83         47
    84         15
    85          3
    86         35
    87          9
    91          3
    92          5
    94          7
    95         10
    96          6
    97         12
    98         11
    99        172
   100         27
   101         49
   104          1
   105          4
   108        202
   109        689
   110         38
   111          7
   112         13
   113         47
   114         26
   115        233
   116        621
   118         54
   121          6
   122          1
   123          1
   124         11
   126          6
   127         13
   128        199
   129         16
   130          8
   135          2
   136         10
   138          1
   139          8
   140          8
   142        365
   143         26
   144         17
   148          4
   149          6
   150          2
   151          1
   153          2
   155        153
   156         12
   157          6
   165          2
   167          6
   168          0
   171         10
   181         27
   182         11
   191         11
   193          3
   194          3
   196          7
   212          3
   223        810
   224         78
   225         35