##TITLE=Library Entry 57180
##JCAMP-DX=Revision 4.10 
##DATA TYPE=MASS SPECTRUM
##SAMPLE DESCRIPTION=A.A.Kutin, Moscow, Russia
##NAMES=HP
##CAS NAME=Naphthalene, 1,5-di(2-acetoxyethylthio)-
##MOLFORM=C18H20O4S2
##CAS REGISTRY NO=311783-64-9
##MP= -300
##BP= -300
##MW= 364
##$RETENTION INDEX=0
##$CONDENSED SPECTRUM=NO
##NPOINTS= 168
##XYDATA=(XY..XY) 1 
    33          2
    34          1
    38          0
    39          5
    40          4
    43        993
    45         21
    47          1
    50          1
    51          3
    52          0
    55          1
    56          0
    57          2
    59         21
    60          3
    61          3
    63          8
    64          0
    65          0
    67          0
    68          5
    69          7
    71          3
    73          3
    75          7
    77          7
    78          0
    79          0
    80          0
    81          1
    82          2
    83          1
    87        999
    89          6
    91          1
    92          7
    93          3
    94          1
    95          1
    96          0
    97          0
    98          1
    99          1
   100          1
   101          2
   102         11
   103          1
   104          1
   105          1
   106          1
   107          1
   108          4
   110          0
   111          0
   113         10
   114         36
   115         18
   116          2
   117          0
   119          1
   120          2
   121          4
   122          5
   123          1
   125          4
   126          7
   127         11
   128          8
   129          2
   130          0
   132          1
   133          1
   134          1
   135          1
   136          0
   137          0
   139          5
   141          6
   142          0
   145         16
   146         12
   147          9
   148          1
   149          0
   150          0
   152         15
   153          3
   154          0
   155          0
   158         33
   159          9
   160          4
   161          1
   163          0
   165          2
   166          1
   167          1
   168          1
   171        151
   172         37
   173         13
   174          4
   175          1
   177          2
   178          1
   179          0
   182          0
   184         65
   185         94
   186         12
   187          6
   188          2
   189         17
   191         25
   192          4
   193          1
   194          0
   196          1
   197          3
   198          4
   199          7
   200          2
   203         68
   204          7
   205          9
   206          1
   207          1
   209          1
   211         19
   212          2
   213          1
   214          6
   216         28
   217         21
   218         10
   219          2
   220          0
   229         36
   230          6
   231          3
   233          8
   235          3
   236          0
   241          0
   244         66
   245          8
   246          4
   247          1
   261          0
   275          0
   277          8
   278          2
   279          0
   304         57
   305          9
   306          4
   307          0
   320          2
   321          0
   322          0
   360          0
   361          1
   364        260
   365         47
   366         25
   367          4
   368          0