##TITLE=Library Entry 56346
##JCAMP-DX=Revision 4.10 
##DATA TYPE=MASS SPECTRUM
##SAMPLE DESCRIPTION=A.A.Kutin, Moscow, Russia
##NAMES=HP
##CAS NAME=Benzofurane-3-carboxamide, 6-bromo-N-(2-diethylaminoethyl)-5-meth
oxy-2-methyl-
##MOLFORM=C17H23BrN2O3
##CAS REGISTRY NO=311788-20-2
##MP= -300
##BP= -300
##MW= 382
##$RETENTION INDEX=0
##$CONDENSED SPECTRUM=NO
##NPOINTS= 125
##XYDATA=(XY..XY) 1 
    29         40
    30        113
    31          1
    32         10
    38          0
    39          0
    42         20
    43         15
    44         13
    48          0
    53          2
    54          0
    55          2
    56         38
    57         29
    58        117
    59          6
    63          0
    67          3
    68          3
    69          2
    70         14
    71         25
    72         18
    73          5
    74          0
    77          0
    78          1
    79          0
    82          0
    83          3
    84         25
    85         26
    86        999
    87        157
    88          6
    89          7
    90          0
    93          0
    96          1
    97          4
    98          4
    99        108
   100          7
   102          2
   103          2
   105          0
   107          0
   108          0
   109          1
   113          4
   115          0
   117          4
   118          1
   119          0
   123          1
   125          0
   128          0
   129          1
   130          1
   132          0
   133          0
   137          0
   138          0
   139          0
   145          1
   146          0
   148          0
   149          1
   157          1
   158         11
   159          6
   160          1
   168          1
   169          1
   170          0
   173          0
   174          0
   183          0
   187          4
   188          1
   189          2
   190          0
   196          2
   198          3
   199          0
   200          0
   201          0
   210          1
   211          4
   212          0
   213          2
   223          0
   224          0
   225          0
   226          0
   230          0
   231          0
   238          2
   239          4
   240          2
   241          3
   250          0
   251          0
   252          7
   254          7
   255          1
   265          0
   266          1
   267         41
   268          9
   269         56
   270          7
   271          0
   274          0
   284          0
   309          0
   310         24
   311          3
   312         15
   313          0
   341          0
   381          1
   382          5
   384          4