##TITLE=Library Entry 82524
##JCAMP-DX=Revision 4.10 
##DATA TYPE=MASS SPECTRUM
##SAMPLE DESCRIPTION=A.A.Kutin, Moscow, Russia
##NAMES=HP
##CAS NAME=Pyridine-4-carboxamide, N-(1-methylpropyl)-
##MOLFORM=C10H14N2O
##CAS REGISTRY NO=311793-05-2
##MP= -300
##BP= -300
##MW= 178
##$RETENTION INDEX=0
##$CONDENSED SPECTRUM=NO
##NPOINTS= 93
##XYDATA=(XY..XY) 1 
    33          0
    34          0
    36          0
    37          5
    38         16
    39         75
    40         28
    41        122
    42         81
    43         22
    44         52
    45          2
    50        182
    51        500
    52         74
    53         29
    54         11
    55         18
    56         39
    57         17
    58          2
    59          0
    60          0
    61          0
    62          1
    63          3
    64          3
    65          5
    66          4
    67          3
    68          1
    69          0
    70          7
    71          4
    72          2
    74          8
    75         12
    76         16
    78        599
    79         73
    80         15
    81          1
    82          0
    83          0
    84          0
    89          0
    90          0
    91          2
    92          2
    93          3
    94          1
    95          2
    96          0
   100          0
   103          1
   106        999
   107         70
   108          5
   109          0
   117          0
   118          0
   119          3
   120          2
   121          2
   122          7
   123         74
   124          4
   125          0
   129          0
   131          0
   132          1
   133          1
   134          1
   135          3
   136          1
   140          0
   141          0
   146          0
   147          4
   149        454
   150         50
   151          3
   152          0
   160          0
   161          0
   162          0
   163         23
   164          2
   175          0
   176          1
   178         97
   179         11
   180          0