##TITLE=Library Entry 30605
##JCAMP-DX=Revision 4.10 
##DATA TYPE=MASS SPECTRUM
##SAMPLE DESCRIPTION=A.A.Kutin, Moscow, Russia
##NAMES=HP
##CAS NAME=Acetic acid, 2-[(4,6-dimethylpyrimidin-2-yl)thio]-, 2-(5-methyl-1
,3,4-thiadiazol-2-ylamino)-2-oxoethyl ester
##MOLFORM=C13H15N5O3S2
##CAS REGISTRY NO=311788-12-2
##MP= -300
##BP= -300
##MW= 353
##$RETENTION INDEX=0
##$CONDENSED SPECTRUM=NO
##NPOINTS= 111
##XYDATA=(XY..XY) 1 
    38         60
    39        178
    40        116
    41         94
    42        341
    43         75
    45        142
    46        261
    47         49
    48          4
    49          6
    51         24
    52         31
    53        133
    55         34
    56         51
    57        110
    58        563
    59        999
    60         62
    61         21
    63         45
    64         45
    65         55
    66        240
    67        366
    68         41
    69         56
    70         56
    71         91
    72        284
    73        104
    74        132
    75         25
    76          8
    77         44
    79         40
    80         75
    81         65
    82        119
    83         88
    84         29
    86         32
    87         11
    91          6
    92         58
    94        564
    95         91
    96         35
    98         75
    99        105
   100         18
   106         24
   107        161
   108        405
   109        113
   112         32
   114         70
   115        232
   116         42
   117          6
   118          3
   119         49
   120          5
   123          8
   124         59
   125         14
   126         17
   127         13
   128         28
   136         26
   137         27
   138         43
   139        129
   140        287
   141         75
   142         43
   144          7
   148          5
   149          3
   150          8
   151         83
   152        214
   153        961
   154        147
   155         39
   163         12
   165         97
   166         69
   167         34
   168          9
   172         39
   174          4
   178          3
   179         78
   180        299
   181         95
   182          9
   191          6
   193          9
   194         60
   195         16
   211         95
   212        108
   213          9
   214          3
   238         15
   249          7
   351          3
   353        153
   354          6