##TITLE=Library Entry 66523
##JCAMP-DX=Revision 4.10 
##DATA TYPE=MASS SPECTRUM
##SAMPLE DESCRIPTION=Exported from NIST MS Search
##NAMES=HP
##CAS NAME=Bicyclo[3.1.0]hexan-3-ol, 4-methyl-1-(1-methylethyl)-, (1.alpha.,
3.beta.,4.beta.,5.alpha.)-
##MOLFORM=C10H18O
##CAS REGISTRY NO=31187-53-8
##MP= -300
##BP= -300
##MW= 154
##$RETENTION INDEX=1694
##$CONDENSED SPECTRUM=NO
##NPOINTS= 65
##XYDATA=(XY..XY) 1 
    29         42
    41         60
    42         17
    43        375
    45         17
    53         17
    54         21
    55        233
    56         33
    57         46
    58         79
    59         13
    66          8
    67        171
    68        142
    69        175
    70        154
    71         96
    72         13
    77         88
    78         17
    79        271
    80        113
    81        354
    82         67
    83         96
    84         50
    85         13
    91        158
    92        213
    93        999
    94        183
    95        400
    96         75
    97         60
    98         10
    99         35
   105         75
   106         25
   107        275
   108         79
   109         71
   110        342
   111        100
   112         17
   115          8
   117         21
   119         92
   120         13
   121        750
   122         90
   123         13
   124         20
   125          8
   132         21
   133         13
   134         42
   135         58
   136        542
   137         75
   138         13
   148         13
   150         40
   152         17
   154          8