##TITLE=Library Entry 67594
##JCAMP-DX=Revision 4.10 
##DATA TYPE=MASS SPECTRUM
##SAMPLE DESCRIPTION=Organic Synthesis Lab, MSU, Moscow.TRC 960
##NAMES=HP
##CAS NAME=5-Hydroxy-2-pyridinecarbaldehyde
##MOLFORM=C6H5NO2
##CAS REGISTRY NO=31191-08-9
##MP= -300
##BP= -300
##MW= 123
##$RETENTION INDEX=0
##$CONDENSED SPECTRUM=NO
##NPOINTS= 63
##XYDATA=(XY..XY) 1 
    37        316
    38        494
    39        923
    40        244
    41        240
    42        111
    43         25
    44         21
    45          0
    46          0
    47          0
    48         16
    49         75
    50        168
    51        108
    52        138
    53        138
    54         26
    55         88
    56          4
    57          4
    60          2
    61          9
    62         17
    63         38
    64         60
    65         58
    66        124
    67        449
    68        214
    69         29
    70          3
    71          1
    73          0
    74          6
    75         42
    76         98
    77         16
    78         15
    79          4
    80          1
    83          0
    87          0
    88          0
    91          0
    92          1
    93          8
    94        380
    95        999
    96         62
    97          3
   104          1
   105          0
   106          1
   107          0
   109          0
   112          0
   113          0
   119          0
   122         14
   123        279
   124         71
   125          4