##TITLE=Library Entry 18222
##JCAMP-DX=Revision 4.10 
##DATA TYPE=MASS SPECTRUM
##SAMPLE DESCRIPTION=MASS SPECTROMETRY CENTER, UNIV. OF UTAH ALDRICH 12444-3
##NAMES=HP
##CAS NAME=Benzene, 1-fluoro-4-(phenylsulfonyl)-
##MOLFORM=C12H9FO2S
##CAS REGISTRY NO=312-31-2
##MP= -300
##BP= -300
##MW= 236
##$RETENTION INDEX=0
##$CONDENSED SPECTRUM=NO
##NPOINTS= 66
##XYDATA=(XY..XY) 1 
    26          3
    27         92
    31          9
    37          9
    38         49
    39        187
    45         62
    48          3
    49         10
    50        414
    51        999
    52         61
    53         42
    57         94
    61          3
    62         28
    63         62
    64          4
    65         99
    66          3
    68         42
    69        136
    70         13
    71         20
    73         18
    74        108
    75        379
    76         83
    77        724
    78         72
    81         35
    82          4
    83        109
    84          3
    85          4
    86         54
    93         22
    94         36
    95        403
    96         54
    97        175
    98          5
    99         34
   109         22
   111         37
   115        148
   116          3
   120          3
   125        691
   126         78
   127         70
   141          4
   143        811
   144         68
   145         55
   146          3
   151          3
   159         20
   169          4
   170         79
   171         64
   172         32
   235          9
   236        268
   237         55
   238         10