##TITLE=Library Entry 85464
##JCAMP-DX=Revision 4.10 
##DATA TYPE=MASS SPECTRUM
##SAMPLE DESCRIPTION=Div. of Experiment Therapeutics WRAIR, WRAMC, Washingto
n DC 20307
##NAMES=HP
##CAS NAME=4-Fluorophenyl-4'-aminophenyl sulfone
##MOLFORM=C12H10FNO2S
##CAS REGISTRY NO=312-35-6
##MP= -300
##BP= -300
##MW= 251
##$RETENTION INDEX=0
##$CONDENSED SPECTRUM=NO
##NPOINTS= 97
##XYDATA=(XY..XY) 1 
    41         68
    42         21
    45         23
    48          1
    49          1
    50         45
    51         44
    52         59
    53         57
    54         27
    57         20
    58          1
    61          6
    62         29
    63        100
    64         71
    65        469
    66         63
    67          6
    68         15
    69         42
    70         11
    71         11
    73          1
    74         26
    75        122
    76         12
    77          2
    78          7
    79          6
    80        189
    81         18
    82          3
    83         29
    84          2
    85          5
    87          1
    88          1
    89          4
    90         10
    91         32
    92        332
    93        120
    95        114
    96         20
    97          4
    99          6
   107          6
   108        999
   109         70
   110          4
   111          2
   112          6
   115         25
   120          2
   122          1
   123         13
   124          8
   125          1
   126          2
   127          4
   131          3
   133         11
   139          5
   140        170
   141         14
   142          9
   143         67
   144          5
   145          4
   146          2
   156         84
   157         21
   158          8
   159         12
   161          1
   166          1
   167          3
   169          2
   170          4
   172          1
   184          6
   185         21
   186         23
   187         62
   188          8
   189          1
   201          4
   216          1
   232          4
   235          1
   249          4
   250         27
   251        791
   252        150
   253         49
   254          7