##TITLE=Library Entry 64544
##JCAMP-DX=Revision 4.10 
##DATA TYPE=MASS SPECTRUM
##SAMPLE DESCRIPTION=Div. of Experiment Therapeutics WRAIR, WRAMC, Washingto
n DC 20307
##NAMES=HP
##CAS NAME=N-[3,4-Dibenzyloxybenzyl]-N-nitrosoglycine
##MOLFORM=C23H22N2O5
##CAS REGISTRY NO=31209-31-1
##MP= -300
##BP= -300
##MW= 406
##$RETENTION INDEX=0
##$CONDENSED SPECTRUM=NO
##NPOINTS= 59
##XYDATA=(XY..XY) 1 
    41          7
    42          6
    44         53
    51         17
    52          3
    53          2
    55          2
    59          2
    63         11
    65         71
    66          5
    77         11
    79         17
    81          1
    89         14
    91        999
    92         57
    93          4
   105         16
   106          8
   107          3
   120          7
   122          2
   123         20
   135          8
   150          1
   165          5
   166          7
   167          2
   179         10
   181        101
   182         11
   183          4
   194          7
   195          5
   197          2
   208          1
   211         24
   212         31
   213          6
   226         10
   227          4
   240          7
   241          1
   285          5
   303        108
   304         23
   305          1
   318          1
   331          4
   332          7
   333          4
   346          8
   347          1
   362          5
   376         34
   377         10
   406         22
   407          5