##TITLE=Library Entry 30256
##JCAMP-DX=Revision 4.10 
##DATA TYPE=MASS SPECTRUM
##SAMPLE DESCRIPTION=NIST Mass Spectrometry Data Center
##NAMES=HP
##CAS NAME=(Chloromethyl)dimethylethylsillane
##MOLFORM=C5H13ClSi
##CAS REGISTRY NO=3121-77-5
##MP= -300
##BP= -300
##MW= 136
##$RETENTION INDEX=830
##$CONDENSED SPECTRUM=NO
##NPOINTS= 79
##XYDATA=(XY..XY) 1 
    13          2
    14         13
    15         53
    16          1
    17          1
    18          4
    26         28
    27        149
    28         96
    29        174
    30         16
    31         27
    32          6
    33          2
    35          3
    36          3
    37          2
    38          3
    39         19
    40          3
    41         23
    42         77
    43        335
    44         64
    45         56
    46          5
    47          5
    49         54
    50          4
    51         16
    53         49
    54         15
    55         46
    56         10
    57         26
    58        108
    59        999
    60         75
    61         34
    63        170
    64         25
    65        149
    66         21
    67         39
    68          3
    69          4
    70          4
    71          8
    72         11
    73          7
    75          1
    76          6
    77         21
    79        666
    80         54
    81        248
    82         13
    83          8
    85          4
    87        830
    88         78
    89         30
    90          3
    91          5
    93        217
    94         19
    95         78
    96          5
    97          3
   105          1
   107        199
   108         17
   109         66
   110          4
   111          2
   121         44
   122          4
   123         17
   124          1