##TITLE=Library Entry 32482
##JCAMP-DX=Revision 4.10 
##DATA TYPE=MASS SPECTRUM
##SAMPLE DESCRIPTION=Chemical Concepts
##NAMES=HP
##CAS NAME=1,6-Octadiene, 2,6-dimethyl-
##MOLFORM=C10H18
##CAS REGISTRY NO=31222-43-2
##MP= -300
##BP= -300
##MW= 138
##$RETENTION INDEX=0
##$CONDENSED SPECTRUM=NO
##NPOINTS= 89
##XYDATA=(XY..XY) 1 
    23          1
    24          1
    25          4
    26         36
    27        365
    28         73
    29        315
    30          6
    31         16
    32          2
    37          5
    38         20
    39        422
    40         95
    41        981
    42        106
    43        394
    44         29
    45         69
    46          2
    50         18
    51         46
    52         23
    53        202
    54         94
    55        573
    56         69
    57         34
    58         40
    59         19
    60          4
    62          3
    63          9
    64          1
    65         39
    66         29
    67        999
    68        533
    69        347
    70         90
    71        114
    72         38
    73          2
    75          2
    77         39
    78          8
    79         61
    80         20
    81        239
    82        892
    83        106
    84         25
    85         46
    86          6
    87          2
    91         19
    92          5
    93         42
    94         15
    95        249
    96        206
    97         28
    98         14
    99         11
   100          1
   105          8
   106          2
   107         21
   108         13
   109         94
   110         24
   111         20
   112         16
   113          3
   114          2
   119          3
   121         15
   122          2
   123         51
   124          6
   125          9
   126          3
   127          2
   128          1
   135          1
   136          8
   137         10
   138         17
   139          6