##TITLE=Library Entry 32060
##JCAMP-DX=Revision 4.10 
##DATA TYPE=MASS SPECTRUM
##SAMPLE DESCRIPTION=A.A.Kutin, Moscow, Russia
##NAMES=HP
##CAS NAME=4H-Thiopyran-3,5-dicarbonitrile, 2,6-diamino-4-(3,4,5-trimethoxyp
henyl)-
##MOLFORM=C16H16N4O3S
##CAS REGISTRY NO=312265-39-7
##MP= -300
##BP= -300
##MW= 344
##$RETENTION INDEX=0
##$CONDENSED SPECTRUM=NO
##NPOINTS= 230
##XYDATA=(XY..XY) 1 
    33         31
    34         14
    35          0
    36          7
    38        270
    39        271
    40        238
    41         95
    42         29
    43         26
    44         31
    45         73
    46         13
    47          9
    48          4
    50         66
    51         56
    52         36
    53         84
    54          9
    55         20
    56         13
    57         37
    58         24
    60        722
    61         37
    62         68
    63         64
    64        103
    66        999
    67         79
    69         45
    70         15
    71          8
    72          8
    73         11
    74         23
    75         50
    76         52
    77         46
    78         24
    79         17
    80          7
    81         11
    82         13
    83         23
    84         20
    85          8
    86         10
    87         27
    88         86
    89         52
    90         33
    91         21
    92         14
    93         13
    94          9
    95         17
    96          6
    97          4
   100        505
   101         66
   102         55
   103         50
   104         23
   105         30
   106          8
   107          8
   108          7
   109         14
   110          9
   111          6
   112          7
   113         13
   114         45
   115        189
   116         71
   117         40
   118         16
   119         13
   120         10
   121         11
   122         23
   123         48
   125          9
   126         18
   127         37
   128         42
   129         35
   130         43
   131         37
   132         14
   133         15
   134         18
   135         11
   136         12
   137         10
   138          6
   139         17
   140         12
   141         44
   142         29
   143         30
   144         42
   145         24
   146         26
   147         10
   148         15
   149         48
   150         12
   151          8
   152          8
   153         15
   154         10
   155         25
   156         15
   157         30
   158        153
   159         30
   160         22
   161         42
   162         11
   163          9
   164          5
   165          3
   166          3
   167          3
   168         15
   169         56
   170         14
   171        102
   172         41
   173         29
   174         25
   175         15
   176         17
   177        123
   178         14
   179          7
   180          3
   181         45
   182          8
   183         15
   184         23
   185         20
   186         98
   187         36
   188         19
   189         53
   190         17
   191         14
   192         10
   193          3
   194          1
   195          3
   196          5
   197          8
   198          7
   199         17
   200         17
   201        191
   202         47
   203         43
   204         88
   205         56
   206         12
   207          4
   208          2
   209          1
   210          1
   211          2
   212          2
   213         11
   214         27
   215         27
   216         17
   217         15
   218         11
   219         28
   220         40
   221          6
   222          2
   223          0
   225          1
   227          4
   228          8
   229        290
   230         64
   231         53
   232         46
   233         31
   234          6
   235         26
   236          5
   237          2
   238          2
   239          1
   242          2
   244        555
   245        104
   246         26
   247        405
   248         64
   249         26
   250          7
   251          1
   252          4
   253          2
   254          0
   261          7
   262          6
   263         80
   264         12
   265          5
   275          0
   277        245
   278        518
   279         92
   280         32
   281          5
   282          0
   296          0
   311          1
   312          0
   313          4
   314          0
   329          1
   344         19
   345          3
   346          0