##TITLE=Library Entry 67414
##JCAMP-DX=Revision 4.10 
##DATA TYPE=MASS SPECTRUM
##SAMPLE DESCRIPTION=A.A.Kutin, Moscow, Russia
##NAMES=HP
##CAS NAME=Carbamic acid, N-(3-ethylphenyl)-, phenyl ester
##MOLFORM=C15H15NO2
##CAS REGISTRY NO=312272-27-8
##MP= -300
##BP= -300
##MW= 241
##$RETENTION INDEX=0
##$CONDENSED SPECTRUM=NO
##NPOINTS= 163
##XYDATA=(XY..XY) 1 
    33          0
    34          0
    35          0
    36          1
    37         11
    38         36
    39        181
    40         48
    41         22
    42          7
    43          6
    44          6
    45          1
    46          0
    47          3
    48          0
    49          2
    50         36
    51         92
    52         28
    53         23
    54          6
    55         19
    56          2
    57          2
    58          2
    59          2
    60          1
    61          5
    62         15
    63         52
    64         29
    65        137
    66         91
    67          9
    68          3
    69          1
    70          1
    71          0
    72          1
    73          1
    74          8
    75          9
    76         16
    77        182
    78         53
    79         38
    80          5
    81          0
    82          0
    83          0
    84          0
    85          0
    86          1
    87          1
    88          2
    89         18
    90         16
    91         57
    92         15
    93         30
    94        999
    95         76
    96          5
    97          0
    98          0
    99          0
   100          0
   101          1
   102          7
   103         25
   104         25
   105         41
   106         20
   107          3
   108          0
   109          0
   110          0
   111          0
   112          0
   113          0
   114          0
   115          1
   116          5
   117          7
   118         16
   119         34
   120         30
   121         37
   122          3
   123          0
   124          0
   126          0
   127          1
   128         14
   129          1
   130          0
   132        331
   133         31
   134          2
   135          0
   136          0
   139          0
   140          0
   141          0
   143          0
   144          0
   145          3
   146          9
   147        325
   148         41
   149          3
   150          0
   151          0
   152          0
   153          0
   154          0
   155          0
   160          0
   161          0
   162          0
   163          0
   164          1
   165          0
   166          0
   167          0
   168          0
   169          0
   171          0
   176          0
   177          0
   178          0
   179          0
   180          0
   181          0
   182          0
   183          0
   184          0
   190          0
   191          0
   193          0
   194          0
   195          0
   205          0
   211          0
   212          1
   213          0
   219          0
   220          0
   221          0
   222          0
   223          0
   225          0
   226          0
   236          0
   239          0
   240          2
   241         52
   242          9
   243          0
   248          0
   249          0
   250          0