##TITLE=Library Entry 72841
##JCAMP-DX=Revision 4.10 
##DATA TYPE=MASS SPECTRUM
##SAMPLE DESCRIPTION=A.A.Kutin, Moscow, Russia
##NAMES=HP
##CAS NAME=Propanamide, 3-(4-morpholyl)-N-(3-chloro-6-methoxyphenyl)-
##MOLFORM=C14H19ClN2O3
##CAS REGISTRY NO=312282-70-5
##MP= -300
##BP= -300
##MW= 298
##$RETENTION INDEX=0
##$CONDENSED SPECTRUM=NO
##NPOINTS= 199
##XYDATA=(XY..XY) 1 
    33          1
    34          0
    35          0
    36          2
    37          0
    38          1
    39          4
    40          5
    41         27
    42        178
    43         28
    44         17
    45         11
    46          0
    49          0
    50          3
    51         10
    52          5
    53          2
    54         17
    55         92
    56        154
    57         80
    58         17
    59          2
    60          0
    61          1
    62          2
    63          7
    64          2
    65          4
    66          1
    67          1
    68          7
    69         13
    70         51
    71         28
    72         14
    73          3
    74          1
    75          3
    76          6
    77          4
    78         13
    79          4
    80          1
    81          1
    82          9
    83          6
    84         49
    85         20
    86        158
    87         34
    88         10
    89          1
    90          7
    91          3
    92          3
    93         13
    94          1
    96         11
    97          6
    98         92
    99         63
   100        999
   101         58
   102         13
   103          1
   104          1
   105          2
   106          2
   107          1
   108          0
   110          2
   111          3
   112         11
   113         19
   114         54
   115          7
   116          3
   117          1
   118          0
   120          1
   121          0
   122          1
   123          0
   124          3
   125          2
   126          7
   127          3
   128          3
   129          1
   130          0
   131          0
   132          0
   133          0
   134          2
   135          1
   136          0
   138          0
   139          1
   140          5
   141          2
   142         43
   143          4
   144         11
   145          1
   146          0
   147          0
   148          0
   149          2
   150          1
   151          0
   152          0
   153          1
   154          5
   155          5
   156          4
   157         73
   158          8
   159         24
   160          2
   161          0
   162          0
   163          1
   164          0
   166          0
   167          1
   168          6
   169         10
   170         14
   171          4
   172          4
   173          0
   176          1
   177          0
   178          0
   180          4
   181          1
   182          7
   183          8
   184          5
   185          3
   186          1
   187          0
   194          0
   195          0
   196          0
   197          0
   198          0
   199          1
   200          0
   201          0
   209          0
   211         24
   212          8
   213          9
   214          2
   215          0
   223          0
   225          0
   237          0
   238          0
   239          1
   240          0
   241          1
   242          0
   243          0
   249          0
   251          0
   252          0
   253          1
   255         82
   256         11
   257         25
   258          3
   259          0
   263          0
   264          0
   265          4
   266          1
   267         35
   268          5
   269         13
   270          1
   271          0
   272          0
   279          0
   280         16
   281          2
   282          5
   283          4
   284          0
   285          1
   298         32
   299          5
   300         10
   301          1
   302          0