##TITLE=Library Entry 21189
##JCAMP-DX=Revision 4.10 
##DATA TYPE=MASS SPECTRUM
##SAMPLE DESCRIPTION=Asinex Ltd, Moscow, Russia
##NAMES=HP
##CAS NAME=1-(4-Iodo-phenyl)-3-(4-methyl-piperidin-1-yl)-pyrrolidine-2,5-dio
ne
##MOLFORM=C16H19IN2O2
##CAS REGISTRY NO=312281-52-0
##MP= -300
##BP= -300
##MW= 398
##$RETENTION INDEX=0
##$CONDENSED SPECTRUM=NO
##NPOINTS= 178
##XYDATA=(XY..XY) 1 
    36          0
    37          1
    38          1
    39         21
    40          7
    41         72
    42        123
    43         24
    44         42
    45         24
    46          2
    48          0
    49          4
    50         20
    51          8
    52          8
    53         58
    54        313
    55        999
    56        450
    57        174
    58          9
    59          1
    61          0
    62          1
    63         18
    64          8
    65          3
    66          2
    67         13
    68         28
    69         22
    70         17
    71          3
    72          0
    73          0
    74          1
    75          1
    76          9
    77          0
    79          1
    80          4
    81          5
    82         55
    83        100
    84         22
    85          4
    86          1
    87          2
    88          0
    89          2
    90         29
    91          5
    92          1
    93          1
    94          2
    95          1
    96          9
    97         12
    98        519
    99         56
   100          4
   101          0
   102          0
   104          1
   105          0
   106          0
   107          0
   108          2
   109          3
   110        128
   111         21
   112          1
   114          0
   115          0
   116          2
   117          3
   118          8
   119          3
   120          1
   121          0
   122          2
   123          1
   124         25
   125        313
   126         49
   127          4
   128          1
   129          0
   130          0
   132          0
   133          2
   134          0
   135          0
   136          3
   137          0
   138          0
   143          0
   144          2
   145          6
   146          9
   147          1
   150          0
   151          1
   152         37
   153          8
   154          0
   156          0
   157          2
   160          0
   164          0
   165          0
   171          0
   172          1
   173          1
   174          5
   175          1
   178          0
   187          0
   191          0
   192          0
   195          0
   196          0
   199          0
   203          5
   204          0
   206          0
   214          0
   215          0
   216          0
   217          0
   218          2
   219          7
   220          0
   226          0
   229          1
   230          2
   232          0
   238          0
   242          0
   243          0
   244          0
   245         26
   246          4
   247          0
   255          0
   256          0
   270          0
   271          0
   272          1
   273          4
   274          0
   281          0
   284          0
   287          0
   299          5
   300          1
   301         19
   302          2
   303          0
   313          0
   314          0
   327          0
   329          2
   330          0
   343          0
   344          0
   355          0
   356          0
   359          0
   370          0
   383          0
   396          0
   397          4
   398         10
   399          7
   400          2
   401          0