##TITLE=Library Entry 83427
##JCAMP-DX=Revision 4.10 
##DATA TYPE=MASS SPECTRUM
##SAMPLE DESCRIPTION=A.A.Kutin, Moscow, Russia
##NAMES=HP
##CAS NAME=Cyclohexane-1-carboxamide, 4-methyl-N-(4-tolyl)-
##MOLFORM=C15H21NO
##CAS REGISTRY NO=312268-97-6
##MP= -300
##BP= -300
##MW= 231
##$RETENTION INDEX=0
##$CONDENSED SPECTRUM=NO
##NPOINTS= 80
##XYDATA=(XY..XY) 1 
    33          4
    34          3
    36          1
    38         15
    39         90
    40         91
    41        132
    42         24
    43         38
    44         24
    45          0
    50         10
    51         26
    52         22
    53         43
    54         69
    55        388
    56         22
    57          8
    62          1
    63          9
    64          9
    65         31
    66          9
    67         24
    68         10
    69         31
    70          3
    71          2
    75          0
    76         11
    77         64
    78         27
    79         40
    80          9
    81         16
    82          2
    83          2
    84          0
    89          2
    90          5
    91         29
    92          4
    93          9
    94          4
    95         12
    97        201
    98         13
   104         14
   106        326
   107        999
   108         97
   109          2
   112          0
   118          1
   119          1
   120          4
   125          3
   127         16
   128         21
   130          0
   131          1
   132          4
   133          8
   134          7
   135          0
   138          4
   144          0
   146          3
   149          4
   160          0
   161          1
   162         13
   163          0
   171          1
   176          0
   229          2
   230         21
   231        127
   232         16