##TITLE=Library Entry 53420
##JCAMP-DX=Revision 4.10 
##DATA TYPE=MASS SPECTRUM
##SAMPLE DESCRIPTION=A.A.Kutin, Moscow, Russia
##NAMES=HP
##CAS NAME=Pyrimidine-5-carbonitrile, 3,4-dihydro-6-(2,4-dichlorophenyl)-3-m
ethyl-2-methylthio-4-oxo-
##MOLFORM=C13H9Cl2N3OS
##CAS REGISTRY NO=312290-32-7
##MP= -300
##BP= -300
##MW= 325
##$RETENTION INDEX=0
##$CONDENSED SPECTRUM=NO
##NPOINTS= 230
##XYDATA=(XY..XY) 1 
    33          7
    34          5
    35         25
    36         73
    37         22
    38         47
    39         24
    40         49
    41         39
    42        284
    43         23
    44         46
    45        216
    46        145
    47        247
    48         25
    49         35
    50         94
    51         42
    52         36
    53         28
    54         50
    55         59
    56        253
    57         34
    58         20
    59         26
    60         17
    61         92
    62         47
    63         42
    64         25
    65          8
    66          8
    67         17
    68         15
    69         17
    70         22
    72        164
    73        239
    74        151
    75        145
    76         38
    77         21
    78         10
    79         28
    80        206
    81         33
    83        999
    84         76
    85         64
    86        131
    87        253
    88        324
    89         34
    90         20
    91          5
    92          4
    93          9
    94         10
    95          6
    96         11
    97         36
    98         62
    99        117
   100        101
   101         25
   102         55
   103          5
   104          8
   105          9
   106         11
   107         45
   108         25
   109         84
   110         38
   111         50
   112         46
   113         27
   114         10
   115          7
   116          6
   119          5
   120          7
   121         11
   122         27
   123         60
   124        161
   125         38
   126         16
   127          9
   131         13
   132          7
   133         28
   134         18
   135         24
   136         57
   137         24
   138         27
   139         81
   140         23
   141         12
   142          6
   143          7
   144          7
   145         38
   146         13
   147         30
   148         47
   149         22
   150         21
   151         13
   152          9
   153          8
   154          6
   156          6
   157         40
   158         14
   159         46
   160         82
   161         39
   162         37
   163         17
   164         11
   170         10
   171         39
   172        112
   173         88
   174        112
   175         47
   176         32
   177         15
   178          5
   179          5
   180          5
   182         45
   183         12
   184         25
   185          9
   186         30
   187         13
   188         35
   189         39
   190         15
   191         14
   192          5
   193          7
   195        207
   196         73
   197        148
   198         49
   199         40
   200         15
   201          7
   202          6
   207          8
   209        134
   210         19
   211         80
   212         13
   213         45
   214         10
   215         27
   216         22
   217         13
   218         17
   219          4
   220          5
   221         10
   222          7
   223         12
   224         12
   225          9
   226          7
   227          5
   237         11
   238         11
   239         22
   240          9
   241         13
   242          6
   243         16
   244         19
   245          9
   246          9
   247          8
   249          5
   250          9
   251         29
   252         13
   253         20
   254          6
   255          6
   257          4
   259         20
   261         14
   262          5
   263          6
   264         20
   265          8
   266         12
   267          7
   276          6
   278        117
   279        132
   280        534
   281        154
   282        328
   283         65
   284         65
   285         10
   287          7
   289          5
   290          7
   292         18
   294         11
   296          9
   297          8
   298          6
   302         10
   304          7
   306          4
   310         19
   312         13
   325        258
   326         57
   327        159
   328         31
   329         30
   330          5