##TITLE=Library Entry 89808
##JCAMP-DX=Revision 4.10 
##DATA TYPE=MASS SPECTRUM
##SAMPLE DESCRIPTION=Chemical Concepts
##NAMES=HP
##CAS NAME=N-(4-Bromophenyl)-4,5-dinitro-1,8-naphthalimide
##MOLFORM=C18H8BrN3O6
##CAS REGISTRY NO=312272-64-3
##MP= -300
##BP= -300
##MW= 441
##$RETENTION INDEX=0
##$CONDENSED SPECTRUM=NO
##NPOINTS= 154
##XYDATA=(XY..XY) 1 
    37         25
    38         87
    39        315
    41         41
    42         50
    43         91
    44        267
    45         74
    46         83
    50        178
    51        152
    52         51
    53        107
    55         25
    56         38
    57         37
    60         16
    62        415
    63        477
    64        219
    65         37
    66         40
    67          3
    69         44
    70         40
    71         12
    74        732
    75        523
    76        290
    77        110
    79         86
    80        141
    81        101
    82        146
    83         18
    85         78
    86        829
    87        270
    88        167
    89          9
    90        320
    91         45
    92         25
    93         83
    94         24
    95         21
    98        367
    99        297
   100        260
   101        142
   102         64
   105         12
   110         99
   111        274
   112        999
   113        193
   114         58
   115         32
   119         12
   121         16
   122        194
   123        120
   124        303
   125        190
   126        107
   127         64
   128         68
   129         61
   130         27
   135         16
   137          9
   138        226
   139        146
   140        621
   141         87
   142          9
   143         61
   145         18
   149         37
   150         48
   151         97
   152         77
   153         41
   154         96
   155        180
   156         41
   157        194
   158          9
   164         19
   166         93
   168        290
   169         31
   170          9
   171         22
   174         57
   175        199
   176        158
   179         21
   184         19
   187         65
   188         44
   194         65
   196         48
   199         16
   200         24
   201        419
   202        497
   203         97
   212         42
   213         44
   214        267
   215         78
   224        142
   225         81
   226         22
   227         28
   228         13
   229         16
   230        386
   231         53
   242         51
   243         21
   258        913
   259        152
   260         11
   281         18
   283         22
   286        929
   287        193
   288         22
   310          9
   316        468
   317         70
   337        175
   338         45
   339        181
   340         13
   349         24
   351         22
   365        183
   366         61
   367        180
   368         42
   395         45
   396         68
   397         62
   398         67
   411         44
   413         38
   440         25
   441        593
   442        157
   443        542
   444        115