##TITLE=Library Entry 47830
##JCAMP-DX=Revision 4.10 
##DATA TYPE=MASS SPECTRUM
##SAMPLE DESCRIPTION=A.A.Kutin, Moscow, Russia
##NAMES=HP
##CAS NAME=Indan-1-one, 2-(1-hydroxyethylideno)-3-phenylimino-
##MOLFORM=C17H13NO2
##CAS REGISTRY NO=312266-74-3
##MP= -300
##BP= -300
##MW= 263
##$RETENTION INDEX=0
##$CONDENSED SPECTRUM=NO
##NPOINTS= 182
##XYDATA=(XY..XY) 1 
    33          0
    34          0
    37         11
    38         44
    39        193
    40         19
    41         19
    42         65
    43          4
    44          4
    45          2
    47          0
    50        143
    51        387
    52         46
    53         22
    54          8
    55          5
    56          1
    57          7
    59          3
    61         10
    62         52
    63        126
    64         45
    65        117
    66         68
    67        113
    68          8
    69          6
    70          4
    71          2
    74         70
    75        110
    76        236
    77        999
    78        120
    80          2
    82         58
    84          5
    85          4
    86         15
    87         32
    88         78
    89        167
    90         38
    91         30
    93        702
    94         60
    96         44
    97          6
    98          7
    99         11
   100         11
   101         36
   102         85
   103         81
   104        167
   105        141
   106         11
   107         19
   109         57
   110          8
   111         16
   113         32
   114         55
   115        242
   116         55
   117         83
   118         51
   119          5
   120          0
   121          1
   122         22
   125         14
   126         34
   127         15
   128         25
   129         22
   130        108
   131        152
   133          6
   134          1
   135          0
   137          1
   138          2
   139         13
   140          6
   141          3
   142          4
   143         24
   144         16
   145          5
   146          2
   147          0
   148          0
   149          1
   150          5
   151         12
   152         21
   153         19
   154         38
   155          4
   156          2
   158        122
   159         16
   160         10
   161          1
   162          1
   163         18
   164         31
   165        167
   166         31
   167          5
   168          1
   169          2
   170          8
   171         33
   172        106
   173         12
   174          2
   175          4
   176         15
   177         13
   178         24
   179         12
   180          6
   181          4
   182          0
   183          0
   184          0
   185          0
   186          1
   187          1
   188          3
   189         26
   190         30
   191         26
   192         11
   193         28
   194         14
   195          2
   196          1
   201          5
   202          9
   203         10
   204         35
   205         14
   206         36
   207         13
   208          2
   209          0
   213          0
   214          2
   215          4
   216         25
   217         37
   218         79
   219         31
   220         78
   221         35
   222        132
   223         23
   224          2
   230          1
   232         11
   234        435
   235         78
   236          8
   237          1
   244         10
   245         12
   246        119
   248        540
   249         83
   250          9
   251          0
   262        698
   263        980
   264        181
   265         20
   266          1