##TITLE=Library Entry 99201
##JCAMP-DX=Revision 4.10 
##DATA TYPE=MASS SPECTRUM
##SAMPLE DESCRIPTION=A.A.Kutin, Moscow, Russia
##NAMES=HP
##CAS NAME=Furazan-3-carboxamide, 4-amino-N-(2-methylphenyl)-, o-(4-methylbe
nzoyl)oxime
##MOLFORM=C18H17N5O3
##CAS REGISTRY NO=312271-91-3
##MP= -300
##BP= -300
##MW= 351
##$RETENTION INDEX=0
##$CONDENSED SPECTRUM=NO
##NPOINTS= 178
##XYDATA=(XY..XY) 1 
    33          7
    34          0
    35          1
    36          8
    39         94
    40         13
    41         35
    42         19
    43         24
    45         97
    47          0
    50         15
    51         41
    52         18
    53         26
    54         14
    55         12
    56          7
    57          4
    58          6
    59          4
    60          1
    63         50
    65        157
    67          7
    68          3
    69          4
    70          3
    71          2
    73          3
    74          3
    75          5
    77         75
    78         24
    79         21
    80          6
    81          2
    82          5
    83          3
    84          2
    86         14
    87          2
    89         49
    91        353
    93          4
    94         12
    95          7
    96          3
    97          1
    98          0
   100         13
   101          7
   102          4
   104         33
   105         26
   106         34
   107          9
   108          3
   109          0
   110          0
   111          0
   112          0
   113          0
   114          1
   116         18
   119        999
   120         65
   122          6
   124         12
   125          1
   126          0
   128          4
   129          5
   131         24
   132         44
   133          8
   134          2
   136         28
   137          2
   138          0
   140          3
   142          4
   143         14
   144         10
   145          6
   146          2
   147          0
   148          1
   149          0
   150          0
   151          0
   152          2
   153          0
   155          3
   156          6
   158         40
   159          7
   160         13
   161          1
   162          0
   163          0
   164          0
   165          0
   166          0
   167          0
   168          0
   169          0
   170          1
   171          3
   172          1
   173          1
   174          5
   175          0
   176          0
   180          0
   181          0
   182          0
   183          0
   184          0
   185          2
   186          3
   187          1
   188          2
   189          0
   190          0
   191          0
   194          0
   196          0
   197          0
   199          0
   200          0
   201          3
   202          1
   203          0
   204          0
   208          0
   212          0
   213          1
   216         48
   217         12
   218          1
   219          0
   225          0
   232          0
   233          0
   245          0
   248          0
   249          0
   250          0
   253          0
   258          0
   260          0
   261          0
   268          0
   269          0
   270          0
   276          1
   277          0
   292          0
   303          0
   304          0
   305          0
   307          0
   319          0
   320          0
   321          0
   333          0
   334          1
   335          0
   336          0
   337          0
   346          0
   347          0
   348          1
   349          1
   351         30
   352          5
   353          0