##TITLE=Library Entry 70752
##JCAMP-DX=Revision 4.10 
##DATA TYPE=MASS SPECTRUM
##SAMPLE DESCRIPTION=Chemical Concepts
##NAMES=HP
##CAS NAME=2-Bromocyclododecanone
##MOLFORM=C12H21BrO
##CAS REGISTRY NO=31236-94-9
##MP= -300
##BP= -300
##MW= 260
##$RETENTION INDEX=0
##$CONDENSED SPECTRUM=NO
##NPOINTS= 143
##XYDATA=(XY..XY) 1 
    26         12
    27        258
    28         61
    29        261
    30          4
    31          5
    38          3
    39        210
    40         45
    41        732
    42        190
    43        234
    44          7
    45          3
    47          3
    48          2
    51         10
    52         11
    53         93
    54        111
    55        666
    56        188
    57         77
    58         56
    59         20
    62          3
    65         16
    66         13
    67        252
    68        126
    69        328
    70        133
    71        113
    72         12
    73          2
    77         17
    78          6
    79         71
    80         48
    81        337
    82         86
    83        243
    84        314
    85         55
    86          7
    87          1
    91         15
    92          6
    93         52
    94         35
    95        189
    96         42
    97        233
    98        999
    99         94
   100          9
   105          8
   106          8
   107         57
   108         21
   109         47
   110         21
   111        188
   112        238
   113         28
   114          3
   119         11
   120          7
   121         67
   122         53
   123         38
   124         17
   125         55
   126         68
   127          5
   132          2
   133          9
   134          5
   135         21
   136         28
   137         55
   138         19
   139         52
   140          7
   147          4
   148          8
   149          6
   150          9
   151         11
   152          3
   153         12
   154          4
   160          2
   161          4
   162         10
   163        173
   164         29
   165          6
   166          2
   167          8
   174          7
   175          2
   176         17
   177          7
   178         22
   179          4
   180         12
   181        529
   182         81
   183          7
   187          1
   188          5
   189          3
   190         12
   191          6
   192         10
   193          4
   194          8
   201          2
   202          3
   203          6
   204          5
   205          6
   206          4
   207          5
   210          4
   216          7
   217         15
   218         12
   219         15
   220          4
   231          3
   232         14
   233          6
   234         16
   235          2
   244          1
   259          2
   260        186
   261         31
   262        183
   263         20
   264          2