##TITLE=Library Entry 22865
##JCAMP-DX=Revision 4.10 
##DATA TYPE=MASS SPECTRUM
##SAMPLE DESCRIPTION=A.A.Kutin, Moscow, Russia
##NAMES=HP
##CAS NAME=Morpholine, 4-(1,5-dimethyl-4-nitropyrazol-3-yl)azo-
##MOLFORM=C9H14N6O3
##CAS REGISTRY NO=312311-15-2
##MP= -300
##BP= -300
##MW= 254
##$RETENTION INDEX=0
##$CONDENSED SPECTRUM=NO
##NPOINTS= 41
##XYDATA=(XY..XY) 1 
    37         15
    38         44
    39        109
    40         69
    41        108
    42        262
    43        437
    44         39
    45         36
    46         15
    50         17
    51         21
    52         59
    53         31
    54        111
    55        129
    56        999
    57         56
    58         10
    63          2
    64         25
    65         18
    66        107
    67        272
    68         69
    69          8
    77         13
    78          2
    79        125
    80         10
    83          4
    86         24
    93        122
    94        101
    95          6
   109          1
   124          1
   152          5
   168        642
   169         39
   254         22