##TITLE=Library Entry 3620
##JCAMP-DX=Revision 4.10 
##DATA TYPE=MASS SPECTRUM
##SAMPLE DESCRIPTION=CARL DJERASSI DEPT OF CHEM STANFORD UNIV STANFORD CALIF
 94305
##NAMES=HP
##CAS NAME=13,16-Seco-D-nor-5.alpha.-androsta-13(18),15-diene
##MOLFORM=C18H28
##CAS REGISTRY NO=31239-26-6
##MP= -300
##BP= -300
##MW= 244
##$RETENTION INDEX=0
##$CONDENSED SPECTRUM=NO
##NPOINTS= 112
##XYDATA=(XY..XY) 1 
    41        999
    42         80
    43        140
    44         20
    50         10
    51         60
    52         60
    53        260
    54         90
    55        590
    56         40
    57         30
    63         20
    64         10
    65        150
    66         80
    67        590
    68        100
    69        120
    70         10
    71         10
    74         10
    76         10
    77        330
    78        110
    79        660
    80        280
    81        490
    82         80
    83        100
    84         10
    85         10
    87         10
    89         10
    91        480
    92        140
    93        390
    94        160
    95        340
    96         50
    97         90
    98         10
   103         30
   104         30
   105        280
   106        170
   107        280
   108        180
   109        380
   110         40
   111         10
   115         30
   116         20
   117         80
   118         30
   119        230
   120        120
   121        210
   122         80
   123         30
   127         10
   128         20
   129         20
   130         10
   131         50
   132         20
   133        170
   134        270
   135        270
   136        100
   137         20
   141         10
   143         10
   145         60
   146         40
   147        150
   148        260
   149        320
   150        130
   151         20
   159         30
   160         30
   161        110
   162        130
   163        120
   164         20
   173         30
   174         20
   175         30
   176         20
   177         10
   185         10
   187        110
   188         30
   189         20
   190         20
   201        100
   202        120
   203         70
   204         10
   215         40
   216         20
   217         20
   227         20
   229        500
   230        110
   231         20
   242         10
   243         20
   244        390
   245         70
   246         20