##TITLE=Library Entry 86546
##JCAMP-DX=Revision 4.10 
##DATA TYPE=MASS SPECTRUM
##SAMPLE DESCRIPTION=Exported from NIST MS Search
##NAMES=HP
##CAS NAME=1H-Indene, octahydro-2,3a,4-trimethyl-2-(1-methylethyl)-, (2.alph
a.,3a.beta.,4.beta.,7a.beta.)-(+)-
##MOLFORM=C15H28
##CAS REGISTRY NO=31230-13-4
##MP= -300
##BP= -300
##MW= 208
##$RETENTION INDEX=0
##$CONDENSED SPECTRUM=NO
##NPOINTS= 64
##XYDATA=(XY..XY) 1 
    39         96
    40         29
    41        448
    42         38
    43        219
    51         15
    52         13
    53         87
    54         17
    55        340
    56         26
    57         96
    65         29
    66         11
    67        197
    68         49
    69        374
    70         49
    71         35
    77         58
    78         11
    79         85
    80         29
    81        309
    82         85
    83        251
    84         20
    85          6
    91         47
    92          6
    93         78
    94         40
    95        695
    96         89
    97         47
   105         15
   106         11
   107         65
   108         53
   109        999
   110        112
   111         17
   121         17
   122         11
   123        112
   124         17
   125          6
   135         15
   136          6
   137         49
   138         20
   149         26
   150         15
   151         44
   152         29
   163         31
   164        340
   165        896
   166        112
   167         11
   193         17
   194         11
   208         44
   209          9