##TITLE=Library Entry 109212
##JCAMP-DX=Revision 4.10 
##DATA TYPE=MASS SPECTRUM
##SAMPLE DESCRIPTION=A.A.Kutin, Moscow, Russia
##NAMES=HP
##CAS NAME=Furane-2-carboxylic acid, 5-(4-chloro-1-pyrazolylmethyl)-
##MOLFORM=C9H7ClN2O3
##CAS REGISTRY NO=312309-03-8
##MP= -300
##BP= -300
##MW= 226
##$RETENTION INDEX=0
##$CONDENSED SPECTRUM=NO
##NPOINTS= 116
##XYDATA=(XY..XY) 1 
    33          5
    34         11
    35         11
    36         55
    37         46
    38        113
    39        123
    40         27
    41         63
    42         30
    43         29
    44        157
    45         70
    46          2
    47         25
    48         15
    49         23
    50         68
    51        194
    52        214
    53         94
    54         23
    55         30
    56          3
    57          7
    60         18
    61         21
    62         20
    63         47
    64         20
    65         23
    66         18
    67          7
    68         12
    69         53
    70          5
    71          4
    72          3
    73         24
    74         18
    75         27
    76         11
    77         14
    79        310
    80         48
    81         41
    82          4
    83          2
    84          2
    86          8
    87          3
    88          6
    89          5
    90          8
    91         10
    92          3
    93          2
    94          1
    95         18
    97        123
    98         10
    99         13
   100          4
   102         39
   104         15
   105          3
   106          0
   108          4
   109          9
   112          1
   113          4
   115         28
   116          1
   117         10
   118          9
   119          2
   121          2
   123         10
   125        999
   126         62
   127         13
   128          7
   129         14
   130          9
   131          4
   132          1
   135          1
   138          1
   139         22
   140          9
   141          0
   142          2
   143          6
   145          3
   147          1
   152          1
   153         19
   154         17
   155          8
   156          8
   157          1
   173         15
   175          4
   179          0
   181        222
   182         31
   183         70
   184          8
   185          1
   209          9
   211          0
   225          1
   226        206
   227         22
   228         65
   229          4