##TITLE=Library Entry 109214
##JCAMP-DX=Revision 4.10 
##DATA TYPE=MASS SPECTRUM
##SAMPLE DESCRIPTION=A.A.Kutin, Moscow, Russia
##NAMES=HP
##CAS NAME=Furane-2-carboxylic acid, 5-(4-chloro-3,5-dimethyl-1-pyrazolylmet
hyl)-
##MOLFORM=C11H11ClN2O3
##CAS REGISTRY NO=312310-61-5
##MP= -300
##BP= -300
##MW= 254
##$RETENTION INDEX=0
##$CONDENSED SPECTRUM=NO
##NPOINTS= 198
##XYDATA=(XY..XY) 1 
    33          1
    34          1
    35          3
    36         16
    37         14
    38         42
    39        163
    40         58
    41         59
    42         69
    43         16
    44         30
    45         49
    47          8
    49         30
    50         38
    51        147
    52        166
    53         77
    54         22
    55         17
    56          2
    57          2
    58          0
    59          0
    61         14
    62         17
    63         36
    64         18
    65         67
    66         41
    67         10
    68          9
    69         44
    71          4
    72          4
    73         22
    74          7
    75         15
    76          6
    77         17
    79        259
    80         51
    81        115
    82         12
    83          3
    84          1
    85          2
    86          4
    87          7
    88          8
    89          5
    90          7
    91          7
    92          3
    93          4
    94          5
    95         41
    97         87
    98          7
    99          8
   100          4
   101          6
   102          7
   103          2
   104          8
   105          5
   106          4
   107          3
   108          6
   109          3
   111          4
   112          2
   113          4
   114          3
   115          7
   116          4
   117          4
   118          6
   119          3
   120          2
   121          2
   122          1
   123          9
   125        999
   126         59
   127         13
   129        149
   130         84
   131         59
   132         29
   133          6
   134          2
   135          1
   136          0
   137          0
   138          3
   139          6
   140          7
   141          3
   142         14
   143         26
   144          7
   145         19
   146         11
   147          6
   148          1
   149          1
   150          0
   151          0
   152          1
   153          1
   154          1
   155          1
   156          4
   157          2
   158          1
   159          1
   160          0
   161          0
   163          0
   164          0
   165          1
   166          3
   167          4
   168          3
   169          2
   170          1
   171          1
   172          0
   173          7
   174          2
   175         13
   176          2
   177          0
   178          1
   179          3
   180         15
   181         81
   182         31
   183         28
   184          8
   185          0
   186          0
   187          0
   189          0
   190          0
   191          0
   192          1
   193          2
   194          1
   195          4
   196          0
   197          2
   198          0
   199          0
   200          0
   201          0
   203          0
   204          0
   205          0
   206          1
   207          3
   208         28
   209        112
   210         26
   211         37
   212          6
   213          4
   214          0
   215          1
   216          0
   217          0
   218          1
   219          9
   220          5
   221          1
   223          0
   224          0
   225          0
   226          0
   227          0
   229          0
   235          1
   236         17
   237          5
   238          6
   239          1
   240          0
   242          0
   251          1
   253         37
   254        225
   255         39
   256         73
   257          9
   258          0
   260          0