##TITLE=Library Entry 18957
##JCAMP-DX=Revision 4.10 
##DATA TYPE=MASS SPECTRUM
##SAMPLE DESCRIPTION=Exported from NIST MS Search
##NAMES=HP
##CAS NAME=2(3H)-Furanone, dihydro-5,5-dimethyl-
##MOLFORM=C6H10O2
##CAS REGISTRY NO=3123-97-5
##MP= -300
##BP= -300
##MW= 114
##$RETENTION INDEX=992
##$CONDENSED SPECTRUM=NO
##NPOINTS= 28
##XYDATA=(XY..XY) 1 
    37         60
    38        113
    39        591
    41        375
    42        471
    43        517
    45         42
    49         17
    50         55
    51         62
    52         17
    53        111
    54         48
    55        999
    56        453
    57         31
    58         42
    59        266
    60         15
    67         15
    68         13
    69         31
    70        406
    71        153
    72         15
    81         15
    99        331
   114          3