##TITLE=Library Entry 20732
##JCAMP-DX=Revision 4.10 
##DATA TYPE=MASS SPECTRUM
##SAMPLE DESCRIPTION=Chemical Concepts
##NAMES=HP
##CAS NAME=3-Hexene, 2,2-dimethyl-
##MOLFORM=C8H16
##CAS REGISTRY NO=3123-93-1
##MP= -300
##BP= -300
##MW= 112
##$RETENTION INDEX=0
##$CONDENSED SPECTRUM=NO
##NPOINTS= 35
##XYDATA=(XY..XY) 1 
    27        265
    29        189
    38         18
    39        261
    40         36
    41        459
    42         45
    43        112
    44          4
    50         18
    51         45
    52         18
    53         90
    54         18
    55        999
    56         72
    57        117
    58          4
    65         18
    67         22
    68         18
    69        283
    70        112
    71          4
    77         18
    79         22
    81         31
    82         13
    83        553
    84         40
    95          4
    97        346
    98         22
   112        180
   113         18