##TITLE=Library Entry 12033
##JCAMP-DX=Revision 4.10 
##DATA TYPE=MASS SPECTRUM
##SAMPLE DESCRIPTION=A.A.Kutin, Moscow, Russia
##NAMES=HP
##CAS NAME=4-Penten-3-one, 2-methyl-5-(1,3,5-trimethylpyrazol-4-yl)-4-(1,2,4
-triazol-1-yl)-
##MOLFORM=C14H19N5O
##CAS REGISTRY NO=312311-98-1
##MP= -300
##BP= -300
##MW= 273
##$RETENTION INDEX=0
##$CONDENSED SPECTRUM=NO
##NPOINTS= 125
##XYDATA=(XY..XY) 1 
    33          3
    34          6
    35          2
    36         25
    37         13
    38         40
    39        271
    40        176
    41        576
    42        350
    43        999
    44         57
    45          7
    49          4
    50         46
    51        116
    52         89
    53        101
    54         88
    55        132
    56        877
    57         38
    61          1
    62         16
    63         52
    64         47
    65        105
    66        209
    67         41
    68         17
    69         40
    70         32
    71         57
    73          5
    74         13
    75         20
    76         35
    77         80
    78         72
    79         63
    80         63
    81         38
    82         18
    84          4
    89         16
    90         22
    91         88
    92         67
    93         48
    94         19
    95          7
    96          1
    97          2
   101          1
   102          6
   103          7
   104         31
   105         38
   106         42
   107         39
   108          9
   109         31
   110         98
   111         19
   112          4
   115          2
   116          5
   118         65
   119         39
   120         20
   121         25
   122         35
   123         16
   130          5
   131         19
   133        997
   134        144
   135         39
   136         11
   137          5
   139          1
   144          5
   145         21
   146         57
   147         68
   148        405
   149         67
   150         12
   151          1
   158          9
   159         17
   161        762
   162         93
   163         96
   164         13
   171          2
   172          2
   173         39
   174         10
   175         81
   176         76
   177         14
   178          1
   186          4
   187         14
   188         13
   189         35
   190          4
   191          2
   200          6
   202        170
   203         54
   204         44
   205          4
   229         12
   230        372
   231         56
   232          3
   254          7
   257          1
   258         57
   259          5
   272         27
   273        191
   274         31