##TITLE=Library Entry 99205
##JCAMP-DX=Revision 4.10 
##DATA TYPE=MASS SPECTRUM
##SAMPLE DESCRIPTION=A.A.Kutin, Moscow, Russia
##NAMES=HP
##CAS NAME=Benzamide, 3-methyl-N-ethyl-N-(2-tolyl)-
##MOLFORM=C17H19NO
##CAS REGISTRY NO=312317-49-0
##MP= -300
##BP= -300
##MW= 253
##$RETENTION INDEX=0
##$CONDENSED SPECTRUM=NO
##NPOINTS= 154
##XYDATA=(XY..XY) 1 
    33          0
    34          0
    36          1
    37          1
    39        105
    40         12
    41         34
    42          7
    43          3
    44          7
    45          2
    50         18
    51         49
    52         18
    53         10
    54          2
    55          1
    56          0
    57          0
    59          2
    61          1
    62         11
    63         50
    65        281
    66         13
    67          1
    68          0
    69          0
    70          0
    71          0
    74          3
    75          5
    76          8
    77         39
    78         18
    79         11
    80          1
    81          0
    82          0
    83          0
    84          0
    86          1
    87          2
    89         62
    91        629
    92         41
    93          3
    94          0
    96          0
    97          0
    98          0
    99          0
   101          0
   102          2
   103          3
   104         10
   105          6
   106          5
   107          3
   108          0
   111          0
   112          0
   113          0
   114          0
   115          5
   116          6
   117         21
   118        132
   119        999
   120         86
   121          6
   122          0
   126          0
   127          1
   128          1
   129          0
   130          2
   131          1
   132          8
   133          5
   134         60
   135          7
   136          2
   137          0
   139          1
   140          0
   141          0
   142          0
   143          0
   146        123
   147         12
   148          1
   149          0
   150          0
   151          0
   152          3
   153          1
   154          0
   155          0
   156          0
   160          0
   161          0
   162          1
   163          0
   164          0
   165          5
   166          2
   167          1
   168          0
   169          0
   171          0
   176          0
   177          0
   178          2
   179          1
   180          2
   181          1
   182          0
   183          0
   190          0
   191          1
   192          1
   193          1
   194          2
   195          0
   196          0
   198          0
   204          0
   206          1
   207          0
   208          2
   209          1
   210          1
   211          0
   212          0
   220          0
   222          0
   223          1
   224          3
   225         17
   226          2
   227          0
   236          1
   237          0
   238         21
   239          4
   240          0
   248          0
   250          2
   252         84
   253        220
   254         39
   255          3
   256          0