##TITLE=Library Entry 22434
##JCAMP-DX=Revision 4.10 
##DATA TYPE=MASS SPECTRUM
##SAMPLE DESCRIPTION=Institute of Organic Chemistry, USSR, 1990
##NAMES=HP
##CAS NAME=4,7,13-Trioxa-1,10-diazacyclopentadecane
##MOLFORM=C10H22N2O3
##CAS REGISTRY NO=31249-95-3
##MP= -300
##BP= -300
##MW= 218
##$RETENTION INDEX=0
##$CONDENSED SPECTRUM=NO
##NPOINTS= 70
##XYDATA=(XY..XY) 1 
    54         73
    55        173
    56        999
    57        667
    58        420
    59         67
    60         39
    61         34
    62         36
    63         73
    68         50
    69        240
    70        447
    71        253
    72        233
    73        113
    74        667
    75         40
    83         25
    84         40
    85         93
    86        453
    87        413
    88        447
    89         44
    98         60
    99         41
   100        600
   101         87
   102         80
   103         25
   106         51
   111         17
   112         33
   113        153
   114        113
   115         25
   116         20
   117         13
   118        133
   119         13
   120         17
   128         20
   129         56
   130         45
   131         33
   132        667
   133         73
   134         12
   143         31
   144         20
   145         13
   149         24
   150        353
   151         29
   156         19
   157         10
   158         40
   159         10
   161         10
   173         73
   174         17
   175         22
   176          7
   187         38
   188         15
   217          9
   218          3
   219         67
   220          7