##TITLE=Library Entry 68650
##JCAMP-DX=Revision 4.10 
##DATA TYPE=MASS SPECTRUM
##SAMPLE DESCRIPTION=Chemical Concepts
##NAMES=HP
##CAS NAME=1,2,3,4,4a,5,6,8a-Octahydro-naphthalene
##MOLFORM=C10H16
##CAS REGISTRY NO=31244-58-3
##MP= -300
##BP= -300
##MW= 136
##$RETENTION INDEX=0
##$CONDENSED SPECTRUM=NO
##NPOINTS= 79
##XYDATA=(XY..XY) 1 
    26          7
    27        136
    28         15
    29         76
    38          9
    39        239
    40         37
    41        349
    42         22
    43         20
    44          2
    45          2
    50         19
    51         75
    52         45
    53        138
    54        100
    55        142
    56         12
    57         14
    58          7
    62          4
    63         26
    64         10
    65        102
    66         81
    67        512
    68         99
    69         41
    70          4
    71          5
    74          3
    75          8
    76          5
    77        214
    78         98
    79        599
    80        231
    81        183
    82         82
    83         10
    84          3
    85          3
    89          7
    90          3
    91        194
    92         49
    93        419
    94        566
    95        999
    96         85
    97          8
   102          2
   103         12
   104          7
   105         34
   106         16
   107        381
   108        238
   109         24
   110          2
   115         12
   116          2
   117         14
   118          2
   119         12
   120          2
   121        347
   122         34
   123          3
   128          4
   129          2
   132          5
   133          3
   134         12
   135         42
   136        940
   137        110
   138         14