##TITLE=Library Entry 62320
##JCAMP-DX=Revision 4.10 
##DATA TYPE=MASS SPECTRUM
##SAMPLE DESCRIPTION=A.A.Kutin, Moscow, Russia
##NAMES=HP
##CAS NAME=Piperazine, 1-(5-benzoyl-2-furoyl)-4-benzyl-
##MOLFORM=C23H22N2O3
##CAS REGISTRY NO=312529-13-8
##MP= -300
##BP= -300
##MW= 374
##$RETENTION INDEX=0
##$CONDENSED SPECTRUM=NO
##NPOINTS= 163
##XYDATA=(XY..XY) 1 
    33          4
    34          0
    38         12
    39         24
    40         12
    42        183
    44         14
    45          0
    50          9
    51         37
    53          8
    54         13
    55         34
    56         40
    57          7
    58          3
    59          0
    61          0
    62          3
    63         10
    65         68
    66         13
    67          3
    68          4
    69          4
    70          7
    72         25
    73          2
    74          2
    75          4
    77        146
    78         11
    80          3
    81          3
    82          2
    83         23
    84         18
    85          2
    86          0
    87          1
    89         16
    91        999
    92         70
    93          5
    94          5
    95          9
    96          1
    97          3
    98          1
    99          0
   101          0
   102          1
   103          3
   105        295
   106         25
   108          5
   110          1
   111          1
   112          0
   113          1
   114          6
   115         13
   116          4
   117         29
   118         20
   119          5
   120          4
   121          1
   122          3
   123          0
   124          0
   126          0
   128          2
   129          1
   130          4
   132        134
   134        222
   135         18
   136         23
   137          1
   138          3
   142          0
   143          1
   144          9
   146        644
   147         59
   148          2
   149          1
   150          5
   151          0
   152          0
   155          0
   156          0
   157          4
   158          8
   159         30
   160          8
   161          6
   162          0
   163          2
   164         15
   165          2
   166          0
   169          0
   170          0
   171          2
   172          3
   173         11
   174         12
   175         91
   176          8
   177          0
   178          0
   181          0
   184          0
   185         25
   186          7
   187          1
   188          0
   189          7
   190          1
   191          0
   199        138
   200         19
   201          2
   202          2
   213          0
   214          0
   215          0
   226          0
   227          0
   228          0
   229          0
   236          1
   240          0
   241          3
   242         10
   243          5
   244          0
   253          0
   255          1
   256          5
   257          2
   262          0
   268          2
   269         24
   270          4
   271          0
   282          3
   283         34
   284          5
   285          0
   296          0
   297          5
   298          0
   345          3
   346          0
   359          1
   373          8
   374        143
   375         37
   376          4
   377          0