##TITLE=Library Entry 99858
##JCAMP-DX=Revision 4.10 
##DATA TYPE=MASS SPECTRUM
##SAMPLE DESCRIPTION=A.A.Kutin, Moscow, Russia
##NAMES=HP
##CAS NAME=3-Hydroxy-5-(4-methoxy-phenyl)-4-(4-methyl-benzoyl)-1,5-dihydro-p
yrrol-2-one
##MOLFORM=C19H17NO4
##CAS REGISTRY NO=312512-40-6
##MP= -300
##BP= -300
##MW= 323
##$RETENTION INDEX=0
##$CONDENSED SPECTRUM=NO
##NPOINTS= 227
##XYDATA=(XY..XY) 1 
    35          1
    36          3
    38          3
    39         12
    40          4
    41          5
    42          1
    44         14
    45          0
    47          0
    50          5
    51         12
    52          4
    53          9
    54          2
    55          3
    56          1
    57          1
    61          1
    63         30
    64         14
    65         66
    66          5
    68          8
    69         14
    70          1
    71          1
    74          4
    75          7
    76         12
    77         51
    78         15
    79          9
    80          3
    81          4
    82          9
    83          4
    84          2
    85          2
    86          1
    87          3
    89         66
    91        342
    92         45
    93          9
    94          5
    95         10
    96          2
    97          2
    98          1
    99          1
   100          1
   101          7
   102         13
   103         17
   104         19
   105         35
   106          8
   107         10
   108         31
   109         10
   110          2
   111          3
   112          2
   113          2
   114          3
   115         20
   116         19
   117         31
   119        999
   120         85
   121         16
   122          2
   123          1
   124          3
   125          7
   126          5
   127          4
   128          5
   129          6
   130          7
   131         13
   132         25
   133         33
   134         63
   135         32
   136         25
   137          4
   139         21
   140          4
   141          2
   142          3
   143         10
   144         16
   145         15
   146          9
   147         15
   148         12
   150          5
   151          5
   152         24
   153         13
   154          3
   155          2
   156          1
   157          3
   158          7
   159         37
   160         34
   161         39
   162         11
   163          6
   164          4
   165         35
   166         15
   167          3
   168          2
   169          1
   171         10
   172         24
   173          5
   174          5
   175         48
   176         23
   177          8
   178         26
   179         18
   180          6
   181          8
   182          2
   183          1
   184          0
   185          1
   186          7
   187          4
   188         21
   189         16
   190          7
   191         11
   192          8
   193          8
   194         15
   195          5
   196          3
   197          2
   198          1
   199          2
   200          3
   202         28
   203        129
   204        117
   205         21
   206          6
   207         12
   208         14
   209         22
   210         28
   211          6
   212          1
   213          1
   214          5
   215          1
   216          3
   217          1
   218          4
   219          6
   220          5
   221         15
   222         15
   223         10
   224          6
   225          2
   226          0
   227          0
   229          0
   230          3
   231         52
   232          9
   233          3
   234         12
   235         13
   236          8
   237         51
   238         10
   239          1
   246          4
   247          2
   248          3
   249          8
   250         14
   251         27
   252         19
   253          4
   254          1
   256          0
   261          0
   262          4
   263          4
   264          4
   265          2
   266         29
   267          6
   268          1
   276          1
   277          6
   278          5
   279          7
   280          4
   281          1
   282          4
   283          1
   290          0
   291          0
   292          1
   293          1
   294          4
   295          1
   304          0
   305          0
   306          0
   307          2
   308          1
   309          0
   323        311
   324         62
   325          8
   326          0