##TITLE=Library Entry 8609
##JCAMP-DX=Revision 4.10 
##DATA TYPE=MASS SPECTRUM
##SAMPLE DESCRIPTION=A.A.Kutin, Moscow, Russia
##NAMES=HP
##CAS NAME=1H-Benzo[b][1,4]-diazepin-2(3H)-one, 4,5-dihydro-5-acetyl-7-bromo
-3-methyl-9-nitro-
##MOLFORM=C12H12BrN3O4
##CAS REGISTRY NO=312530-62-4
##MP= -300
##BP= -300
##MW= 341
##$RETENTION INDEX=0
##$CONDENSED SPECTRUM=NO
##NPOINTS= 229
##XYDATA=(XY..XY) 1 
    33          6
    37          3
    39         59
    41        230
    43        999
    45         58
    46          0
    49          1
    50         12
    51         17
    52         24
    53          9
    54          6
    55         38
    56         24
    57          6
    58          2
    59          5
    61          6
    62         17
    63         35
    64         18
    65         15
    66          5
    67          4
    69        530
    72          1
    73          2
    74          5
    75         18
    76         42
    77         24
    78         30
    79          6
    80          3
    82          2
    83          1
    84          0
    85          0
    86          0
    87          5
    88         21
    89         20
    90         45
    91         41
    92          9
    93          5
    94          0
    95          1
    96          0
    97          1
    99          1
   101         10
   102         12
   103         39
   104         16
   105         15
   106          4
   107          3
   108          0
   114          0
   115          5
   116         34
   117         95
   118         55
   119         11
   120          2
   121          1
   128          3
   129         11
   130         36
   131         15
   132          9
   133          9
   134          8
   135          1
   136          0
   141         10
   142          4
   143         26
   144         13
   145         23
   146          9
   147          2
   148          1
   149          0
   153          1
   154          1
   155          3
   156          7
   157          5
   158         12
   159          6
   160          4
   161          2
   162          0
   163          1
   164          4
   165          0
   167          0
   168          9
   169         10
   170         12
   171         12
   172          7
   173          4
   174          7
   175          4
   176          5
   177          3
   178          1
   179          0
   181          2
   182          4
   183         13
   184          8
   185         10
   186          3
   187          1
   188          0
   190          0
   191          4
   192          0
   193          0
   195         35
   196         75
   197         60
   198         72
   199         28
   200          2
   201          2
   202          1
   203          1
   204          0
   205          1
   206          0
   207          4
   209         55
   210         19
   211         54
   212         18
   213         13
   214          6
   215          7
   216          2
   217          0
   218         13
   219          2
   221          1
   222          1
   223         13
   224         10
   225         23
   226         18
   227         13
   228          9
   229          1
   230          0
   231          0
   232          0
   233          0
   234          0
   235          0
   236          2
   237          5
   238          7
   239         10
   240         10
   241         13
   242        106
   243         32
   244        110
   245         27
   246          2
   247          0
   249          1
   250          0
   251          1
   252          6
   253          5
   255        513
   256         86
   257        507
   258         62
   259         35
   260          4
   265          0
   266          0
   267          1
   269         32
   270          6
   271         27
   272          4
   273          0
   275          0
   277          2
   279          0
   280          0
   281          3
   282         53
   283          9
   284         57
   285          5
   286          0
   288          2
   290          3
   291          0
   292          1
   293          0
   296         40
   297         44
   298         39
   299         53
   300          9
   301         12
   302          2
   311          0
   313          0
   319          0
   326          1
   328          1
   333          0
   335          0
   337          0
   341         48
   342          9
   343         49
   344          7
   345          0