##TITLE=Library Entry 1395
##JCAMP-DX=Revision 4.10 
##DATA TYPE=MASS SPECTRUM
##SAMPLE DESCRIPTION=Chuck Anderson, Aldrich Chemical Co.
##NAMES=HP
##CAS NAME=4-Benzylpiperidine
##MOLFORM=C12H17N
##CAS REGISTRY NO=31252-42-3
##MP= -300
##BP= -300
##MW= 175
##$RETENTION INDEX=0
##$CONDENSED SPECTRUM=NO
##NPOINTS= 75
##XYDATA=(XY..XY) 1 
    15          9
    26          4
    27         99
    28        211
    29        231
    30        999
    31         18
    36         34
    38         20
    39        143
    40         13
    41         92
    42        281
    43        111
    44        193
    45          4
    50         19
    51         62
    52         19
    53         47
    54         42
    55        431
    56        609
    57        229
    58         16
    62          7
    63         47
    64         12
    65        174
    66         12
    67         46
    68         53
    69        599
    70         57
    75          4
    76          6
    77         59
    78         30
    79         12
    80         30
    82        309
    83        118
    84        431
    85         25
    89         36
    90          9
    91        418
    92         36
    95         10
    96         10
    97        204
    98         26
   102         10
   103         26
   104         26
   105         21
   115        104
   116         31
   117        102
   118        105
   119         11
   120          6
   127         12
   128         36
   129         71
   130         98
   131         36
   132         29
   143          4
   145          4
   146         11
   173          7
   174        477
   175        699
   176         92