##TITLE=Library Entry 3609
##JCAMP-DX=Revision 4.10 
##DATA TYPE=MASS SPECTRUM
##SAMPLE DESCRIPTION=Chemical Concepts
##NAMES=HP
##CAS NAME=Spiro[5.5]undecane-1,7-dione
##MOLFORM=C11H16O2
##CAS REGISTRY NO=31251-68-0
##MP= -300
##BP= -300
##MW= 180
##$RETENTION INDEX=0
##$CONDENSED SPECTRUM=NO
##NPOINTS= 122
##XYDATA=(XY..XY) 1 
    26         85
    27        664
    28        381
    29        374
    30         17
    31         29
    34          3
    35          4
    36         16
    37         21
    38         68
    39        780
    40        188
    41        999
    42        310
    43        286
    44        247
    45         64
    46         10
    47         12
    48         13
    49          8
    50         77
    51        173
    52        109
    53        366
    54        326
    55        662
    56        131
    57         98
    58         34
    59         16
    60         23
    61         16
    62         20
    63         66
    64         27
    65        171
    66        149
    67        718
    68        231
    69        143
    70        133
    71         52
    72         16
    73         26
    74         23
    75         22
    76         18
    77        315
    78        199
    79        907
    80        518
    81        468
    82        283
    83        396
    84        515
    85         50
    86         12
    87         15
    89          8
    91        294
    92         80
    93        531
    94        586
    95        772
    96        215
    97        741
    98        714
    99         63
   100          4
   101         10
   102          6
   103         19
   104         11
   105         73
   106         50
   107        362
   108        271
   109        263
   110        120
   111         74
   112         15
   113          6
   114          0
   115         11
   116          7
   117          8
   118          6
   119         34
   120         14
   121        244
   122         29
   123        218
   124        193
   125         23
   126         22
   127          9
   128          9
   129          7
   130          4
   131          2
   132          1
   133         16
   134         48
   135         53
   136        749
   137        444
   138        226
   139         25
   141          5
   150          6
   151         86
   152        215
   153         28
   161          1
   162         14
   163          0
   170          7
   180        525
   181         62
   182          4