##TITLE=Library Entry 88984
##JCAMP-DX=Revision 4.10 
##DATA TYPE=MASS SPECTRUM
##SAMPLE DESCRIPTION=Asinex Ltd, Moscow, Russia
##NAMES=HP
##CAS NAME=5-Amino-1-(thiophene-2-carbonyl)-1H-pyrazole-4-carbonitrile
##MOLFORM=C9H6N4OS
##CAS REGISTRY NO=312507-20-3
##MP= -300
##BP= -300
##MW= 218
##$RETENTION INDEX=0
##$CONDENSED SPECTRUM=NO
##NPOINTS= 98
##XYDATA=(XY..XY) 1 
    33          0
    37          3
    38         11
    39         59
    40          4
    41          1
    42          1
    43          1
    44          1
    45         12
    46          0
    47          0
    49          1
    50          4
    51         14
    52         37
    53         14
    54          1
    55          0
    57         22
    58          5
    59          1
    60          0
    61          0
    62          0
    63          1
    64          4
    65          5
    66          5
    67          1
    68          0
    69          6
    70          3
    71          1
    72          0
    73          0
    77         22
    78          8
    79         11
    80          3
    81         16
    82         26
    83         80
    84          9
    85          4
    86          0
    87          0
    90          0
    91          1
    92          1
    93          0
    94          1
    95          5
    96          2
    97          1
    98          0
   103          0
   104          0
   105          0
   107          2
   108          2
   109          5
   111        999
   112         58
   113         46
   114          2
   115          0
   116          0
   118          0
   119          0
   120          0
   121          0
   123          0
   125          0
   128          0
   130          0
   131          0
   134          0
   135          0
   136          0
   145          1
   146          0
   147          0
   148          0
   149          0
   158          0
   161          0
   162          0
   171          0
   173          0
   174          0
   189          0
   190          1
   191          0
   218        297
   219         35
   220         14
   221          1