##TITLE=Library Entry 18147
##JCAMP-DX=Revision 4.10 
##DATA TYPE=MASS SPECTRUM
##SAMPLE DESCRIPTION=A.A.Kutin, Moscow, Russia
##NAMES=HP
##CAS NAME=Isothiazole-4-carbonitrile, 3-bromo-5-phenylamino-
##MOLFORM=C10H6BrN3S
##CAS REGISTRY NO=312536-44-0
##MP= -300
##BP= -300
##MW= 279
##$RETENTION INDEX=0
##$CONDENSED SPECTRUM=NO
##NPOINTS= 104
##XYDATA=(XY..XY) 1 
    33         15
    34          3
    37         34
    38        140
    39        465
    40         55
    41         19
    43         12
    44         49
    45         43
    46         13
    51        999
    52         93
    53         16
    56          5
    57          4
    58         25
    59         33
    61         12
    62         45
    63        112
    64        104
    65        510
    66         39
    67          1
    68          2
    69         69
    70        128
    71         22
    72          4
    74         77
    75         49
    77        905
    78         61
    80         45
    81         49
    82        103
    83         11
    87          9
    88         18
    90         17
    91         59
    92         35
    93         31
    94         11
    96         63
    97         10
   100          2
   102         35
   103         27
   104         21
   106         23
   108         50
   109        274
   111         56
   112          5
   113         25
   114         27
   115         62
   116         10
   119          5
   120         29
   121          6
   123         66
   124          2
   128         20
   129         37
   130          1
   135         35
   136         15
   137         21
   139         16
   140          2
   141         59
   142         40
   143          5
   145         18
   146        236
   148         10
   153          2
   155          4
   156         88
   157          7
   167        236
   168        149
   169         13
   171         22
   172         21
   173        395
   174         37
   175         15
   198          7
   199         95
   200        417
   201         58
   202         22
   239          3
   247          1
   277          1
   279        347
   280         46
   281        343
   282         43
   283         13