##TITLE=Library Entry 98939
##JCAMP-DX=Revision 4.10 
##DATA TYPE=MASS SPECTRUM
##SAMPLE DESCRIPTION=A.A.Kutin, Moscow, Russia
##NAMES=HP
##CAS NAME=4H-1,3,5-Oxadiazine, 6-pentafluoroethyl-2-(4-trifluoromethoxyphen
yl)-4,4-bis(trifluoromethyl)-
##MOLFORM=C14H4F14N2O2
##CAS REGISTRY NO=312531-82-1
##MP= -300
##BP= -300
##MW= 498
##$RETENTION INDEX=0
##$CONDENSED SPECTRUM=NO
##NPOINTS= 79
##XYDATA=(XY..XY) 1 
    33         13
    34         34
    38         28
    40         55
    41         44
    43         31
    44        102
    45          4
    50         36
    51         13
    52         17
    53          8
    55          9
    57         13
    62         15
    63         72
    64         70
    65          4
    66          6
    69        532
    70          5
    74          6
    75         53
    76         21
    78         14
    85         24
    88          3
    89          5
    90         47
    91          8
    92        167
    93          3
    94         15
    95        161
    96         14
   100         14
   102         17
   103         30
   104          3
   109          8
   118          5
   119        999
   120         20
   121         13
   126          4
   128          2
   135          5
   142        166
   143          3
   147        215
   148          3
   159          4
   161         53
   165          4
   179         10
   187        194
   188         29
   189        292
   190         28
   191          6
   192        361
   193          7
   214         18
   236          5
   237          2
   256         24
   264         54
   292         16
   306        419
   307         47
   334        370
   335         32
   379         18
   413          6
   429        112
   479         12
   480          6
   498         58
   499          6