##TITLE=Library Entry 31768
##JCAMP-DX=Revision 4.10 
##DATA TYPE=MASS SPECTRUM
##SAMPLE DESCRIPTION=A.A.Kutin, Moscow, Russia
##NAMES=HP
##CAS NAME=1,2,4-Triazole, 3-bromo-5-methylsulfonyl-
##MOLFORM=C3H4BrN3O2S
##CAS REGISTRY NO=312512-38-2
##MP= -300
##BP= -300
##MW= 225
##$RETENTION INDEX=0
##$CONDENSED SPECTRUM=NO
##NPOINTS= 159
##XYDATA=(XY..XY) 1 
    33         24
    34         25
    35         12
    36         48
    37          4
    38        163
    39        113
    40         79
    41        146
    42         64
    43         35
    44         31
    45        117
    46         68
    47        114
    48        121
    49         31
    50         15
    51         19
    52         26
    53         24
    54        118
    55         54
    56         13
    57          6
    58         35
    59         33
    60         15
    61         21
    62         40
    63        580
    64        999
    65        201
    66         56
    67        182
    68         58
    70         73
    72         15
    74         14
    75          5
    76          7
    77         15
    79        340
    80         64
    81         51
    82         25
    83         11
    84         23
    85         14
    86          6
    87          9
    88          5
    89         10
    91        134
    92         38
    93        108
    94         16
    95          3
    96          4
    97          1
    98          2
   100          4
   102          6
   103          3
   104          7
   105         24
   106        178
   107        127
   108        166
   109        103
   110          1
   111          3
   113          3
   114          0
   115          3
   117         64
   118         47
   119         63
   120        188
   122        161
   123          5
   125          1
   126          0
   127          5
   128          0
   129          7
   130          4
   131          2
   132          7
   133         56
   134         19
   135         63
   136         19
   137          7
   138          6
   139          3
   140          3
   141          1
   142          1
   143          3
   144          2
   146         36
   147         17
   148         31
   149         25
   150          5
   151          7
   152          8
   154          7
   155          0
   156          1
   158          0
   159          0
   160          5
   161         66
   162         94
   163        397
   164         97
   165        333
   166         14
   167          3
   168          2
   169          0
   172          2
   174          0
   176          5
   177          4
   178         10
   179          2
   180         15
   181          3
   182         29
   183          5
   184          8
   185          2
   189          0
   190          1
   191          0
   192          0
   193          1
   194          3
   195          1
   196          2
   197          3
   198          3
   199          4
   207          0
   210         43
   212         46
   213          2
   214          1
   219          3
   223          2
   225        374
   226         25
   227        378
   228         23
   229         15
   230          0