##TITLE=Library Entry 80181
##JCAMP-DX=Revision 4.10 
##DATA TYPE=MASS SPECTRUM
##SAMPLE DESCRIPTION=A.A.Kutin, Moscow, Russia
##NAMES=HP
##CAS NAME=Alanine, 2-(benzoylamino)-3,3,3-trifluoro-N-[3-(trifluoromethyl)-
2-quinoxalinyl]-, ethyl ester
##MOLFORM=C21H16F6N4O3
##CAS REGISTRY NO=312530-81-7
##MP= -300
##BP= -300
##MW= 486
##$RETENTION INDEX=0
##$CONDENSED SPECTRUM=NO
##NPOINTS= 169
##XYDATA=(XY..XY) 1 
    33          1
    38          1
    39          3
    40          1
    41          1
    42          0
    43          1
    44          1
    45          0
    46          0
    49          0
    50          7
    51         30
    52          2
    53          0
    54          0
    57          0
    61          0
    62          1
    63          4
    64          2
    65          1
    66          0
    69         16
    73          0
    74          2
    75          5
    77        234
    78          9
    79          0
    80          0
    89          1
    90         14
    91          3
    92          1
    93          0
    94          0
    95          3
    96          1
   100          0
   101          1
   102         18
   105        999
   106         61
   107          3
   108          0
   110          0
   113          0
   116          3
   117          5
   118          2
   119          0
   120          0
   121          0
   122          0
   123          0
   124          0
   126          0
   127          0
   129         14
   130          0
   133          0
   134          0
   135          0
   136          0
   139          0
   142          0
   143          4
   144          9
   145          1
   146          0
   147          1
   148          0
   149          0
   150          0
   152          0
   154          1
   165          0
   166          9
   167          1
   169          0
   171          0
   173          0
   174          1
   175          0
   178          1
   179          0
   180          0
   185          0
   186          3
   187          0
   191          0
   192          1
   193          1
   194          0
   195          1
   197         22
   198          4
   199          0
   200          0
   204          0
   205          0
   211          0
   212          2
   213         33
   214          8
   215          1
   216          0
   218          0
   219          2
   220          0
   223          0
   224          1
   225          0
   229          0
   236          0
   239         28
   240          2
   241          0
   242          0
   248          0
   249          0
   252          0
   254          0
   269          0
   270          0
   273          0
   274          0
   287          0
   288          1
   289          1
   290          1
   291          0
   292          0
   293          0
   294          0
   301          0
   307          0
   309          7
   310          1
   316          0
   318          0
   327          0
   328          0
   338          0
   344          0
   346          0
   364          0
   365          1
   366          1
   367          0
   381          0
   396          3
   397          0
   403          0
   411          0
   413        131
   414         25
   415          2
   416          0
   417          3
   418          0
   441          2
   442          0
   447          0
   467          0
   486         33
   487          7
   488          0