##TITLE=Library Entry 64627
##JCAMP-DX=Revision 4.10 
##DATA TYPE=MASS SPECTRUM
##SAMPLE DESCRIPTION=A.A.Kutin, Moscow, Russia
##NAMES=HP
##CAS NAME=1,2,4-Triazino[5,6-b]indole, 3-methylthio-5-(2-phenylethyl)-
##MOLFORM=C18H16N4S
##CAS REGISTRY NO=312537-07-8
##MP= -300
##BP= -300
##MW= 320
##$RETENTION INDEX=0
##$CONDENSED SPECTRUM=NO
##NPOINTS= 110
##XYDATA=(XY..XY) 1 
    39         61
    40         38
    41         11
    44          6
    45         44
    46         14
    47          2
    50          8
    51        110
    53         18
    61          3
    62          5
    63         33
    65        162
    66          7
    67          2
    69          5
    73          3
    74         16
    75         39
    77        362
    79        164
    80          7
    88         17
    89         31
    91        999
    92         42
    93          3
    99         11
   101        167
   102        112
   103        138
   104        107
   105        278
   106         10
   108          7
   114         78
   115         79
   116         48
   117         21
   118          3
   120          2
   121         19
   122          8
   126         16
   127         60
   128        267
   129         92
   130         42
   131          4
   132         15
   134          3
   135         10
   141         11
   142        298
   143         69
   144         26
   145         55
   146         60
   147         12
   153          9
   155         57
   156         52
   158         12
   159         22
   160         49
   168         11
   169         17
   170         30
   171          3
   173         65
   174         16
   175          4
   186        122
   187         18
   188         21
   189         18
   190          6
   191          4
   192          4
   200          2
   201         49
   202         14
   204         23
   205         39
   215          2
   216        356
   217         78
   218         62
   219         23
   221          2
   229        191
   233          5
   243         58
   244        140
   245        298
   246         36
   247          2
   249         19
   250          4
   273          9
   274          4
   275          8
   276         28
   277         51
   292         23
   305         15
   320        574
   321        117
   322         30