##TITLE=Library Entry 86864
##JCAMP-DX=Revision 4.10 
##DATA TYPE=MASS SPECTRUM
##SAMPLE DESCRIPTION=A.A.Kutin, Moscow, Russia
##NAMES=HP
##CAS NAME=Acetic acid, 2-[2-phenylhydrazono-2-(2-thienyl)ethylthio]-, ethyl
 ester
##MOLFORM=C16H18N2O2S2
##CAS REGISTRY NO=312504-96-4
##MP= -300
##BP= -300
##MW= 334
##$RETENTION INDEX=0
##$CONDENSED SPECTRUM=NO
##NPOINTS= 143
##XYDATA=(XY..XY) 1 
    29        206
    30          2
    31         11
    38          2
    39         75
    40          0
    41          0
    42         23
    43          3
    44          3
    45         67
    46         30
    47         54
    48          0
    49          1
    50          1
    51         48
    52          6
    53          1
    57          2
    58          8
    59         16
    60          9
    61          2
    63         11
    64         17
    65        213
    66         36
    67          0
    69         24
    70          7
    71          6
    74         11
    75          8
    76          9
    77        386
    78         33
    79         10
    80          0
    82          3
    83          3
    84         11
    86          0
    87          0
    90          0
    91         46
    92        100
    93         49
    94          8
    95          7
    96         13
    97         59
    98          5
    99          1
   102          0
   103         11
   104         21
   105        110
   106        134
   107         27
   108         57
   109        999
   110        136
   111         53
   112          8
   113          1
   115          0
   117          0
   118          0
   120          8
   121          1
   122         19
   123          6
   126          4
   127          4
   128          1
   129          2
   130         47
   131         17
   132          0
   136          3
   137          7
   138         12
   139          1
   140         15
   141         47
   142          3
   143          0
   147          0
   153          2
   154         10
   155          2
   156          2
   157          2
   158          3
   167          0
   168         13
   169          2
   171          9
   172          1
   173         22
   174         15
   175          1
   180          0
   181          5
   182         57
   183         19
   184          6
   185         25
   186         25
   187          6
   188          0
   196          4
   198          1
   199          5
   200         70
   201         15
   202          1
   211          0
   212          3
   213         67
   214         53
   215        178
   216         42
   217          7
   218          0
   229         18
   230         51
   231          5
   232          0
   242          0
   245          3
   246          7
   247          7
   248          0
   289          1
   317         39
   318          3
   333         43
   334        734
   335        173
   336         80
   337         10