##TITLE=Library Entry 100840
##JCAMP-DX=Revision 4.10 
##DATA TYPE=MASS SPECTRUM
##SAMPLE DESCRIPTION=A.A.Kutin, Moscow, Russia
##NAMES=HP
##CAS NAME=Benzamide, 4-(2-methylbenzoylamino)-N-(2-thiazolyl)-
##MOLFORM=C18H15N3O2S
##CAS REGISTRY NO=312533-59-8
##MP= -300
##BP= -300
##MW= 337
##$RETENTION INDEX=0
##$CONDENSED SPECTRUM=NO
##NPOINTS= 73
##XYDATA=(XY..XY) 1 
    33          9
    38         14
    39         31
    40         33
    41         14
    42          0
    44          6
    45         28
    46          3
    50          6
    51          7
    52          9
    53          6
    54          2
    55         32
    56          2
    57         13
    58          9
    59          3
    62          1
    63         44
    64         54
    65        141
    66          3
    70          3
    71          1
    75          2
    76          9
    77          5
    78          1
    89         29
    91        654
    92         50
    93          6
    94          1
    99          6
   100          3
   104          1
   115          1
   119        999
   121        141
   122          6
   124          0
   125          1
   127          4
   136          3
   139          1
   146          7
   152          4
   163         33
   164          5
   180          7
   181          3
   182          1
   189          1
   190          8
   191          0
   208          2
   209          7
   210          4
   218          4
   219          2
   236         11
   238        900
   239        140
   240         13
   282          1
   283          1
   299          4
   336          1
   337        121
   338         30
   339          7