##TITLE=Library Entry 37602
##JCAMP-DX=Revision 4.10 
##DATA TYPE=MASS SPECTRUM
##SAMPLE DESCRIPTION=A.A.Kutin, Moscow, Russia
##NAMES=HP
##CAS NAME=Pyrrolo[1,2-a]pyrazine, perhydro-2-(2,4-dinitrophenyl)-
##MOLFORM=C13H16N4O4
##CAS REGISTRY NO=312535-18-5
##MP= -300
##BP= -300
##MW= 292
##$RETENTION INDEX=0
##$CONDENSED SPECTRUM=NO
##NPOINTS= 167
##XYDATA=(XY..XY) 1 
    33         44
    38         10
    39         82
    40        111
    41        435
    42        450
    43        116
    44         54
    46          1
    50         28
    51         34
    52         32
    53         36
    54        145
    55        447
    56        119
    58         27
    59         13
    63         53
    64         24
    65         33
    66         20
    67         51
    68        202
    69        396
    70        999
    71         47
    72         10
    73         11
    74         13
    75         53
    76         75
    77         61
    78         42
    79         23
    80         42
    82        650
    83        855
    84        286
    85         14
    86          8
    87         15
    89         32
    90         34
    91         29
    92         18
    93         15
    94         36
    95         61
    96        303
    97        101
    98         58
    99         10
   100          8
   101          1
   102         12
   103         47
   104         37
   105         19
   106         17
   107          4
   108         11
   109          6
   110         38
   112        376
   113         20
   114          4
   115         10
   116         21
   117         49
   118         88
   119         22
   120         13
   121          6
   122          2
   123          6
   125          4
   127          1
   128          7
   129         18
   130         63
   131         94
   132        271
   133         35
   134          8
   136          2
   142          3
   143         13
   144         15
   145          8
   146         24
   147         12
   148          5
   149         13
   150          4
   154          1
   155          1
   156          6
   157          7
   158          8
   159          4
   160         10
   161         16
   162          2
   164         59
   165         12
   166          5
   167          0
   168          3
   169          8
   170         13
   171         11
   172          9
   173          2
   174          1
   176         91
   177         24
   178         31
   179          4
   180         10
   183          0
   184          2
   186          6
   189          5
   190         11
   192         40
   193         49
   194          7
   197          2
   199         39
   200          9
   201         17
   202         10
   203          7
   204          4
   205         10
   206         19
   211          5
   215          3
   216         12
   217         13
   218          9
   220          2
   222         25
   223         21
   230          4
   232         14
   233          3
   234         10
   243          1
   244         10
   245         38
   246         15
   247         63
   248          8
   257          1
   260          2
   261         24
   262        174
   263         22
   264          4
   275         15
   276          3
   291         63
   292        138
   293         22
   294          1