##TITLE=Library Entry 62540
##JCAMP-DX=Revision 4.10 
##DATA TYPE=MASS SPECTRUM
##SAMPLE DESCRIPTION=A.A.Kutin, Moscow, Russia
##NAMES=HP
##CAS NAME=Indole, 2,3-dihydro-1-(4-methylphenylsulfonyl)-4,6-diinitro-
##MOLFORM=C15H13N3O6S
##CAS REGISTRY NO=312513-83-0
##MP= -300
##BP= -300
##MW= 363
##$RETENTION INDEX=0
##$CONDENSED SPECTRUM=NO
##NPOINTS= 100
##XYDATA=(XY..XY) 1 
    33         34
    34          6
    36         14
    38         12
    39         84
    40         79
    41         16
    42          1
    44         22
    45          4
    48          0
    50         26
    51         36
    52         22
    53          7
    54          1
    55          0
    56          2
    57          0
    63         96
    65        196
    66          8
    67          3
    69          4
    74          8
    75         17
    76         16
    77         31
    78         10
    79         13
    80          1
    81          0
    82          4
    83          1
    86          9
    87         25
    89        102
    91        999
    92         59
    95          0
   102          3
   103          7
   104          4
   105          3
   106          2
   107          6
   108          2
   111          3
   112          1
   114         27
   115         16
   116          7
   117          1
   118          0
   121          1
   122          2
   123          1
   125          0
   129          0
   130          8
   131          3
   132          2
   139         17
   140          1
   150          1
   151          1
   152          4
   155        595
   156         40
   157         25
   158          1
   161          4
   162          2
   163          2
   165         26
   166         15
   167          7
   176          2
   177          0
   182          6
   190          0
   191          6
   192          1
   199          1
   201         31
   202          6
   203          9
   204          2
   207          2
   208          1
   303          0
   304          2
   305          0
   306          0
   338          0
   361         35
   362         10
   363         52
   364          8
   365          2