##TITLE=Library Entry 13627
##JCAMP-DX=Revision 4.10 
##DATA TYPE=MASS SPECTRUM
##SAMPLE DESCRIPTION=A.A.Kutin, Moscow, Russia
##NAMES=HP
##CAS NAME=1H-Benzo[b][1,4]-diazepin-2(3H)-one, 4,5-dihydro-5-acetyl-7-nitro
-
##MOLFORM=C11H11N3O4
##CAS REGISTRY NO=312530-60-2
##MP= -300
##BP= -300
##MW= 249
##$RETENTION INDEX=0
##$CONDENSED SPECTRUM=NO
##NPOINTS= 128
##XYDATA=(XY..XY) 1 
    33          3
    37          3
    38          9
    39         19
    40         16
    41         19
    43        999
    45         47
    46          1
    48          0
    50         20
    51         42
    52         44
    53         16
    55        397
    56         15
    59          1
    62         16
    63         32
    64         32
    65         41
    66         12
    67          5
    68          6
    69          1
    72          0
    73          0
    74          3
    75         10
    76         26
    77         38
    78         52
    79         21
    80         12
    81          2
    82          0
    83          0
    84          0
    87          1
    88          4
    89         10
    90         28
    91         71
    92         29
    93          8
    94          5
    95          1
    96          0
    98          0
   101          0
   102          3
   103          6
   104         26
   105         33
   106         26
   107         17
   108          3
   109          0
   112          0
   114          0
   116         10
   118        272
   119         41
   120          8
   122          3
   123         14
   124          1
   129          0
   131         60
   132         47
   133         18
   134         10
   136         50
   137         14
   138          2
   142          0
   143          3
   144          5
   145          7
   146          9
   147         31
   148         23
   149          9
   150          1
   153        162
   154          8
   155          0
   157          0
   159         18
   160         38
   161         21
   162         44
   164        468
   165         68
   166          7
   172          1
   173          0
   174          2
   175          1
   177        221
   178         49
   179         31
   180         12
   181          0
   188          0
   189          6
   190         70
   191         16
   192         13
   193          2
   194          0
   195          1
   202          1
   205        294
   206         64
   207        495
   208         53
   209          7
   219          1
   220          0
   221          1
   231          0
   234          1
   235          0
   249        262
   250         37
   251          4
   252          0