##TITLE=Library Entry 82057
##JCAMP-DX=Revision 4.10 
##DATA TYPE=MASS SPECTRUM
##SAMPLE DESCRIPTION=A.A.Kutin, Moscow, Russia
##NAMES=HP
##CAS NAME=Furan-2-carboxamide, 5-benzoyl-N,N-dicyclohexyl-
##MOLFORM=C24H29NO3
##CAS REGISTRY NO=312526-28-6
##MP= -300
##BP= -300
##MW= 379
##$RETENTION INDEX=0
##$CONDENSED SPECTRUM=NO
##NPOINTS= 172
##XYDATA=(XY..XY) 1 
    33         12
    34          1
    38         19
    39        123
    41        501
    43        116
    44         26
    45          6
    50         16
    51         74
    53         83
    55        747
    56         84
    57         10
    58          3
    62          2
    63         10
    65         26
    66         30
    67         81
    68         23
    69         13
    70         13
    71          3
    72          0
    74          5
    75         13
    77        393
    79         60
    80         40
    81        108
    82         54
    83        144
    84          9
    85          1
    86          1
    87          2
    88          5
    89          9
    90          1
    91          8
    92          2
    93         10
    94         29
    95         58
    96         22
    98        137
    99         40
   100          1
   102          4
   103         13
   105        999
   106         51
   108         69
   109         11
   110         10
   112          2
   113          6
   114         16
   115         41
   116         13
   117          2
   118          2
   119          3
   120         20
   121         10
   122         14
   123          9
   124          5
   125          4
   126          0
   127          1
   128          3
   129          2
   130          2
   131          3
   136        103
   138         62
   139         12
   140          0
   142          2
   143          1
   144         40
   145          3
   146          1
   147          1
   148          4
   149          8
   150         19
   151          0
   152          1
   157          1
   159          1
   161          0
   162         14
   164         77
   165         12
   166          0
   167          1
   169          1
   170          5
   171         49
   172         27
   173         22
   174          3
   176          2
   177          1
   178          2
   179         10
   180         36
   181          7
   184          0
   185          8
   186         40
   187          5
   188          4
   190          7
   192        760
   193         88
   194          6
   196          4
   199        850
   200        124
   201         14
   202          1
   211          1
   212          3
   213          8
   214         11
   216        235
   217         35
   218         16
   219          0
   225          6
   226          3
   227          7
   228          6
   229          2
   240         68
   241         11
   242         44
   243          6
   245          0
   246         21
   247          1
   251          2
   252          8
   254        547
   255        101
   256         20
   257          1
   268         31
   269          5
   271          2
   272          1
   274        999
   275        191
   276         19
   280         22
   281          4
   282          1
   294          1
   296        266
   297         73
   298        106
   299         18
   322          4
   336          8
   337          1
   379        151
   380         32
   381          5