##TITLE=Library Entry 15956
##JCAMP-DX=Revision 4.10 
##DATA TYPE=MASS SPECTRUM
##SAMPLE DESCRIPTION=Chemical Concepts
##NAMES=HP
##CAS NAME=N-Cyano-N-[4,6-bis(dimethylamino)-1,3,5-triazin-2-yl]-p-toluenesu
lfonamide
##MOLFORM=C15H19N7O2S
##CAS REGISTRY NO=312585-12-9
##MP= -300
##BP= -300
##MW= 361
##$RETENTION INDEX=0
##$CONDENSED SPECTRUM=NO
##NPOINTS= 157
##XYDATA=(XY..XY) 1 
    33         20
    36          1
    39        242
    40         44
    41         93
    42        490
    44        999
    48         20
    50         42
    51         86
    53         70
    55        162
    56         37
    57         24
    58          6
    59          2
    60          2
    61          9
    62         27
    63        123
    65        552
    67         89
    68         92
    69        314
    70        113
    71        408
    74          9
    75          9
    77         44
    78         19
    79         12
    80         58
    81         49
    82         75
    83         10
    84          8
    85          6
    86          6
    87          9
    89        139
    91        875
    93        138
    94         35
    96        708
    97         29
    98          4
   101          1
   102          2
   104         16
   105         14
   107         60
   108         11
   109          8
   110          7
   111          7
   112          2
   113          1
   114          1
   116          4
   118         31
   120          9
   121         10
   122         33
   123         17
   124          9
   125          3
   126          3
   130          2
   131          5
   132          3
   133          3
   134         11
   136         36
   138         20
   139         22
   140          4
   141          2
   143          1
   145          6
   146          3
   148         10
   149         13
   150         12
   152         19
   153          9
   155        118
   156         11
   157          8
   158          8
   159          4
   161         13
   163        215
   164         31
   166          8
   167          4
   168          2
   170          1
   171          2
   172          1
   174          3
   176         39
   177         27
   178         22
   179          3
   180          1
   181          1
   183          4
   184          2
   185          1
   186          3
   187          2
   188          3
   190         31
   192         48
   193          9
   197          1
   198          3
   199          3
   200          4
   201          6
   202         12
   204         64
   205         96
   206        431
   207         68
   208          5
   213          2
   225          2
   226          1
   239          2
   252          1
   253          3
   254          7
   255          1
   267          1
   268         11
   269          2
   279          1
   281          1
   282         12
   283          2
   295          2
   296          3
   297          7
   343          1
   345          2
   346          8
   347          2
   353          2
   355          4
   356          5
   357          4
   358          6
   359          8
   361         68
   362          8
   363          3