##TITLE=Library Entry 109905
##JCAMP-DX=Revision 4.10 
##DATA TYPE=MASS SPECTRUM
##SAMPLE DESCRIPTION=Asinex Ltd, Moscow, Russia
##NAMES=HP
##CAS NAME=Piperazine, 1-(3-chlorophenyl)-4-(tetrazolo[1,5-b]pyridazin-6-yl)
-
##MOLFORM=C14H14ClN7
##CAS REGISTRY NO=312515-65-4
##MP= -300
##BP= -300
##MW= 315
##$RETENTION INDEX=0
##$CONDENSED SPECTRUM=NO
##NPOINTS= 209
##XYDATA=(XY..XY) 1 
    33          2
    34          6
    35          3
    36         18
    37         40
    38         55
    39         89
    40        126
    41        172
    42        221
    43         52
    44         35
    45          3
    46          0
    47          1
    48          0
    49          5
    50         37
    51         82
    52         61
    53         21
    54         47
    55         42
    56         85
    57         22
    59         24
    60          4
    61          7
    62         15
    63         74
    64        103
    65         84
    66         39
    67         24
    68         11
    69         18
    70         13
    71         47
    72         57
    73         32
    74         17
    75        174
    76         51
    77        101
    78         35
    79        112
    80         13
    81          7
    82          5
    83          7
    84         12
    85         19
    86          3
    87          7
    88          5
    89         59
    90         75
    91         97
    92        316
    93         34
    94         11
    95          4
    96          2
    97          8
    98          7
    99         28
   100          5
   101         11
   102         16
   103         22
   104         21
   105         75
   106         14
   107          4
   108          4
   109         35
   111        480
   112         56
   113        153
   114         16
   115          8
   116         20
   117        112
   118         76
   119         29
   120         21
   121         18
   122          2
   123          8
   125        999
   127        408
   128         31
   129          7
   130         28
   131         25
   132         14
   133          6
   134          7
   135         47
   136          4
   138        491
   139        243
   140        189
   141         80
   142         14
   143          7
   144         14
   145         13
   146          8
   147          6
   148         39
   149        383
   150         26
   151         15
   152         87
   153        176
   154         80
   155         59
   156         18
   157          3
   158          1
   159          1
   160          0
   162        264
   163         65
   164         13
   166        590
   167        433
   168        223
   169        133
   170         14
   171         10
   172          0
   175          0
   176          6
   177          5
   178         10
   179        263
   180         55
   181         92
   182         17
   183          2
   184          0
   186          1
   187          0
   188          3
   189          8
   190          3
   191          6
   192          2
   193          6
   194          5
   195          4
   196         13
   197          2
   198          1
   203          4
   204          3
   205          6
   206          2
   207          4
   208          0
   209          1
   217          2
   218          5
   219         31
   220          6
   221         10
   222          2
   223          1
   224          3
   228          1
   229          3
   230         34
   231         34
   232         15
   233         29
   234          5
   235          5
   236          0
   244          6
   245          0
   246          2
   247          0
   251          6
   252          0
   256          2
   258        169
   259         33
   260         56
   261         24
   262          3
   263          5
   264          1
   273          1
   280          0
   281          1
   283          0
   286          3
   287          0
   288          0
   301          0
   302          0
   313          0
   315        248
   316         44
   317         80
   318         13
   319          1