##TITLE=Library Entry 86093
##JCAMP-DX=Revision 4.10 
##DATA TYPE=MASS SPECTRUM
##SAMPLE DESCRIPTION=Chemical Concepts
##NAMES=HP
##CAS NAME=Ethane, 1,2-bis(2-bromoethoxy)-
##MOLFORM=C6H12Br2O2
##CAS REGISTRY NO=31255-10-4
##MP= -300
##BP= -300
##MW= 274
##$RETENTION INDEX=0
##$CONDENSED SPECTRUM=NO
##NPOINTS= 85
##XYDATA=(XY..XY) 1 
    25          3
    26         81
    27        507
    28        206
    29        169
    30         30
    31         93
    33          0
    38          0
    39          7
    40          1
    41         22
    42         45
    43        217
    44         57
    45        128
    46          2
    50          0
    51          1
    53          0
    54          0
    55          1
    56          0
    57         17
    58         13
    59         62
    60          2
    61          0
    68          0
    69          1
    70          0
    71         53
    72          3
    73        375
    74         12
    75          3
    78          0
    79         11
    80         12
    81         10
    82         11
    83          0
    85          0
    86          2
    87          4
    88          3
    89          0
    91          2
    92          2
    93         58
    94         10
    95         53
    96          7
    97          0
   104          0
   105          6
   106         22
   107        963
   108         39
   109        999
   110         20
   115          4
   121          3
   122          0
   123          5
   124          0
   125          2
   137        172
   138          6
   139        166
   140          6
   141          0
   149          0
   150         63
   151        158
   152         70
   153        159
   154          6
   155          0
   167          0
   169          0
   181         25
   182          1
   183         25
   184          2