##TITLE=Library Entry 22754
##JCAMP-DX=Revision 4.10 
##DATA TYPE=MASS SPECTRUM
##SAMPLE DESCRIPTION=Institute of Organic Chemistry, USSR, 1990
##NAMES=HP
##CAS NAME=4,13-(Ethanoxyethanoxyethano)-4H,13H-1,7,10,16,4,13-benzotetraoxa
diazacyclooctadecine, 2,3,5,6,8,9,11,12,14,15-decahydro-
##MOLFORM=C22H36N2O6
##CAS REGISTRY NO=31250-18-7
##MP= -300
##BP= -300
##MW= 424
##$RETENTION INDEX=0
##$CONDENSED SPECTRUM=NO
##NPOINTS= 118
##XYDATA=(XY..XY) 1 
    54         71
    55        140
    56        999
    57        230
    58        230
    59         58
    68         52
    69        120
    70        390
    71        170
    72        160
    73         39
    74         50
    82        100
    83         76
    84        190
    85         76
    86        120
    87         50
    88         80
    94         51
    95         52
    96         90
    97         62
    98        110
    99         65
   100        370
   101         68
   102         80
   103         15
   112        100
   113         52
   114        900
   115         90
   116         65
   121        120
   122         27
   125        130
   126         70
   127         52
   128        140
   129         35
   130         70
   131         24
   132        190
   133         25
   136        110
   137         27
   142         60
   143         16
   144        330
   145         35
   146         77
   147         14
   158        110
   159         20
   160         26
   161         11
   168        220
   169         17
   170         50
   171         15
   175        120
   176         23
   179        140
   180         80
   192        120
   193         30
   194        110
   195         18
   201         34
   202         17
   205         51
   206         54
   207         28
   208         17
   213         48
   214         12
   220         35
   221         15
   227         80
   228         17
   229         15
   254        100
   255         37
   263        170
   264         48
   265         15
   267         72
   268         20
   269         20
   271         47
   272         10
   285         80
   286         18
   287         27
   301        140
   302         30
   303         11
   315        660
   316        150
   317         26
   333         16
   335         27
   336         17
   337         20
   349        180
   350         50
   351         21
   379         10
   381         11
   393          9
   394         17
   395         10
   423         37
   424        220
   425         67
   426         12