##TITLE=Library Entry 85538
##JCAMP-DX=Revision 4.10 
##DATA TYPE=MASS SPECTRUM
##SAMPLE DESCRIPTION=Japan AIST/NIMC Database- Spectrum MS-IW-7505
##NAMES=HP
##CAS NAME=N-(4-Methoxy-1-pyridinio)-2,4,6-trinitroanilide
##MOLFORM=C12H9N5O7
##CAS REGISTRY NO=31255-67-1
##MP= -300
##BP= -300
##MW= 335
##$RETENTION INDEX=0
##$CONDENSED SPECTRUM=NO
##NPOINTS= 177
##XYDATA=(XY..XY) 1 
    12          1
    14          2
    15          8
    16          1
    17          2
    18          1
    25          2
    26         17
    27         33
    28          5
    29          1
    30        307
    31          3
    32          1
    36          1
    37         13
    38         20
    39         72
    40         17
    41         13
    42          9
    43         10
    44         66
    45          1
    46          6
    48          1
    49          7
    50         38
    51         73
    52        179
    53         33
    54         13
    55          8
    56          2
    57          2
    58          1
    59          1
    60          2
    61         21
    62         32
    63         21
    64         11
    65          8
    66         50
    67         17
    68         23
    69          7
    70          3
    71          1
    73          9
    74         72
    75         21
    76         22
    77         10
    78         72
    79        298
    80         39
    81         12
    82          7
    83          2
    86          3
    87         13
    88         15
    89          9
    90         29
    91          5
    92          6
    93          9
    94         13
    95         16
    96          2
    97          1
    98          1
    99          1
   100          3
   101          3
   102          5
   103          5
   104          4
   105          1
   106          2
   107          1
   108         26
   109        999
   110         88
   111          6
   112          1
   113          1
   114          2
   115          2
   116          2
   117          3
   118          3
   119          2
   120         31
   121          3
   122          2
   123          1
   125          2
   126          4
   127          7
   128          3
   129          1
   130          1
   133          3
   134          2
   135          1
   136          9
   137          1
   138          1
   139          8
   140          5
   141          2
   142          3
   143          1
   146          1
   149          1
   150         15
   151          1
   152          2
   153         11
   154         12
   155          4
   156          1
   157          1
   158          1
   159          1
   165          2
   166         13
   167          4
   168          2
   169          1
   170          3
   171          1
   172          2
   180          5
   181          9
   182          9
   183          6
   184         15
   185          5
   186          1
   194          5
   195          2
   196        134
   197         22
   198         20
   199          6
   200          1
   209          1
   210         39
   211          6
   212          9
   213          3
   225          1
   226         66
   227          7
   228        104
   229         20
   230          3
   242         13
   243          3
   245          1
   258          7
   259          2
   272          2
   273          1
   275          2
   288         51
   289         12
   290          2
   305          6
   319          1
   333          1
   335        101
   336         17
   337          3