##TITLE=Library Entry 87765
##JCAMP-DX=Revision 4.10 
##DATA TYPE=MASS SPECTRUM
##SAMPLE DESCRIPTION=A.A.Kutin, Moscow, Russia
##NAMES=HP
##CAS NAME=Thiophene-2-carboxamide, N-(2-chloro-4-nitrophenyl)-
##MOLFORM=C11H7ClN2O3S
##CAS REGISTRY NO=312592-64-6
##MP= -300
##BP= -300
##MW= 282
##$RETENTION INDEX=0
##$CONDENSED SPECTRUM=NO
##NPOINTS= 148
##XYDATA=(XY..XY) 1 
    33          1
    34          0
    35          0
    36          3
    37          4
    39        206
    40         19
    41          0
    43          0
    44          4
    45         14
    46          2
    47          1
    49          2
    50          6
    51          5
    52          7
    53          8
    54          0
    55          0
    57         15
    58          5
    59          1
    60          1
    61          4
    62         13
    63         31
    64          5
    65          2
    66          1
    67          0
    69          3
    70          1
    71          1
    72          2
    73          5
    74          6
    75          6
    76          2
    77          2
    78          2
    79          0
    81          7
    82         13
    83         79
    84          8
    85          4
    86          1
    87          1
    88          3
    89          3
    90          6
    91          1
    92          0
    93          0
    94          0
    95          0
    96          0
    97          4
    98          4
    99          2
   100          2
   101          1
   102          0
   103          0
   104          0
   105          0
   106          0
   107          0
   108          0
   109          3
   111        999
   112         57
   113         45
   114          2
   115          0
   116          0
   117          1
   118          0
   119          0
   120          0
   121          0
   122          0
   124          2
   125          1
   126          1
   127          1
   128          0
   129          0
   132          0
   134          0
   137          0
   138          0
   140          0
   141          0
   142          0
   144          0
   145          3
   146          0
   147          1
   148          0
   154          0
   157          0
   158          0
   160          0
   163          0
   168          0
   170          0
   171          0
   172          1
   173          0
   174          0
   175          0
   180          0
   182          0
   183          0
   184          0
   185          0
   186          0
   189          0
   191          0
   195          0
   199          0
   200          0
   201          1
   202          0
   206          0
   207          0
   208          0
   209          0
   217          0
   218          0
   235          0
   236          0
   237          0
   244          0
   245          0
   247         37
   248          5
   249          2
   250          1
   251          0
   266          0
   282         25
   283          3
   284          9
   285          1
   286          0