##TITLE=Library Entry 2565
##JCAMP-DX=Revision 4.10 
##DATA TYPE=MASS SPECTRUM
##SAMPLE DESCRIPTION=FI-48-5
##NAMES=HP
##CAS NAME=.delta.9-Tetrahydrocannabivarin
##MOLFORM=C19H26O2
##CAS REGISTRY NO=31262-37-0
##MP= -300
##BP= -300
##MW= 286
##$RETENTION INDEX=0
##$CONDENSED SPECTRUM=NO
##NPOINTS= 145
##XYDATA=(XY..XY) 1 
    37         21
    38         21
    39        311
    40         21
    41        999
    42         45
    43        504
    45          3
    49         16
    50         16
    51         82
    52         32
    53        147
    54         13
    55        224
    59        114
    62         13
    63         41
    64         13
    65        119
    66         32
    67        226
    69         77
    72         32
    74         16
    76         16
    77        196
    78         67
    79        126
    80         22
    81        234
    82         13
    86          6
    89         16
    90         16
    91        190
    92         42
    93          3
    94          3
    95        109
    96          4
   102         13
   103         37
   104         13
   105         77
   106          4
   107         91
   114         14
   115        154
   116         41
   117         41
   118         16
   119         60
   120          6
   121         32
   122          6
   123         32
   127         45
   128         98
   130          1
   131         29
   133         29
   137         21
   139         13
   141         59
   142          3
   143         32
   144         13
   145         37
   149          3
   151          3
   152         22
   153         22
   154         22
   155         22
   157         29
   158         22
   159         32
   160         14
   161         60
   163         34
   165        100
   166         13
   168         27
   169         14
   171         13
   172         13
   173         37
   174         65
   175         29
   176         21
   179         16
   181          3
   182         24
   183         13
   184         13
   185          4
   186         26
   187         95
   188         42
   189        216
   190         60
   191          6
   198         24
   199         24
   200         32
   201         78
   202         21
   203        360
   204         60
   205         26
   209          1
   211         11
   213         19
   214         19
   215         44
   216         16
   217         13
   218         11
   225          1
   226          1
   227         16
   228         13
   229         49
   230         14
   238          4
   241         27
   242         26
   243        332
   244         78
   245         11
   248          4
   249          1
   257         16
   258         11
   267         29
   269         54
   270         11
   271        373
   272         67
   273          1
   284         19
   285          1
   286        250
   287         41