##TITLE=Library Entry 69053
##JCAMP-DX=Revision 4.10 
##DATA TYPE=MASS SPECTRUM
##SAMPLE DESCRIPTION=A.A.Kutin, Moscow, Russia
##NAMES=HP
##CAS NAME=Thiophene-2-carboxamide, N-(naphtho[1,2-d]oxazol-2-yl-
##MOLFORM=C16H10N2O2S
##CAS REGISTRY NO=312697-08-8
##MP= -300
##BP= -300
##MW= 294
##$RETENTION INDEX=0
##$CONDENSED SPECTRUM=NO
##NPOINTS= 191
##XYDATA=(XY..XY) 1 
    33          0
    34          0
    36          1
    37          7
    38         25
    39        149
    40         16
    41          5
    42          2
    43          4
    44          9
    45         27
    46          1
    47          1
    50          6
    51         15
    52          3
    53          5
    54          0
    55          3
    56          1
    57          3
    58          0
    59          0
    60          0
    61          1
    62          5
    63         11
    64          3
    65          2
    66          3
    67         30
    69         22
    70          4
    71          3
    73          7
    74          5
    75         11
    76          6
    77         15
    78          1
    79          1
    80          0
    81          2
    82          2
    83          1
    84          1
    86          9
    87          5
    88          5
    89          3
    90          0
    91          0
    93          7
    95        999
    96         48
    97          6
    98          2
    99          2
   100          5
   101         24
   102          9
   103          3
   104          0
   105          1
   106          1
   107          0
   108          1
   109          0
   110          0
   111          2
   112          2
   113         13
   114         18
   115          5
   116          0
   117          1
   118          0
   119          1
   120          1
   121          0
   122          0
   123          0
   124          0
   125          0
   126          3
   127         12
   128         39
   129          5
   130          0
   131          0
   132          0
   133          0
   135          0
   138          2
   139          2
   140         17
   141          8
   142          1
   143          0
   144          1
   145          7
   146          3
   147          5
   148          1
   149          3
   150          0
   151          0
   152          1
   153          2
   155         87
   156         10
   158         24
   159          3
   160          1
   164          0
   165          1
   166          1
   167          0
   168          0
   170          6
   171          4
   172         19
   173          5
   174          1
   175          0
   177          0
   178          0
   179          0
   180          0
   183          0
   185         19
   186          3
   187          0
   188          0
   191          0
   193          0
   194          0
   195          0
   196          0
   197          2
   199         38
   200         50
   201         18
   202          3
   203          0
   204          0
   205          0
   206          0
   207          0
   209          1
   210          2
   211         13
   212          2
   213          0
   221          0
   222          0
   223          1
   224          0
   226         15
   227          7
   228          1
   229          0
   233          0
   235          0
   236          2
   237         18
   238          8
   239          2
   240          3
   241          0
   249          0
   250          0
   251          2
   252          0
   263          0
   265         21
   266         40
   267          7
   268          2
   269          0
   277          0
   281          0
   283          0
   290          1
   292          4
   294        377
   295         60
   296         21
   297          3
   298          0