##TITLE=Library Entry 71471
##JCAMP-DX=Revision 4.10 
##DATA TYPE=MASS SPECTRUM
##SAMPLE DESCRIPTION=A.A.Kutin, Moscow, Russia
##NAMES=HP
##CAS NAME=Benzotiazole, 2-dimethylamino-6-[ 2-(1-piperidyl)etoxy]-
##MOLFORM=C16H23N3OS
##CAS REGISTRY NO=312727-41-6
##MP= -300
##BP= -300
##MW= 305
##$RETENTION INDEX=0
##$CONDENSED SPECTRUM=NO
##NPOINTS= 123
##XYDATA=(XY..XY) 1 
    33          7
    34          1
    35          1
    36          0
    39         26
    41        211
    42        141
    44        173
    45         12
    46          1
    50          4
    51          7
    52          7
    54         10
    55        175
    56         89
    57         12
    58         18
    59          1
    62          1
    63         26
    64          3
    68          9
    69         89
    70         54
    71          7
    72          2
    73          3
    74          2
    75          2
    76          3
    77          4
    78          2
    81          5
    82         17
    83         32
    84         17
    85          4
    88          7
    89          1
    90          3
    91          6
    92          4
    96         11
    97         27
    98        999
    99         61
   100          2
   101          0
   105          1
   106          2
   107          5
   108          4
   109          0
   111         16
   112        825
   113         55
   114          2
   115          0
   119          1
   120          2
   121          5
   122          6
   123          4
   124          8
   125          2
   126          1
   127          0
   133          4
   134          4
   135          9
   136          8
   137          1
   138          0
   139          0
   147          1
   148          8
   149          5
   150          6
   151          5
   152          9
   153          1
   154          0
   160          0
   161          1
   162          6
   163          2
   164          4
   165         10
   166          1
   167          0
   171          0
   174          0
   175          1
   176          1
   177          6
   178          3
   179          8
   180          1
   181          0
   192          2
   193         24
   194          6
   195          1
   196          0
   203          0
   204          0
   205          1
   206          1
   207          1
   208          0
   219          0
   220          1
   221          1
   222          0
   231          0
   232          0
   271          0
   304          1
   305         21
   306          4
   307          1
   308          0