##TITLE=Library Entry 67898
##JCAMP-DX=Revision 4.10 
##DATA TYPE=MASS SPECTRUM
##SAMPLE DESCRIPTION=B.WILLHALM FIRMENICH & CIE, GENEVA, SWITZERLAND
##NAMES=HP
##CAS NAME=Cyclohexanol, 2-methyl-5-(1-methylethyl)-, (1.alpha.,2.beta.,5.be
ta.)-
##MOLFORM=C10H20O
##CAS REGISTRY NO=3127-80-8
##MP= -300
##BP= -300
##MW= 156
##$RETENTION INDEX=1248
##$CONDENSED SPECTRUM=NO
##NPOINTS= 48
##XYDATA=(XY..XY) 1 
    27        150
    29        170
    31         40
    39        120
    40         20
    41        380
    42         70
    43        450
    45        100
    53         70
    54         20
    55        470
    56         90
    57        570
    58         80
    59         10
    67        140
    68         90
    69        270
    70        110
    71        130
    72         20
    77         10
    79         30
    80         30
    81        190
    82        130
    83        210
    84         50
    85         10
    93         20
    94         50
    95        999
    96        150
    97         30
    99         40
   100         20
   109         60
   110         40
   111         10
   112         40
   113        560
   114         40
   123        100
   124         10
   138        200
   139         20
   156         52