##TITLE=Library Entry 37766
##JCAMP-DX=Revision 4.10 
##DATA TYPE=MASS SPECTRUM
##SAMPLE DESCRIPTION=A.A.Kutin, Moscow, Russia
##NAMES=HP
##CAS NAME=Pyrrolidine-1-carboxylic acid, 2-(4-bromophenylaminocarbonyl)-, t
ert-butyl ester
##MOLFORM=C16H21BrN2O3
##CAS REGISTRY NO=312713-73-8
##MP= -300
##BP= -300
##MW= 368
##$RETENTION INDEX=0
##$CONDENSED SPECTRUM=NO
##NPOINTS= 173
##XYDATA=(XY..XY) 1 
    33          0
    36          0
    37          1
    39         56
    41        206
    42         34
    43         60
    44         11
    45          3
    46          0
    48          0
    50         10
    51          5
    52          4
    53          7
    54          5
    55         31
    57        644
    58         24
    59          5
    60          0
    61          2
    62          6
    63         27
    64         20
    65         16
    66          4
    68         66
    70        999
    71         42
    73          1
    74          4
    75         11
    76         14
    77          4
    78          2
    79          2
    80          3
    81          3
    82          6
    83          0
    84          0
    85          2
    87         10
    88          1
    90         25
    91         38
    92         15
    93          4
    94          1
    95          0
    96          2
    97          0
    98          1
    99          0
   100          0
   101          0
   102          2
   103          1
   104          1
   105          1
   106          0
   107          0
   108          0
   109          0
   110          1
   114        954
   115         71
   116          6
   117          4
   118          3
   119          5
   120          1
   121          1
   122          0
   124          1
   126          3
   127          2
   128          2
   129          7
   130          2
   131          1
   132          1
   133          1
   134          3
   139          0
   141          0
   142          9
   143          8
   144          2
   145          8
   146          2
   147          0
   148          0
   149          0
   154          0
   155          9
   156          3
   157          7
   158          0
   159          0
   160          0
   161          0
   164          0
   165          0
   166          0
   170        258
   171         53
   172         23
   173         31
   174          2
   175          0
   181          0
   182          0
   183          0
   184          1
   185          0
   186          0
   187          1
   188          0
   189          0
   195          0
   197          8
   198          6
   199         10
   200          4
   201          2
   202          0
   208          0
   210          0
   211          0
   212          1
   213          0
   214          0
   215          0
   223          0
   224          0
   225          1
   226          1
   227          1
   228          0
   229          0
   233          0
   239          0
   240          0
   243          0
   245          0
   249          0
   251          0
   252          0
   253          0
   254          0
   265          0
   267          5
   269          5
   270          0
   271          0
   293          0
   294          0
   295         11
   296          2
   297         10
   298          1
   311          0
   312          5
   314          5
   315          0
   365          0
   366          0
   368         19
   370         19
   371          2
   372          0