##TITLE=Library Entry 27346
##JCAMP-DX=Revision 4.10 
##DATA TYPE=MASS SPECTRUM
##SAMPLE DESCRIPTION=A.A.Kutin, Moscow, Russia
##NAMES=HP
##CAS NAME=Propanamide, N-[5-(4-nitrophenyl)-1,3,4-thiadiazol-2-yl]-
##MOLFORM=C11H10N4O3S
##CAS REGISTRY NO=312756-44-8
##MP= -300
##BP= -300
##MW= 278
##$RETENTION INDEX=0
##$CONDENSED SPECTRUM=NO
##NPOINTS= 163
##XYDATA=(XY..XY) 1 
    33          6
    34          8
    36          3
    37          9
    38         24
    39         63
    40         69
    41         38
    42         35
    43         89
    44         37
    45         29
    46         15
    47          6
    50         91
    51         46
    52         15
    53         11
    54          8
    55         24
    57        999
    58         35
    59         13
    60         26
    61         13
    62         43
    63         49
    64         19
    65         11
    66          4
    67          4
    69         89
    70         30
    71         14
    72          5
    74        263
    75         58
    76         85
    77         15
    78          5
    79          3
    80          2
    81         11
    82         20
    83          8
    84          6
    85          5
    86         15
    87         17
    88         37
    89         16
    90         28
    91         10
    92          4
    93         35
    94         56
    95          8
    96          4
    97          3
    98          2
    99          2
   100          4
   101          6
   102         35
   103         10
   104          4
   105          5
   106          3
   107          9
   108         46
   109          9
   110          3
   112          3
   113          3
   114          0
   115          2
   117         14
   118         15
   119         37
   120        205
   121         19
   122         12
   123          2
   124          2
   125          0
   126          0
   127          1
   128          1
   130          9
   132          2
   133         14
   134         24
   136         23
   137          2
   138          1
   139          0
   141          0
   143          2
   144          2
   145          1
   146          1
   147          2
   148          3
   149          7
   150          5
   151          1
   152          1
   154          0
   155          0
   157          0
   160          1
   161          0
   163         48
   164          5
   166         33
   167          4
   168          2
   170          0
   171          4
   173         12
   174          0
   176         11
   177          2
   178          0
   180          2
   181          0
   185          0
   189          0
   190          4
   191          1
   192         15
   193          1
   194          1
   195          0
   203          2
   204          0
   206          8
   207          1
   208          0
   214          0
   216          0
   217          1
   219          4
   220          4
   222        356
   223         54
   224         20
   225          2
   232          0
   234          0
   235          0
   245          0
   248          3
   249          7
   250          8
   251          1
   264          1
   276          1
   277          1
   278         46
   279          7
   280          2
   283          0