##TITLE=Library Entry 83950
##JCAMP-DX=Revision 4.10 
##DATA TYPE=MASS SPECTRUM
##SAMPLE DESCRIPTION=A.Mazepa, Phys.-Chem.Institute, Odessa, Ukraine
##NAMES=HP
##CAS NAME=5-Benzylcarbamoyl-1H-imidazole-4-carboxylic acid ethyl ester
##MOLFORM=C14H15N3O3
##CAS REGISTRY NO=312758-83-1
##MP= -300
##BP= -300
##MW= 273
##$RETENTION INDEX=0
##$CONDENSED SPECTRUM=NO
##NPOINTS= 76
##XYDATA=(XY..XY) 1 
    50         44
    51          5
    52          1
    55          8
    56          1
    62          6
    63          6
    64         22
    65          5
    66         33
    67         75
    68          3
    76         17
    77        132
    78         25
    79         20
    85          1
    89          2
    90          2
    91          6
    93          5
    94         34
    95         23
    96         59
   100          9
   103          2
   104         39
   105         28
   106        455
   107        999
   108         84
   112          2
   114          4
   116          1
   117          1
   118          1
   121        285
   122         15
   123         14
   134          4
   139        416
   140         63
   141          3
   143          1
   144          4
   145          1
   149          3
   154         15
   155         17
   167        151
   168         24
   169          7
   170          2
   171         23
   172         10
   173          6
   180          1
   181         13
   199          5
   200         17
   201         52
   202          3
   216         11
   217          5
   226         21
   227         13
   228         55
   229         14
   244          3
   245         81
   246          7
   247          6
   272          7
   273        347
   274         51
   275          7