##TITLE=Library Entry 83830
##JCAMP-DX=Revision 4.10 
##DATA TYPE=MASS SPECTRUM
##SAMPLE DESCRIPTION=A.Mazepa, Phys.-Chem.Institute, Odessa, Ukraine
##NAMES=HP
##CAS NAME=1H-Imidazole-4,5-dicarboxylic acid 4-phenylamide 5-p-tolylamide
##MOLFORM=C18H16N4O2
##CAS REGISTRY NO=312755-07-0
##MP= -300
##BP= -300
##MW= 320
##$RETENTION INDEX=0
##$CONDENSED SPECTRUM=NO
##NPOINTS= 100
##XYDATA=(XY..XY) 1 
    50         12
    51         76
    52         20
    55         79
    56         29
    57         69
    58         18
    63         23
    64         17
    65        141
    66         43
    67        178
    68         93
    69         84
    70         17
    71         39
    72          9
    73         35
    74          6
    77        235
    78         42
    79         52
    80          8
    89         23
    90         10
    91        202
    92         79
    93        892
    94        135
    95        157
    96          9
    97         15
   103         19
   104         32
   105         58
   106        244
   107        999
   108         82
   109          9
   110          4
   118          7
   119         20
   120         62
   121         80
   122          5
   123          6
   129         13
   130          8
   131         11
   132         19
   133         14
   134         10
   135          3
   140          4
   141         31
   142         19
   143         98
   144          8
   148          1
   149         45
   150          5
   155          7
   156         37
   157         70
   158         10
   159          5
   168         11
   169         26
   170         21
   171         12
   172          3
   182          4
   183         40
   184         16
   185         19
   186         26
   187         13
   196         80
   197         22
   198         10
   199         15
   210         75
   211          6
   212         29
   213          8
   214         79
   215          8
   216          1
   225          3
   226         40
   227         74
   228        108
   229          8
   230          1
   262         26
   263          3
   319        102
   320        740
   321        162
   322         11