##TITLE=Library Entry 33160
##JCAMP-DX=Revision 4.10 
##DATA TYPE=MASS SPECTRUM
##SAMPLE DESCRIPTION=Exported from NIST MS Search
##NAMES=HP
##CAS NAME=1-Cyclopentene-1,2-dicarboxylic acid
##MOLFORM=C7H8O4
##CAS REGISTRY NO=3128-15-2
##MP= -300
##BP= -300
##MW= 156
##$RETENTION INDEX=0
##$CONDENSED SPECTRUM=NO
##NPOINTS= 27
##XYDATA=(XY..XY) 1 
    50         65
    51        109
    53        153
    54        102
    55        260
    63        151
    64         58
    65        546
    66        609
    67        999
    68        136
    69        121
    79        131
    81        107
    82        341
    83        190
    84        165
    93        360
    94        146
   110        190
   111        131
   112        529
   113         68
   138        829
   139        139
   156        121
   157         19