##TITLE=Library Entry 59534
##JCAMP-DX=Revision 4.10 
##DATA TYPE=MASS SPECTRUM
##SAMPLE DESCRIPTION=Humboldt-Universitat zu Berlin, Department of Chemistry
, Analytical Group
##NAMES=HP
##CAS NAME=1,2-Diphenyl-1-isocyanoethane
##MOLFORM=C15H13N
##CAS REGISTRY NO=3128-88-9
##MP= -300
##BP= -300
##MW= 207
##$RETENTION INDEX=0
##$CONDENSED SPECTRUM=NO
##NPOINTS= 116
##XYDATA=(XY..XY) 1 
    12          1
    15          4
    16          1
    17          7
    18         22
    26          9
    27         41
    28          7
    29          3
    37          8
    38         24
    39        181
    40         13
    41         30
    42          2
    43          3
    44          0
    45          1
    50         60
    51        135
    52         29
    53          6
    54          0
    55          2
    56          1
    57          3
    58          0
    61          6
    62         28
    63        109
    64         29
    65        241
    66         15
    67          1
    69          2
    71          1
    74         16
    75         21
    76         38
    77         75
    78         24
    79          3
    82          3
    85          1
    86          5
    87          9
    89        149
    91        999
    92         77
    93          2
    95          0
    97          1
    98          2
    99          2
   100          2
   101          5
   102         17
   103         27
   104         32
   105         24
   106          2
   107          1
   110          0
   111          1
   112          0
   113          2
   114          3
   115          9
   116         48
   117          5
   121          1
   122          1
   123          0
   125          1
   126          4
   127          4
   128          8
   129         20
   130         82
   131          9
   132          0
   134          1
   137          0
   138          0
   139          4
   140          1
   141          1
   149          2
   150          3
   151          6
   152         13
   153          3
   154          0
   163          1
   165         23
   166          6
   167          4
   168          0
   175          1
   176          6
   177          5
   178         22
   179         24
   180         16
   181          7
   182          1
   190          1
   191          1
   192          0
   196          0
   203          1
   204          2
   206         60
   207         84
   208         13
   209          1