##TITLE=Library Entry 6537
##JCAMP-DX=Revision 4.10 
##DATA TYPE=MASS SPECTRUM
##SAMPLE DESCRIPTION=NIST Mass Spectrometry Data Center
##NAMES=HP
##CAS NAME=4-Acetylbutyric acid
##MOLFORM=C6H10O3
##CAS REGISTRY NO=3128-06-1
##MP= -300
##BP= -300
##MW= 130
##$RETENTION INDEX=2418
##$CONDENSED SPECTRUM=NO
##NPOINTS= 35
##XYDATA=(XY..XY) 1 
    12         12
    14         11
    15         71
    16         14
    17         15
    26         32
    27        106
    28         20
    29         61
    31         35
    36          7
    37         14
    38         21
    39         99
    40         24
    41        122
    42        187
    43        999
    44         18
    45        172
    55         80
    57          8
    58         49
    60         66
    69         27
    70        103
    71         39
    73         12
    84         60
    85         17
    87         60
    97          8
   112        156
   113         13
   115         18