##TITLE=Library Entry 7240
##JCAMP-DX=Revision 4.10 
##DATA TYPE=MASS SPECTRUM
##SAMPLE DESCRIPTION=NIST Mass Spectrometry Data Center
##NAMES=HP
##CAS NAME=Heptanoic acid, 6-oxo-
##MOLFORM=C7H12O3
##CAS REGISTRY NO=3128-07-2
##MP= -300
##BP= -300
##MW= 144
##$RETENTION INDEX=0
##$CONDENSED SPECTRUM=NO
##NPOINTS= 69
##XYDATA=(XY..XY) 1 
    13          3
    14         11
    15         81
    16          3
    17          2
    18          3
    26         23
    27        129
    28         73
    29         84
    30          7
    31         29
    36          2
    37          5
    38          9
    39         99
    40         18
    41         99
    42         86
    43        999
    44         27
    45        124
    46          3
    47          3
    49          4
    50          3
    51         11
    52          6
    53         20
    55        262
    56         65
    57         25
    58        218
    59         62
    60         17
    61          1
    65          1
    66          2
    67          5
    68         16
    69         34
    70          3
    71         43
    72          6
    73         61
    74          7
    79          3
    81          9
    83         76
    84         68
    85         17
    86          4
    87         16
    93          1
    97          4
    98         65
    99          5
   101         23
   102          3
   108          7
   109          3
   111         29
   112          4
   126         91
   127          7
   129          6
   135          1
   143          2
   144          7