##TITLE=Library Entry 99258
##JCAMP-DX=Revision 4.10 
##DATA TYPE=MASS SPECTRUM
##SAMPLE DESCRIPTION=A.A.Kutin, Moscow, Russia
##NAMES=HP
##CAS NAME=Benzamide, 4-methyl-N-(3-cyano-4,5-dimethyl-2-thienyl)-
##MOLFORM=C15H14N2OS
##CAS REGISTRY NO=312916-66-8
##MP= -300
##BP= -300
##MW= 270
##$RETENTION INDEX=0
##$CONDENSED SPECTRUM=NO
##NPOINTS= 85
##XYDATA=(XY..XY) 1 
    33          3
    34          6
    39        149
    40         63
    41         57
    43         16
    44         30
    45         38
    47          5
    48          1
    49          1
    50         33
    51         63
    52         17
    53         27
    55         11
    56          4
    57         10
    58         27
    59         92
    61          8
    62         22
    63         78
    64         45
    65        263
    66         26
    67          3
    69         13
    70         14
    71         10
    72          1
    73          2
    74          6
    75          9
    76         14
    77         46
    78          9
    79          6
    80          8
    81          2
    82          3
    83          6
    84          4
    85          6
    86          5
    87          4
    89         67
    90         63
    91        451
    92         32
    94         10
    95          3
    97         21
    98          2
    99          1
   100          0
   105         66
   106          6
   107          6
   119        999
   120         78
   122         11
   123          3
   124          8
   125          1
   134          1
   135          3
   136          1
   137          1
   150          3
   151         27
   152          4
   153          1
   154          0
   177          0
   178          0
   179          0
   225          0
   255         16
   256          6
   257          0
   270         86
   271         15
   272          4
   273          0