##TITLE=Library Entry 85293
##JCAMP-DX=Revision 4.10 
##DATA TYPE=MASS SPECTRUM
##SAMPLE DESCRIPTION=A.A.Kutin, Moscow, Russia
##NAMES=HP
##CAS NAME=Acetamide, 2-cyano-2-cycloheptylidene-N-(4-ethoxyphenyl)-
##MOLFORM=C18H22N2O2
##CAS REGISTRY NO=312949-98-7
##MP= -300
##BP= -300
##MW= 298
##$RETENTION INDEX=0
##$CONDENSED SPECTRUM=NO
##NPOINTS= 131
##XYDATA=(XY..XY) 1 
    33         47
    34          7
    39        112
    40        125
    41        253
    42         34
    43         34
    44         16
    51         68
    52         92
    53        122
    55        174
    56         10
    57          2
    63         34
    65        180
    67        140
    68         33
    69         29
    70          4
    76         12
    77         97
    78         86
    79        147
    80        172
    81        236
    82         24
    83          1
    89          5
    91        108
    92        114
    93         89
    94         69
    95        101
   102          4
   104         39
   106        119
   108        999
   109        406
   110         41
   115         12
   116         15
   117         39
   118         26
   119         34
   120         49
   121         13
   122         17
   123          1
   128          4
   129          0
   130          6
   131          5
   132         30
   134         97
   135         98
   137        732
   138         53
   139          2
   143          2
   144          8
   145          4
   146          9
   147          6
   148          8
   149          1
   150          1
   156          1
   157          4
   158         11
   159          6
   160         14
   162        214
   163         28
   164          2
   170          6
   171          6
   172          4
   173          4
   174          3
   175          3
   176         10
   177          1
   183          0
   184          5
   185          5
   186         15
   187          5
   188          1
   189          0
   197          3
   198         11
   199         22
   200          7
   201          2
   203          0
   204         23
   205          0
   211          1
   212          5
   213         11
   214          6
   215          4
   216          5
   217          1
   224          8
   225         10
   226         34
   227         18
   228          4
   229          0
   232          2
   238          0
   241         29
   242          9
   243          1
   244          3
   252          9
   253         13
   254        338
   255         76
   256          8
   269         29
   270         12
   271          2
   281         11
   283          8
   297         16
   298        380
   299         74
   300         16