##TITLE=Library Entry 57181
##JCAMP-DX=Revision 4.10 
##DATA TYPE=MASS SPECTRUM
##SAMPLE DESCRIPTION=A.Mazepa, Phys.-Chem.Institute, Odessa, Ukraine
##NAMES=HP
##CAS NAME=9-Fluorenone, 2,7-bis(2-acetoxyethoxy)-
##MOLFORM=C21H20O7
##CAS REGISTRY NO=312916-70-4
##MP= -300
##BP= -300
##MW= 384
##$RETENTION INDEX=0
##$CONDENSED SPECTRUM=NO
##NPOINTS= 32
##XYDATA=(XY..XY) 1 
    26          3
    27         15
    28         12
    29          1
    31          2
    42          3
    43        436
    44          8
    45          3
    63          1
    85          1
    86          1
    87        999
    88         43
    89          3
   126          4
   137          2
   138         10
   139          9
   150          5
   151          1
   155          6
   166          1
   167          3
   183          4
   194          2
   211          3
   212          7
   298          1
   384         53
   385         12
   386          1