##TITLE=Library Entry 3161
##JCAMP-DX=Revision 4.10 
##DATA TYPE=MASS SPECTRUM
##SAMPLE DESCRIPTION=A.A.Kutin, Moscow, Russia
##NAMES=HP
##CAS NAME=Benzoic acid, 4-(perhydro-1,3-dioxoisoindol-2-yl)-, propyl ester
##MOLFORM=C18H21NO4
##CAS REGISTRY NO=312948-12-2
##MP= -300
##BP= -300
##MW= 315
##$RETENTION INDEX=0
##$CONDENSED SPECTRUM=NO
##NPOINTS= 134
##XYDATA=(XY..XY) 1 
    33          0
    34          6
    36          0
    37         13
    39        757
    40        259
    41        999
    42        297
    43        327
    44         48
    45          6
    50         30
    51        103
    52         75
    53        324
    54        643
    55        175
    56         11
    57         11
    58          4
    59         19
    60          0
    62         28
    63        175
    64         79
    65        128
    67        959
    68         61
    69         16
    70          2
    74          6
    75         20
    76         50
    77        123
    79        280
    80         69
    81        451
    82        592
    83         33
    84          0
    88          6
    90        509
    91         71
    92         30
    93         20
    94          3
    95          2
    96          0
   100          4
   102         13
   103         18
   104         26
   105          9
   106         13
   107          9
   108         47
   109         71
   110          7
   114          0
   115          6
   116         11
   117         23
   118        160
   119         69
   120         84
   121         17
   122          0
   128          4
   129          6
   130         20
   131         12
   132         24
   133         10
   134         15
   135          2
   136          4
   137         39
   138          2
   142          1
   143          5
   144         16
   146        525
   147         39
   148         13
   154          0
   155          1
   156          1
   157          2
   158          4
   159          2
   162         11
   163         79
   164         66
   165          4
   170          2
   172         13
   173          7
   174          7
   176          0
   177          0
   179          6
   188          0
   189          0
   190          4
   198          0
   200         35
   201          4
   202          0
   205          0
   216          3
   217          2
   218          4
   219         14
   228          7
   229          7
   230          0
   231          1
   232          0
   244          4
   245         10
   246          0
   254          2
   256        216
   257         33
   258          4
   271          2
   272          7
   273        208
   274         38
   275          3
   286          1
   298          0
   315         40
   316          4