##TITLE=Library Entry 89114
##JCAMP-DX=Revision 4.10 
##DATA TYPE=MASS SPECTRUM
##SAMPLE DESCRIPTION=A.A.Kutin, Moscow, Russia
##NAMES=HP
##CAS NAME=Thiophene-2-carboxamide, N-(4-methoxy-2-nitrophenyl)-
##MOLFORM=C12H10N2O4S
##CAS REGISTRY NO=312944-61-9
##MP= -300
##BP= -300
##MW= 278
##$RETENTION INDEX=0
##$CONDENSED SPECTRUM=NO
##NPOINTS= 98
##XYDATA=(XY..XY) 1 
    37          1
    38          5
    39         90
    40          6
    41          2
    42          1
    43          2
    44          1
    45          7
    50          6
    51         14
    52         16
    53          8
    54          3
    55          3
    56          1
    57         10
    58          3
    61          1
    62          5
    63         10
    64          4
    65          6
    66          5
    67          2
    68          3
    69          5
    70          2
    71          2
    74          1
    75          1
    76          4
    77         11
    78          5
    79         18
    80          9
    81          5
    82         10
    83         67
    84          7
    85          3
    88          1
    89          1
    90          2
    91          1
    92          2
    93          2
    94          1
    95          4
    96          1
   104          2
   105          1
   106         13
   107          3
   111        999
   112         71
   113         52
   114          3
   120          4
   121          1
   122          1
   123          0
   133          0
   134          2
   135          1
   136          0
   137          4
   138          0
   159          0
   160          1
   161          1
   162          0
   167          2
   168          0
   169          1
   170          0
   187          0
   188          2
   189          1
   190          0
   199          1
   200          0
   201          1
   231          2
   232        115
   233         17
   234          7
   235          1
   247          0
   248          1
   249          0
   262          0
   278        139
   279         19
   280          8
   281          1
   282          0
   283          0