##TITLE=Library Entry 82064
##JCAMP-DX=Revision 4.10 
##DATA TYPE=MASS SPECTRUM
##SAMPLE DESCRIPTION=A.A.Kutin, Moscow, Russia
##NAMES=HP
##CAS NAME=Oxazol-5(4H)-one, 2-phenyl-4-(3-tolylamino)methylene-
##MOLFORM=C17H14N2O2
##CAS REGISTRY NO=312945-96-3
##MP= -300
##BP= -300
##MW= 278
##$RETENTION INDEX=0
##$CONDENSED SPECTRUM=NO
##NPOINTS= 119
##XYDATA=(XY..XY) 1 
    37          0
    39         38
    41         14
    42          0
    44          2
    45          1
    51        127
    52         12
    53          7
    54          0
    55          0
    57          0
    58          0
    61          1
    62         27
    64         75
    65         40
    67          0
    68          0
    69          0
    70          0
    72          0
    73          0
    74          7
    77        461
    78         24
    79          3
    81          0
    86          1
    87          1
    89         43
    91        164
    92          6
    93          0
    95          0
    99          0
   100          0
   101          1
   103         31
   105        999
   106         61
   108          0
   109          0
   111          0
   114          2
   116         17
   118         49
   119          3
   122          0
   124          0
   127          0
   128          7
   130         46
   131         25
   132          2
   133          0
   139         14
   141          0
   142          2
   143          5
   145         74
   146          6
   147          0
   149          0
   152          0
   155          3
   156          1
   157          2
   158          0
   161          0
   163          0
   165          1
   166          0
   171          0
   173          1
   174          0
   176          0
   177          0
   178          0
   179          0
   187          0
   190          0
   191          0
   192          1
   194         12
   195          1
   203          0
   204          1
   205          1
   206          1
   207          7
   208          1
   216          0
   217          0
   218          3
   219         17
   220          2
   221          0
   229          0
   233        108
   234         33
   235          5
   236          0
   245          0
   249          2
   250          1
   251          0
   259         21
   260          3
   261          0
   263          0
   264          0
   272          0
   273          1
   275          3
   278        704
   279        125
   280         15
   281          0