##TITLE=Library Entry 25343
##JCAMP-DX=Revision 4.10 
##DATA TYPE=MASS SPECTRUM
##SAMPLE DESCRIPTION=NIST Mass Spectrometry Data Center, 1990.
##NAMES=HP
##CAS NAME=Dodecane, 2,6,11-trimethyl-
##MOLFORM=C15H32
##CAS REGISTRY NO=31295-56-4
##MP= -300
##BP= -300
##MW= 212
##$RETENTION INDEX=1275
##$CONDENSED SPECTRUM=NO
##NPOINTS= 62
##XYDATA=(XY..XY) 1 
    14          5
    15          2
    16          3
    27         77
    28         13
    29        119
    30          2
    39         86
    41        508
    42        125
    43        766
    44         31
    51          3
    52          3
    53         38
    54         23
    55        283
    56        307
    57        999
    58         46
    65          6
    66          3
    67         29
    68         27
    69        147
    70        150
    71        989
    72         59
    77          4
    78          1
    79          6
    81          6
    82         12
    83         50
    84        101
    85        375
    86         24
    95          1
    96          3
    97         31
    98         54
    99        128
   100          9
   111         55
   112         80
   113         94
   114          7
   126         49
   127         70
   128          6
   140          4
   141         11
   154          2
   155          3
   168          5
   169         47
   170          6
   182          2
   183          3
   196          2
   197          6
   212          3