##TITLE=Library Entry 15916
##JCAMP-DX=Revision 4.10 
##DATA TYPE=MASS SPECTRUM
##SAMPLE DESCRIPTION=Japan AIST/NIMC Database- Spectrum MS-IW-2609
##NAMES=HP
##CAS NAME=DL-Asparagine
##MOLFORM=C4H8N2O3
##CAS REGISTRY NO=3130-87-8
##MP= -300
##BP= -300
##MW= 132
##$RETENTION INDEX=0
##$CONDENSED SPECTRUM=NO
##NPOINTS= 63
##XYDATA=(XY..XY) 1 
    12          1
    13          2
    14         11
    15         68
    16         70
    17         12
    18         38
    19          1
    25          3
    26         25
    27         69
    28        321
    29         37
    30         95
    31          9
    32          2
    34          2
    35          3
    38          6
    39         10
    40         38
    41        102
    42        381
    43        478
    44        999
    45        110
    46         40
    47          2
    51          2
    52          6
    53         12
    54         10
    55         32
    56          7
    57          4
    58          2
    59        198
    60         26
    61          1
    66          1
    67          3
    68          9
    69         18
    70        331
    71         25
    72         10
    73          9
    74         66
    75          2
    80          1
    81          2
    85          1
    86        105
    87        999
    88         61
    89          6
    97          6
    98          2
    99          6
   114         47
   115         18
   116          2
   133          1