##TITLE=Library Entry 164
##JCAMP-DX=Revision 4.10 
##DATA TYPE=MASS SPECTRUM
##SAMPLE DESCRIPTION=Exported from NIST MS Search
##NAMES=HP
##CAS NAME=1-Oxaspiro[4.4]non-8-ene-4,7-dione, 9-hydroxy-6-(3-methyl-2-buten
yl)-2-(1-methylethyl)-8-(3-methyl-1-oxobutyl)-
##MOLFORM=C21H30O5
##CAS REGISTRY NO=31319-12-7
##MP= -300
##BP= -300
##MW= 362
##$RETENTION INDEX=0
##$CONDENSED SPECTRUM=NO
##NPOINTS= 232
##XYDATA=(XY..XY) 1 
    26         36
    27        197
    28        999
    29         80
    30         23
    31         87
    32         96
    36         55
    37         13
    38         25
    39        243
    40         59
    41        999
    42         91
    43        358
    44        328
    45         57
    46          9
    48         11
    49         13
    50         34
    51         66
    52         32
    53        110
    54         46
    55        268
    56        174
    57        758
    58         36
    59         41
    60         62
    61         11
    63         11
    64         32
    65         66
    66         18
    67        206
    68         73
    69        717
    70        103
    71        128
    72         18
    73         41
    74          9
    75         13
    76         13
    77         89
    78         43
    79        114
    80         34
    81        172
    82         48
    83        142
    84         46
    85        239
    86         23
    87         34
    88         18
    89          9
    91         91
    92         20
    93         91
    94         36
    95        137
    96         98
    97        471
    98         59
    99         46
   100          4
   101          4
   103         13
   104          9
   105         64
   106          6
   107         64
   108         27
   109        142
   110          6
   111         11
   112         13
   113         16
   114          9
   115         78
   116          9
   117         64
   118         39
   119        142
   120         36
   121         91
   122         57
   123        131
   124         64
   125         39
   126         27
   127         27
   128         16
   129         39
   130          4
   131         29
   132          6
   133         39
   134          9
   135         55
   136         34
   137         57
   138         18
   139         46
   140         34
   141         18
   142          9
   143         20
   144          9
   145         29
   146         18
   147         27
   148          6
   149        236
   150         27
   151         36
   152         41
   153         46
   154         36
   155         27
   156         18
   157         16
   158          9
   159         20
   160          9
   161         39
   162         20
   163         39
   164         36
   165         36
   166         27
   167         57
   168         16
   169         18
   170          6
   171         20
   172          9
   173         29
   174         20
   175         34
   176         18
   177         36
   178         16
   179         64
   180         36
   181         62
   182         91
   183         20
   184         11
   185         18
   186          9
   187         20
   188          9
   189         27
   190         32
   191         89
   192         32
   193         29
   194         20
   195         52
   196         16
   197        395
   198         64
   199         16
   200          4
   201          6
   202          4
   203         18
   204         11
   205         23
   206         16
   207         27
   208         16
   209         89
   210         69
   211         16
   212          6
   215         32
   216          9
   217         16
   218          6
   219         18
   220          9
   221         23
   222          6
   223         52
   224          6
   226          4
   227         13
   229          9
   230         18
   231         25
   232          6
   233         89
   234         16
   235         25
   236          6
   237          9
   238         16
   239         36
   240         29
   245          4
   246          4
   247         27
   248        112
   249         34
   250         23
   251         27
   252         13
   259         18
   260          4
   261         16
   262          6
   263          4
   264        305
   265         18
   266        110
   267         18
   274         25
   275          6
   276         29
   277         18
   278         11
   287         16
   288          9
   289          9
   301          9
   319         11
   362         18