##TITLE=Library Entry 8810
##JCAMP-DX=Revision 4.10 
##DATA TYPE=MASS SPECTRUM
##SAMPLE DESCRIPTION=A.A.Kutin, Moscow, Russia
##NAMES=HP
##CAS NAME=1-(6-Chloro-2-thioxo-2,3-dihydrobenzo[d][1,3]oxazol-3-yl)-1-butan
one
##MOLFORM=C11H10ClNO2S
##CAS REGISTRY NO=31315-64-7
##MP= -300
##BP= -300
##MW= 255
##$RETENTION INDEX=0
##$CONDENSED SPECTRUM=NO
##NPOINTS= 95
##XYDATA=(XY..XY) 1 
    33         10
    35          3
    36         20
    37         25
    38         47
    39        145
    40        123
    41        295
    43        999
    44         85
    46          0
    47          1
    48          0
    49          7
    50         31
    51         21
    52         10
    53          8
    55         58
    56          3
    57         13
    58          2
    60         44
    61         22
    62         43
    63        123
    64         11
    65          3
    66          0
    67          1
    69         31
    71        458
    72         22
    73         39
    74          8
    75         21
    76         30
    77         12
    78         10
    79         15
    81          5
    82          0
    83          2
    84          1
    85          3
    86          1
    87          2
    88          4
    89          3
    90         17
    91          2
    93          3
    94          3
    95          8
    96          8
    97          6
    98         20
    99          6
   100          5
   106          2
   107          0
   111          0
   112          8
   113          8
   114          1
   115          0
   120          6
   121          2
   122          3
   124          5
   125         40
   126          4
   127         13
   128          0
   129          4
   130          1
   131          0
   132          0
   140          0
   153         14
   155          4
   156         41
   157          1
   158         13
   169          4
   171          0
   185        211
   186         19
   187         68
   188          5
   189          0
   227         10
   229          3
   255         14
   257          4