##TITLE=Library Entry 22713
##JCAMP-DX=Revision 4.10 
##DATA TYPE=MASS SPECTRUM
##SAMPLE DESCRIPTION=Div. of Experiment Therapeutics WRAIR, WRAMC, Washingto
n DC 20307
##NAMES=HP
##CAS NAME=N-[2-[2-Oxo-3-oxazolidinyl]ethyl]-2,3-pyridinedicarboximide
##MOLFORM=C12H11N3O4
##CAS REGISTRY NO=31327-87-4
##MP= -300
##BP= -300
##MW= 261
##$RETENTION INDEX=0
##$CONDENSED SPECTRUM=NO
##NPOINTS= 69
##XYDATA=(XY..XY) 1 
    42        134
    43         10
    44          7
    45          4
    49          4
    50         77
    51         68
    52         22
    54         80
    56        999
    59          2
    61          0
    63          7
    64          5
    65         10
    66          4
    68          6
    69         85
    70          8
    73          2
    76        105
    77         37
    78        152
    79         32
    80          4
    84          0
    86          1
    88          0
    90          1
    91         10
    92          3
    93          6
   100        234
   101          6
   103         10
   106         93
   107          3
   112          1
   113        109
   115          0
   118          4
   119          0
   121          1
   129          1
   131          5
   133          9
   134         10
   136         14
   137          1
   146         11
   149         39
   161         43
   162         61
   164         35
   165          1
   172          0
   174         63
   175          3
   176          0
   181         10
   193          3
   194          5
   203          2
   206          1
   217         63
   218          3
   260          1
   261          5
   262          0