##TITLE=Library Entry 23034
##JCAMP-DX=Revision 4.10 
##DATA TYPE=MASS SPECTRUM
##SAMPLE DESCRIPTION=NIST Mass Spectrometry Data Center, 1992
##NAMES=HP
##CAS NAME=Oxirane, (bromomethyl)-
##MOLFORM=C3H5BrO
##CAS REGISTRY NO=3132-64-7
##MP= -300
##BP= -300
##MW= 136
##$RETENTION INDEX=789
##$CONDENSED SPECTRUM=NO
##NPOINTS= 52
##XYDATA=(XY..XY) 1 
    12          5
    13          9
    14         35
    15         35
    16          0
    17          1
    18          2
    24          5
    25         26
    26        160
    27        494
    28        107
    29        469
    30         40
    31        298
    32         10
    36          4
    37         22
    38         31
    39         54
    40          5
    41         13
    42         37
    43         19
    44          2
    53          3
    54          2
    55         16
    56          2
    57        999
    58         32
    59          3
    79         34
    80         16
    81         43
    82         13
    83          2
    91          7
    92         10
    93         64
    94         11
    95         60
    96          3
   103          1
   104          6
   105         15
   106         27
   107         20
   108         23
   109          3
   136          2
   138          1