##TITLE=Library Entry 89124
##JCAMP-DX=Revision 4.10 
##DATA TYPE=MASS SPECTRUM
##SAMPLE DESCRIPTION=V.Zaikin,Inst.Petrochem.Synth.,RAS,Moscow
##NAMES=HP
##CAS NAME=2-Thiophencarboxamide, N-(5-bromo-2-pyridinyl)-
##MOLFORM=C10H7BrN2OS
##CAS REGISTRY NO=313277-53-1
##MP= -300
##BP= -300
##MW= 282
##$RETENTION INDEX=0
##$CONDENSED SPECTRUM=NO
##NPOINTS= 69
##XYDATA=(XY..XY) 1 
    26          4
    27          5
    28          1
    37          6
    38         17
    39        102
    40          5
    41          5
    44         15
    45         13
    50         12
    51          7
    52          4
    53          6
    55          3
    57         25
    58         10
    63          4
    64         14
    65          9
    66          6
    69          4
    76         13
    77          7
    78          3
    80          3
    81          8
    82         12
    83         60
    84         12
    85          3
    91          3
    92         12
    99         10
   110          3
   111        999
   112         62
   113         46
   117         11
   119         11
   128         18
   144          3
   145          7
   146          4
   147          6
   156         10
   158          9
   172         12
   174         12
   198          4
   200          3
   210          7
   238         10
   249         56
   250          6
   251         55
   252          6
   253          3
   254         80
   255         11
   256         82
   257          9
   258          3
   281         13
   282        127
   283         30
   284        130
   285         16
   286          6