##TITLE=Library Entry 11672
##JCAMP-DX=Revision 4.10 
##DATA TYPE=MASS SPECTRUM
##SAMPLE DESCRIPTION=Chemical Concepts
##NAMES=HP
##CAS NAME=4-Hexenoic acid, 2-acetyl-2,5-dimethyl-, ethyl ester
##MOLFORM=C12H20O3
##CAS REGISTRY NO=3132-71-6
##MP= -300
##BP= -300
##MW= 212
##$RETENTION INDEX=0
##$CONDENSED SPECTRUM=NO
##NPOINTS= 119
##XYDATA=(XY..XY) 1 
    25          1
    26         18
    27        227
    28         65
    29        361
    30         11
    31         17
    36          0
    37          2
    38          7
    39        143
    40         28
    41        483
    42         45
    43        999
    44         33
    45         28
    46          2
    47          0
    50          6
    51         23
    52         12
    53         95
    54         20
    55        136
    56        154
    57         27
    58          2
    59         30
    60          1
    61          5
    62          0
    63          3
    64          0
    65         19
    66          6
    67         92
    68         22
    69        363
    70         85
    71         11
    72          4
    73          6
    74         12
    75          0
    77         33
    78          6
    79         51
    80         11
    81         53
    82         12
    83         31
    84          3
    85         23
    86          5
    87        119
    88          6
    89          1
    91         12
    92          1
    93         18
    94          3
    95        211
    96         32
    97         65
    98        124
    99        195
   100         18
   101          6
   102          9
   103          1
   105          6
   106          1
   107          7
   108          2
   109         39
   110          4
   111         12
   112          1
   113          7
   114          1
   115         95
   116         13
   117          0
   119          0
   120          4
   121         31
   123        500
   124         47
   125         22
   126          2
   127          3
   128          1
   129          3
   137          3
   138          9
   139         62
   140          7
   141         16
   142          2
   144         69
   145          5
   146          0
   149          0
   151          3
   153          2
   155          1
   157          0
   165          1
   166          4
   167         19
   169        204
   170         23
   171          2
   183          2
   194          1
   211          0
   212          9
   213          1