##TITLE=Library Entry 47537
##JCAMP-DX=Revision 4.10 
##DATA TYPE=MASS SPECTRUM
##SAMPLE DESCRIPTION=A.Mazepa, Phys.-Chem.Institute, Odessa, Ukraine
##NAMES=HP
##CAS NAME=5-Benzoyl-3H-imidazole-4-carboxylic acid methyl ester
##MOLFORM=C12H10N2O3
##CAS REGISTRY NO=313263-14-8
##MP= -300
##BP= -300
##MW= 230
##$RETENTION INDEX=0
##$CONDENSED SPECTRUM=NO
##NPOINTS= 86
##XYDATA=(XY..XY) 1 
    50        104
    51        421
    52         25
    53          5
    54          2
    61          3
    62         16
    63         42
    64         10
    65         28
    66         11
    67         89
    68         21
    69          1
    70         10
    71          4
    74         26
    75         25
    76         59
    77        999
    78         73
    79          2
    86          2
    87          3
    88         15
    89        119
    90         12
    91          4
    93          8
    94         77
    95         33
    96          2
   101          2
   102          3
   103          5
   104         66
   105        562
   106         35
   107          4
   114         14
   115         35
   116         47
   117         15
   118          2
   121        386
   122         11
   123         17
   127          2
   128          5
   129          3
   130          9
   131          1
   141          7
   142         73
   143         38
   144        261
   145         56
   146          2
   153        332
   154         17
   155          2
   169          5
   170        350
   171        718
   172        118
   173          5
   184          3
   185          2
   186          4
   187        158
   188         14
   195          3
   197         96
   198         88
   199        368
   200         66
   201          7
   202         68
   203        142
   204          8
   215        238
   216         16
   229         30
   230        497
   231         48
   232          4