##TITLE=Library Entry 56491
##JCAMP-DX=Revision 4.10 
##DATA TYPE=MASS SPECTRUM
##SAMPLE DESCRIPTION=Chemical Concepts
##NAMES=HP
##CAS NAME=Naftidrofuryl
##MOLFORM=C24H33NO3
##CAS REGISTRY NO=31329-57-4
##MP= -300
##BP= -300
##MW= 383
##$RETENTION INDEX=2786
##$CONDENSED SPECTRUM=NO
##NPOINTS= 181
##XYDATA=(XY..XY) 1 
    26          0
    27          6
    29         15
    30         27
    31          0
    39          0
    41          8
    42         11
    43         20
    44         17
    45          0
    53          0
    54          0
    55          8
    56         12
    57          8
    58         32
    59          2
    60          1
    61          1
    63          0
    65          0
    66          0
    67          1
    69          3
    70          9
    71         48
    72         15
    73          4
    74          2
    75          0
    76          0
    77          1
    78          0
    81          0
    82          0
    83          1
    84         16
    85         11
    86        999
    87         57
    88          1
    89          0
    90          0
    91          0
    92          0
    93          0
    95          0
    97          7
    98          2
    99        346
   100         75
   101          4
   102          0
   103          0
   110          0
   111          1
   112          1
   113          1
   114          0
   115         22
   116          3
   117          0
   118          0
   119          0
   120          0
   121          0
   122          0
   123          0
   124          0
   125          1
   126          1
   127          2
   128          8
   129          3
   130          0
   131          0
   132          0
   134          1
   139          4
   140         57
   141         27
   142          6
   143          1
   144          0
   146          0
   147          0
   148          0
   149          0
   150          0
   151          1
   152         11
   153         22
   154          7
   155          3
   156          1
   157          1
   158          0
   160          0
   161          0
   163          0
   164          0
   165         12
   166          3
   167         11
   168          5
   169          1
   170          5
   171          2
   172          2
   176          0
   177          0
   178          3
   179          8
   180          2
   181          8
   182          2
   183          2
   184          0
   185          0
   187          0
   191          1
   192          0
   193          2
   194          0
   195          2
   196          0
   197          0
   198          0
   199          0
   202          0
   203          0
   204          0
   205          1
   206          0
   207          0
   213          0
   216          0
   217          0
   219          0
   220          0
   221          1
   222          0
   225          0
   226          0
   227          0
   231          1
   232          0
   237          1
   238          0
   239          0
   240          0
   241          0
   242          0
   243          0
   249          6
   250          1
   251          0
   256          1
   257          0
   267          6
   268          1
   269          0
   270          0
   284          1
   285          0
   297          0
   298          1
   299          6
   300          1
   311          1
   312          0
   313          0
   340          0
   341          0
   354          0
   368          2
   369          0
   382          1
   383          2
   384          1