##TITLE=Library Entry 22490
##JCAMP-DX=Revision 4.10 
##DATA TYPE=MASS SPECTRUM
##SAMPLE DESCRIPTION=Div. of Experiment Therapeutics WRAIR, WRAMC, Washingto
n DC 20307
##NAMES=HP
##CAS NAME=3-[2-[cis-1,2-Cyclohexanedicarboximido]ethyl]-2-oxazolidinone
##MOLFORM=C13H18N2O4
##CAS REGISTRY NO=31337-82-3
##MP= -300
##BP= -300
##MW= 266
##$RETENTION INDEX=0
##$CONDENSED SPECTRUM=NO
##NPOINTS= 75
##XYDATA=(XY..XY) 1 
    41        199
    42        150
    44         67
    45          5
    47          4
    49         19
    51         28
    53        102
    54        225
    56        999
    58         40
    59          0
    60          0
    63          1
    65         13
    67         77
    68         89
    69        515
    70         71
    71         13
    72          0
    74          1
    77         30
    79         81
    81        148
    82         10
    83         22
    84         11
    86          9
    88          3
    91          2
    93          6
    95         25
    96          5
    97          0
    98          8
   100        178
   101          6
   105          0
   108         16
   109         20
   110          7
   111          3
   113        155
   114         23
   122          3
   124          6
   125          0
   126          3
   129          1
   131          0
   136          2
   138          4
   150          2
   151          5
   152          1
   154         44
   155          2
   166          5
   167         31
   168         21
   169          0
   179         40
   180         15
   181          2
   193          4
   194          2
   207          2
   208          4
   221          2
   222         93
   223          2
   265          1
   266         10
   267          0