##TITLE=Library Entry 46307
##JCAMP-DX=Revision 4.10 
##DATA TYPE=MASS SPECTRUM
##SAMPLE DESCRIPTION=Chemical Concepts
##NAMES=HP
##CAS NAME=4-(2,3-Dimethoxybenzylidene)-3-methyl-1-(4-nitrophenyl)-2-pyrazol
in-5-one
##MOLFORM=C19H17N3O5
##CAS REGISTRY NO=313368-46-6
##MP= -300
##BP= -300
##MW= 367
##$RETENTION INDEX=0
##$CONDENSED SPECTRUM=NO
##NPOINTS= 110
##XYDATA=(XY..XY) 1 
    33         16
    36         18
    37         29
    39        277
    41        247
    42        142
    43        221
    45        109
    50        613
    51        328
    53        694
    54         56
    55         77
    56         19
    57         24
    58         23
    63        794
    64        307
    65        239
    66         46
    67         68
    69         39
    75        944
    76        999
    77        758
    78        180
    79        112
    80        180
    81         36
    86         21
    87         47
    89        385
    90        477
    91        370
    92        229
    93         53
    95        117
   101         96
   102        279
   103        403
   104        116
   105        141
   106        105
   107        115
   108         48
   109         28
   111         36
   113         40
   115        584
   116        160
   117        165
   118        108
   119        136
   120         34
   121         94
   122        161
   123         49
   126         38
   127        134
   128        148
   129        103
   130         95
   131        227
   132         63
   133         48
   134         36
   135         81
   136         62
   137         74
   138         20
   139         23
   142         16
   143         49
   144         73
   145        101
   146         78
   147         58
   148         41
   149         28
   151         19
   152         26
   157         51
   158         43
   159         63
   160         31
   161         75
   163         28
   170         16
   171         16
   172         36
   173         72
   174         45
   175         18
   184        176
   185         23
   186         20
   188         18
   189         19
   200         19
   201         21
   202         16
   230         70
   289         21
   290        139
   291         37
   334         25
   336        668
   337        140
   338         20
   367         58