##TITLE=Library Entry 52607
##JCAMP-DX=Revision 4.10 
##DATA TYPE=MASS SPECTRUM
##SAMPLE DESCRIPTION=Japan AIST/NIMC Database- Spectrum MS-NW-8224
##NAMES=HP
##CAS NAME=1-Tricosanol
##MOLFORM=C23H48O
##CAS REGISTRY NO=3133-01-5
##MP= -300
##BP= -300
##MW= 340
##$RETENTION INDEX=2528
##$CONDENSED SPECTRUM=NO
##NPOINTS= 156
##XYDATA=(XY..XY) 1 
    15          2
    16          1
    17          2
    18          7
    26          4
    27         50
    28         22
    29        180
    30          5
    31         62
    32          2
    38          1
    39         38
    40          9
    41        474
    42        127
    43        835
    44         34
    45         11
    50          1
    51          2
    52          1
    53         21
    54         81
    55        786
    56        409
    57        996
    58         45
    59          3
    63          1
    65          4
    66         16
    67        141
    68        383
    69        775
    70        409
    71        525
    72         29
    73         16
    74          1
    75         16
    76          1
    77          4
    78          2
    79          9
    80          9
    81        104
    82        560
    83        999
    84        305
    85        322
    86         21
    87          3
    91          3
    92          1
    93          3
    94          4
    95         62
    96        245
    97        923
    98        212
    99        103
   100          8
   101          1
   105          1
   106          1
   107          1
   108          3
   109         29
   110        103
   111        523
   112        155
   113         66
   114          5
   122          3
   123         21
   124         77
   125        312
   126        111
   127         45
   128          4
   136          2
   137         14
   138         58
   139        177
   140         84
   141         32
   142          3
   151          5
   152         42
   153        117
   154         65
   155         24
   156          3
   165          2
   166         33
   167         84
   168         53
   169         17
   170          2
   179          1
   180         27
   181         61
   182         43
   183         13
   184          2
   193          1
   194         23
   195         46
   196         36
   197          9
   198          1
   208         20
   209         35
   210         30
   211          8
   212          1
   222         16
   223         27
   224         29
   225          9
   226          1
   236         12
   237         21
   238         22
   239          9
   240          1
   250          9
   251         15
   252         20
   253          5
   264          6
   265         11
   266         11
   267          3
   277          1
   278          4
   279          8
   280         67
   281         15
   282          1
   293          1
   294          9
   295          2
   306          5
   307          1
   308        145
   309         37
   310          5
   322         17
   323          5
   324          1
   325          2
   336          3
   337          1
   339          1