##TITLE=Library Entry 18705
##JCAMP-DX=Revision 4.10 
##DATA TYPE=MASS SPECTRUM
##SAMPLE DESCRIPTION=Japan AIST/NIMC Database- Spectrum MS-NW-3657
##NAMES=HP
##CAS NAME=3-Nonyn-1-ol
##MOLFORM=C9H16O
##CAS REGISTRY NO=31333-13-8
##MP= -300
##BP= -300
##MW= 140
##$RETENTION INDEX=0
##$CONDENSED SPECTRUM=NO
##NPOINTS= 100
##XYDATA=(XY..XY) 1 
    15         15
    18          1
    25          1
    26         26
    27        378
    28         52
    29        501
    30         12
    31        360
    32          9
    33          1
    37          7
    38         27
    39        400
    40        101
    41        880
    42        141
    43        208
    44         29
    45         14
    46          1
    49          3
    50         53
    51        126
    52        171
    53        463
    54        999
    55        833
    56        238
    57        133
    58         14
    59          4
    60          2
    61          4
    62         13
    63         37
    64         12
    65        170
    66        205
    67        939
    68        339
    69        479
    70         64
    71         26
    72          4
    73          4
    74          6
    75          5
    76          3
    77        196
    78         37
    79        338
    80        101
    81        536
    82        100
    83        235
    84        513
    85         43
    86          4
    87          2
    89          3
    90          2
    91        116
    92         22
    93        405
    94        125
    95        232
    96        103
    97        305
    98         66
    99         13
   100          1
   101          1
   103          3
   104          1
   105         17
   106          4
   107        277
   108         36
   109        327
   110         34
   111         55
   112         16
   113          2
   115          1
   117          1
   119          2
   120          1
   121         11
   122         17
   123          6
   124          1
   125         12
   126          2
   127          1
   137          1
   138          4
   139          4
   140          5
   141          1