##TITLE=Library Entry 47851
##JCAMP-DX=Revision 4.10 
##DATA TYPE=MASS SPECTRUM
##SAMPLE DESCRIPTION=A.A.Kutin, Moscow, Russia
##NAMES=HP
##CAS NAME=Tetrazole, 5-(2-bromophenyl)-1-phenyl-
##MOLFORM=C13H9BrN4
##CAS REGISTRY NO=313367-00-9
##MP= -300
##BP= -300
##MW= 300
##$RETENTION INDEX=0
##$CONDENSED SPECTRUM=NO
##NPOINTS= 164
##XYDATA=(XY..XY) 1 
    33          0
    37         90
    38        214
    39        379
    40         53
    41         75
    42          5
    43          9
    44         14
    45          1
    50        495
    51        780
    52        117
    53         11
    54          1
    55          3
    56          1
    57          3
    58          0
    61         82
    62        209
    63        350
    64        488
    65        193
    66         14
    67          1
    68          0
    70         10
    71          1
    73         29
    74        140
    75        319
    76        317
    77        999
    78         70
    79         11
    80          8
    81          8
    82         12
    83          9
    84          5
    85         19
    86         45
    87         62
    88        114
    89         65
    90        322
    91        888
    92         53
    93          4
    95          2
    96          7
    97          5
    98          6
    99         16
   100         17
   102        290
   103         61
   104         10
   105         17
   106         15
   107          2
   108          0
   109          1
   110          2
   111          3
   112          2
   113          8
   114          8
   115         23
   116         82
   117         32
   118         15
   119         14
   120          0
   122          8
   123          1
   125          1
   126          4
   127          4
   128          7
   129          7
   130          5
   131          1
   132          0
   133          0
   134          0
   135          0
   136          1
   137          7
   138         10
   139         33
   140         28
   141         12
   143         36
   145         28
   146          1
   150          2
   151          6
   152         10
   153          6
   155         48
   157         46
   158          2
   162          4
   163         21
   164         32
   165         29
   166        141
   167         40
   168          8
   169         23
   170          5
   171         15
   172          0
   176          0
   177          3
   178          7
   179          9
   181         61
   182         42
   183         55
   184         35
   185          2
   188          0
   189          2
   190          4
   192        225
   193         94
   194         18
   195         22
   196         19
   197         22
   198         16
   199          0
   206          1
   207          0
   208          1
   209          0
   220          2
   221          0
   228          2
   230          0
   244          0
   245          2
   246          1
   247          2
   248          0
   258         10
   259          2
   260         11
   261          0
   267          2
   269         16
   272        928
   273        177
   274        804
   275        118
   276          7
   299          0
   300          4
   301          1
   302          4
   303          0