##TITLE=Library Entry 11558
##JCAMP-DX=Revision 4.10 
##DATA TYPE=MASS SPECTRUM
##SAMPLE DESCRIPTION=A.A.Kutin, Moscow, Russia
##NAMES=HP
##CAS NAME=Acetamide, 2-(2-imino-4-thiazolin-3-yl)-N-isopropyl-N-phenyl-
##MOLFORM=C14H17N3OS
##CAS REGISTRY NO=313376-86-2
##MP= -300
##BP= -300
##MW= 275
##$RETENTION INDEX=0
##$CONDENSED SPECTRUM=NO
##NPOINTS= 115
##XYDATA=(XY..XY) 1 
    33         13
    39         79
    41        313
    43        999
    45         76
    46          6
    47          3
    48          0
    51        106
    52         20
    53         14
    55         66
    59        519
    60         23
    61         28
    63         19
    65         69
    66         16
    67          5
    69         14
    70          4
    72         60
    73          7
    74          5
    77        269
    78         23
    79         21
    81         29
    82          3
    84         19
    86        332
    88         32
    89          5
    91         67
    92         46
    93         27
    94         14
    95          1
    96          0
    97          1
   100         23
   101         25
   102          3
   104         81
   106         81
   107          5
   110          0
   111          5
   113        414
   114        322
   115         29
   116         17
   118        125
   120        544
   121         28
   123          0
   125          0
   127          1
   129          2
   130          4
   133        535
   134        157
   135        138
   136         14
   137          0
   141        534
   143         39
   144          2
   145          1
   146          2
   148          6
   149          1
   150          1
   151          0
   155          1
   156          0
   157          3
   158          1
   160         16
   162         17
   163          1
   170          0
   171          0
   172          0
   173          1
   174         13
   175        109
   176         14
   177          1
   184          0
   185          0
   187          0
   188          0
   189         14
   190         20
   191          2
   192          0
   200          0
   201          0
   204          0
   214          0
   215          1
   216          0
   217          8
   218          1
   232          5
   233          1
   242          0
   247          0
   257          0
   273          1
   275        150
   276         24
   277          7
   278          1