##TITLE=Library Entry 100969
##JCAMP-DX=Revision 4.10 
##DATA TYPE=MASS SPECTRUM
##SAMPLE DESCRIPTION=A.A.Kutin, Moscow, Russia
##NAMES=HP
##CAS NAME=Benzamide, 3-methyl-N-[4-(4-methyylphenyl)-2-thiazolyl]-
##MOLFORM=C18H16N2OS
##CAS REGISTRY NO=313366-37-9
##MP= -300
##BP= -300
##MW= 308
##$RETENTION INDEX=0
##$CONDENSED SPECTRUM=NO
##NPOINTS= 115
##XYDATA=(XY..XY) 1 
    37          0
    39         20
    40          1
    41          4
    42          0
    43          1
    45         16
    46          0
    47          0
    50          6
    51         10
    52          2
    53          1
    59          1
    61          1
    63         34
    65         94
    67          0
    69          3
    70          1
    71          1
    72          0
    74          4
    75          4
    76          5
    77          9
    78          2
    79          0
    81          0
    82          1
    83          0
    86          2
    87          3
    89         57
    91        386
    92         21
    93          4
    94          1
    95          1
    96          0
    97          0
    98          0
   100          0
   101          1
   102          7
   103         11
   104          3
   105          1
   106          0
   108          0
   115         17
   116         15
   119        999
   120         68
   121          9
   122          1
   123          0
   128          1
   129          3
   130          1
   131          0
   132          1
   133          2
   134          6
   135         11
   136          2
   137          0
   141          0
   143          6
   145          7
   147        110
   148         84
   150         12
   151          0
   152          0
   153          0
   155          0
   156          0
   159          2
   160          5
   161          1
   162          8
   163          0
   164          0
   171          0
   172          1
   174         23
   175          2
   176          1
   181          0
   187          7
   188          4
   189         26
   190         15
   191          3
   192          0
   217          2
   221          0
   222          0
   264          0
   273          0
   274          0
   275          1
   279          9
   280         21
   281          4
   282          0
   291          0
   304          0
   305          2
   308        707
   309        145
   310         45
   311          7
   312          0