##TITLE=Library Entry 97949
##JCAMP-DX=Revision 4.10 
##DATA TYPE=MASS SPECTRUM
##SAMPLE DESCRIPTION=A.A.Kutin, Moscow, Russia
##NAMES=HP
##CAS NAME=Benzoic acid, 4-(4-methoxyphenoxymethyl)-, phenyl ester
##MOLFORM=C21H18O4
##CAS REGISTRY NO=313372-56-4
##MP= -300
##BP= -300
##MW= 334
##$RETENTION INDEX=0
##$CONDENSED SPECTRUM=NO
##NPOINTS= 170
##XYDATA=(XY..XY) 1 
    33          1
    34          0
    36          1
    37          6
    38         32
    39        144
    40         29
    41         92
    42         14
    43         14
    44         19
    45          3
    46          0
    47          0
    48          0
    50         31
    51         61
    52         44
    53         27
    54         25
    55         19
    56          3
    57          5
    58         14
    59          1
    60          2
    61          6
    62         24
    63         97
    64         68
    65        121
    66         17
    67         13
    68          4
    69         14
    70          2
    71          2
    72          0
    73          1
    74          5
    75          7
    76         12
    77         45
    78          7
    79         15
    80         24
    81         11
    82         10
    83          2
    84          2
    85          2
    86          2
    87          5
    89        272
    90        621
    91         56
    92         22
    93         22
    94         26
    95        114
    96          8
    97          1
    98          1
    99          0
   100          0
   101          0
   102          1
   103          1
   104          5
   105          7
   106          2
   107          8
   108          8
   109         12
   110          1
   111          0
   112          3
   113          1
   115         12
   118        999
   119         85
   121         33
   123        581
   124         47
   125          4
   126          1
   127          2
   128          4
   129          3
   130          0
   131          0
   132          0
   133          4
   134          1
   135          1
   136          0
   137          0
   138          0
   139          4
   140          3
   141          7
   142          2
   143          0
   144          0
   148          0
   149          1
   150          1
   151          2
   152          7
   153          6
   154          4
   155         20
   156          2
   157          2
   158          0
   159          0
   165          5
   166          2
   167          2
   168          2
   169          4
   170         24
   171          2
   172          0
   177          0
   178          0
   180          0
   181          5
   183         47
   184          6
   185          3
   186          0
   193          0
   194          0
   195          1
   196          0
   197          1
   198          1
   202          0
   207          0
   209          2
   211        210
   212         31
   213         15
   214          2
   215          0
   225          0
   226          0
   236          1
   237          1
   238          1
   239          4
   241        268
   242         40
   243          5
   244          0
   245          0
   254          0
   275          2
   276          0
   277          0
   328          0
   329          0
   330          1
   331          2
   332          2
   334        162
   335         34
   336          4
   337          0