##TITLE=Library Entry 65624
##JCAMP-DX=Revision 4.10 
##DATA TYPE=MASS SPECTRUM
##SAMPLE DESCRIPTION=A.A.Kutin, Moscow, Russia
##NAMES=HP
##CAS NAME=Pyrimidine-2(1H)-thione, 3,4-dihydro4,4,6-trimethyl-1-(3-pyridylm
ethyl)-
##MOLFORM=C13H17N3S
##CAS REGISTRY NO=313399-47-2
##MP= -300
##BP= -300
##MW= 247
##$RETENTION INDEX=0
##$CONDENSED SPECTRUM=NO
##NPOINTS= 192
##XYDATA=(XY..XY) 1 
    33          7
    34          9
    35          1
    36          6
    37         15
    38         83
    39        682
    40        140
    41        438
    42        354
    43         75
    44         24
    45         40
    46          5
    47          5
    48          0
    50         45
    51        109
    52         72
    53        157
    54         68
    55        155
    56         71
    57        120
    58        131
    59         44
    60        123
    61         11
    62         31
    63        147
    64        125
    65        497
    66         77
    67         89
    68         29
    69         30
    70         25
    71         17
    72         38
    73         11
    74          7
    75          8
    76         14
    77         71
    78         98
    79        103
    80        105
    81         86
    82        125
    83         36
    84         28
    85         10
    86          8
    87          4
    88          3
    89          6
    90         22
    91        102
    92        999
    93        171
    94         39
    95         24
    96         57
    97         23
    98         41
    99         15
   100         97
   101          8
   102         10
   103         11
   104         48
   105         61
   106        123
   107         92
   108         31
   109         93
   110         56
   111         13
   112         10
   113         10
   114         12
   115         10
   116          8
   117         42
   118         33
   119         26
   120         12
   121          5
   122         17
   123         41
   124         81
   125         26
   126         10
   127         10
   128         24
   129         11
   130         58
   131         97
   132         77
   133         86
   134         46
   135          6
   136          3
   137         13
   138          3
   139          9
   140         32
   141         15
   142          7
   143         10
   144         17
   145         58
   146         64
   147        137
   148         23
   149         21
   150         22
   151         12
   152          5
   153         11
   154         10
   155         54
   156         21
   157         31
   158         20
   159          9
   160          3
   161          3
   162          4
   163          4
   164          3
   166         19
   167          3
   168          3
   169         16
   170         10
   171         20
   172         24
   173         92
   174         16
   175         30
   176          4
   177          6
   178          1
   179          0
   180          0
   181          1
   182          4
   183          2
   184          2
   185          6
   186          9
   187         52
   188         11
   189         28
   190         16
   191         15
   192          4
   194          0
   195          0
   196          1
   197         10
   198         24
   199         54
   200         15
   201          1
   202          0
   203          1
   204         22
   205          8
   206          3
   207          0
   212          3
   214        128
   215         27
   216          3
   217          2
   219          3
   220          0
   229          4
   230          8
   232        495
   233         73
   234         25
   235          2
   246        136
   247        799
   248        137
   249         42
   250          5
   251          2
   253          0