##TITLE=Library Entry 67891
##JCAMP-DX=Revision 4.10 
##DATA TYPE=MASS SPECTRUM
##SAMPLE DESCRIPTION=A.A.Kutin, Moscow, Russia
##NAMES=HP
##CAS NAME=Butanoic acid, 4-[4-(2-furoyl)piperazin-1-yl]-4-oxo-
##MOLFORM=C13H16N2O5
##CAS REGISTRY NO=313496-03-6
##MP= -300
##BP= -300
##MW= 280
##$RETENTION INDEX=0
##$CONDENSED SPECTRUM=NO
##NPOINTS= 199
##XYDATA=(XY..XY) 1 
    33          4
    34          0
    35          1
    36          5
    37         16
    38         52
    39        197
    40         25
    41         56
    42        159
    43         73
    44         78
    45         72
    46          1
    47          0
    49          1
    50          3
    51         13
    52          8
    53         23
    54         55
    55        231
    56        539
    57        113
    58         41
    59          2
    60          0
    61          0
    63          2
    64          2
    65          5
    66         14
    67         46
    69        485
    70         31
    71         10
    73         50
    74          3
    75          1
    76          1
    77          5
    78          2
    79          3
    81         70
    82         23
    83         33
    85        276
    86         11
    87          1
    88          0
    89          0
    90          1
    91          3
    92          4
    95        999
    96         48
    97         12
    98         10
    99         13
   101         77
   102          3
   103          1
   104          1
   105          1
   106          2
   107          5
   108          8
   109         29
   110         17
   111         20
   112         63
   113          9
   114          2
   115          1
   116          0
   117          0
   118          2
   119          2
   120          3
   121          3
   122         12
   123         16
   124         32
   125         89
   126         21
   127          2
   128          1
   129          1
   130          0
   131          0
   132          0
   133          1
   135         24
   137         47
   138         68
   139         11
   140          1
   141          1
   143          5
   144          8
   145          2
   146          1
   147          0
   148          1
   149          8
   150         27
   151         19
   152         11
   153          4
   154          0
   155          0
   156          1
   157          3
   158          0
   159          0
   160          0
   161          1
   163         33
   164          5
   165          9
   166          2
   167          6
   168          2
   169          8
   170          1
   171          8
   172          1
   173          0
   175          0
   176          0
   177          1
   178          7
   179         44
   180         41
   181          8
   182          0
   183          0
   185          4
   186          1
   187          0
   188          0
   189          0
   190          0
   191          0
   192          0
   193          2
   194          4
   195          0
   196          0
   197          0
   199          3
   200          0
   201          0
   203          0
   204          0
   205          0
   207          5
   208          1
   209          0
   210          0
   212         37
   213          3
   214          0
   217          0
   218          0
   219          0
   221          2
   222          0
   223          0
   224          0
   225          0
   233          2
   234          2
   235          2
   236          1
   237          0
   238          0
   246          0
   247          0
   248          0
   249          0
   251          0
   252          1
   259          0
   262         42
   263         11
   264          1
   265          3
   266          0
   267          0
   268          0
   277          0
   278          1
   280         63
   281          8
   282          1
   283          0
   289          0
   290          0