##TITLE=Library Entry 64392
##JCAMP-DX=Revision 4.10 
##DATA TYPE=MASS SPECTRUM
##SAMPLE DESCRIPTION=A.A.Kutin, Moscow, Russia
##NAMES=HP
##CAS NAME=Indole-5-carboxylic acid, 1-benzyl-2,3-dimethyl-
##MOLFORM=C18H17NO2
##CAS REGISTRY NO=313498-12-3
##MP= -300
##BP= -300
##MW= 279
##$RETENTION INDEX=0
##$CONDENSED SPECTRUM=NO
##NPOINTS= 218
##XYDATA=(XY..XY) 1 
    33          0
    34          0
    35          0
    36          2
    37          1
    38          6
    39         63
    40         14
    41         34
    42          9
    43         11
    44          5
    45         19
    46          0
    47          0
    49          0
    50         16
    51         50
    52         14
    53          9
    54          2
    55          8
    56          3
    57          8
    58          1
    59          1
    60          2
    61          1
    62          8
    63         39
    64         13
    65        169
    66         13
    67          2
    68          1
    69          6
    70          4
    71          4
    72          0
    73          2
    74         11
    75         22
    76         19
    77         53
    78         12
    79          3
    80          1
    81          2
    82          2
    83          3
    84          3
    85          1
    86          2
    87          4
    88          5
    89         38
    90         24
    91        999
    92         83
    93          4
    94          2
    95          3
    96          3
    97          2
    98          2
    99          2
   100          3
   101         15
   102         19
   103         15
   104          4
   105          1
   106          0
   107          1
   109         10
   110          2
   111          1
   112          2
   113          4
   114          7
   115         39
   116         14
   117          7
   118          3
   119          1
   120          0
   121          1
   122          1
   123          2
   124          0
   125          0
   126          2
   127          8
   128         22
   129         10
   130          4
   131          2
   132          0
   133          0
   134          1
   135          0
   136          0
   137          0
   138          0
   139          5
   140          9
   141          6
   142         24
   143         28
   144         35
   145          5
   146          1
   147          1
   148          0
   149          0
   150          1
   151          1
   152          3
   153          1
   154          3
   155          1
   156         12
   157          3
   158          1
   159          1
   160          0
   161          0
   162          0
   163          1
   164          1
   165          3
   166          1
   167          3
   168          0
   169          0
   170         14
   171         18
   172          4
   173          2
   174          1
   175          0
   176          2
   177          1
   178          3
   179          1
   180          0
   181          0
   182          0
   183          3
   184          2
   185          1
   186          1
   187          9
   188         20
   189          7
   190          2
   191          3
   192          1
   193          0
   194          0
   195          0
   196          0
   197          0
   198          1
   199         15
   200          7
   201          3
   202          8
   203          2
   204          4
   205          1
   206          0
   207          0
   208          0
   213          0
   214          1
   215          2
   216          4
   217          7
   218         10
   219          4
   220          1
   221          0
   222          0
   224          0
   226          0
   227          0
   228          1
   229          1
   230          4
   231          3
   232          7
   233          2
   234         14
   235          3
   236          0
   241          0
   243          0
   244          0
   245          0
   246          0
   247          0
   248          1
   249          0
   250          0
   261          2
   262         39
   263          8
   264          5
   265          1
   266          0
   277          2
   278         13
   279        486
   280         99
   281         12
   282          1
   283          0