##TITLE=Library Entry 87537
##JCAMP-DX=Revision 4.10 
##DATA TYPE=MASS SPECTRUM
##SAMPLE DESCRIPTION=A.A.Kutin, Moscow, Russia
##NAMES=HP
##CAS NAME=Isoindole-1,3(2H)-dione, 2-[2-(5-amino-1,2,4-triazol-3-yl)ethyl]-
##MOLFORM=C12H11N5O2
##CAS REGISTRY NO=313499-41-1
##MP= -300
##BP= -300
##MW= 257
##$RETENTION INDEX=0
##$CONDENSED SPECTRUM=NO
##NPOINTS= 117
##XYDATA=(XY..XY) 1 
    33         57
    34         13
    35         11
    36         18
    37         29
    38         73
    39        215
    41        360
    42        298
    44        343
    46          3
    48          3
    49        166
    50        210
    51        113
    52         63
    54        204
    55         83
    57        270
    58         33
    62         29
    63         30
    65         22
    66         25
    67         82
    69         64
    70         43
    71         34
    73         73
    74        102
    75        323
    77        610
    79         31
    81         33
    84         34
    91         27
    97        104
    98         49
   102         79
   103        220
   105        237
   110        999
   111        858
   130        171
   131         39
   133        183
   148         45
   149         41
   151          3
   152          4
   154          5
   155          3
   156          3
   160        933
   162          9
   163          2
   164          1
   165          1
   166          1
   167          2
   168          2
   169          2
   171          9
   173         49
   174         10
   175          3
   177          1
   178          1
   179          3
   180          1
   181          1
   182          1
   184          7
   185         36
   187          2
   188          1
   189          1
   192          1
   193          1
   196          2
   197          2
   198          2
   199          6
   200          4
   201         11
   202          8
   203          1
   204          1
   205          1
   209          1
   210          1
   211          1
   212          5
   213          2
   214          1
   215          1
   217          1
   219          6
   220          1
   221          1
   223          1
   224          1
   226          2
   228         17
   229          2
   235          1
   236          1
   238         16
   239          4
   240          1
   241          1
   252          1
   253          4
   254         12
   257        667
   259         50
   260          1