##TITLE=Library Entry 83962
##JCAMP-DX=Revision 4.10 
##DATA TYPE=MASS SPECTRUM
##SAMPLE DESCRIPTION=Chemical Concepts
##NAMES=HP
##CAS NAME=N-(4-Methoxyphenyl)-2-(1,3-dioxo-2-phenyl-2-indanyl)acetamide
##MOLFORM=C24H19NO4
##CAS REGISTRY NO=313494-10-9
##MP= -300
##BP= -300
##MW= 385
##$RETENTION INDEX=0
##$CONDENSED SPECTRUM=NO
##NPOINTS= 142
##XYDATA=(XY..XY) 1 
    36          2
    39         31
    40          6
    41         19
    42          7
    43         21
    44         37
    45          5
    46          1
    50         27
    51         53
    52         19
    53         14
    54          4
    55         15
    56          5
    57         18
    58          4
    59          1
    60          4
    62          5
    63         20
    65         58
    66          5
    67          5
    69         11
    70          4
    71          9
    73          5
    74          8
    75         25
    76         93
    77        220
    78         46
    79         51
    80          7
    81          5
    82          3
    83          8
    85          9
    86          1
    87          4
    88          3
    89         17
    91         74
    92          6
    93          9
    94          3
    95          2
    96          1
    97          4
    98          2
    99          3
   101         13
   102         33
   103         76
   104         72
   105         68
   106        251
   107        999
   108         74
   109          4
   111          2
   112          1
   113          3
   114          1
   115          9
   116          2
   117          1
   118          5
   119          1
   120          2
   121          1
   125          2
   126          5
   127          6
   128          4
   129         10
   130         12
   131          9
   132         10
   133         13
   134         13
   135          3
   137          1
   139         10
   140          2
   141          1
   146          4
   147          3
   149          3
   150          7
   151         21
   152         40
   153          7
   157          1
   158          1
   159          5
   163          9
   164          9
   165         51
   166          8
   167          3
   175          2
   176         38
   177         35
   178        237
   179         64
   180          8
   181          2
   182          1
   183         26
   184          4
   189         11
   190          3
   191          5
   192          1
   193          8
   194          3
   205          9
   206         16
   207        178
   208         30
   209          4
   210          2
   217          2
   218          9
   219          3
   220          1
   221          3
   222          3
   233          5
   234          6
   235         75
   236        153
   237         25
   238          3
   250          5
   262          8
   263          4
   369         37
   370          9