##TITLE=Library Entry 29940
##JCAMP-DX=Revision 4.10 
##DATA TYPE=MASS SPECTRUM
##SAMPLE DESCRIPTION=Chemical Concepts
##NAMES=HP
##CAS NAME=Methyl 3-(3,4-dichlorophenylsulfonyl)propionate
##MOLFORM=C10H10Cl2O4S
##CAS REGISTRY NO=313493-85-5
##MP= -300
##BP= -300
##MW= 296
##$RETENTION INDEX=0
##$CONDENSED SPECTRUM=NO
##NPOINTS= 48
##XYDATA=(XY..XY) 1 
    35         27
    36         47
    37         33
    38         40
    39         32
    41        165
    42         37
    43         74
    45        339
    50        150
    51         29
    55        824
    56        156
    57         30
    59        999
    61         28
    62         44
    63         45
    74        507
    75        276
    79         78
    84        121
    85         63
    87        694
   103        123
   107         26
   109        459
   110        123
   111        136
   112         33
   133         30
   135        110
   145        399
   146        111
   147        243
   148         59
   149         35
   161         37
   172        196
   174        146
   193        208
   195        149
   197         38
   209         91
   211         63
   265         31
   296        115
   298         73