##TITLE=Library Entry 73004
##JCAMP-DX=Revision 4.10 
##DATA TYPE=MASS SPECTRUM
##SAMPLE DESCRIPTION=A.A.Kutin, Moscow, Russia
##NAMES=HP
##CAS NAME=Benzoxazole-2(3H)-one, 4-bromo-6-chloro-3-(4-morpholinomethyl)-
##MOLFORM=C12H12BrClN2O3
##CAS REGISTRY NO=313497-38-0
##MP= -300
##BP= -300
##MW= 346
##$RETENTION INDEX=0
##$CONDENSED SPECTRUM=NO
##NPOINTS= 130
##XYDATA=(XY..XY) 1 
    34          1
    35          2
    36         10
    37         19
    38         22
    39         14
    40         29
    41         53
    42        135
    43         36
    44         32
    45         12
    47          2
    48          4
    49         22
    50         52
    51         18
    52         29
    53          6
    54         14
    56        211
    57         33
    58          4
    59          3
    60         20
    61         26
    62         36
    63         21
    64          6
    65          6
    66          1
    67          1
    68          3
    70         63
    71         13
    72         26
    73          8
    74         10
    75         34
    76         61
    77         16
    78          4
    79          5
    80          3
    81          3
    82          4
    83          3
    84          5
    85         11
    86         11
    87         16
    88         14
    89          5
    90          7
    91          3
    92          0
    93          1
    95          1
    96          3
    97         14
    98         12
   100        999
   101         62
   102         11
   103          2
   104          7
   105          1
   106          1
   107          0
   108          0
   109          4
   110         13
   111         20
   112         34
   113         13
   114         10
   115          3
   116          0
   117          0
   119          0
   124         34
   125          7
   126          9
   127          1
   128          0
   129          2
   130          0
   131          2
   137         14
   138          2
   139          8
   140         31
   141          4
   142         10
   143          1
   149          1
   153          1
   154          1
   155          1
   156          5
   157          1
   158          3
   166          0
   168          0
   169          2
   171          0
   176          0
   178          1
   182          0
   184          0
   189          1
   190          0
   191         12
   192          1
   193         13
   194          0
   195          2
   203          7
   204          0
   205         10
   206          1
   207          2
   218          1
   220          1
   247         37
   248          3
   249         47
   250          3
   251         10
   252          0