##TITLE=Library Entry 66532
##JCAMP-DX=Revision 4.10 
##DATA TYPE=MASS SPECTRUM
##SAMPLE DESCRIPTION=Asinex Ltd, Moscow, Russia
##NAMES=HP
##CAS NAME=Imidazole-4-carboxylic acid, 5-phenylaminocarbonyl-
##MOLFORM=C11H9N3O3
##CAS REGISTRY NO=313537-96-1
##MP= -300
##BP= -300
##MW= 231
##$RETENTION INDEX=0
##$CONDENSED SPECTRUM=NO
##NPOINTS= 101
##XYDATA=(XY..XY) 1 
    33          0
    34          3
    36          7
    37          5
    38         29
    39        108
    40         30
    41         40
    42         11
    43         25
    44         32
    45         12
    49          0
    50         22
    51         55
    52         24
    53         10
    54          6
    55         10
    56          6
    57          8
    60          1
    61          0
    62          7
    63         29
    64         26
    65        123
    66         66
    67         74
    68         66
    69          7
    70          1
    71          2
    73          0
    74          4
    75          7
    76         18
    77         56
    78         15
    79          8
    80          1
    81          1
    83          2
    84          1
    85          3
    88          1
    89          5
    90          5
    91         27
    93        999
    94        121
    95        116
    96          6
   102          6
   103          9
   104         15
   105          9
   106         10
   107          8
   108          1
   109          0
   112          7
   114          2
   115          1
   118          1
   119          7
   120         16
   121        171
   122          9
   129          2
   131          6
   132          6
   135          0
   139         88
   140          4
   141          5
   142          8
   143          0
   147          0
   151          0
   157          4
   158          5
   159          8
   160          7
   165          2
   167          2
   168          7
   169          3
   170          0
   171          4
   185          4
   186         33
   187         61
   188          5
   196          4
   197          6
   212          8
   213          4
   231        130
   232         17
   233          0