##TITLE=Library Entry 31878
##JCAMP-DX=Revision 4.10 
##DATA TYPE=MASS SPECTRUM
##SAMPLE DESCRIPTION=Chemical Concepts
##NAMES=HP
##CAS NAME=Ethyl 4,5-dimethyl-2-(4-nitrobenzamido)-3-thiophenecarboxylate
##MOLFORM=C16H16N2O5S
##CAS REGISTRY NO=313507-39-0
##MP= -300
##BP= -300
##MW= 348
##$RETENTION INDEX=0
##$CONDENSED SPECTRUM=NO
##NPOINTS= 109
##XYDATA=(XY..XY) 1 
    34         15
    35         30
    36         73
    38        146
    39        442
    40        224
    41        116
    43        608
    44        275
    45        227
    46         74
    47         11
    49         40
    50        508
    51        257
    53        168
    55         84
    57        223
    58        770
    60         24
    61         37
    62         49
    63        100
    65        999
    66         67
    67         23
    68          9
    69         32
    70         19
    71         32
    73         48
    74        223
    75        214
    76        319
    77         62
    78         19
    79         20
    81        127
    82         23
    83         17
    84         14
    85         20
    88        794
    90         11
    91         47
    92        100
    93         60
    94         15
    96          6
    97         19
    98          8
    99          8
   101          4
   103         50
   104        193
   105         10
   107         14
   108         10
   109        108
   110         19
   112          6
   113          7
   117          8
   119         12
   120         62
   121        204
   122         20
   123          7
   124          9
   125         10
   126         14
   127          5
   134          8
   135         10
   136         17
   137         98
   138          7
   139          8
   140          4
   141          4
   147          4
   150        273
   151         34
   152         36
   153         22
   154         12
   155          5
   165         11
   167        435
   168         36
   169          6
   170          8
   171          9
   180          5
   184          5
   193         10
   194          6
   198         14
   199          6
   256          6
   301          9
   302        162
   303         32
   304          9
   334         16
   346          4
   348        123
   349         21
   350          8