##TITLE=Library Entry 67584
##JCAMP-DX=Revision 4.10 
##DATA TYPE=MASS SPECTRUM
##SAMPLE DESCRIPTION=Dr. Jiri Zamecnik, DCIEM, North York, Canada, GP Librar
y
##NAMES=HP
##CAS NAME=1,4-Bis-(2-furoyl)piperazine
##MOLFORM=C14H14N2O4
##CAS REGISTRY NO=31350-27-3
##MP= -300
##BP= -300
##MW= 274
##$RETENTION INDEX=0
##$CONDENSED SPECTRUM=NO
##NPOINTS= 36
##XYDATA=(XY..XY) 1 
    38        291
    42         98
    55         56
    56         85
    67         59
    69        113
    81        130
    82         31
    95        999
    96         83
   109         25
   110         22
   123         32
   124         51
   135         20
   137         20
   138         49
   149         18
   150         70
   163        173
   165         23
   178          5
   179         44
   191          2
   193         13
   206        153
   207         17
   217          1
   218          1
   231          1
   245          1
   246          3
   256          1
   259          7
   274        145
   275         28