##TITLE=Library Entry 29086
##JCAMP-DX=Revision 4.10 
##DATA TYPE=MASS SPECTRUM
##SAMPLE DESCRIPTION=A.Mazepa, Phys.-Chem.Institute, Odessa, Ukraine
##NAMES=HP
##CAS NAME=1-[6-(1,3-Dimethyl-ureido)-6-oxo-hexanoyl]-1,3-dimethyl-urea
##MOLFORM=C12H22N4O4
##CAS REGISTRY NO=313534-03-1
##MP= -300
##BP= -300
##MW= 286
##$RETENTION INDEX=0
##$CONDENSED SPECTRUM=NO
##NPOINTS= 70
##XYDATA=(XY..XY) 1 
    52          2
    53          5
    54         41
    55        303
    56        157
    57        305
    58        999
    59         37
    60          1
    64          1
    67          4
    68         34
    69         19
    70          6
    71         14
    72          5
    73        267
    74         14
    81          7
    82          6
    83         54
    84         53
    85         31
    86        295
    87        139
    88         68
    89        368
    90          5
    95          1
    96         30
    97          2
    98          4
    99         21
   100        259
   101         15
   110          2
   111         74
   112         33
   113         93
   114        329
   115         42
   124         20
   128          1
   130         93
   131          2
   140         10
   141        134
   142        891
   143        205
   144         33
   149          2
   156          9
   157        206
   158          8
   168          2
   169          2
   170        153
   171          9
   172         83
   173          3
   182          5
   198         29
   199         62
   200          2
   229         22
   230          1
   256          4
   268          2
   286        120
   287          8