##TITLE=Library Entry 81706
##JCAMP-DX=Revision 4.10 
##DATA TYPE=MASS SPECTRUM
##SAMPLE DESCRIPTION=A.A.Kutin, Moscow, Russia
##NAMES=HP
##CAS NAME=Oxazol-5(4H)-one, 4-methylaminomethylene-2-phenyl-
##MOLFORM=C11H10N2O2
##CAS REGISTRY NO=313527-71-8
##MP= -300
##BP= -300
##MW= 202
##$RETENTION INDEX=0
##$CONDENSED SPECTRUM=NO
##NPOINTS= 127
##XYDATA=(XY..XY) 1 
    34          0
    37          1
    38          3
    39          7
    40          5
    41          7
    42         36
    43          2
    44          0
    45          0
    50         28
    51         97
    52          9
    53          7
    54         24
    55         12
    56          0
    57          0
    58          0
    59          0
    61          1
    62          4
    63          7
    64          1
    65          2
    66          1
    67          2
    68          7
    69         44
    70          2
    71          0
    72          0
    73          1
    74         10
    75         11
    77        429
    78         38
    79          2
    80          0
    81          4
    82          1
    83          0
    84          0
    85          0
    86          1
    87          1
    88          2
    89          8
    90          2
    91          6
    92          1
    93          0
    94          0
    95          0
    96          0
    97          1
    98          0
    99          1
   101         45
   103         16
   105        999
   106        108
   107          7
   108          0
   109          0
   110          0
   111          0
   112          0
   114          1
   115          3
   116          4
   117          2
   118          9
   119          1
   120          4
   121          0
   122          0
   123          0
   124          1
   125          0
   126          0
   128          7
   129          3
   130          4
   131          1
   132          2
   133          1
   134          0
   138          0
   139          0
   140          0
   141          0
   142          2
   143          0
   144          1
   145          7
   146          6
   147          1
   148          0
   155          3
   156          5
   157         48
   158         34
   159          3
   160          1
   161          0
   162          0
   165          0
   171          1
   172          1
   173          6
   174         10
   175          5
   176          0
   177          0
   183         51
   184         15
   185          4
   186          0
   187          0
   188          0
   197          0
   198          0
   202        810
   203        134
   204         12
   205          0