##TITLE=Library Entry 86982
##JCAMP-DX=Revision 4.10 
##DATA TYPE=MASS SPECTRUM
##SAMPLE DESCRIPTION=James Little,Eastman Chem.Co.,Kingsport,TN
##NAMES=HP
##CAS NAME=2-Acetamido-3-hydroxypyridine
##MOLFORM=C7H8N2O2
##CAS REGISTRY NO=31354-48-0
##MP= -300
##BP= -300
##MW= 152
##$RETENTION INDEX=0
##$CONDENSED SPECTRUM=NO
##NPOINTS= 27
##XYDATA=(XY..XY) 1 
    27         26
    29         22
    37         19
    38         55
    39        118
    40         38
    42         32
    43        308
    52         36
    53         53
    54         63
    55        153
    56         21
    65         34
    66         20
    81         69
    82        297
    83         68
    93         29
    94         30
   110        999
   111         62
   134         17
   137         27
   152        229
   153         25
   154          4