##TITLE=Library Entry 9999
##JCAMP-DX=Revision 4.10 
##DATA TYPE=MASS SPECTRUM
##SAMPLE DESCRIPTION=A.A.Kutin, Moscow, Russia
##NAMES=HP
##CAS NAME=Acetamide, N-[2-(4-methylphenoxy)ethyl]-
##MOLFORM=C11H15NO2
##CAS REGISTRY NO=313552-85-1
##MP= -300
##BP= -300
##MW= 193
##$RETENTION INDEX=0
##$CONDENSED SPECTRUM=NO
##NPOINTS= 57
##XYDATA=(XY..XY) 1 
    37          6
    38         32
    39        194
    40         36
    41        108
    42        157
    43        999
    44        832
    45         30
    50         88
    51        148
    52         71
    53          6
    60         13
    61          7
    62         26
    63         76
    65        188
    66         13
    73          4
    74         10
    75          8
    76         10
    77        191
    78         56
    79         67
    80         21
    81          9
    82          3
    86        849
    87         37
    90         32
    91        194
    92         18
    93         19
    94          5
   105         32
   106          4
   107        106
   108         81
   109          6
   110          1
   118          3
   119         24
   120         19
   121         19
   122          5
   123          0
   133          6
   134         21
   135         10
   136          1
   150          2
   151          0
   178          1
   193          8
   194          1