##TITLE=Library Entry 50656
##JCAMP-DX=Revision 4.10 
##DATA TYPE=MASS SPECTRUM
##SAMPLE DESCRIPTION=A.A.Kutin, Moscow, Russia
##NAMES=HP
##CAS NAME=Cyclohexane-1,3-dicarboxylic acid, bis(4-chlorophenyl) ester
##MOLFORM=C20H18Cl2O4
##CAS REGISTRY NO=313523-43-2
##MP= -300
##BP= -300
##MW= 392
##$RETENTION INDEX=0
##$CONDENSED SPECTRUM=NO
##NPOINTS= 157
##XYDATA=(XY..XY) 1 
    33          1
    34          1
    35          3
    36         10
    37         10
    38         33
    39        130
    40         35
    41        152
    42         12
    43          8
    44          7
    45          7
    46          0
    47          3
    48          1
    49          9
    50         27
    51         27
    52         15
    53        105
    54         67
    55        116
    56         10
    57          3
    58          0
    59          0
    60          1
    61          7
    62         18
    63         79
    64         31
    65         68
    66         22
    67         99
    68         38
    69          9
    70          1
    71          1
    73         70
    74         13
    75         66
    76         20
    77         41
    79        164
    81        999
    82         75
    83          7
    85          6
    86          3
    87          1
    89          4
    91         19
    92          8
    93         10
    94          6
    95          5
    97          3
    99        129
   100         18
   101         39
   102          6
   103          4
   104          7
   105          4
   106          4
   107          6
   109        287
   110         26
   111         65
   112          5
   113         22
   114          1
   115          3
   116          1
   117          0
   118          0
   119          1
   120          2
   121          7
   123         25
   124          3
   125          4
   127         46
   128        126
   129         53
   130         40
   131         13
   132          2
   133          0
   135          1
   136          2
   137          5
   138          1
   139          4
   140          0
   141          8
   142          0
   143          2
   144          0
   145          0
   147          2
   149          2
   151         29
   152          5
   153          3
   154          1
   155          5
   156          0
   157          1
   163          0
   164          0
   165          2
   166          0
   167          1
   168          1
   169          1
   171          0
   175          0
   178          0
   179          0
   180          0
   181          3
   182          1
   183          5
   184         17
   185          4
   186          0
   195          0
   196          0
   197          0
   202          0
   203          0
   207          1
   209          1
   221          0
   230          1
   231          2
   232          0
   235          2
   237         78
   238         11
   239         24
   240          3
   241          0
   254          1
   255          0
   259          3
   260          0
   261          1
   262          1
   263          4
   265        241
   266         37
   267         80
   268         11
   269          1