##TITLE=Library Entry 12893
##JCAMP-DX=Revision 4.10 
##DATA TYPE=MASS SPECTRUM
##SAMPLE DESCRIPTION=V.A.Korolev, Moscow, Russia
##NAMES=HP
##CAS NAME=N-(6-Acetamido-1,3-benzothiazol-2-yl)acetamide
##MOLFORM=C11H11N3O2S
##CAS REGISTRY NO=313537-69-8
##MP= -300
##BP= -300
##MW= 249
##$RETENTION INDEX=0
##$CONDENSED SPECTRUM=NO
##NPOINTS= 111
##XYDATA=(XY..XY) 1 
    37          2
    38          9
    39         28
    40         24
    41         21
    42         75
    43        999
    44         75
    45         57
    46          2
    48          2
    50          9
    51         29
    52         62
    53         26
    54          9
    55         19
    57         25
    58         12
    59         18
    60         36
    61          3
    62          9
    63         19
    64         21
    65          8
    66         11
    67         14
    68          3
    69         46
    70         20
    71          7
    73          3
    74          7
    76         25
    77         18
    78         39
    79         59
    80         15
    81          6
    82         20
    83         23
    84         19
    85          7
    86          8
    90          2
    91          4
    92          5
    93         19
    94         17
    95         27
    96         25
    97          4
    98          3
   103          5
   104          6
   105         51
   106         19
   107         17
   108         27
   109         27
   110         41
   111        129
   112          8
   113          3
   117          3
   118          4
   119          3
   120         93
   121         32
   122         22
   123         25
   124          4
   130          3
   132          2
   133          6
   134          3
   135          4
   136         12
   137        117
   138        147
   139         14
   140          3
   148          5
   149          3
   150         33
   151          2
   153          2
   154          2
   163         14
   164        173
   165        795
   166         97
   167         38
   168          2
   178          4
   180          6
   185          3
   191         13
   192         15
   193         91
   194          7
   195          2
   198          2
   206         14
   207        347
   208         37
   209         18
   249        175
   250         23
   251         11