##TITLE=Library Entry 56135
##JCAMP-DX=Revision 4.10 
##DATA TYPE=MASS SPECTRUM
##SAMPLE DESCRIPTION=A.A.Kutin, Moscow, Russia
##NAMES=HP
##CAS NAME=Propan-2-ol, 1-[2-(1-adamantyl)ethoxy]-3-diethylamino-
##MOLFORM=C19H35NO2
##CAS REGISTRY NO=313548-51-5
##MP= -300
##BP= -300
##MW= 309
##$RETENTION INDEX=0
##$CONDENSED SPECTRUM=NO
##NPOINTS= 105
##XYDATA=(XY..XY) 1 
    39          8
    40          9
    41         24
    42         25
    43         15
    44         18
    45          5
    46          0
    51          1
    52          0
    53          7
    54          2
    55         17
    56         18
    57         15
    58         62
    59          5
    60          2
    63          0
    65          6
    67         20
    69          8
    70          6
    71          6
    72         22
    73          3
    74          1
    75          0
    77         18
    78          4
    79         47
    80          4
    81         17
    82          2
    83          1
    84          5
    86        999
    91         24
    92          8
    93         33
    94          4
    95          4
    96          0
    97          0
    98          2
    99          1
   100          5
   101          0
   102          3
   103          2
   105         12
   106          2
   107         18
   108          1
   109          1
   112          3
   113          0
   114          3
   115          3
   116         53
   117          5
   118          0
   119          2
   120          0
   121          2
   122          0
   127          0
   128          3
   129          1
   130          7
   131          5
   133          2
   135         51
   136          6
   137          0
   142          0
   144          0
   146          4
   147          0
   148          0
   149          1
   152          0
   160          0
   161          0
   163          7
   164          1
   165          0
   171          0
   176          0
   177          0
   178          1
   187          0
   193          0
   202          0
   219          0
   256          1
   258          1
   276          0
   291          3
   292         10
   293          2
   294          2
   308          3
   309          9
   310          2