##TITLE=Library Entry 99251
##JCAMP-DX=Revision 4.10 
##DATA TYPE=MASS SPECTRUM
##SAMPLE DESCRIPTION=Chemical Concepts
##NAMES=HP
##CAS NAME=N-[4-Bromo-2-(2-chlorobenzoyl)phenyl]-m-toluamide
##MOLFORM=C21H15BrClNO2
##CAS REGISTRY NO=313535-39-6
##MP= -300
##BP= -300
##MW= 427
##$RETENTION INDEX=0
##$CONDENSED SPECTRUM=NO
##NPOINTS= 48
##XYDATA=(XY..XY) 1 
    36         18
    38         34
    39         93
    40         53
    41         36
    43         18
    44         19
    50         44
    51         39
    52         12
    53          7
    55         10
    58          8
    60          6
    62         39
    63         78
    65        233
    69          6
    75         70
    76         15
    77         16
    83          6
    85          9
    86          6
    87         10
    89         87
    91        614
   105          8
   111         49
   113         25
   115          8
   119        999
   120         64
   139         44
   140         10
   141          7
   149          6
   164         12
   165         14
   166         26
   201          7
   229         12
   288         33
   290         35
   427         26
   428          9
   429         28
   430          8