##TITLE=Library Entry 99219
##JCAMP-DX=Revision 4.10 
##DATA TYPE=MASS SPECTRUM
##SAMPLE DESCRIPTION=Chemical Concepts
##NAMES=HP
##CAS NAME=N-(3-Methyl-6-nitrobenzothiazolin-2-ylidene)-m-toluamide
##MOLFORM=C16H13N3O3S
##CAS REGISTRY NO=313535-30-7
##MP= -300
##BP= -300
##MW= 327
##$RETENTION INDEX=0
##$CONDENSED SPECTRUM=NO
##NPOINTS= 110
##XYDATA=(XY..XY) 1 
    33         10
    34          9
    36         17
    37         25
    39        158
    40         97
    41         91
    43         46
    44         52
    45         31
    50         37
    51         75
    52         25
    53         10
    54          5
    55         36
    56         14
    57         42
    58          7
    59          9
    61          7
    62         31
    63        122
    65        372
    67          9
    69         49
    70         17
    71         20
    72          5
    73         15
    75         23
    76         27
    77         38
    78         12
    79         11
    80          3
    81         10
    82          9
    83         18
    84         10
    85          8
    86          9
    87          6
    89         79
    91        840
    95         18
    96          9
    97          8
    98          3
   103         15
   104         10
   105         26
   106          9
   107          9
   108         16
   109          7
   111         12
   112         11
   113          4
   116          7
   119        999
   120         97
   123          8
   125          3
   129          4
   131          6
   133          8
   135         57
   136          7
   139          9
   140          6
   144          9
   146          4
   147         16
   148          6
   149         19
   151          6
   152          4
   161          8
   162         19
   163         10
   171         11
   178          4
   189          9
   190         58
   191          8
   192          3
   206          9
   220          3
   234          3
   236        219
   237         26
   238         12
   269          6
   283         22
   284          5
   294          8
   297          8
   298          8
   299         17
   300          3
   310          7
   311          4
   313          4
   324          4
   325          7
   327        265
   328         44
   329         14
   330          4