##TITLE=Library Entry 62601
##JCAMP-DX=Revision 4.10 
##DATA TYPE=MASS SPECTRUM
##SAMPLE DESCRIPTION=H. Fales, LC, NHLBI, NIH, Bethesda, MD 20892
##NAMES=HP
##CAS NAME=Sulfone, p-tolyl tribromomethyl-
##MOLFORM=C8H7Br3O2S
##CAS REGISTRY NO=31350-40-0
##MP= -300
##BP= -300
##MW= 404
##$RETENTION INDEX=0
##$CONDENSED SPECTRUM=NO
##NPOINTS= 150
##XYDATA=(XY..XY) 1 
    41         88
    42          5
    43         10
    44         21
    45         47
    46          3
    47         16
    48         19
    49         21
    50         87
    51        128
    52         39
    53         22
    54          2
    55          6
    56          4
    57          5
    58          3
    59          2
    60          3
    61         15
    62         57
    63        162
    64         79
    65        506
    66         31
    67         36
    68          3
    69         13
    70          4
    71          9
    72          1
    73          5
    74         17
    75         17
    76         17
    77         89
    78         37
    79         21
    80         14
    81         13
    82         16
    83          3
    84          7
    85          7
    86         11
    87          8
    88          6
    89        144
    90         72
    91        999
    92        106
    93         20
    94          7
    95          7
    96          2
    97          2
    98          1
    99          1
   100          1
   101          3
   102         12
   103         31
   104         17
   105          4
   106          1
   107          7
   108          2
   109          5
   110          2
   111         14
   112          1
   113          1
   115          0
   117          1
   119          2
   121         10
   122          6
   123          5
   124          2
   125          2
   126          4
   127          4
   128          4
   129          4
   130          1
   131          1
   134          0
   135          2
   136          0
   137          1
   138          4
   139        594
   140         53
   141         31
   142          2
   143          1
   145          0
   149          1
   151          0
   153          0
   154          1
   155        863
   156         95
   157         58
   158          4
   160          0
   161          2
   163          3
   165          1
   167          0
   169          2
   170         12
   171         10
   172         17
   173         17
   174          5
   175          8
   182          3
   183          2
   184          2
   185          2
   187          0
   199          0
   205          7
   207         14
   209         10
   211          2
   217          1
   219          1
   228          0
   238          0
   248          1
   249         13
   251         37
   253         35
   255         12
   261          1
   263          2
   265          1
   282          2
   284          3
   286          1
   326          5
   327          0
   328         11
   329          1
   330          5
   331          0
   406          0