##TITLE=Library Entry 67646
##JCAMP-DX=Revision 4.10 
##DATA TYPE=MASS SPECTRUM
##SAMPLE DESCRIPTION=A.A.Kutin, Moscow, Russia
##NAMES=HP
##CAS NAME=Furan-2-carboxamide, N-(2-naphthyl)-
##MOLFORM=C15H11NO2
##CAS REGISTRY NO=313517-30-5
##MP= -300
##BP= -300
##MW= 237
##$RETENTION INDEX=0
##$CONDENSED SPECTRUM=NO
##NPOINTS= 126
##XYDATA=(XY..XY) 1 
    34          0
    35          0
    36          3
    37         55
    38        156
    39        507
    40         25
    41         21
    42          8
    43          4
    44          3
    45          1
    48          0
    49          2
    50         29
    51         52
    52         19
    53         20
    54          3
    55          4
    56          0
    57         10
    58          1
    61          6
    62         39
    63         90
    64         21
    65         41
    66         19
    67         77
    68          6
    69          2
    70          0
    71          9
    73          1
    74         22
    75         28
    76         20
    77         22
    78          3
    79          0
    80          0
    81          0
    82          0
    83          0
    85          3
    86         15
    87         25
    88         32
    89         79
    90         10
    91          4
    92          0
    93          2
    95        999
    96         57
    97          5
    98          3
    99          3
   100          3
   101          6
   102          4
   103          0
   105          0
   109          0
   110          1
   111          1
   112          2
   113         38
   114         50
   115        351
   116         47
   117          2
   119          1
   121          0
   123          0
   125          1
   126         12
   127         16
   128          4
   129          0
   137          0
   138          1
   139          2
   140         40
   141         13
   142         35
   143         24
   144        107
   145         11
   150          0
   151          2
   152          6
   153          3
   154          2
   155          0
   163          0
   164          0
   165          4
   166          2
   167          0
   169          5
   170          0
   178          2
   179          1
   180         36
   181         11
   182          1
   183          2
   190          1
   191          3
   192          0
   194          9
   195          1
   207          1
   208         14
   209         20
   210          2
   219          1
   220          3
   221          0
   235          0
   236          3
   237        217
   238         38
   239          3