##TITLE=Library Entry 84073
##JCAMP-DX=Revision 4.10 
##DATA TYPE=MASS SPECTRUM
##SAMPLE DESCRIPTION=A.A.Kutin, Moscow, Russia
##NAMES=HP
##CAS NAME=3-Oxa-bicyclo[3.3.1]non-6-ene, 6,8-dimethyl-4-(4,6-dimethylcycloh
ex-3-enyl)-
##MOLFORM=C18H28O
##CAS REGISTRY NO=313504-78-8
##MP= -300
##BP= -300
##MW= 260
##$RETENTION INDEX=0
##$CONDENSED SPECTRUM=NO
##NPOINTS= 140
##XYDATA=(XY..XY) 1 
    37          0
    39         57
    41        128
    43         54
    44          2
    45          2
    50          4
    51         21
    53         99
    55        116
    57         21
    58          2
    59          0
    61          0
    62          3
    63          6
    65         79
    67        179
    68         35
    69         42
    70          7
    71         10
    72          1
    74          0
    75          4
    77        177
    79        285
    80         70
    81         98
    82         23
    83          9
    84          2
    85          2
    86          0
    88          1
    89          7
    91        397
    93        505
    94        135
    95         70
    96         10
    97          5
    98          0
    99          0
   101          0
   102          2
   103         23
   105        219
   107        999
   108        139
   109         65
   110          7
   111          6
   112          0
   113          0
   115         14
   117         21
   120        525
   121        265
   122        376
   123        129
   124         12
   125          4
   126          0
   127          5
   128          7
   129          6
   130          3
   131          7
   132          5
   133         14
   135         21
   136          9
   137         10
   138         28
   139         23
   141          8
   142          2
   143          3
   144          1
   145          5
   146          1
   147          5
   148          2
   149          4
   151        154
   152         32
   153         57
   154          9
   155          3
   157          2
   158          3
   159          5
   160          1
   161          3
   162          0
   163          0
   165          2
   166          0
   167          0
   169          0
   171          3
   173          3
   174          3
   176          0
   177         13
   178          1
   185          1
   187          0
   189          0
   190          0
   191         13
   192          2
   193          0
   199          0
   203          1
   204          2
   205          3
   217          0
   218          0
   219          3
   220          0
   227          3
   228          0
   229          2
   231          0
   232          0
   233          0
   234          0
   242          1
   243          0
   244          2
   245         39
   246          4
   247          0
   257          0
   258          3
   260        225
   261         33
   262          3