##TITLE=Library Entry 77679
##JCAMP-DX=Revision 4.10 
##DATA TYPE=MASS SPECTRUM
##SAMPLE DESCRIPTION=A.A.Kutin, Moscow, Russia
##NAMES=HP
##CAS NAME=Benzamide, 4-nitro-N-(4-bromo-2-methylphenyl)-
##MOLFORM=C14H11BrN2O3
##CAS REGISTRY NO=313558-26-8
##MP= -300
##BP= -300
##MW= 334
##$RETENTION INDEX=0
##$CONDENSED SPECTRUM=NO
##NPOINTS= 187
##XYDATA=(XY..XY) 1 
    34         13
    36         10
    37         29
    38         80
    39        200
    40        177
    41         50
    42         14
    43         29
    44         87
    46         38
    48          8
    50        605
    51        360
    52        199
    53         94
    54         16
    55         16
    56          6
    57         12
    58          3
    59          0
    60          4
    61         16
    62         48
    63        144
    64        147
    65         84
    66         18
    67          7
    68          3
    69          9
    70          6
    71          6
    73         19
    74        120
    75        288
    76        915
    77        420
    78        270
    79        141
    80         71
    81         30
    82         58
    83          6
    84          5
    85          3
    86          5
    87          8
    88          8
    89         37
    90         34
    91         42
    92        430
    93         38
    94          5
    95          4
    96          1
    97          2
    98          2
    99          2
   100          2
   101          4
   102         20
   104        999
   105        158
   106         75
   107         33
   108         72
   109          7
   110          1
   111          2
   112          2
   113          1
   114          2
   115          6
   116          3
   117          4
   118          4
   120        223
   121         27
   122         17
   123          2
   124          0
   125          1
   126          3
   127          6
   128          5
   129          2
   130          2
   131          3
   132         10
   133          6
   134         37
   135          4
   136          0
   137          0
   139          8
   140          4
   141          2
   142          1
   143          1
   144          1
   145          1
   146          2
   147          3
   150        986
   151         84
   152         20
   153          6
   154          3
   155          2
   156          2
   157          5
   158          2
   159          4
   160          0
   161          0
   163          1
   164          2
   165          4
   166          5
   167          8
   168          4
   169          2
   170          0
   171          1
   172          0
   173          1
   174          0
   175          0
   176          0
   177          1
   178          4
   179          5
   180         20
   181          6
   182          3
   183          3
   184         16
   185          5
   186         16
   187          4
   188          1
   190          1
   191          0
   193          1
   194          0
   195          1
   196          3
   197          9
   198          2
   199          0
   200          0
   206          1
   207          3
   208         14
   209         79
   210         15
   211          2
   212          0
   213          0
   214          1
   223          0
   224          1
   225          4
   226          2
   227          0
   239          1
   240          1
   248          0
   251          0
   252          3
   253         39
   255        321
   256        192
   257         26
   258          3
   259          0
   287          0
   330          0
   332          1
   333          2
   334         19
   335          4
   336         11
   337          2