##TITLE=Library Entry 14817
##JCAMP-DX=Revision 4.10 
##DATA TYPE=MASS SPECTRUM
##SAMPLE DESCRIPTION=A.A.Kutin, Moscow, Russia
##NAMES=HP
##CAS NAME=Benzoic acid, 4-(1,3-dihydro-5-acetylamino-1,3-dioxoisoindol-2-yl
)-, ethyl ester
##MOLFORM=C19H16N2O5
##CAS REGISTRY NO=313515-37-6
##MP= -300
##BP= -300
##MW= 352
##$RETENTION INDEX=0
##$CONDENSED SPECTRUM=NO
##NPOINTS= 193
##XYDATA=(XY..XY) 1 
    33         50
    34         13
    36         10
    37          2
    38         17
    39         76
    40        193
    41         77
    43        999
    44        194
    45         43
    46          2
    50         31
    51         28
    52         18
    53         16
    54         12
    55         38
    56         22
    57         55
    58          4
    60          9
    61          7
    62         41
    63        167
    64         68
    65         57
    66         12
    67         11
    68          8
    69         22
    70         18
    71         21
    73         10
    74         23
    75         66
    76         34
    77         53
    78         23
    79         14
    80         12
    81         13
    82         13
    83         17
    84         13
    85          6
    87         12
    88         12
    89         38
    90        163
    91        230
    92         33
    93         11
    94          2
    95         10
    96          8
    97         14
    98         11
   101          8
   102         14
   103         44
   104         33
   105         22
   106          8
   107          3
   108          5
   109          3
   110          3
   111          7
   112          7
   113          4
   115          9
   117         46
   118         68
   119        132
   120         22
   121          8
   124          2
   125         14
   126          9
   127         13
   128          7
   129         12
   130         10
   131         14
   132         21
   133          8
   134          8
   137          1
   138          9
   139         18
   140          4
   141          6
   144         14
   145         31
   146         81
   147         11
   148          4
   149          8
   150          3
   151          4
   152         18
   153         23
   154         18
   155          7
   158          1
   159         12
   160         55
   161         26
   162         11
   163          7
   164         21
   165         15
   166         13
   167         15
   168          9
   169          2
   171         10
   173          1
   174          8
   175          2
   176          1
   177          7
   178          3
   179         16
   180         14
   181         45
   182         18
   183          3
   187          4
   189          1
   190          8
   192         55
   193         25
   194         16
   195          2
   206          4
   207          8
   208         25
   209         28
   210          5
   211          2
   219          1
   220          2
   221          1
   222          3
   223          2
   233         18
   234          6
   235          7
   236         20
   237         94
   238        101
   239         15
   248          7
   249          6
   250          1
   251          5
   254          4
   263         22
   264         73
   265        273
   266         76
   267         14
   268          6
   279         11
   280         14
   281         12
   282        133
   283         23
   290          3
   291         13
   292         15
   293          5
   295          5
   296          3
   305          1
   307        148
   308         32
   309         25
   310        172
   311         31
   320          7
   323          9
   324          6
   336          5
   337          8
   338          2
   348          2
   350         18
   352        275
   353         54
   354          9