##TITLE=Library Entry 79214
##JCAMP-DX=Revision 4.10 
##DATA TYPE=MASS SPECTRUM
##SAMPLE DESCRIPTION=A.A.Kutin, Moscow, Russia
##NAMES=HP
##CAS NAME=Methanone, (3,4-dihydro-3-hydroxy-3-phenyl-2H-1,5-benzodioxepin-2
-yl)phenyl-
##MOLFORM=C22H18O4
##CAS REGISTRY NO=313552-81-7
##MP= -300
##BP= -300
##MW= 346
##$RETENTION INDEX=0
##$CONDENSED SPECTRUM=NO
##NPOINTS= 160
##XYDATA=(XY..XY) 1 
    33          3
    34          1
    37          1
    38         12
    39         38
    40         24
    41          5
    43         12
    44         15
    45          0
    50         41
    51        107
    52         36
    53         13
    55         61
    56          2
    57          1
    58          0
    60          0
    62         10
    63         38
    64         25
    65         71
    66          8
    69         35
    70          1
    71          1
    74         10
    75         14
    77        546
    78         61
    79         43
    80         10
    81         18
    82          2
    83          1
    84          0
    85          0
    86          0
    87          1
    89         27
    91        165
    92         18
    93         12
    94          5
    95          5
    96          0
    97          0
    98          0
    99          0
   101          4
   102         16
   103         57
   105        999
   106         62
   107         34
   109         41
   110         68
   111          5
   112          1
   113          2
   115         37
   116          3
   117          2
   119         69
   121        244
   122         30
   123          8
   124          1
   126          1
   127          6
   128          6
   129          3
   131         33
   133         46
   135         20
   136          1
   137          0
   139          2
   140          0
   141          2
   142          0
   143          0
   144          0
   145          0
   147          9
   148          1
   149          2
   150          2
   151          4
   152         13
   153          6
   154          1
   155          1
   156          0
   157          0
   159         12
   160          1
   161          0
   162          0
   163          3
   164          3
   165         13
   166          4
   167          8
   168          2
   169          1
   170          0
   171          1
   173          0
   176          2
   177          1
   178          5
   179          3
   180          1
   181          6
   182          1
   183          1
   184          0
   185          0
   188          0
   189          2
   191         44
   192          6
   193          9
   194          5
   195          7
   197         12
   198          1
   199          1
   202          0
   205          0
   206          0
   207          1
   208          1
   209         23
   210          6
   211          5
   212          1
   213          3
   218          0
   219         40
   220          8
   221          2
   223         20
   224          4
   225          0
   226          0
   235          1
   237         36
   238          7
   239          1
   241         39
   242          5
   328          0
   343          0
   344          1
   346         75
   347         16
   348          2