##TITLE=Library Entry 9311
##JCAMP-DX=Revision 4.10 
##DATA TYPE=MASS SPECTRUM
##SAMPLE DESCRIPTION=Chemical Concepts
##NAMES=HP
##CAS NAME=2-(2,4-Dinitrophenyl)-2-methylpropionitrile
##MOLFORM=C10H9N3O4
##CAS REGISTRY NO=313503-32-1
##MP= -300
##BP= -300
##MW= 235
##$RETENTION INDEX=0
##$CONDENSED SPECTRUM=NO
##NPOINTS= 150
##XYDATA=(XY..XY) 1 
    33        160
    34         40
    36         24
    37         60
    38        103
    39        407
    40        399
    41        431
    43        999
    44        207
    46        194
    47         13
    48         23
    50        319
    51        498
    52        167
    53         59
    55        112
    57         90
    58         12
    59         14
    61         56
    62        106
    63        244
    64        136
    65        123
    66         50
    67         28
    68         33
    69         40
    70         25
    71         28
    72         22
    74        205
    75        528
    76        277
    77        255
    78        125
    79         57
    80         20
    81         15
    82         13
    83         31
    84         23
    85         34
    86         27
    87         70
    88         82
    89        338
    90        135
    91        157
    92         64
    93         20
    94          8
    95         11
    96          3
    97         13
    98         20
    99         58
   100         76
   101        195
   102        116
   103        158
   104         71
   105         43
   106         41
   107         38
   108          9
   109          5
   110          5
   111         13
   112         14
   113         27
   114         71
   115        257
   116        431
   117        114
   118         89
   119         79
   120         18
   121         17
   123         10
   125          6
   127        102
   128         94
   129         44
   130         83
   131         92
   132         80
   133         25
   134         15
   135         14
   136         16
   137          8
   138         24
   140         70
   141         61
   142        190
   143        162
   144         84
   145         33
   146         70
   147         32
   148         15
   149         23
   150          7
   154          7
   155         14
   157         33
   158         16
   159         34
   160         27
   161         18
   162         11
   163         23
   165         60
   166        105
   168          2
   170         20
   171         58
   172         34
   173         17
   174         17
   175         35
   176          9
   178        118
   179         19
   180          2
   186          5
   188         69
   189         58
   190         86
   191         31
   192          9
   193          5
   194          4
   200         30
   201         15
   202         14
   203          8
   205         27
   206          5
   208          1
   216         10
   218        166
   219         77
   220         40
   221         10
   235        156
   236         14