##TITLE=Library Entry 16815
##JCAMP-DX=Revision 4.10 
##DATA TYPE=MASS SPECTRUM
##SAMPLE DESCRIPTION=CONTINENTAL OIL CO., PONCA CITY, OKLA, USA
##NAMES=HP
##CAS NAME=2-Heptanol, 3-methyl-
##MOLFORM=C8H18O
##CAS REGISTRY NO=31367-46-1
##MP= -300
##BP= -300
##MW= 130
##$RETENTION INDEX=0
##$CONDENSED SPECTRUM=NO
##NPOINTS= 92
##XYDATA=(XY..XY) 1 
    13          3
    14         15
    15         63
    16          5
    17         12
    18         39
    19         20
    24          0
    25          1
    26         17
    27        205
    28         69
    29        200
    30          9
    31         65
    32          6
    33          0
    35          0
    36          1
    37          2
    38          6
    39         90
    40         18
    41        206
    42         73
    43        387
    44         96
    45        999
    46         26
    47          5
    48          0
    49          0
    50          3
    51          6
    52          3
    53         17
    54          7
    55        164
    56         90
    57        118
    58         20
    59         78
    60          5
    61          2
    62          0
    63          1
    64          0
    65          2
    66          1
    67          5
    68          3
    69         50
    70         24
    71         20
    72         11
    73         13
    74          2
    75          0
    77          0
    78          1
    79          1
    80          0
    81          2
    82          2
    83         45
    84        126
    85         23
    86          3
    87          6
    88          1
    89          0
    95          0
    96          0
    97         18
    98          2
    99          0
   100          0
   101         13
   102          1
   103          0
   110          0
   111          0
   112         15
   113          2
   114          0
   115         13
   116          1
   117          0
   125          0
   128          0
   129          1
   130          0