##TITLE=Library Entry 67716
##JCAMP-DX=Revision 4.10 
##DATA TYPE=MASS SPECTRUM
##SAMPLE DESCRIPTION=Chemical Concepts
##NAMES=HP
##CAS NAME=N-(4-Bromophenyl)-1,2,2-trimethyl-1,3-cyclopentanedicarboximide
##MOLFORM=C16H18BrNO2
##CAS REGISTRY NO=313666-48-7
##MP= -300
##BP= -300
##MW= 335
##$RETENTION INDEX=0
##$CONDENSED SPECTRUM=NO
##NPOINTS= 165
##XYDATA=(XY..XY) 1 
    33          3
    35          2
    39        337
    40         25
    41        655
    43        129
    44         13
    45          2
    46          1
    48          1
    50         27
    51         50
    53        158
    55        371
    56         14
    57          6
    58          2
    59          1
    60          2
    63        130
    64         41
    65         54
    67        305
    69        211
    70          9
    71          3
    75         45
    76         32
    77         68
    79         92
    81         59
    83        140
    84          7
    86          3
    90        159
    91         52
    93        102
    95        999
    96         66
    97          9
    98          2
    99          3
   100          4
   101          1
   102          5
   103          4
   104          4
   105          7
   107         17
   109        302
   110         82
   111          9
   113          4
   114          5
   117         13
   118          9
   119         11
   120         13
   121         16
   123         53
   124          6
   125          7
   126          1
   127          1
   128          2
   129          4
   130          6
   131          3
   132          3
   133          3
   136         59
   137         60
   138         44
   139          4
   141          2
   143         10
   144          6
   145          7
   146          4
   147          1
   149          3
   155         22
   157         21
   158          5
   159          3
   160          4
   163          1
   164         25
   165          6
   166          1
   169         30
   171        140
   173        117
   174          6
   181          1
   182          4
   183          2
   184          8
   185          4
   186          3
   187          1
   194          1
   197         65
   199         65
   200          7
   201          1
   208          8
   210          9
   211          3
   212          4
   213          9
   215         10
   216          1
   222          6
   223          3
   224          6
   225          2
   226          2
   227          1
   228          4
   229          1
   236          3
   237          3
   238          5
   239          7
   240          3
   241          4
   248          1
   249          1
   250          4
   251          4
   252         11
   254         12
   256          5
   257          2
   261          1
   262          2
   264         27
   265          7
   266         24
   267          5
   268          2
   276          1
   278          9
   279         14
   280          9
   281         13
   282          1
   290          1
   291          1
   292          9
   294          9
   295          1
   305          1
   306          3
   307         11
   308          5
   309         10
   310          1
   320          2
   335        292
   336         64
   337        241
   338         36
   339          4