##TITLE=Library Entry 79388
##JCAMP-DX=Revision 4.10 
##DATA TYPE=MASS SPECTRUM
##SAMPLE DESCRIPTION=Chemical Concepts
##NAMES=HP
##CAS NAME=3-Benzoyl,5-(4'-methylbenzilidene)thiazolidine-4-on-2-thione
##MOLFORM=C18H13NO2S2
##CAS REGISTRY NO=313684-72-9
##MP= -300
##BP= -300
##MW= 339
##$RETENTION INDEX=0
##$CONDENSED SPECTRUM=NO
##NPOINTS= 75
##XYDATA=(XY..XY) 1 
    38          4
    39         19
    40          2
    41          7
    42          1
    43          8
    44          8
    45         13
    50         36
    51        106
    52          7
    53          3
    55          6
    56          2
    57          8
    58          3
    59          3
    60          2
    61          1
    62          5
    63         17
    64          3
    65         12
    66          1
    69         18
    70          4
    71          6
    73          4
    74          9
    75          9
    77        471
    78         34
    79          2
    81          1
    82          3
    83          6
    84          1
    86         99
    87          5
    88          5
    89         14
    91         37
    92          2
    93          3
    95          3
    97          1
   102          9
   103         26
   105        999
   106         68
   107          4
   108          1
   111          1
   115         33
   116          5
   119          1
   121          8
   122          2
   123          2
   132          1
   134          1
   135          2
   145          3
   147         97
   148        205
   149         27
   150          8
   162          1
   175          5
   176         24
   177          2
   235          2
   339         27
   340          5
   341          2