##TITLE=Library Entry 99261
##JCAMP-DX=Revision 4.10 
##DATA TYPE=MASS SPECTRUM
##SAMPLE DESCRIPTION=Chemical Concepts
##NAMES=HP
##CAS NAME=5-(4-Bromobenzylidene)-3-(3-methylbenzoyl)rhodanine
##MOLFORM=C18H12BrNO2S2
##CAS REGISTRY NO=313659-84-6
##MP= -300
##BP= -300
##MW= 417
##$RETENTION INDEX=0
##$CONDENSED SPECTRUM=NO
##NPOINTS= 49
##XYDATA=(XY..XY) 1 
    39        272
    40         37
    41         46
    44         16
    45         24
    50        102
    51         86
    52         17
    53          9
    57         10
    58         11
    59          9
    63        237
    65        403
    66         23
    69         30
    70          5
    74         50
    75         44
    76         18
    77         18
    78         12
    79          5
    80          8
    81         12
    82         22
    86        193
    87         18
    89        337
    91        735
    92         42
    93         14
    98          7
    99          5
   100          5
   101         10
   105         18
   106          8
   107          6
   119        999
   120         87
   121          7
   133         87
   134          8
   161         28
   212         22
   214         32
   417          5
   419          6