##TITLE=Library Entry 90844
##JCAMP-DX=Revision 4.10 
##DATA TYPE=MASS SPECTRUM
##SAMPLE DESCRIPTION=Chemical Concepts
##NAMES=HP
##CAS NAME=4,7,13,16,21-Pentaoxa-1,10-diazabicyclo[8.8.5]tricosane
##MOLFORM=C16H32N2O5
##CAS REGISTRY NO=31364-42-8
##MP= -300
##BP= -300
##MW= 332
##$RETENTION INDEX=0
##$CONDENSED SPECTRUM=NO
##NPOINTS= 175
##XYDATA=(XY..XY) 1 
    27         56
    28        170
    29        146
    30         87
    31         44
    39          1
    41        110
    42        366
    43        136
    44        138
    45        263
    46          4
    54         46
    55         71
    56        505
    57        126
    58        176
    59         29
    64          2
    65          7
    67          7
    68         32
    69         92
    70        269
    71        123
    72        173
    73         26
    74         38
    75          2
    78         27
    79         26
    81          6
    82         56
    83         84
    84        136
    85         67
    86        152
    87         52
    88        182
    89         19
    93         10
    94         20
    95         89
    96         58
    97         76
    98         85
    99         81
   100        431
   101         58
   102        225
   103         14
   108         20
   109          8
   110         27
   111         71
   112        135
   113        119
   114        999
   115        108
   116         67
   117          7
   118         24
   121          2
   122        177
   123          4
   124         19
   125        173
   126         86
   127         83
   128        144
   129         82
   130         89
   131         15
   132        141
   133         11
   134          3
   136          3
   138         17
   139         15
   140         34
   141         19
   142         77
   143         26
   144        319
   145         39
   146         91
   147          8
   148          6
   151         29
   152          7
   153          4
   154         10
   155         19
   156         34
   157         88
   158        112
   159         21
   160         72
   161          7
   162        110
   163          8
   166          7
   168          7
   169         20
   170         47
   171         14
   172         61
   173         26
   174         46
   175         12
   176         22
   178         11
   182          8
   183         10
   184         19
   185         12
   186         25
   187         28
   188         87
   189         13
   190         11
   199         18
   200         15
   201         25
   202         35
   203          7
   204         27
   206          5
   213         56
   214         14
   215         19
   216          8
   217         11
   218         18
   219          2
   220         15
   222         13
   226          7
   227         29
   228          4
   229         21
   230          6
   231         29
   232          7
   239          6
   241         17
   243         32
   244         14
   245         17
   246          8
   255          3
   257         98
   258         22
   259         15
   270          4
   271        133
   272         26
   273         15
   275         12
   285          6
   287         39
   288         35
   289         34
   290          2
   301        200
   302         71
   303         25
   304          1
   315         42
   316          7
   317          3
   331         32
   332        350
   333         63
   334          9