##TITLE=Library Entry 5249
##JCAMP-DX=Revision 4.10 
##DATA TYPE=MASS SPECTRUM
##SAMPLE DESCRIPTION=OGDEN BioServices Corp., NCI, Rockville, MD 20852
##NAMES=HP
##CAS NAME=Benzenesulfonyl fluoride, 3-chloro-4-(4-(2-chloro-4-(4,6-diamino-
2,2-dimethyl-1,3,5-triazin-1(2H)-yl)phenyl)butyl)-, monoethanesulfonate
##MOLFORM=C21H24Cl2FN5O2S
##CAS REGISTRY NO=31368-48-6
##MP= -300
##BP= -300
##MW= 499
##$RETENTION INDEX=0
##$CONDENSED SPECTRUM=NO
##NPOINTS= 232
##XYDATA=(XY..XY) 1 
    41        153
    42        999
    43         77
    44         23
    45         70
    46         52
    47          4
    48         50
    49          8
    50         17
    51         35
    52         23
    53         23
    54         16
    55         26
    56         33
    57        181
    58        106
    59         41
    60          6
    61          3
    62          6
    63         27
    64         58
    65         81
    66         22
    67         90
    68         40
    69         12
    70         10
    71          6
    73          7
    74          5
    75         12
    76         10
    77         69
    78         19
    79         34
    80         17
    81         32
    82         90
    83         63
    84         26
    85         15
    86          2
    87          2
    88          4
    89         74
    90         14
    91         19
    92          7
    93         12
    94         12
    95         12
    96         22
    97         34
    98         18
    99         14
   100         29
   101         11
   102         28
   103         20
   104         18
   105         77
   106         28
   107         24
   108         10
   109          9
   110          8
   111         31
   112         52
   113         13
   114         19
   115         46
   116         23
   117         16
   118          8
   119          7
   120         22
   121         72
   122         51
   123         20
   124         82
   125         46
   126         35
   127         15
   128          8
   129          9
   130         11
   131         23
   132         11
   133          4
   134          3
   135         21
   136         11
   137         24
   138         12
   139         13
   140        239
   141         20
   142         75
   143         18
   144         10
   145         10
   146         13
   147          4
   148          4
   149         49
   150         16
   151         12
   152         12
   153          8
   154          6
   155          4
   156          4
   157          5
   158          6
   159          5
   160          8
   161          7
   162         13
   163          5
   164         16
   165        159
   166         38
   167         55
   168         14
   169          3
   170          3
   171          3
   172          4
   173          6
   175          2
   176          2
   177          5
   178          9
   179          6
   180        237
   181         27
   182        111
   183         15
   184         16
   185          2
   186          5
   187          3
   189          3
   190          5
   191         10
   192         11
   193         10
   194          6
   195          4
   201          2
   202          3
   204          2
   205          6
   206          5
   207         52
   208         13
   209         20
   210         18
   211          6
   213          2
   214          5
   215          7
   216          3
   218          3
   219          3
   220          3
   221          6
   222          7
   223          3
   234          4
   235          4
   236          3
   242          2
   247          8
   248         20
   249         62
   250         14
   251         21
   252          4
   262          5
   264          4
   275          4
   276          9
   277          3
   278          3
   284          2
   286          2
   288          2
   289          5
   291          2
   341          2
   366          4
   375         21
   376          4
   377         14
   378          2
   379          3
   380          2
   381          4
   400         54
   401         14
   402         40
   403         10
   404          9
   405          2
   407          4
   415         75
   416         19
   417         63
   418         15
   419         17
   420          4
   442          3
   443          7
   444          3
   445          4
   450          7
   452          3
   457          2
   483          2
   484        129
   485         35
   486         94
   487         21
   488         20
   498          4
   499          8
   500          3
   501          6