##TITLE=Library Entry 62925
##JCAMP-DX=Revision 4.10 
##DATA TYPE=MASS SPECTRUM
##SAMPLE DESCRIPTION=Exported from NIST MS Search
##NAMES=HP
##CAS NAME=Pyridinium, 1-anilino-, hydroxide, inner salt
##MOLFORM=C11H10N2
##CAS REGISTRY NO=31378-82-2
##MP= -300
##BP= -300
##MW= 170
##$RETENTION INDEX=0
##$CONDENSED SPECTRUM=NO
##NPOINTS= 28
##XYDATA=(XY..XY) 1 
    50         60
    51        200
    52        230
    53         70
    62         20
    63        140
    64        520
    65        120
    66         60
    72         20
    77         50
    78         60
    79        520
    80        540
    81         50
    84         20
    85         50
    90         50
    91        999
    92         70
    93         70
   141         20
   142         20
   143         20
   168         20
   169         80
   170        720
   171         80