##TITLE=Library Entry 78905
##JCAMP-DX=Revision 4.10 
##DATA TYPE=MASS SPECTRUM
##SAMPLE DESCRIPTION=Japan AIST/NIMC Database- Spectrum MS-IW-2399
##NAMES=HP
##CAS NAME=Hippuryl-L-histidyl-L-leucine
##MOLFORM=C21H27N5O5
##CAS REGISTRY NO=31373-65-6
##MP= -300
##BP= -300
##MW= 429
##$RETENTION INDEX=0
##$CONDENSED SPECTRUM=NO
##NPOINTS= 325
##XYDATA=(XY..XY) 1 
    15          3
    16          3
    17          4
    18         15
    26          5
    27         46
    28        107
    29         28
    30         48
    31          3
    32          8
    36          2
    37          9
    38         17
    39         54
    40         13
    41         92
    42         70
    43        104
    44         80
    45          9
    46          8
    47          1
    49          5
    50         65
    51        170
    52         35
    53         23
    54         41
    55         73
    56         30
    57         20
    58          3
    59          5
    60          3
    61          3
    62          3
    63          6
    64          6
    65         13
    66         15
    67         15
    68         51
    69         50
    70         20
    71         13
    72          4
    73         24
    74         39
    75         18
    76         30
    77        569
    78         60
    79         11
    80         13
    81        288
    82        298
    83         41
    84         33
    85         10
    86         95
    87          6
    88          1
    89          1
    90          1
    91          6
    92          8
    93         23
    94         32
    95         21
    96         18
    97         30
    98         24
    99         12
   100          5
   101          1
   102          1
   103          8
   104         18
   105        999
   106         94
   107         74
   108         37
   109         26
   110        121
   111         29
   112         13
   113         14
   114         13
   115          5
   116          4
   117         10
   118          6
   119          6
   120         22
   121        234
   122        129
   123         17
   124         15
   125          7
   126          3
   127          3
   128          6
   129          3
   130          2
   131          2
   132         11
   133         15
   134         82
   135         87
   136         37
   137         15
   138          9
   139          4
   140          6
   141          3
   142          2
   143          1
   144          1
   145          2
   146          8
   147          8
   148          5
   149          8
   150          4
   151          6
   152          8
   153         13
   154          3
   155          3
   156         22
   157          3
   158          2
   159          4
   160         11
   161         15
   162         20
   163          9
   164         21
   165          9
   166         12
   167          9
   168          6
   169          2
   170         28
   171          7
   172          2
   173          9
   174          4
   175          6
   176         25
   177         21
   178          6
   179         11
   180          9
   181          4
   182          8
   183          2
   184          3
   185          2
   186          3
   187         23
   188         18
   189         10
   190         16
   191          6
   192          5
   193          4
   194          8
   195          7
   196          2
   197         20
   198          4
   199          1
   200          2
   201          4
   202          7
   203         27
   204          8
   205          7
   206          4
   207         54
   208         17
   209          9
   210          3
   211          2
   212         10
   213          3
   214          2
   215          2
   216         48
   217         15
   218          5
   219          1
   220          1
   221          2
   222          6
   223          2
   224          2
   225          4
   226          7
   227          2
   228          3
   229          5
   230          9
   231         11
   232          8
   233         10
   234         82
   235         12
   236          4
   237          1
   238          6
   239          2
   240          3
   241          1
   242          1
   243          2
   244          6
   245         19
   246          8
   247          6
   248          5
   249          5
   250         15
   251          6
   252          4
   253          5
   254          2
   255          1
   256          2
   257          9
   258          7
   259          3
   260          9
   261          5
   262          4
   263          1
   265          2
   266          1
   267          1
   268          1
   269          1
   270          2
   271         31
   272         11
   273         10
   274          3
   275         27
   276          5
   277          9
   278         11
   279          3
   280          2
   281          2
   282          1
   284          2
   285          1
   286          3
   287          7
   288         31
   289         15
   290         79
   291         14
   292          7
   293          1
   294          4
   295         15
   296          6
   297          5
   298          5
   299          3
   300          2
   301          2
   302          1
   303          2
   304          7
   305          2
   306          3
   309          3
   310          1
   312          6
   313         15
   314          5
   315          1
   316          2
   322          6
   323          2
   324          9
   325          2
   330          1
   331         33
   332          9
   333          1
   335          1
   337         21
   338          4
   342          2
   343          1
   344          1
   345          1
   347          1
   350          2
   355          4
   356          1
   357          1
   365          2
   366          1
   367          3
   368          4
   369          1
   373          1
   375          1
   385          1
   386          2
   391          2
   392          2
   393         59
   394         14
   395          2
   403          1
   409          3
   411          9
   412          2
   429          2