##TITLE=Library Entry 49609
##JCAMP-DX=Revision 4.10 
##DATA TYPE=MASS SPECTRUM
##SAMPLE DESCRIPTION=M. IKEDA
##NAMES=HP
##CAS NAME=Pyridinium, 1-p-toluidino-, hydroxide, inner salt
##MOLFORM=C12H12N2
##CAS REGISTRY NO=31378-92-4
##MP= -300
##BP= -300
##MW= 184
##$RETENTION INDEX=0
##$CONDENSED SPECTRUM=NO
##NPOINTS= 47
##XYDATA=(XY..XY) 1 
    41         70
    42         10
    43         40
    44         20
    45         30
    50         90
    51        210
    52        320
    53        120
    54         20
    55         40
    56         10
    57         40
    58         20
    63         60
    64         30
    65        120
    66         20
    67         10
    68         20
    69         10
    70         10
    76         30
    77        230
    78        330
    79        380
    80        999
    81         80
    89         10
    90         10
    91         70
    92         60
    93         10
   102         10
   103         20
   104        510
   105        710
   106        270
   107        180
   149         40
   163         30
   181         10
   182         20
   183         20
   184        590
   185         90
   186         10