##TITLE=Library Entry 4968
##JCAMP-DX=Revision 4.10 
##DATA TYPE=MASS SPECTRUM
##SAMPLE DESCRIPTION=Exported from NIST MS Search
##NAMES=HP
##CAS NAME=2-Pentanone, O-methyloxime
##MOLFORM=C6H13NO
##CAS REGISTRY NO=31377-00-1
##MP= -300
##BP= -300
##MW= 115
##$RETENTION INDEX=781
##$CONDENSED SPECTRUM=NO
##NPOINTS= 40
##XYDATA=(XY..XY) 1 
    15         80
    26         20
    27        182
    28         80
    29         87
    30         30
    31         17
    32         17
    38         20
    39        120
    40         30
    41        330
    42        999
    43        160
    44          7
    45         50
    52         12
    53         12
    54         30
    55         62
    56         30
    57         80
    58         20
    59         15
    67         15
    68         65
    69         40
    70         10
    72         50
    73          7
    82         12
    83          7
    84         30
    87        462
    88         17
   100        242
   101         10
   114         20
   115        170
   116         20