##TITLE=Library Entry 83684
##JCAMP-DX=Revision 4.10 
##DATA TYPE=MASS SPECTRUM
##SAMPLE DESCRIPTION=Exported from NIST MS Search
##NAMES=HP
##CAS NAME=2(1H)-Pyridinimine, 1-methyl-N-nitro-
##MOLFORM=C6H7N3O2
##CAS REGISTRY NO=31396-29-9
##MP= -300
##BP= -300
##MW= 153
##$RETENTION INDEX=0
##$CONDENSED SPECTRUM=NO
##NPOINTS= 24
##XYDATA=(XY..XY) 1 
    38         60
    39        180
    40         60
    42        320
    50         80
    51        170
    52        150
    53        300
    64         60
    65         60
    66        250
    67         80
    78        630
    79        190
    80        640
    81         90
    92        230
    93        220
   105         90
   106         60
   107        999
   108         90
   153        310
   154         20