##TITLE=Library Entry 79354
##JCAMP-DX=Revision 4.10 
##DATA TYPE=MASS SPECTRUM
##SAMPLE DESCRIPTION=A.A.Kutin, Moscow, Russia
##NAMES=HP
##CAS NAME=Acetic acid, 2-phenylsulfonylamino-, 2-oxo-2-phenylethyl ester
##MOLFORM=C16H15NO5S
##CAS REGISTRY NO=313958-36-0
##MP= -300
##BP= -300
##MW= 333
##$RETENTION INDEX=0
##$CONDENSED SPECTRUM=NO
##NPOINTS= 95
##XYDATA=(XY..XY) 1 
    34          1
    36          1
    38          1
    39         14
    40         29
    41          5
    42          4
    43          5
    44         13
    45          3
    48          0
    49          0
    50         22
    51        100
    52          5
    53          2
    55          3
    56          1
    57          4
    58          0
    59          1
    62          1
    63          4
    64          3
    65         21
    66          0
    69          2
    70          2
    71          1
    73          0
    74          5
    75          5
    77        422
    78         41
    79          5
    81          0
    82          0
    83          1
    84          0
    85          0
    89          1
    91         55
    92          6
    93          2
    94          2
    95          2
    97          3
   101          2
   102          0
   105        999
   106         75
   107          8
   109          2
   110          0
   111          0
   112          2
   113          0
   118        102
   119         17
   120        115
   121          9
   124          0
   125          7
   126          0
   129          2
   135          8
   136         14
   137          3
   139          4
   141        141
   142         10
   143          7
   144          1
   145          0
   146          1
   148          6
   149          0
   150          0
   152          3
   153          1
   162          0
   163          0
   170         97
   171         10
   172          6
   173          0
   174          0
   184          4
   191          0
   192         99
   193         10
   197          0
   247          0
   291          2
   315          0