##TITLE=Library Entry 13314
##JCAMP-DX=Revision 4.10 
##DATA TYPE=MASS SPECTRUM
##SAMPLE DESCRIPTION=Div. of Experiment Therapeutics WRAIR, WRAMC, Washingto
n DC 20307
##NAMES=HP
##CAS NAME=3-[N-Acetyl-4-aminosulfonylanilino]propionic acid
##MOLFORM=C11H14N2O5S
##CAS REGISTRY NO=31399-41-4
##MP= -300
##BP= -300
##MW= 286
##$RETENTION INDEX=0
##$CONDENSED SPECTRUM=NO
##NPOINTS= 110
##XYDATA=(XY..XY) 1 
    41         13
    42         17
    43        999
    44         31
    45         55
    46          2
    47          2
    48          4
    50         33
    51         42
    52         17
    53         12
    54          2
    55         33
    58          4
    60         11
    61          1
    62          9
    63         48
    64         44
    65         56
    66         10
    67          1
    69          3
    70          5
    72          3
    73         24
    74          7
    75         31
    76         41
    77         68
    78         32
    79         11
    80         13
    81          4
    88          4
    89         13
    90         40
    91         36
    92         24
    93         14
    94          5
   102          6
   103         26
   104         76
   105         82
   106         15
   107          6
   108         10
   109          4
   114         13
   116          9
   117         27
   118         38
   119         30
   120         34
   121          7
   122         10
   124          5
   132          3
   133          4
   134         12
   135          1
   136          3
   139          9
   145          5
   152         14
   153          5
   155          1
   156         13
   162          5
   163         12
   164         11
   168         49
   169          5
   170          4
   172         18
   179          5
   180         12
   182         12
   183         33
   184         66
   185        786
   186         63
   187         40
   188          1
   197          1
   198         24
   199         12
   200          4
   206         10
   212          7
   214         10
   226         37
   227          8
   228         13
   240          1
   241          2
   242          5
   243         24
   244        519
   245         54
   246         28
   247          3
   258          2
   269          7
   270          1
   286         50
   287          6
   288          2