##TITLE=Library Entry 107653
##JCAMP-DX=Revision 4.10 
##DATA TYPE=MASS SPECTRUM
##SAMPLE DESCRIPTION=A.Mazepa, Phys.-Chem.Institute, Odessa, Ukraine
##NAMES=HP
##CAS NAME=1H-Imidazole-4,5-dicarboxamide, N,N'-bis(4-methoxyphenyl)-
##MOLFORM=C19H18N4O4
##CAS REGISTRY NO=313967-98-5
##MP= -300
##BP= -300
##MW= 366
##$RETENTION INDEX=0
##$CONDENSED SPECTRUM=NO
##NPOINTS= 62
##XYDATA=(XY..XY) 1 
    51          1
    52          3
    53          2
    55          3
    57          5
    64          9
    65          9
    66          2
    67         26
    68         18
    69          2
    77         20
    78          2
    79          2
    80         11
    81          1
    91         11
    92         22
    93         12
    94          8
    95         73
    96          1
   106          2
   107          5
   108        246
   109         13
   118          1
   120          5
   121         23
   122         21
   123        999
   124         83
   125          1
   127         17
   129          5
   134         14
   149         33
   150          1
   171          2
   172         23
   173         40
   174          2
   175          2
   176          3
   183         38
   184          1
   199         20
   200         11
   201          6
   212          3
   226         97
   227          8
   228          4
   242         25
   243         74
   244         90
   245          5
   364          5
   365          6
   366        723
   367        162
   368         16