##TITLE=Library Entry 86492
##JCAMP-DX=Revision 4.10 
##DATA TYPE=MASS SPECTRUM
##SAMPLE DESCRIPTION=Exported from NIST MS Search
##NAMES=HP
##CAS NAME=Pyridine, 3-butyl-, 1-oxide
##MOLFORM=C9H13NO
##CAS REGISTRY NO=31396-33-5
##MP= -300
##BP= -300
##MW= 151
##$RETENTION INDEX=0
##$CONDENSED SPECTRUM=NO
##NPOINTS= 61
##XYDATA=(XY..XY) 1 
    32         50
    37         10
    38         20
    39        140
    40         30
    41         70
    42         20
    43         50
    44         20
    50         20
    51         30
    52         30
    53        110
    54         40
    55         20
    56         10
    60         10
    61         10
    62         10
    63         50
    64         10
    65        120
    66         40
    67         30
    74         10
    75         10
    76         10
    77         50
    78         30
    79         40
    80         60
    81         50
    82         20
    83         10
    89         10
    90         10
    91         20
    92        400
    93        370
    94         30
    95         10
    96         20
    97         10
   103         10
   104         20
   105         20
   106         70
   107         20
   108         20
   109        999
   110         70
   111         10
   132         10
   133         10
   134         30
   135        270
   136         30
   150         40
   151        630
   152         70
   153         10