##TITLE=Library Entry 37419
##JCAMP-DX=Revision 4.10 
##DATA TYPE=MASS SPECTRUM
##SAMPLE DESCRIPTION=A.A.Kutin, Moscow, Russia
##NAMES=HP
##CAS NAME=Oxazolidin-2-one, 3-tert-butyl-5-phenoxymethyl-
##MOLFORM=C14H19NO3
##CAS REGISTRY NO=313957-60-7
##MP= -300
##BP= -300
##MW= 249
##$RETENTION INDEX=0
##$CONDENSED SPECTRUM=NO
##NPOINTS= 64
##XYDATA=(XY..XY) 1 
    36         41
    37         20
    38         57
    39        320
    41        851
    42        255
    43        341
    44        820
    45         39
    48         12
    50         74
    51        159
    53         49
    54         41
    55        312
    56        278
    57        973
    58        193
    60         19
    62         18
    63         55
    64         42
    65        155
    66         72
    67         31
    68         35
    69        105
    70        999
    71         96
    72         12
    74         19
    75         17
    77        373
    78         65
    79        140
    80         61
    81         42
    82        108
    83         40
    84         45
    85          7
    91         48
    92         15
    94        304
    95         66
    96         90
    97         11
    98         11
    99         34
   100         40
   104          9
   105        125
   107        177
   108         55
   112         20
   117         24
   120         22
   121         21
   133        474
   134         46
   171          6
   234        271
   235         25
   249         92