##TITLE=Library Entry 13292
##JCAMP-DX=Revision 4.10 
##DATA TYPE=MASS SPECTRUM
##SAMPLE DESCRIPTION=Div. of Experiment Therapeutics WRAIR, WRAMC, Washingto
n DC 20307
##NAMES=HP
##CAS NAME=Propanoic acid, 3-[N-acetyl-4-(methylsulfonyl)anilino]-
##MOLFORM=C12H15NO5S
##CAS REGISTRY NO=31399-42-5
##MP= -300
##BP= -300
##MW= 285
##$RETENTION INDEX=0
##$CONDENSED SPECTRUM=NO
##NPOINTS= 105
##XYDATA=(XY..XY) 1 
    41         11
    43        999
    45         71
    47          6
    50         27
    51         43
    52         16
    53         11
    55         38
    57          1
    59          1
    60          2
    62          2
    63         70
    64         30
    65         52
    66          4
    67          5
    69          5
    70          5
    73         23
    74          3
    75          7
    76         49
    77         64
    78         35
    79         22
    80          8
    81          6
    83          1
    88          2
    89         16
    90         38
    91         38
    92         21
    93         12
    94          3
    95          3
    96          4
    97          2
   102          2
   103          7
   104         73
   105        137
   106         17
   107          7
   108          9
   109          4
   114         11
   117         34
   118         39
   119         21
   120         35
   121          8
   122          5
   124          5
   132          4
   133          4
   134         12
   136          6
   145          1
   146          2
   152         25
   153          5
   155          8
   156          5
   162          7
   163          3
   164         17
   165          1
   166          1
   168         17
   169          1
   170          1
   171          9
   178          2
   180         21
   182         32
   184        660
   186         31
   187          1
   197         19
   198         16
   200          1
   206          7
   212         10
   213          7
   214          0
   215          1
   225         36
   226          9
   228         14
   240          2
   241          1
   242         11
   243        405
   244         54
   245         21
   246          1
   268         13
   269          3
   284         38
   285         41
   286          5
   287          1