##TITLE=Library Entry 11078
##JCAMP-DX=Revision 4.10 
##DATA TYPE=MASS SPECTRUM
##SAMPLE DESCRIPTION=A.A.Kutin, Moscow, Russia
##NAMES=HP
##CAS NAME=Ethanone, 1-[3,3a,4,5-tetrahydro-3-(4-fluorophenyl)-7-methoxynaph
to[1,2-c]pyrazol-2-yl]-
##MOLFORM=C20H19FN2O2
##CAS REGISTRY NO=313968-33-1
##MP= -300
##BP= -300
##MW= 338
##$RETENTION INDEX=0
##$CONDENSED SPECTRUM=NO
##NPOINTS= 205
##XYDATA=(XY..XY) 1 
    33          1
    37          1
    38         10
    39         84
    40          9
    41         41
    43        999
    45         36
    46          0
    50         35
    51         84
    52         23
    53         17
    54         14
    55         12
    57         24
    59          5
    60          8
    62         27
    63         79
    64         18
    65         38
    66          4
    67          2
    68          3
    69          7
    70          7
    71          0
    72          0
    74         24
    75         73
    76         47
    77        111
    78         42
    79         10
    80          2
    81         10
    83         53
    85          9
    86          6
    87         14
    88         19
    89         70
    90         27
    91        100
    92         13
    93          6
    94         18
    95         94
    96         22
    97          9
    98         13
    99          8
   100          9
   101         44
   102         78
   103         93
   104         39
   105         16
   106          8
   107         42
   109        329
   110         38
   111          3
   113         12
   114         23
   115        177
   116         82
   117         39
   118         13
   119         10
   120         24
   121         67
   122         98
   123         25
   124         11
   125         10
   126         16
   127         50
   128         73
   129         38
   130        129
   131         56
   132         30
   133         63
   134         16
   135         15
   136          6
   137          4
   138          1
   139          9
   140         11
   141         11
   142         16
   143         23
   144         40
   145         58
   146         99
   147        209
   148         36
   149         10
   150         39
   151          7
   152          4
   153          0
   154          0
   155          5
   156          7
   157         19
   158         37
   159         45
   160         39
   161          7
   162          3
   163          3
   164          1
   165          3
   167          0
   168          3
   169          7
   170         15
   171         12
   172         22
   173         36
   174         47
   175        115
   176         17
   177          3
   178          0
   181          2
   182          2
   183         21
   184          4
   185          3
   186          3
   187          1
   189          6
   190          1
   191          0
   192          1
   193          0
   194          4
   195          2
   196         17
   197          4
   198          1
   199          4
   200         10
   201         93
   202         24
   203          7
   204          0
   205          0
   206          1
   207         15
   208          9
   209         15
   210          2
   211          0
   212          0
   213          0
   215          3
   216          1
   217          0
   218          1
   219          3
   220         27
   221         19
   222          7
   223          6
   224          2
   225          2
   226          0
   231          1
   233         10
   234          3
   235          5
   236          5
   237          4
   238          0
   239          2
   240          3
   241          0
   243          0
   249          0
   250          0
   251          4
   252          3
   253          0
   254          0
   264          0
   265          1
   266          1
   267          5
   268          1
   280          0
   281          1
   293          1
   294          3
   295         14
   296         46
   297          7
   298          0
   338         11
   339          1