##TITLE=Library Entry 10512
##JCAMP-DX=Revision 4.10 
##DATA TYPE=MASS SPECTRUM
##SAMPLE DESCRIPTION=A.A.Kutin, Moscow, Russia
##NAMES=HP
##CAS NAME=Acetamide, N-[3-[(hexahydro-1H-azepin-1-yl)carbonyl]-4-phenyl-2-t
hienyl]-
##MOLFORM=C19H22N2O2S
##CAS REGISTRY NO=313955-31-6
##MP= -300
##BP= -300
##MW= 342
##$RETENTION INDEX=0
##$CONDENSED SPECTRUM=NO
##NPOINTS= 173
##XYDATA=(XY..XY) 1 
    33          0
    34          3
    36          1
    37          0
    39         94
    40         58
    41        247
    43        999
    44        109
    45         67
    46          1
    47          1
    50          8
    51         29
    52         15
    53         26
    54         21
    55        182
    56        109
    57         94
    58          5
    60          6
    61          0
    62          3
    63         13
    64          3
    65         10
    66          3
    67         14
    68         26
    69         48
    70        144
    71         17
    72          9
    73          2
    74          5
    75         16
    76         13
    77         65
    78          9
    79         17
    80          5
    81         14
    82         17
    83         12
    84         25
    85          2
    86          2
    87          3
    88          4
    89         12
    90          4
    91         12
    92          1
    93          3
    94          5
    95          4
    96         15
    98        541
    99         83
   100        124
   101         29
   102         41
   103         27
   104          3
   105          3
   106          0
   108          1
   109          1
   110          0
   111          0
   112          6
   113         13
   114         15
   115         33
   116          4
   117          1
   118          0
   119          0
   120          1
   121          7
   122          0
   124          0
   125          0
   126          5
   127         14
   128         87
   129         23
   130         54
   131         13
   132          0
   133          1
   134         13
   135          3
   140         42
   141         11
   142          2
   143          1
   145         43
   146         37
   147         85
   148          9
   149          3
   153          0
   154          1
   155          2
   156          7
   157          3
   158         15
   159          4
   160          1
   161          1
   167          0
   168          4
   169         18
   170          4
   171          5
   172         86
   173         70
   174         34
   175         61
   176         14
   177          2
   181          0
   182          0
   184         33
   185          6
   186          5
   187          1
   188          0
   197          0
   198          0
   199          0
   200          9
   201        124
   202        156
   203         35
   204          7
   205          0
   214          2
   217          0
   218          0
   223          0
   225          0
   226          0
   228          2
   229          0
   240          0
   241          7
   242         19
   243         18
   244         19
   245          3
   250          1
   255          0
   256          0
   265          1
   266          1
   267         57
   268          9
   283          3
   284          0
   299          3
   300         59
   301         11
   302          2
   307          0
   309         10
   310          0
   311          0
   342         31
   343          5
   344          0