##TITLE=Library Entry 50999
##JCAMP-DX=Revision 4.10 
##DATA TYPE=MASS SPECTRUM
##SAMPLE DESCRIPTION=A.A.Kutin, Moscow, Russia
##NAMES=HP
##CAS NAME=Thiazolidin-4-one, 3-(2-furfuryl)-5-(2,3-dihydro-2-oxo-3-indolyl)
-2-thioxo-
##MOLFORM=C16H10N2O3S2
##CAS REGISTRY NO=313966-21-1
##MP= -300
##BP= -300
##MW= 342
##$RETENTION INDEX=0
##$CONDENSED SPECTRUM=NO
##NPOINTS= 226
##XYDATA=(XY..XY) 1 
    33          5
    34          1
    37          6
    39        133
    40         18
    41         15
    42         14
    43         38
    44         25
    45         70
    47          2
    48          0
    50         52
    51         98
    53        475
    54         15
    56          7
    57          7
    58          8
    60         29
    61          8
    62         27
    63         32
    64         20
    65         11
    66          6
    67          6
    69         53
    70         16
    71         12
    72         25
    73          6
    74         16
    75         19
    76         45
    77         26
    78         27
    79         11
    81        999
    82         43
    84         32
    86        112
    87         20
    88         43
    89         22
    90          8
    91          9
    92         17
    93         45
    94         31
    95         12
    96         15
    97          2
    98          4
    99          4
   100          5
   102         18
   103         83
   104         17
   106         69
   108          6
   109          1
   110          5
   111          9
   112         25
   113         16
   114         36
   115         46
   116         25
   117         10
   120        311
   121         30
   122         15
   124          2
   125          0
   126          1
   127          3
   128          3
   129          6
   130          5
   131          2
   132         20
   133          8
   134          6
   135          3
   136          2
   138        264
   139         33
   140         14
   141          4
   143         25
   144         10
   146        157
   147        116
   148         77
   149          8
   150          3
   151          1
   152          0
   153          0
   154          3
   155          1
   157         16
   158          2
   159          2
   160          4
   161          4
   162          1
   163          0
   164          1
   166          1
   167          2
   168          0
   169          4
   170         27
   171         50
   172        178
   173         24
   175        403
   176        346
   177         53
   178         23
   179          2
   180          0
   181          1
   182          1
   183          0
   184          1
   185          1
   186          0
   187          0
   188          1
   189          3
   190          1
   191          1
   192          0
   193          0
   194          0
   195          1
   196          0
   198          0
   199          1
   201          1
   202          2
   204         84
   205         11
   206          5
   207          1
   208          0
   209          3
   210          3
   211          2
   212          1
   213         13
   214          1
   215          2
   216          0
   219          0
   220          1
   221          1
   222          1
   223          3
   224          1
   225          1
   226          6
   227          4
   228          1
   229          1
   230          0
   231          0
   233          1
   234          2
   235          2
   236          2
   237          4
   238          6
   239          0
   240          0
   242          0
   243          0
   251          1
   252          0
   253          3
   254          2
   255          8
   256          2
   257          2
   258          2
   259          0
   261          1
   262          2
   263          0
   269          0
   270          0
   274          2
   281          4
   282          1
   283          4
   284          2
   285         10
   286          4
   287          1
   288          0
   291          1
   292          1
   293          1
   297          0
   309          2
   310          0
   311          0
   313         37
   314         10
   315          4
   316          0
   323          0
   324          3
   325          1
   326          1
   327          0
   339          0
   340          1
   342        585
   343        108
   344         66
   345         11
   346          2