##TITLE=Library Entry 82779
##JCAMP-DX=Revision 4.10 
##DATA TYPE=MASS SPECTRUM
##SAMPLE DESCRIPTION=A.Mazepa, Phys.-Chem.Institute, Odessa, Ukraine
##NAMES=HP
##CAS NAME=1H-Imidazole-4,5-dicarboxylic acid 4-[(2-benzoyl-4-chloro-phenyl)
-amide] 5-benzylamide
##MOLFORM=C25H19ClN4O3
##CAS REGISTRY NO=313967-99-6
##MP= -300
##BP= -300
##MW= 458
##$RETENTION INDEX=0
##$CONDENSED SPECTRUM=NO
##NPOINTS= 100
##XYDATA=(XY..XY) 1 
    50          2
    51         33
    52          3
    63          8
    65         68
    66          3
    67         37
    68        120
    69          2
    75          1
    76          2
    77        172
    78         16
    79         30
    89          6
    90          7
    91        858
    92         66
    93          5
    94         20
    95         65
    96        141
    97          2
    99          1
   104         35
   105        166
   106        999
   107         88
   108          2
   120         18
   121         15
   123          7
   124          8
   126         11
   127          2
   128          2
   129          2
   138          4
   139          3
   144          8
   150          2
   152         12
   153          1
   154         32
   155          2
   156         10
   166          3
   167          9
   170          8
   171          9
   180          7
   182          1
   183          2
   184         31
   190          3
   191          1
   195          4
   196          2
   198         21
   199         58
   200         10
   201          3
   202          3
   203          2
   214          6
   220         42
   221          2
   222          9
   227         46
   228          9
   229          9
   230        215
   231        188
   232        117
   233         59
   234         12
   246         31
   248         66
   249          4
   250         16
   274          1
   281          3
   307          3
   322          2
   324         11
   334          1
   335          4
   336          3
   352          3
   353        137
   354         26
   355         45
   356          2
   440          2
   457          5
   458        534
   459        167
   460        186
   461         52
   462          3