##TITLE=Library Entry 61142
##JCAMP-DX=Revision 4.10 
##DATA TYPE=MASS SPECTRUM
##SAMPLE DESCRIPTION=A.Mazepa, Phys.-Chem.Institute, Odessa, Ukraine
##NAMES=HP
##CAS NAME=1H-Imidazole-4,5-dicarboxamide, 5N-benzyl-4N-[4-bromo-2-(2-chloro
benzoyl)phenyl]-
##MOLFORM=C25H18BrClN4O3
##CAS REGISTRY NO=313981-71-4
##MP= -300
##BP= -300
##MW= 536
##$RETENTION INDEX=0
##$CONDENSED SPECTRUM=NO
##NPOINTS= 120
##XYDATA=(XY..XY) 1 
    50          1
    51          8
    52          2
    55          6
    56          2
    57         19
    63          4
    64          5
    65         61
    66          3
    67         35
    68        136
    69          9
    70         22
    71          9
    75          3
    76          2
    77         23
    78          9
    79         39
    80          1
    81          1
    82          1
    89          5
    90          8
    91        999
    92         80
    93         14
    94         17
    95         77
    96        143
    97          4
   103          6
   104         37
   105          7
   106        999
   107         99
   108          2
   111         34
   113          6
   119          2
   120         25
   121         16
   123          8
   128          2
   129          2
   138          6
   139        113
   140          5
   141         31
   142          1
   144         11
   145          1
   155          2
   156          1
   165          2
   166          5
   167          4
   168          1
   170         12
   171         19
   172          3
   173          4
   183          3
   184         28
   185          3
   186          2
   194          1
   195         31
   196         10
   197          1
   198         38
   199         55
   200         34
   201          4
   212          3
   213          2
   214          2
   226          3
   227         39
   228         21
   229          7
   230          2
   231          1
   232          1
   243          3
   264         14
   266         12
   273          8
   274         75
   275         18
   276         75
   277          5
   290          8
   291          3
   292         36
   293          3
   294         21
   307          3
   308         11
   309         37
   310         32
   311         49
   312         18
   313          9
   314          1
   334          6
   396          5
   397         61
   398         20
   399         60
   400         11
   402          1
   458          7
   536        209
   537         63
   538        269
   539         78
   540         75
   541         15