##TITLE=Library Entry 85325
##JCAMP-DX=Revision 4.10 
##DATA TYPE=MASS SPECTRUM
##SAMPLE DESCRIPTION=Exported from NIST MS Search
##NAMES=HP
##CAS NAME=Pyridine, 4-butyl-, 1-oxide
##MOLFORM=C9H13NO
##CAS REGISTRY NO=31396-34-6
##MP= -300
##BP= -300
##MW= 151
##$RETENTION INDEX=0
##$CONDENSED SPECTRUM=NO
##NPOINTS= 55
##XYDATA=(XY..XY) 1 
    32         50
    38         10
    39         80
    40         10
    41         50
    42         10
    43         40
    44         20
    50         20
    51         50
    52         30
    53         30
    54         20
    55         10
    62         10
    63         20
    64         10
    65         60
    66         30
    67         20
    76         10
    77         20
    78         30
    79         20
    80         20
    81         10
    91         70
    92        140
    93        470
    94         40
    95         20
    96         10
   104         10
   105         10
   106         40
   107         10
   108        999
   109        240
   110         20
   117         10
   118         10
   119         10
   120         10
   121         20
   122         20
   123         20
   132         10
   133         10
   134         20
   135        190
   136         30
   149         20
   151        550
   152         60
   153         10