##TITLE=Library Entry 83371
##JCAMP-DX=Revision 4.10 
##DATA TYPE=MASS SPECTRUM
##SAMPLE DESCRIPTION=A.A.Kutin, Moscow, Russia
##NAMES=HP
##CAS NAME=Benzamide, 2-chloro-5-nitro-N-(4-acetamidophenyl)-
##MOLFORM=C15H12ClN3O4
##CAS REGISTRY NO=313960-75-7
##MP= -300
##BP= -300
##MW= 333
##$RETENTION INDEX=0
##$CONDENSED SPECTRUM=NO
##NPOINTS= 190
##XYDATA=(XY..XY) 1 
    33         56
    34          5
    36         81
    38         54
    39         43
    40         77
    41         40
    43        749
    44         44
    45         13
    48          2
    50         43
    51         41
    52         92
    53         99
    54         23
    55         23
    57         31
    58          2
    60          6
    61          5
    62         15
    63         53
    64         21
    65         22
    66          8
    67          6
    69         14
    70         11
    71         11
    72          9
    73         15
    74         59
    75        127
    76         26
    77         23
    78         24
    79         50
    80        180
    81         21
    82          6
    83          9
    84         16
    85          5
    86          5
    87          4
    88          4
    90         19
    91         11
    92          6
    93          6
    94          2
    95          3
    96          2
    97          4
    98          6
    99          5
   100          3
   101          4
   102          3
   103          6
   104         12
   105         46
   107        999
   108        137
   109         96
   110        142
   112         77
   113          7
   114          2
   115          1
   117          1
   119          6
   120          2
   121          3
   122          2
   123          3
   124          2
   125          3
   126         19
   127          7
   128         10
   129          2
   130          0
   131          1
   133          3
   134         14
   136         10
   138        173
   139         43
   140         55
   141         11
   142          1
   144          0
   145          0
   148          1
   149         15
   150         37
   151          7
   153          6
   154         12
   155          2
   156          3
   157          1
   162          0
   163          0
   164          0
   165          1
   166          1
   167          2
   168          9
   169          2
   170          3
   171          9
   172          2
   173          0
   175          0
   176          1
   178          4
   179          3
   181          9
   182          9
   184        128
   186         46
   187          3
   188          0
   190          0
   191          0
   192          0
   195          0
   197          0
   199          0
   200          0
   201          1
   203          1
   206          0
   208          0
   209          2
   210          3
   211          0
   215          0
   216          1
   217          0
   219          3
   220          0
   221          1
   222          0
   225          0
   226          1
   231          1
   235          0
   245         10
   247          3
   248          0
   250          1
   252          2
   254          0
   255          1
   256          0
   257          0
   261          0
   262          0
   263          0
   273          0
   274          0
   275          1
   276          0
   277          0
   280          0
   283          1
   284          0
   286          1
   287          4
   288          4
   291        173
   292         28
   293         48
   294          6
   299          1
   303          0
   310          0
   318          0
   327          0
   328          2
   330          4
   333        139
   334         21
   335         36
   336          5
   337          0