##TITLE=Library Entry 12492
##JCAMP-DX=Revision 4.10 
##DATA TYPE=MASS SPECTRUM
##SAMPLE DESCRIPTION=Div. of Experiment Therapeutics WRAIR, WRAMC, Washingto
n DC 20307
##NAMES=HP
##CAS NAME=3-[N-Acetyl-4-acetylanilino]propionic acid
##MOLFORM=C13H15NO4
##CAS REGISTRY NO=31399-36-7
##MP= -300
##BP= -300
##MW= 249
##$RETENTION INDEX=0
##$CONDENSED SPECTRUM=NO
##NPOINTS= 90
##XYDATA=(XY..XY) 1 
    41         17
    42         13
    43        999
    45         58
    47         24
    48         13
    49         14
    50         33
    51          9
    52         13
    53          7
    54          3
    55         27
    58          3
    60          1
    62          7
    63         37
    64         22
    65         45
    66          5
    67          4
    70          2
    72          1
    73         35
    74          6
    75         10
    76         30
    77         75
    78         29
    79         12
    82          1
    83          1
    84          7
    86          5
    88         10
    89         18
    90         32
    91         60
    92         19
    93          6
    94          4
   102          5
   103         10
   104         40
   105         41
   106         53
   107          4
   114         21
   116          3
   117         18
   118         38
   119         21
   120         28
   121          9
   122          3
   130          3
   132        126
   133         12
   134          5
   135          7
   145          1
   146         61
   147         17
   148        593
   149         54
   150          3
   160          2
   161          6
   162         43
   163          6
   174         23
   175          2
   177          8
   178          5
   185         22
   189         21
   190         14
   192        325
   193         34
   194          2
   206         26
   207        449
   208         56
   209          6
   232         10
   234          3
   248         14
   249         81
   250         10
   251          4