##TITLE=Library Entry 22575
##JCAMP-DX=Revision 4.10 
##DATA TYPE=MASS SPECTRUM
##SAMPLE DESCRIPTION=Chemical Concepts
##NAMES=HP
##CAS NAME=4,4'-(5-Iodofurfurylidene)bis(antipyrine)
##MOLFORM=C27H25IN4O3
##CAS REGISTRY NO=313956-07-9
##MP= -300
##BP= -300
##MW= 580
##$RETENTION INDEX=0
##$CONDENSED SPECTRUM=NO
##NPOINTS= 230
##XYDATA=(XY..XY) 1 
    33          5
    36         91
    38         11
    39        100
    40         16
    41         42
    42         53
    43         53
    44         29
    45          7
    50         23
    51        102
    52         19
    53         32
    56        999
    61          9
    63         45
    64         45
    65         52
    66         29
    67         31
    68         12
    69         10
    70          7
    71          9
    73          6
    74          5
    75          9
    77        290
    79         14
    80         13
    81         56
    83          9
    84          8
    85          3
    87          4
    88          3
    89         18
    91         66
    92         22
    93         25
    94          8
    96         40
    98          8
    99          5
   101          6
   102          6
   103          9
   104         17
   105         23
   106         27
   107          8
   108         10
   109          4
   110          3
   112          5
   113          7
   115         19
   116          9
   117         13
   118         18
   119         19
   120          8
   121          8
   122          3
   124          3
   125          3
   127         62
   128         74
   129          8
   130          9
   131          8
   132          8
   133         10
   134          7
   135          7
   136          4
   137          4
   138          7
   139          3
   140          3
   141          7
   142         12
   143          6
   144          9
   145          7
   146          9
   147          5
   148          3
   149          5
   152          6
   153          6
   154          5
   155          4
   156          9
   157          8
   158          7
   159          6
   160          5
   161          5
   162          4
   163          3
   165          4
   166          4
   167          6
   168          4
   169          3
   170          8
   171         11
   172          7
   173          6
   174          4
   178          3
   179          4
   180          6
   181          5
   182          4
   183          6
   184          5
   185          9
   186          5
   187         10
   188         28
   189         10
   190          9
   191          3
   192          4
   193          3
   194          4
   195          5
   196          4
   197          9
   198          6
   199          6
   201         49
   202          8
   204          3
   206          3
   207          5
   208          4
   209          5
   210          3
   211          4
   212          7
   213          9
   214          7
   215         21
   216          4
   219          3
   220          4
   221          7
   222          4
   223          3
   225          4
   226          5
   227          8
   228          4
   234          3
   235          3
   236          4
   237         11
   238          4
   239          3
   240          3
   241         13
   242          4
   243          4
   244         10
   245          7
   246          3
   247          4
   248          3
   249          7
   250          4
   251          3
   252          3
   254         19
   255          4
   261          5
   262          3
   263          3
   265          3
   267          4
   274          3
   275          6
   276          7
   277          9
   278          4
   279          4
   281          3
   282         31
   283         10
   288          4
   289          4
   290          8
   291          5
   300          5
   301         26
   302          8
   303         12
   304         10
   305         13
   306          8
   307          3
   316          4
   317          3
   318          4
   328         11
   329          3
   330          3
   331          8
   332         20
   333          9
   334          5
   360          9
   361          3
   369          3
   393          3
   396          4
   409          9
   410          4
   411          3
   425         12
   426          4
   454          3
   488         42
   489         13
   490         13
   491          5
   580          3