##TITLE=Library Entry 56625
##JCAMP-DX=Revision 4.10 
##DATA TYPE=MASS SPECTRUM
##SAMPLE DESCRIPTION=Finnigan MAT: Toxicological Library (LIBR-TX)
##NAMES=HP
##CAS NAME=Etamiphyllin
##MOLFORM=C13H21N5O2
##CAS REGISTRY NO=314-35-2
##MP= -300
##BP= -300
##MW= 279
##$RETENTION INDEX=0
##$CONDENSED SPECTRUM=NO
##NPOINTS= 19
##XYDATA=(XY..XY) 1 
    41         29
    42         19
    55         17
    56         30
    58         38
    67         21
    71         31
    81         49
    84         20
    86        999
    87         51
    93         20
    99         40
   107         20
   108          8
   109         71
   123         29
   151         47
   207          9