##TITLE=Library Entry 84896
##JCAMP-DX=Revision 4.10 
##DATA TYPE=MASS SPECTRUM
##SAMPLE DESCRIPTION=A.A.Kutin, Moscow, Russia
##NAMES=HP
##CAS NAME=Thieno[2,3-d]pyrimidin-4-amine, 5,6-dimethyl-N-(1-imidazolylpropy
l)-
##MOLFORM=C14H17N5S
##CAS REGISTRY NO=314040-07-8
##MP= -300
##BP= -300
##MW= 287
##$RETENTION INDEX=0
##$CONDENSED SPECTRUM=NO
##NPOINTS= 157
##XYDATA=(XY..XY) 1 
    33         43
    34          2
    36          1
    39        111
    40         85
    41        163
    42         65
    44        213
    45         40
    47         11
    50          7
    51         29
    53         86
    54        172
    55         88
    56         71
    59        118
    60          9
    61          5
    63         15
    64         20
    65         68
    66         36
    68        316
    69        129
    70         24
    71         15
    72          3
    73          2
    74          2
    76         19
    77         21
    78         19
    82        953
    84         12
    85          8
    86          2
    87          2
    88          4
    90         30
    92         80
    93         34
    95        167
    96        327
    99          4
   101          1
   102          8
   103         13
   104         17
   105         11
   108        999
   110         30
   111          5
   112          2
   113          0
   115          1
   117         16
   118         18
   119         21
   120          6
   121         10
   122         19
   123         12
   124         23
   126          1
   127          1
   129          6
   130         19
   131         18
   132          7
   134         20
   135         28
   136         51
   137         46
   138         19
   139          3
   140          0
   141          0
   143         11
   144          8
   145          4
   146          7
   148         29
   149         16
   151         75
   152         33
   153          6
   154          1
   155          0
   156          1
   157          3
   158          2
   159          5
   161         52
   163        358
   164        198
   165         69
   166         14
   167          3
   169          0
   170          1
   171          2
   172          2
   173          6
   175         33
   176         35
   178        128
   179         99
   180         49
   181          8
   182          2
   183          0
   184          0
   185          1
   186          4
   187          7
   188         11
   190        126
   191        134
   192        282
   193        212
   194         33
   195         10
   196          0
   200          1
   204        260
   206        788
   208         30
   209          3
   213          1
   216         19
   218        262
   219        382
   220         48
   221         19
   222          1
   227          0
   228          1
   229          1
   230          1
   231          1
   242          1
   244          6
   245          1
   257          0
   258          2
   259          2
   270          0
   271          3
   272          1
   282          0
   283         12
   285         23
   287        579
   288         80
   289         27
   290          2