##TITLE=Library Entry 16792
##JCAMP-DX=Revision 4.10 
##DATA TYPE=MASS SPECTRUM
##SAMPLE DESCRIPTION=Chemical Concepts
##NAMES=HP
##CAS NAME=2-Ethoxyethyl 4-(2-ethoxyphenyl)-3,4-dihydro-6-methyl-2(1H)-oxopy
rimidine-5-carboxylate
##MOLFORM=C18H24N2O5
##CAS REGISTRY NO=314046-57-6
##MP= -300
##BP= -300
##MW= 348
##$RETENTION INDEX=0
##$CONDENSED SPECTRUM=NO
##NPOINTS= 111
##XYDATA=(XY..XY) 1 
    34         20
    39        428
    40        313
    41        308
    42        875
    43        320
    44        428
    45        999
    51        117
    52         81
    53         75
    54         51
    55         86
    56         37
    57         58
    59        152
    63        132
    64         81
    65        220
    66        109
    67        126
    68         66
    70         73
    71         28
    72         40
    73         51
    74         17
    75         24
    76         70
    77        108
    78         33
    79         24
    81         17
    82         32
    83         30
    84         45
    89         87
    90         43
    91         81
    92         47
    93         85
    94        171
    96         66
   101         18
   102         34
   103         32
   104         26
   105         27
   109         49
   110        191
   111         30
   115         52
   116         25
   117         34
   118         63
   119         79
   120         94
   121         71
   122        102
   129         27
   130         57
   131         62
   132         38
   133         25
   135         19
   137        392
   138         45
   144         45
   145         39
   146         49
   147         84
   148        121
   149         30
   153         23
   155        316
   156         26
   157         17
   158         36
   159         40
   160         33
   172         25
   173         59
   174         62
   175         49
   176        115
   181         17
   185         17
   186         30
   187         22
   188         34
   201         97
   202         51
   203         80
   204         16
   213         61
   215         27
   227        342
   229        660
   230        319
   231        501
   232         67
   257        128
   258        268
   259         93
   260         16
   273         22
   275        651
   276         81
   346         15
   348         86
   349          9