##TITLE=Library Entry 69080
##JCAMP-DX=Revision 4.10 
##DATA TYPE=MASS SPECTRUM
##SAMPLE DESCRIPTION=A.A.Kutin, Moscow, Russia
##NAMES=HP
##CAS NAME=Quinoline-3-carboxamide, 1,2-dihydro-1-allyl-4-hydroxy-2-oxo-N-(4
-pyridyl)-
##MOLFORM=C18H15N3O3
##CAS REGISTRY NO=314053-53-7
##MP= -300
##BP= -300
##MW= 321
##$RETENTION INDEX=0
##$CONDENSED SPECTRUM=NO
##NPOINTS= 216
##XYDATA=(XY..XY) 1 
    33          0
    36          0
    37          5
    39        172
    40         46
    41        218
    42         21
    43          9
    44         11
    45          6
    46          1
    48          0
    50         31
    51         71
    52         23
    53         13
    54         12
    55          7
    56          2
    57          2
    58          1
    59          0
    60          0
    61          2
    62          9
    63         24
    64         21
    65         27
    66         26
    67         57
    68         11
    69         20
    70          2
    72          2
    73          9
    74          8
    75         28
    76         74
    77        156
    78         62
    79         14
    81          4
    83          1
    84          0
    85          1
    86          3
    87          7
    88         17
    89         53
    90         56
    91         38
    92         82
    94        427
    95        999
    96         30
    98          3
    99          4
   100          6
   102         78
   103        135
   104        114
   105         52
   106          9
   107          4
   108          2
   109          2
   110          0
   111          2
   112          3
   114         41
   115         64
   116         48
   117         43
   119        165
   120         87
   121         25
   122          2
   123          0
   124          0
   125          2
   127         47
   128         36
   130        294
   131        175
   132        160
   133         22
   134          5
   135          8
   136          5
   137          2
   138          1
   139          2
   140         12
   141         10
   142         21
   143         22
   144         35
   145         18
   146         51
   147          6
   148          1
   151          1
   152          4
   153          6
   154         17
   155          7
   156         17
   158        323
   159        427
   160        142
   163          0
   164          0
   165          2
   166          2
   167          3
   168          8
   169         16
   170         50
   171         39
   172         42
   173          5
   174          4
   175          0
   176          0
   177          0
   178          1
   179          2
   180          2
   181          4
   182         17
   183          5
   184          3
   185          4
   186         12
   187         51
   188         43
   189          5
   190          1
   191          0
   192          0
   193          0
   194          1
   195          2
   198        175
   199         69
   200         21
   201          7
   202          1
   203          0
   204          0
   206          2
   207          2
   209          7
   210         25
   212        218
   213         23
   214          4
   215          4
   216          2
   217          0
   218          0
   219          0
   220          0
   221          0
   222          1
   223          2
   224         10
   226        110
   227        267
   228        142
   229         20
   230          3
   231          0
   234          1
   235          2
   236          1
   237          0
   238          1
   243          3
   244          2
   245          0
   250          0
   251          1
   252          1
   253          0
   262          1
   264          0
   265          0
   267          2
   276          0
   278          2
   280         12
   281         21
   282          4
   283          0
   288          1
   289          0
   292          0
   293          0
   294          0
   295          0
   302          2
   303          0
   304          1
   306         16
   307          2
   308          0
   309          1
   315          0
   316          1
   317          5
   318          6
   321        428
   322         72
   323          8
   324          0