##TITLE=Library Entry 15277
##JCAMP-DX=Revision 4.10 
##DATA TYPE=MASS SPECTRUM
##SAMPLE DESCRIPTION=A.A.Kutin, Moscow, Russia
##NAMES=HP
##CAS NAME=1,3,5-Triazine-2,4-diamine, 6-chloro-N,N1-dimethyl-
##MOLFORM=C7H12ClN5
##CAS REGISTRY NO=3140-74-7
##MP= -300
##BP= -300
##MW= 201
##$RETENTION INDEX=0
##$CONDENSED SPECTRUM=NO
##NPOINTS= 98
##XYDATA=(XY..XY) 1 
    38         66
    39        156
    40         46
    41        322
    42        984
    43        360
    44        999
    46         41
    47         29
    49         32
    50        112
    51         70
    52         77
    53         85
    54         15
    55        243
    56         39
    57         33
    61         23
    62        126
    63         76
    64        101
    65         82
    66         40
    67        101
    68         55
    69        433
    71        490
    73         35
    74         11
    75        180
    76        130
    77        113
    78        121
    80        157
    81        101
    82        140
    83         48
    85         14
    87        118
    88         37
    89         54
    90         86
    91         95
    92        111
    93        107
    94          7
    95        387
    96        481
    97         41
    98         22
   101         14
   102         23
   103         85
   104         49
   105         63
   107         52
   108         10
   110         18
   115         58
   116         13
   117         28
   119         58
   120         32
   121         25
   122         46
   123        639
   124         66
   127        125
   128        131
   129         52
   130        113
   131         20
   132          1
   135        114
   136          1
   143        111
   145         69
   146        153
   147          8
   157         67
   158         80
   159          6
   166         30
   167          7
   172        381
   173         26
   174         99
   175         19
   186        409
   187         17
   188        115
   189         19
   200         47
   201        526
   202         82
   203        139
   204         17