##TITLE=Library Entry 89748
##JCAMP-DX=Revision 4.10 
##DATA TYPE=MASS SPECTRUM
##SAMPLE DESCRIPTION=A.A.Kutin, Moscow, Russia
##NAMES=HP
##CAS NAME=Coumarin, 3-[(2,6-dimethyl-1-piperidyl)carbonyl]-
##MOLFORM=C17H19NO3
##CAS REGISTRY NO=314023-65-9
##MP= -300
##BP= -300
##MW= 285
##$RETENTION INDEX=0
##$CONDENSED SPECTRUM=NO
##NPOINTS= 177
##XYDATA=(XY..XY) 1 
    33          2
    34          2
    36          6
    37          3
    38         10
    39         78
    40         44
    41        110
    42        110
    43         27
    44         41
    45          2
    50         14
    51         30
    52          7
    53         21
    54         25
    55         78
    56         33
    57         13
    58         13
    59          2
    60          1
    61          4
    62         21
    63         59
    64          8
    65          9
    66          3
    67          9
    68         19
    69         31
    70         67
    71          9
    72          2
    73          2
    74          6
    75         30
    76          7
    77         13
    78          6
    79          3
    80          3
    81          9
    82         14
    83         21
    84         12
    85          8
    86          4
    87          7
    88         18
    89        140
    90         24
    91         12
    92          2
    93          1
    94          2
    95          5
    96         15
    97          7
    98         17
    99          3
   101        167
   102         17
   103          3
   104          2
   105          2
   106          0
   107          1
   108          1
   110         14
   112        999
   113         75
   115         10
   116          5
   117          3
   118         25
   119          2
   120          1
   121          2
   122          0
   123          0
   124          1
   125          0
   126          3
   127          2
   128          4
   129          2
   130          1
   131          2
   132          1
   133          0
   134          0
   135          4
   136          0
   139          1
   140          0
   141          1
   143          1
   145         30
   146         76
   147         11
   148          1
   149          2
   150          1
   151          1
   152         11
   153          5
   154          0
   157          0
   158          0
   159          4
   160         11
   161          1
   163          2
   165         24
   166         10
   167         58
   168         28
   169          4
   171         17
   173        718
   174         81
   175         10
   176          1
   178          0
   180          0
   184          0
   185          0
   186          1
   187          1
   188          0
   189          1
   190          5
   191          0
   192          0
   193          0
   194          0
   195          0
   198          0
   200          0
   201          4
   202          1
   203          0
   207          1
   208          5
   209          0
   210          0
   214          2
   215          2
   216          2
   217          0
   222          2
   223          0
   226          0
   228         15
   229          3
   230          1
   238          0
   240          0
   242         15
   243          2
   250          0
   251          4
   252          1
   256          4
   257          2
   258          1
   269          1
   270         48
   271          8
   272          0
   283          1
   284          4
   285         57
   286         10
   287          1