##TITLE=Library Entry 84042
##JCAMP-DX=Revision 4.10 
##DATA TYPE=MASS SPECTRUM
##SAMPLE DESCRIPTION=A.A.Kutin, Moscow, Russia
##NAMES=HP
##CAS NAME=2,4,6(1H,3H,5H)-Pyrimidinetrione, 5-[[4-(2-bromoethoxy)-3-methoxy
phenyl]methylene]-
##MOLFORM=C14H13BrN2O5
##CAS REGISTRY NO=314041-59-3
##MP= -300
##BP= -300
##MW= 368
##$RETENTION INDEX=0
##$CONDENSED SPECTRUM=NO
##NPOINTS= 109
##XYDATA=(XY..XY) 1 
    38         16
    39         55
    40         52
    41         68
    42        104
    43        158
    44        149
    45         19
    50         85
    51         95
    52         37
    53        102
    54         19
    55         16
    57         19
    60         14
    62         40
    63         87
    64         38
    65         87
    66         22
    67         14
    68          6
    69         24
    70        128
    71          9
    73         11
    74         20
    75         51
    76        164
    77        142
    78         30
    79         70
    80         26
    81         39
    82          6
    87         20
    88         22
    89         75
    90         47
    91        134
    92         57
    93         55
    94         12
    95         56
    97          7
   101         12
   102          8
   103         36
   104         92
   105         95
   107        999
   109        979
   110         15
   116         27
   117         14
   118         18
   119         91
   120         25
   121         24
   123         20
   128         21
   129          8
   130         22
   131         20
   132         63
   133         74
   134         44
   135         14
   143         11
   144         37
   146         19
   147         53
   148         13
   149         19
   151         37
   157          5
   158         46
   159         11
   160         16
   161         19
   162         44
   171         11
   172         38
   173         23
   175         35
   176          6
   186          6
   190         72
   191          4
   202          7
   203          6
   204          4
   215         10
   218         96
   219         13
   230         18
   233         36
   245          4
   247          3
   259          4
   260          7
   261        196
   262         55
   288          4
   368        159
   369         19
   370        134
   371          9