##TITLE=Library Entry 51867
##JCAMP-DX=Revision 4.10 
##DATA TYPE=MASS SPECTRUM
##SAMPLE DESCRIPTION=Japan AIST/NIMC Database- Spectrum MS-NW-1142
##NAMES=HP
##CAS NAME=Thiophene, 2,5-dibromo-
##MOLFORM=C4H2Br2S
##CAS REGISTRY NO=3141-27-3
##MP= -300
##BP= -300
##MW= 240
##$RETENTION INDEX=0
##$CONDENSED SPECTRUM=NO
##NPOINTS= 94
##XYDATA=(XY..XY) 1 
    12          7
    13          1
    14          6
    16          2
    24          5
    25         19
    26         11
    32          9
    33          4
    34          2
    36         26
    37        199
    38        262
    39         13
    40          3
    41        114
    42          4
    44         70
    45        188
    46          5
    47          8
    48         13
    49         66
    50         47
    51          2
    56         37
    57        237
    58         13
    59          9
    68         22
    69         74
    70          5
    71          4
    76          3
    78          1
    79         40
    80         73
    81        278
    82        999
    83         68
    84         45
    85          2
    91         17
    92          3
    93         18
    94          3
   103          3
   104         16
   105          4
   106         17
   107          1
   111          5
   113          5
   115          5
   116         20
   117        304
   118         30
   119        293
   120         42
   121         69
   122         35
   123         46
   125         46
   127          3
   128          6
   129          2
   130          7
   131          1
   135         16
   136         72
   137         17
   138         71
   139          3
   140          3
   149          1
   159          5
   160         21
   161        479
   162         51
   163        475
   164         31
   165         21
   166          1
   195          3
   197          5
   199          3
   216          1
   240        469
   241         25
   242        904
   243         47
   244        468
   245         23
   246         18