##TITLE=Library Entry 90896
##JCAMP-DX=Revision 4.10 
##DATA TYPE=MASS SPECTRUM
##SAMPLE DESCRIPTION=A.A.Kutin, Moscow, Russia
##NAMES=HP
##CAS NAME=Morpholine-4-carboxylic acid 5-chloro-7-iodo-quinolin-8-yl ester
##MOLFORM=C14H12ClIN2O3
##CAS REGISTRY NO=314262-07-2
##MP= -300
##BP= -300
##MW= 418
##$RETENTION INDEX=0
##$CONDENSED SPECTRUM=NO
##NPOINTS= 110
##XYDATA=(XY..XY) 1 
    36          8
    37          3
    38          7
    39         16
    40         17
    41         23
    42        219
    43         27
    44         73
    45         54
    50          8
    51          7
    52          4
    53          4
    54         11
    55         22
    56         58
    57         18
    58          3
    60          2
    61          9
    62         18
    63         32
    64          7
    65          3
    67          2
    68          2
    70        746
    71         33
    72         15
    73          8
    74          9
    75          9
    76          5
    77          4
    79          2
    81          2
    82          2
    83          3
    84          9
    85          8
    86         21
    87         31
    88         20
    89          4
    91          2
    95          2
    96          3
    97          6
    98          7
    99         10
   100          6
   105          2
   109          2
   110          2
   111          3
   112          9
   114        999
   115         71
   116         11
   122          3
   123          8
   124          5
   125          6
   126         12
   127         14
   128         18
   133          2
   148          3
   149         31
   150         27
   151         12
   152          9
   161         12
   162          5
   163          5
   164          2
   171          3
   177         15
   178          4
   179          9
   180          2
   181          2
   213          4
   247          3
   276          6
   288          5
   290          2
   291         18
   292          4
   293          5
   303         26
   304          6
   305         43
   306          5
   307         10
   315          2
   317          7
   318          2
   319          2
   329          3
   330          6
   331          3
   332          7
   356          2
   374          6
   376          2
   418         23
   419          3
   420          7