##TITLE=Library Entry 99872
##JCAMP-DX=Revision 4.10 
##DATA TYPE=MASS SPECTRUM
##SAMPLE DESCRIPTION=A.A.Kutin, Moscow, Russia
##NAMES=HP
##CAS NAME=Benzamide, 2-methyl-N-[5-(4-bromophenyl)-2-thiazolyl]-
##MOLFORM=C17H13BrN2OS
##CAS REGISTRY NO=314291-74-2
##MP= -300
##BP= -300
##MW= 372
##$RETENTION INDEX=0
##$CONDENSED SPECTRUM=NO
##NPOINTS= 140
##XYDATA=(XY..XY) 1 
    33          1
    37          1
    39         45
    40          5
    41          9
    42          1
    43          2
    45         34
    46          1
    47          1
    50         20
    51         21
    52          6
    53          3
    55          0
    57          0
    58          0
    59          1
    61          3
    62         12
    63         40
    65        151
    66          3
    69          7
    71          5
    72          0
    74         12
    75         23
    76         17
    77          8
    78          2
    79          2
    80          2
    81          3
    82          5
    83          0
    85          1
    86          3
    87         11
    89         84
    91        482
    93         18
    94          1
    95          2
    96          0
    98          1
    99          0
   100          1
   101          6
   102         20
   103         16
   104          3
   105          2
   106          2
   107          1
   108          1
   109          0
   114          3
   115          2
   116          2
   119        999
   120         74
   121          9
   122          2
   123          3
   124          0
   128          1
   129          5
   130          1
   132          9
   133         15
   134          9
   135          2
   141          1
   142          0
   144          0
   146         27
   147         19
   148          3
   149          1
   155          7
   157          8
   158          1
   159          1
   167          1
   169          1
   171          0
   172          0
   174         99
   175         11
   176          6
   177          0
   180          1
   181          3
   182          7
   183          4
   184          5
   185          1
   186          0
   199          2
   201          2
   202          0
   207          2
   209          3
   210          0
   212         13
   213          1
   214         12
   215          1
   224          0
   226          0
   227          0
   254         27
   256         27
   257          2
   258          0
   280          0
   282          3
   283          0
   284          3
   285          0
   293          2
   294          5
   295          1
   296          0
   298          1
   313          0
   339          2
   341          1
   344          2
   346          2
   347          0
   357          0
   370          0
   372        154
   373         38
   374        139
   375         30
   376          9
   377          1