##TITLE=Library Entry 87684
##JCAMP-DX=Revision 4.10 
##DATA TYPE=MASS SPECTRUM
##SAMPLE DESCRIPTION=Japan AIST/NIMC Database- Spectrum MS-IW-5732
##NAMES=HP
##CAS NAME=dl-3Beta-hydroxy-d-homo-18-nor-5alpha-androst-13(17a)-en-17-one
##MOLFORM=C19H28O2
##CAS REGISTRY NO=31427-29-9
##MP= -300
##BP= -300
##MW= 288
##$RETENTION INDEX=0
##$CONDENSED SPECTRUM=NO
##NPOINTS= 259
##XYDATA=(XY..XY) 1 
    14          1
    15          4
    16          1
    17         27
    18        138
    26          3
    27         27
    28         26
    29         48
    30          2
    31          9
    32          1
    36          1
    38          1
    39         44
    40          9
    41        149
    42         12
    43         85
    44          5
    45         12
    46          1
    47          1
    50          3
    51         15
    52          9
    53         58
    54         11
    55        145
    56          9
    57         31
    58          5
    59          3
    60          3
    61          8
    62          1
    63          7
    64          6
    65         45
    66         21
    67        161
    68         22
    69         47
    70         12
    71         11
    72          4
    73          5
    74          3
    75          3
    76          7
    77        125
    78         41
    79        220
    80         52
    81        155
    82         26
    83         36
    84          8
    85          9
    86          7
    87          7
    88          8
    89         10
    90          7
    91        284
    92         83
    93        193
    94        110
    95        122
    96         31
    97         73
    98          9
    99          7
   100          9
   101          8
   102          7
   103         23
   104         36
   105        204
   106        124
   107        321
   108        189
   109        264
   110        999
   111        108
   112         10
   113          7
   114         10
   115         48
   116         21
   117         97
   118         67
   119        144
   120        156
   121        139
   122        103
   123        124
   124         47
   125         19
   126          7
   127         13
   128         50
   129         71
   130         36
   131        100
   132         50
   133        128
   134        231
   135        177
   136         54
   137         45
   138         10
   139          6
   140          1
   141         48
   142         40
   143         73
   144         73
   145        160
   146         92
   147        210
   148        128
   149        122
   150         28
   151         22
   152         13
   153         11
   154          9
   155         27
   156         27
   157         48
   158         56
   159         93
   160        210
   161        192
   162        168
   163        111
   164         30
   165         89
   166         21
   167         17
   168          9
   169         35
   170         26
   171         39
   172         23
   173         51
   174         58
   175         57
   176         38
   177         24
   178         24
   179         60
   180         13
   181         19
   182          9
   183         37
   184         12
   185         31
   186         17
   187         43
   188         37
   189         22
   190          8
   191          9
   192          7
   193         17
   194          8
   195         26
   196         17
   197         28
   198         55
   199         38
   200         28
   201         29
   202         24
   203         12
   204          6
   205          5
   206          4
   207          5
   208          3
   209         14
   210          9
   211         18
   212         18
   213         48
   214         22
   215         28
   216         88
   217         25
   218         12
   219          4
   220          2
   221          3
   222          2
   223          9
   224          7
   225          7
   226          9
   227         20
   228         76
   229         30
   230          9
   231         19
   232          8
   233          8
   234          3
   235         23
   236          7
   237         52
   238         11
   239         15
   240          6
   241         27
   242         21
   243          8
   244          7
   245          6
   246         92
   247         18
   248          9
   249          6
   250         35
   251         18
   252        128
   253         37
   254         49
   255         89
   256         39
   257         10
   258          7
   259         14
   260         54
   261          9
   262          2
   264          4
   265          1
   266         15
   267          5
   268         46
   269         30
   270        419
   271         91
   272         25
   273         21
   274         25
   275          5
   276          1
   282          2
   283          1
   284         34
   285          8
   286         22
   287          9
   288        270
   289         64
   290         10
   291          1