##TITLE=Library Entry 98101
##JCAMP-DX=Revision 4.10 
##DATA TYPE=MASS SPECTRUM
##SAMPLE DESCRIPTION=A.A.Kutin, Moscow, Russia
##NAMES=HP
##CAS NAME=Benzenamine, 4-(2,3-dihydro-1-indolylsulfonyl)-N-(3-methyl-2-thie
nylmethylene)-
##MOLFORM=C20H18N2O2S2
##CAS REGISTRY NO=314291-52-6
##MP= -300
##BP= -300
##MW= 382
##$RETENTION INDEX=0
##$CONDENSED SPECTRUM=NO
##NPOINTS= 161
##XYDATA=(XY..XY) 1 
    33          9
    34          1
    36          0
    39        109
    40         49
    41         25
    43         12
    44         20
    45         82
    46          1
    47          4
    48          3
    50         76
    51         68
    52         20
    53         26
    54          3
    55          4
    56          0
    57          6
    58         15
    59         10
    60          2
    63         68
    65        214
    66         29
    69         22
    70         15
    71         10
    72          0
    74          9
    76        132
    77         44
    78         17
    79          4
    80         10
    81          2
    82          6
    83          6
    84         16
    85          3
    86          2
    87          3
    89         77
    91        542
    92         32
    93          4
    95         11
    96         16
    97         32
    98          3
    99          6
   101          1
   102          6
   103         16
   104          4
   107          0
   108          7
   109         23
   110          8
   111          9
   112          1
   113          2
   114          4
   115         21
   118        999
   119         91
   120          7
   121         11
   122         36
   123         18
   124         13
   125          3
   126          2
   127         11
   128         14
   129         17
   130          2
   133          3
   134         22
   135          6
   136          3
   137          0
   139         17
   140         14
   141          9
   142          1
   143          0
   145          1
   146          1
   147          6
   148          3
   149          3
   151          0
   152          2
   153          4
   154         10
   155          5
   156          7
   157          2
   158          7
   159          5
   160          6
   161          1
   162          0
   164          1
   165          6
   166         18
   167         34
   168         15
   169          3
   171         30
   172         15
   173         14
   174          2
   181          0
   183         21
   184         26
   185         26
   186         10
   187          2
   188          1
   189          0
   191          5
   192          4
   193          3
   194          2
   195          0
   196          3
   197         13
   198         43
   199        105
   200        222
   201        124
   202         23
   203          6
   214          6
   216        149
   217         18
   218          6
   219          0
   247          5
   248          7
   249          0
   261          0
   262          8
   264         96
   265         19
   266          9
   267          0
   274          1
   316          1
   317          1
   318          0
   377          0
   378          4
   379          8
   382        199
   383         36
   384         17
   385          3