##TITLE=Library Entry 97989
##JCAMP-DX=Revision 4.10 
##DATA TYPE=MASS SPECTRUM
##SAMPLE DESCRIPTION=A.A.Kutin, Moscow, Russia
##NAMES=HP
##CAS NAME=Benzenamine, 4-(2,3-dihydro-1-indolylsulfonyl)-N-(5-methyl-2-thie
nylmethylene)-
##MOLFORM=C20H18N2O2S2
##CAS REGISTRY NO=314291-63-9
##MP= -300
##BP= -300
##MW= 382
##$RETENTION INDEX=0
##$CONDENSED SPECTRUM=NO
##NPOINTS= 142
##XYDATA=(XY..XY) 1 
    33         55
    34          9
    36          2
    39        170
    40        174
    41         47
    43         32
    44         58
    45        112
    47          6
    48         10
    50         94
    51        101
    52         32
    53         52
    54          3
    55          6
    57         14
    58         19
    59         64
    60          4
    61          5
    62         18
    63         87
    65        320
    66         54
    67          4
    69         36
    70         23
    71         17
    73          2
    74         14
    76        193
    77         87
    78         20
    79          2
    81          2
    82          8
    84         22
    86          3
    87          2
    89        107
    91        797
    92         46
    93          3
    94          1
    95         36
    96         19
    97         74
    98          7
    99          9
   101          1
   102          8
   103         34
   104          6
   108         10
   109         27
   110         10
   111         17
   112          1
   113          1
   114          6
   115         21
   117        273
   118        999
   119        135
   120          7
   121          9
   122         22
   123         12
   124         11
   125          2
   126          1
   127         13
   128         25
   129         29
   130          2
   133          1
   134         14
   135          3
   136          0
   139         17
   140         25
   141         16
   142          1
   147         10
   148          5
   149          1
   152          2
   153          1
   154          9
   155          3
   156         11
   157          2
   158         19
   159          5
   160          5
   161          2
   165          9
   166         27
   167         49
   168         23
   170          0
   171         22
   172         15
   173         27
   174          4
   184         21
   185         40
   186          6
   187          4
   191          2
   192          3
   193          2
   194          3
   198         41
   199         73
   200        282
   201        156
   202         27
   203          5
   214          5
   215          9
   216        251
   217         30
   218         12
   247          0
   248         26
   249          2
   262          1
   264        146
   265         40
   266         16
   267          2
   274          2
   318          2
   378          1
   379          5
   380         13
   382        176
   383         38
   384         14