##TITLE=Library Entry 99844
##JCAMP-DX=Revision 4.10 
##DATA TYPE=MASS SPECTRUM
##SAMPLE DESCRIPTION=A.A.Kutin, Moscow, Russia
##NAMES=HP
##CAS NAME=Benzamide, 2-methyl-N-[4-(4-methyylphenyl)-2-thiazolyl]-
##MOLFORM=C18H16N2OS
##CAS REGISTRY NO=314289-98-0
##MP= -300
##BP= -300
##MW= 308
##$RETENTION INDEX=0
##$CONDENSED SPECTRUM=NO
##NPOINTS= 139
##XYDATA=(XY..XY) 1 
    33          1
    34          0
    35          1
    36          2
    37          3
    39         85
    40         12
    41         24
    43          9
    45         47
    47          2
    50         16
    51         34
    52          8
    53          7
    55          2
    57          2
    58          0
    59          2
    60          1
    63         70
    65        207
    66         11
    67          1
    68          0
    69          9
    70          4
    71          4
    72          0
    73          1
    74          5
    75          8
    76          7
    77         23
    78          6
    79          4
    80          0
    81          1
    82          2
    83          1
    84          1
    85          1
    86          3
    87          4
    89         82
    91        566
    92         30
    93          5
    94          2
    95          2
    96          0
    97          1
    99          0
   100          0
   101          2
   102          9
   103         15
   104          5
   105          2
   106          0
   107          0
   108          1
   109          0
   113          0
   114          3
   115         17
   116         19
   119        999
   120         67
   121         11
   122          2
   123          2
   125          0
   128          2
   129          3
   130          1
   131          1
   132          1
   133          2
   134          7
   135         13
   136          4
   137          1
   140          0
   142          0
   143          5
   145          9
   146         15
   147         86
   148         70
   149         13
   150          3
   151          0
   154          0
   155          0
   156          0
   158          0
   159          2
   160          4
   162          9
   163          1
   164          0
   171          0
   172          1
   174         19
   175          3
   176          1
   186          0
   187          5
   188          2
   189         19
   190         27
   191          4
   192          1
   217          0
   220          0
   221          0
   247          2
   248          0
   264          0
   265          0
   274          0
   275          6
   276          1
   277          0
   279          0
   280          6
   281          0
   282          0
   291          1
   293          0
   294          0
   304          0
   305          3
   308        283
   309         57
   310         19
   311          2
   312          0