##TITLE=Library Entry 4105
##JCAMP-DX=Revision 4.10 
##DATA TYPE=MASS SPECTRUM
##SAMPLE DESCRIPTION=A.A.Kutin, Moscow, Russia
##NAMES=HP
##CAS NAME=Benzhydrazide, N2-(3,7-dimethyl-2,5-octadienylidene)-2-nitro-
##MOLFORM=C17H21N3O3
##CAS REGISTRY NO=314282-12-7
##MP= -300
##BP= -300
##MW= 315
##$RETENTION INDEX=0
##$CONDENSED SPECTRUM=NO
##NPOINTS= 230
##XYDATA=(XY..XY) 1 
    33          2
    34          2
    36          1
    37          5
    39        192
    41        999
    42         90
    43        202
    44         32
    45         12
    46          1
    48          0
    50        107
    51        278
    52         66
    53        115
    54         29
    55        143
    56         48
    57         25
    58         17
    59         16
    60          2
    61          2
    62          5
    63         26
    64         25
    65        124
    66         26
    67        235
    68         80
    69        655
    70         52
    71         22
    72         14
    73         58
    74         19
    75         33
    76        185
    77         94
    78         62
    79         87
    80         71
    81        148
    82         97
    83         51
    84         12
    85         50
    86          5
    87          1
    88          1
    89          4
    90         11
    91         63
    92         60
    93        205
    94         56
    95        166
    96         60
    97        114
    98         14
    99         11
   100          6
   101          2
   102          5
   104        102
   105         49
   106         25
   107         75
   108         32
   109         44
   110          8
   111         12
   112          4
   113          3
   114          1
   115          6
   116          3
   117          8
   118          6
   119         39
   120         39
   121        125
   122         26
   123         26
   124          8
   125         13
   126          4
   127          3
   128          3
   129          3
   130          4
   131          5
   132         11
   133         20
   134        180
   135        209
   136         38
   137         17
   138          3
   139          5
   140          2
   141          3
   142          1
   143          4
   144          3
   145          2
   146          7
   147         11
   148         31
   150        673
   151        185
   152         21
   153          5
   154          2
   155          2
   156          3
   157          8
   158          2
   159          1
   160          2
   161          4
   162          3
   163         25
   165        128
   166         20
   167         17
   168          4
   169          2
   170          1
   171          3
   172          1
   173          1
   174          0
   175          1
   176          1
   177          1
   178          0
   179          1
   180          1
   181         11
   182          5
   183          7
   184          3
   185          3
   186          1
   187          0
   188          1
   189          0
   190          0
   191          1
   192          7
   193          2
   194          1
   195          5
   196          2
   197         19
   198          3
   199          2
   200          2
   201          1
   202          1
   203          0
   204          1
   205          1
   206          2
   207          3
   208          1
   209          0
   210          0
   211          1
   212          1
   213          1
   214          0
   215          0
   216          0
   217          0
   218          0
   220          0
   221          2
   222          3
   223          0
   224          0
   225          0
   226          0
   227          0
   228          0
   230          0
   231          3
   232          5
   233          1
   235         44
   236          5
   237          0
   238          0
   241          0
   242          0
   244          3
   246         24
   247         71
   248         10
   249          1
   254          0
   256          0
   258          1
   259          0
   260          1
   264          0
   266          0
   267          0
   269          0
   270          0
   271          0
   272         11
   273          2
   274          1
   283          0
   285          1
   286          0
   287          1
   288          0
   298          2
   299          0
   300          3
   301          0
   312          0
   313          3
   315         35
   316          7
   317          0