##TITLE=Library Entry 3302
##JCAMP-DX=Revision 4.10 
##DATA TYPE=MASS SPECTRUM
##SAMPLE DESCRIPTION=NIST Mass Spectrometry Data Center
##NAMES=HP
##CAS NAME=2-Pentenoic acid, 2-methyl-
##MOLFORM=C6H10O2
##CAS REGISTRY NO=3142-72-1
##MP= -300
##BP= -300
##MW= 114
##$RETENTION INDEX=974
##$CONDENSED SPECTRUM=NO
##NPOINTS= 62
##XYDATA=(XY..XY) 1 
    14          2
    15         47
    17          4
    18         14
    19          3
    25          5
    26         54
    27        284
    28        201
    29        113
    30         12
    31         23
    32          9
    36          4
    37         20
    38         44
    39        383
    40         75
    41        999
    42        138
    43        153
    44         46
    45        155
    46          7
    47          5
    49          3
    50         14
    51         21
    52          9
    53         91
    54         23
    55        121
    56        121
    57         71
    58         18
    59          5
    60         19
    61          4
    62          4
    63          6
    65         13
    66          6
    67         73
    68         85
    69        639
    70         63
    71         49
    72         19
    73         47
    74         30
    81         23
    85          7
    86         10
    87          6
    95          6
    96         14
    97          7
    99        105
   100          7
   113          5
   114         58
   115          3