##TITLE=Library Entry 22571
##JCAMP-DX=Revision 4.10 
##DATA TYPE=MASS SPECTRUM
##SAMPLE DESCRIPTION=Chemical Concepts
##NAMES=HP
##CAS NAME=3-(antipyrin-4-yl)-5-(5-nitrosalicylidene)rhodanine
##MOLFORM=C21H16N4O5S2
##CAS REGISTRY NO=314275-32-6
##MP= -300
##BP= -300
##MW= 468
##$RETENTION INDEX=0
##$CONDENSED SPECTRUM=NO
##NPOINTS= 136
##XYDATA=(XY..XY) 1 
    33        125
    34         86
    35          6
    37          3
    38         37
    39        174
    40         42
    41        134
    42         51
    43        126
    44         63
    45         76
    48          2
    49          6
    50         58
    51        150
    52         37
    53         38
    54         31
    55        107
    56        999
    57        101
    59         10
    60         18
    61         13
    62         35
    63         71
    64         56
    65         66
    67         51
    69        108
    70         74
    71         45
    72         11
    73         16
    74         34
    76         86
    77        250
    78         24
    79         14
    80         14
    81         14
    82         48
    83        125
    84         43
    85         27
    86         12
    87         17
    88         18
    89         19
    90         14
    91         41
    92         16
    93         42
    94         18
    95         17
    96         15
    97         12
    98         11
    99          3
   100         10
   101         16
   102          9
   103         28
   104         31
   105         38
   106          8
   109         16
   111         25
   112         15
   113          3
   115          9
   116          7
   117         10
   119         50
   121         97
   122          7
   123         11
   124          5
   125         11
   127          3
   129          8
   130          6
   131          6
   132          7
   133          6
   135         38
   136         11
   137          8
   139         30
   140          5
   144          9
   145          9
   148          9
   149         56
   151          8
   152         17
   153          7
   159          3
   160         32
   161          7
   165         28
   166         10
   171         19
   172          8
   173         10
   187          5
   189          3
   190          7
   193         15
   194         16
   195         42
   196          2
   202         14
   203          2
   212          5
   213          2
   216         18
   217          1
   218          2
   219          7
   221          9
   223        126
   224          9
   225          2
   230          7
   231          1
   244         38
   245        139
   246        110
   247         34
   248          1
   366          3
   392          4
   468         13
   469          4