##TITLE=Library Entry 98662
##JCAMP-DX=Revision 4.10 
##DATA TYPE=MASS SPECTRUM
##SAMPLE DESCRIPTION=Asinex Ltd, Moscow, Russia
##NAMES=HP
##CAS NAME=Phenol, 2-[4-(2,3-dihydro-1H-indol-1-ylsulfonyl)phenyliminomethyl
]-
##MOLFORM=C21H18N2O3S
##CAS REGISTRY NO=314290-14-7
##MP= -300
##BP= -300
##MW= 378
##$RETENTION INDEX=0
##$CONDENSED SPECTRUM=NO
##NPOINTS= 230
##XYDATA=(XY..XY) 1 
    33          0
    34          1
    36          2
    37          2
    38          8
    39         45
    40         35
    41         16
    42          5
    43         12
    44         20
    45         19
    46          0
    48          3
    50         39
    51         63
    52         18
    53          7
    54          2
    55          8
    56          1
    57          5
    58          8
    60          4
    61          2
    62          9
    63         39
    64         28
    65        111
    66         12
    67          2
    69          6
    70          5
    71          3
    72          0
    73          2
    74          7
    75         18
    76         79
    77         74
    78         26
    79          8
    80          3
    81          1
    82          2
    83          4
    84          4
    85          1
    86          2
    87          2
    88          4
    89         60
    90         56
    91        414
    92         39
    93          6
    94          7
    95          4
    96          3
    97          2
    98          2
    99          1
   100          1
   101          3
   102         14
   103         17
   104         11
   105         11
   106          2
   107          2
   108          4
   109          3
   110          1
   111          1
   112          2
   113          4
   114          6
   115         44
   116         20
   117        142
   118        999
   119        242
   120         35
   121          5
   122          2
   123          1
   124          3
   125          4
   126          3
   127          6
   128         12
   129          4
   130          2
   131          2
   132          2
   133          2
   134          5
   135          4
   136          1
   137          1
   138          2
   139         27
   140         19
   141         47
   142          8
   143          2
   144          4
   145          2
   146          1
   147          1
   148          0
   149          6
   150          6
   151         37
   152         19
   153         13
   154          6
   155          5
   156          6
   157          3
   158          1
   161          0
   162          1
   163          1
   164          3
   165          9
   166         29
   167         95
   168         41
   169         18
   170          5
   171          5
   172          2
   173          0
   175          0
   176          2
   177         14
   178         12
   179         24
   180          9
   181          2
   182          1
   183          2
   184          0
   185          0
   188          0
   189          9
   190          2
   191          4
   192          5
   193          7
   194         17
   195        116
   196        430
   197        219
   198         29
   199          4
   200          4
   201          1
   202          1
   203          0
   205          1
   206          0
   207          2
   208          0
   209          1
   210          1
   212         40
   213          6
   214          0
   215          0
   216          0
   218          0
   219          1
   220          0
   221          5
   222          8
   223          1
   226          1
   227          4
   228          2
   229          2
   230          0
   235          3
   236          2
   237          0
   239          0
   240          0
   241          0
   242          0
   243          5
   244         20
   245          4
   246          1
   250          1
   251          0
   252          1
   253          1
   254          0
   255          1
   256          0
   257          1
   258          0
   259          0
   260         18
   261         27
   262          5
   263          1
   269          0
   274          5
   275          0
   276          0
   283          0
   285          0
   286          0
   296          1
   311          0
   313          2
   314          1
   316          0
   323          0
   324          0
   325          0
   375          0
   376          1
   378        292
   379         61
   380         19
   381          3
   382          0