##TITLE=Library Entry 100168
##JCAMP-DX=Revision 4.10 
##DATA TYPE=MASS SPECTRUM
##SAMPLE DESCRIPTION=A.A.Kutin, Moscow, Russia
##NAMES=HP
##CAS NAME=Acetamide, N-[1-benzylideno-2-(2,3-dihydro-1-indolyl)-2-oxoethyl]
-
##MOLFORM=C19H18N2O2
##CAS REGISTRY NO=314281-76-0
##MP= -300
##BP= -300
##MW= 306
##$RETENTION INDEX=0
##$CONDENSED SPECTRUM=NO
##NPOINTS= 75
##XYDATA=(XY..XY) 1 
    38          4
    39         37
    40         11
    41         20
    43        433
    44         13
    45          0
    50          6
    51         22
    52          5
    53          1
    54          0
    55          8
    56          2
    57          9
    58          1
    60          0
    62          6
    63         31
    64         14
    65         49
    66          2
    67          0
    68          0
    69          4
    70          3
    71          4
    73          0
    74          0
    75          2
    76          4
    77         34
    78          4
    79          1
    81          0
    82          0
    83          1
    84          1
    87          0
    89         81
    90         88
    91        167
    92         11
    93          0
    97          0
   101          0
   102          3
   103          6
   104          1
   105          2
   112          0
   115          1
   116         25
   117        129
   118        599
   119        999
   120        100
   121          2
   128         24
   129          3
   130          0
   144          0
   145          0
   146         13
   147          0
   149          1
   160          6
   171          1
   187          1
   188         49
   189          4
   208          1
   263          0
   306          7
   307          0