##TITLE=Library Entry 24407
##JCAMP-DX=Revision 4.10 
##DATA TYPE=MASS SPECTRUM
##SAMPLE DESCRIPTION=Chuck Anderson, Aldrich Chemical Co.
##NAMES=HP
##CAS NAME=3-Methyl-3-oxetanemethanol
##MOLFORM=C5H10O2
##CAS REGISTRY NO=3143-02-0
##MP= -300
##BP= -300
##MW= 102
##$RETENTION INDEX=920
##$CONDENSED SPECTRUM=NO
##NPOINTS= 50
##XYDATA=(XY..XY) 1 
    14          3
    15         18
    16          1
    17          0
    18          0
    19          2
    25          1
    26         11
    27        103
    28         29
    29        295
    30         17
    31        167
    32          3
    33          2
    36          0
    37         10
    38         27
    39        278
    40         41
    41        257
    42         47
    43        350
    44         77
    45         39
    46          1
    47          0
    49          1
    50          8
    51          9
    52          4
    53         43
    54         75
    55         35
    57        999
    58         32
    59          2
    61          0
    67          0
    68          0
    69          8
    70          3
    71         63
    72        350
    73         17
    74          1
    83          0
    84          0
    85          0
   103          2