##TITLE=Library Entry 107652
##JCAMP-DX=Revision 4.10 
##DATA TYPE=MASS SPECTRUM
##SAMPLE DESCRIPTION=Exported from NIST MS Search
##NAMES=HP
##CAS NAME=Bufa-20,22-dienolide, 3,14,15-trihydroxy-, (3.beta.,5.beta.,15.al
pha.)-
##MOLFORM=C24H34O5
##CAS REGISTRY NO=31444-11-8
##MP= -300
##BP= -300
##MW= 402
##$RETENTION INDEX=0
##$CONDENSED SPECTRUM=NO
##NPOINTS= 318
##XYDATA=(XY..XY) 1 
    41        350
    42         32
    43        450
    44        251
    45         32
    46         10
    50         10
    51         32
    52         21
    53        112
    54         30
    55        281
    56         21
    57         90
    58         60
    59         10
    60         10
    61         10
    63         10
    64         10
    65         71
    66        103
    67        480
    68         60
    69         90
    70         32
    71        101
    72         39
    73         51
    74         10
    75         10
    76         10
    77        272
    78         86
    79        510
    80        101
    81        476
    82        108
    83         82
    84         39
    85         21
    86         10
    87         21
    88         21
    89         21
    91        491
    92        108
    93        471
    94        212
    95        510
    96        151
    97        129
    98         21
    99         32
   100        303
   101        199
   102        303
   103         49
   104         43
   105        389
   106        216
   107        562
   108        497
   109        469
   110        142
   111         82
   112         30
   113         21
   114         21
   115         71
   116         21
   117        121
   118         82
   119        281
   120        129
   121        309
   122        216
   123        999
   124        272
   125        108
   126         43
   127         32
   128         49
   129         82
   130         43
   131        179
   132         49
   133        281
   134        160
   135        220
   136         90
   137        129
   138         49
   139         21
   140        103
   141         43
   142         32
   143         69
   144         60
   145        212
   147        359
   148        140
   149        162
   150         43
   151        108
   152        138
   153        212
   154         69
   155         49
   156         32
   157        108
   158         69
   159        181
   160         90
   161        173
   162        199
   163         90
   164         39
   165         49
   166         21
   167         21
   168         69
   169         60
   170         30
   171         69
   172         39
   173         90
   174         80
   175        108
   176         60
   177         60
   178         51
   179         39
   180         49
   181         30
   182         21
   183         49
   184         21
   185        101
   186         69
   187        476
   188        129
   189        129
   190         69
   191         90
   192         32
   193         32
   194         21
   195         43
   196         21
   197         60
   198         32
   199        101
   200         71
   201        162
   202         51
   203        411
   204        142
   205        229
   206         39
   207         43
   208         21
   209         32
   210         21
   211         69
   212         43
   213        121
   214         69
   215        346
   216        251
   217        199
   218         60
   219         69
   220         39
   221         28
   222         10
   223         28
   224         10
   225         28
   226         39
   227         51
   228         21
   229         49
   230         49
   231        162
   232        450
   233        212
   234        173
   235         69
   236         21
   237         21
   238         32
   239         51
   240         39
   241         73
   242         43
   243         60
   244         49
   245         49
   246         21
   247         60
   248         30
   249         39
   250        220
   251         60
   252         21
   253         21
   254         30
   255         30
   256         21
   257        129
   258         60
   259         51
   260         30
   261         90
   262         69
   263         39
   265         21
   266         13
   267         21
   268         13
   269         21
   270         21
   271         32
   272         21
   273         21
   274         21
   275         80
   276         32
   277         21
   278         21
   279         21
   280         10
   281         21
   282         10
   283         10
   284         10
   285         10
   287         21
   288         10
   289         10
   290         10
   291         21
   292         10
   293         21
   294         21
   295         34
   296         43
   297         10
   298         10
   299         10
   303         10
   304         10
   305         51
   306         21
   307         21
   308         21
   309         21
   310         21
   311         21
   312         60
   313         21
   314         21
   315         21
   316         10
   319         10
   320         43
   321         43
   322         32
   323        270
   324        121
   325         39
   326         10
   327         10
   328         10
   329         10
   330         21
   331         10
   333         71
   334         34
   335         10
   336         10
   337         32
   338         82
   339         32
   340         49
   341        238
   342         82
   343         21
   348        101
   349         30
   350         21
   351        129
   352         39
   353         10
   354         10
   355         51
   356         69
   357         21
   358         10
   359         10
   364         21
   365         10
   366        645
   367        184
   368         32
   369        142
   370         32
   371         10
   382         21
   383         10
   384        367
   385         90
   386         21
   387         10
   388         10
   402         32
   403         21