##TITLE=Library Entry 60095
##JCAMP-DX=Revision 4.10 
##DATA TYPE=MASS SPECTRUM
##SAMPLE DESCRIPTION=CARL DJERASSI DEPT OF CHEM STANFORD UNIV STANFORD CALIF
 94305
##NAMES=HP
##CAS NAME=Silane, [[4-(benzyloxy)cyclohexyl]oxy]trimethyl-, cis-
##MOLFORM=C16H26O2Si
##CAS REGISTRY NO=31447-55-9
##MP= -300
##BP= -300
##MW= 278
##$RETENTION INDEX=0
##$CONDENSED SPECTRUM=NO
##NPOINTS= 71
##XYDATA=(XY..XY) 1 
    41         30
    43         20
    45         20
    47         20
    51         20
    53         10
    54         10
    55         30
    56         10
    57         30
    59         20
    61         20
    65         50
    66         10
    67         30
    69         30
    70         10
    71         30
    73        230
    74         30
    75        120
    76         20
    77         30
    78         10
    79         40
    80         20
    81        100
    82         60
    83         20
    85         20
    89         20
    90         10
    91        999
    92        160
    93         20
    96         10
    97         70
    98         10
    99         20
   101         40
   104         40
   105         30
   106         10
   107         50
   108         20
   115         20
   116         30
   117         10
   129        130
   130         30
   131         90
   132         20
   135         20
   147         40
   149         20
   155         30
   157         20
   159         20
   165         10
   169         20
   170         70
   171         30
   172         90
   173         20
   179         90
   180         20
   181         10
   187         40
   188         60
   189         10
   263          2