##TITLE=Library Entry 30068
##JCAMP-DX=Revision 4.10 
##DATA TYPE=MASS SPECTRUM
##SAMPLE DESCRIPTION=J.VOTH UNIV. OF CALIFORNIA, DAVIS, CALIFORNIA, 95616, U
SA
##NAMES=HP
##CAS NAME=Silane, (chloromethyl)dimethyl-
##MOLFORM=C3H9ClSi
##CAS REGISTRY NO=3144-74-9
##MP= -300
##BP= -300
##MW= 108
##$RETENTION INDEX=0
##$CONDENSED SPECTRUM=NO
##NPOINTS= 79
##XYDATA=(XY..XY) 1 
    12          4
    13          7
    14         24
    15         49
    16          2
    18          1
    25          1
    26          7
    27         26
    28         71
    29        119
    30         15
    31        127
    32          5
    33          3
    35          3
    36          3
    37          1
    38          1
    39          2
    40          4
    41         29
    42         85
    43        202
    44         29
    45         53
    46          3
    47          3
    48          2
    49          1
    50          1
    51          5
    52          5
    53         36
    54          8
    55         21
    56          3
    57         38
    58         35
    59        999
    60         73
    61         34
    62          1
    63        123
    64         21
    65        287
    66         21
    67         87
    68          4
    69          3
    71          1
    72          2
    73          6
    74          3
    75          1
    76          5
    77         18
    78         18
    79        136
    80         13
    81         46
    82          3
    83          1
    90          0
    91          2
    92          7
    93        143
    94         13
    95         50
    96          3
    97          1
    99          1
   101          0
   106          1
   107         26
   108         24
   109         11
   110          8
   111          1