##TITLE=Library Entry 85892
##JCAMP-DX=Revision 4.10 
##DATA TYPE=MASS SPECTRUM
##SAMPLE DESCRIPTION=Japan AIST/NIMC Database- Spectrum MS-NW-2287
##NAMES=HP
##CAS NAME=Camphorsulfonic acid
##MOLFORM=C10H16O4S
##CAS REGISTRY NO=3144-16-9
##MP= -300
##BP= -300
##MW= 232
##$RETENTION INDEX=0
##$CONDENSED SPECTRUM=NO
##NPOINTS= 122
##XYDATA=(XY..XY) 1 
    14          1
    15         11
    16          1
    17          1
    18          3
    26          8
    27        117
    28         28
    29         77
    30          1
    31          5
    32          3
    34          2
    36          1
    37          1
    38          8
    39        165
    40         45
    41        356
    42         21
    43        141
    44          6
    45          3
    46          1
    48         18
    49          1
    50         10
    51         35
    52         22
    53        143
    54         35
    55        191
    56         12
    57         46
    58          3
    59          6
    60          2
    61          1
    62          2
    63          9
    64         36
    65         45
    66         19
    67        364
    68         48
    69        155
    70         10
    71          4
    74          1
    75          1
    76          1
    77         88
    78         20
    79        164
    80         34
    81        674
    82         64
    83         28
    84          5
    85         30
    86          2
    89          2
    90          1
    91        101
    92         18
    93        280
    94         42
    95        130
    96         15
    97         22
    98          3
    99          5
   103          4
   104          1
   105         26
   106         52
   107        294
   108        167
   109        999
   110         87
   111          6
   115          1
   117          3
   118          1
   119          4
   120          1
   121         19
   122         21
   123        493
   124         52
   125          3
   131          1
   132          2
   133         66
   134          8
   135         23
   136          3
   137          7
   138          1
   148          1
   149          2
   150         61
   151        603
   152        129
   153         56
   154          6
   161          4
   163          5
   167          1
   168         30
   169          4
   175          9
   176          2
   188          9
   189          9
   190          2
   191          1
   214          1
   215          4
   232         13
   233          2
   234          1