##TITLE=Library Entry 15161
##JCAMP-DX=Revision 4.10 
##DATA TYPE=MASS SPECTRUM
##SAMPLE DESCRIPTION=S.M.A.HAI PHARM. RES. DIV., CSIR., KARACHI, PAKISTAN
##NAMES=HP
##CAS NAME=Hydrazinecarboxylic acid, 2-ethyl-, methyl ester
##MOLFORM=C4H10N2O2
##CAS REGISTRY NO=31457-73-5
##MP= -300
##BP= -300
##MW= 118
##$RETENTION INDEX=0
##$CONDENSED SPECTRUM=NO
##NPOINTS= 17
##XYDATA=(XY..XY) 1 
    15        486
    28        432
    29        432
    30        126
    31        972
    33        162
    43         70
    44        999
    45        120
    58         48
    59        783
    71        576
    76        198
    85         60
   103        234
   118        120
   119          6