##TITLE=Library Entry 87061
##JCAMP-DX=Revision 4.10 
##DATA TYPE=MASS SPECTRUM
##SAMPLE DESCRIPTION=V.A. KOPTYUG, VOL5, ATLAS OF MS OF ORGANIC COMPOUNDS
##NAMES=HP
##CAS NAME=5-Methoxypyrimidine
##MOLFORM=C5H6N2O
##CAS REGISTRY NO=31458-33-0
##MP= -300
##BP= -300
##MW= 110
##$RETENTION INDEX=0
##$CONDENSED SPECTRUM=NO
##NPOINTS= 34
##XYDATA=(XY..XY) 1 
    37          2
    38         12
    39         35
    40        130
    41         14
    42         24
    43          1
    44          1
    50          3
    51         35
    52         66
    53         12
    54          6
    55          5
    56        413
    57         14
    66         14
    67         11
    68        211
    69          7
    77          3
    79         13
    80          6
    81          2
    82          4
    83         92
    84          4
    94         10
    95          2
    96          2
   109          7
   110        999
   111         73
   112          4