##TITLE=Library Entry 37557
##JCAMP-DX=Revision 4.10 
##DATA TYPE=MASS SPECTRUM
##SAMPLE DESCRIPTION=NIST Mass Spectrometry Data Center
##NAMES=HP
##CAS NAME=1-Methoxy-2-methylprop-1-en-1-ol, TMS derivative
##MOLFORM=C8H18O2Si
##CAS REGISTRY NO=31469-15-5
##MP= -300
##BP= -300
##MW= 174
##$RETENTION INDEX=0
##$CONDENSED SPECTRUM=NO
##NPOINTS= 80
##XYDATA=(XY..XY) 1 
    12          1
    13          1
    15        104
    16          1
    18          2
    26          6
    27         34
    28         23
    29         51
    30          5
    31         22
    32          1
    33          1
    37          2
    39         79
    40         25
    41        187
    42        309
    43        151
    44         53
    45        250
    46         17
    47         44
    48          2
    49          2
    50          1
    51          2
    53         12
    55         94
    56          8
    57         23
    58         36
    59        158
    60         16
    61         19
    62          1
    64          1
    65          1
    66          1
    67          4
    69        126
    70        999
    71         52
    73        740
    74         65
    75         88
    76          6
    77          3
    80          1
    83          2
    85          4
    89        248
    90         19
    91         10
    97          1
    99          4
   100          1
   101          5
   103          3
   105         19
   106          2
   107          1
   113          1
   115          9
   116          2
   127          2
   128          1
   129          6
   131          4
   143          8
   144          2
   146          2
   157          2
   159         33
   160          4
   161          1
   171          1
   174        117
   175         16
   176          5