##TITLE=Library Entry 15131
##JCAMP-DX=Revision 4.10 
##DATA TYPE=MASS SPECTRUM
##SAMPLE DESCRIPTION=Japan AIST/NIMC Database- Spectrum MS-NW-2400
##NAMES=HP
##CAS NAME=Glycine, N-(N-L-alanylglycyl)-
##MOLFORM=C7H13N3O4
##CAS REGISTRY NO=3146-40-5
##MP= -300
##BP= -300
##MW= 203
##$RETENTION INDEX=0
##$CONDENSED SPECTRUM=NO
##NPOINTS= 119
##XYDATA=(XY..XY) 1 
    12          1
    13          1
    14          7
    15         21
    16          7
    17          4
    18         12
    25          1
    26          9
    27         36
    28        155
    29         40
    30        337
    31          9
    32          2
    37          1
    38          4
    39          9
    40         17
    41         34
    42         76
    43         45
    44        999
    45         29
    46          1
    51          2
    52          5
    53          5
    54         17
    55         25
    56         49
    57         42
    58          8
    59         13
    60          3
    65          1
    66          2
    67          8
    68         15
    69         10
    70          9
    71          9
    72          4
    73          9
    74          4
    75          6
    76          7
    77          1
    79          1
    80          2
    81          5
    82          6
    83          4
    84          6
    85        133
    86          9
    87          1
    88          1
    89          1
    91          2
    92          1
    93          1
    94          3
    95          3
    96          7
    97          4
    98          3
    99         12
   100          5
   101          6
   102          1
   107          1
   108          1
   109          1
   110          6
   111          3
   112          3
   113         13
   114          6
   115          1
   117          3
   122          3
   123          2
   124          8
   125          2
   126          3
   127          2
   128         28
   129          6
   132          2
   133          1
   136          1
   137          1
   138          2
   139          8
   140          2
   141          1
   142          3
   143          1
   146          4
   149          1
   150          1
   152          1
   153          2
   155          1
   159          1
   160         12
   161          1
   164          1
   165          2
   166          1
   167         15
   168          6
   170          1
   171          1
   172          1
   181          2
   185          1
   203          1