##TITLE=Library Entry 88797
##JCAMP-DX=Revision 4.10 
##DATA TYPE=MASS SPECTRUM
##SAMPLE DESCRIPTION=A.A.Kutin, Moscow, Russia
##NAMES=HP
##CAS NAME=Butanoic acid, 3-(2-thenoylhydrazono)-, ethyl ester
##MOLFORM=C11H14N2O3S
##CAS REGISTRY NO=314765-48-5
##MP= -300
##BP= -300
##MW= 254
##$RETENTION INDEX=0
##$CONDENSED SPECTRUM=NO
##NPOINTS= 142
##XYDATA=(XY..XY) 1 
    33          2
    34          1
    36          1
    37          3
    39        247
    41         90
    42         33
    43         31
    45         46
    46          1
    47          2
    49          1
    50          4
    51          3
    53         10
    54          9
    55          8
    57         34
    58         11
    59          4
    60          3
    61          1
    62          0
    63          0
    64          1
    65          1
    66          1
    67          3
    69         14
    70          7
    71          6
    72          1
    73          2
    74          0
    75          0
    76          0
    77          3
    78          0
    79          0
    81          7
    83         87
    84         11
    85          7
    86          2
    87          0
    88          1
    89          0
    91          1
    92          0
    93          0
    94          0
    95          1
    97         11
    98         16
    99          5
   100          0
   101          0
   102          0
   103          0
   104          0
   105          1
   106          0
   107          0
   111        999
   112         60
   113         54
   114          2
   115          0
   116          0
   117          0
   118          0
   119          0
   120          1
   121          0
   122          0
   124         11
   125          4
   126          4
   127          6
   128          3
   129          1
   130          0
   131          0
   134          0
   135          0
   136          1
   137          0
   138          0
   139          0
   140          1
   141          0
   142          0
   143          0
   144          0
   145          0
   146          0
   147          0
   149          3
   150          0
   151          0
   152          0
   153          0
   155          0
   157          0
   160          0
   163          0
   164          0
   165          2
   167        371
   168         31
   169         19
   170          1
   171          0
   175          0
   176          1
   177          0
   179          0
   180          1
   181          7
   182          1
   183          0
   185          0
   192          0
   193          0
   195          0
   207          0
   208          3
   209         18
   210          2
   211          2
   212          0
   221          0
   222          0
   231          0
   237          0
   239         13
   240          1
   241          0
   254         56
   255          7
   256          3
   257          0