##TITLE=Library Entry 89778
##JCAMP-DX=Revision 4.10 
##DATA TYPE=MASS SPECTRUM
##SAMPLE DESCRIPTION=Klyuev Nikolay, RAS, A.N. Severtzov Institute of Ecolog
y and Evolution
##NAMES=HP
##CAS NAME=1,3-Dimethyl-2,5-dioxoimidazo[4,5-d]imidazol, perhydro
##MOLFORM=C8H14N4O2
##CAS REGISTRY NO=314767-27-6
##MP= -300
##BP= -300
##MW= 198
##$RETENTION INDEX=0
##$CONDENSED SPECTRUM=NO
##NPOINTS= 40
##XYDATA=(XY..XY) 1 
    15         28
    18         34
    27         86
    29        193
    40         28
    41         64
    42        160
    43         77
    44        276
    54         35
    55         65
    56        298
    57         64
    69        187
    70         64
    71        103
    72         47
    73         25
    83        153
    84        186
    85        101
    97         44
    98        116
    99         95
   111         23
   112        999
   113         81
   115        261
   116         24
   125         39
   126        130
   127         96
   140         37
   154         30
   155         24
   170         26
   183        363
   184         41
   198        405
   199         55