##TITLE=Library Entry 14214
##JCAMP-DX=Revision 4.10 
##DATA TYPE=MASS SPECTRUM
##SAMPLE DESCRIPTION=A.A.Kutin, Moscow, Russia
##NAMES=HP
##CAS NAME=Benzenamine, 4-chloro-N-(5-methyl-2-furfurylidene)-3-nitro-
##MOLFORM=C12H9ClN2O3
##CAS REGISTRY NO=314765-41-8
##MP= -300
##BP= -300
##MW= 264
##$RETENTION INDEX=0
##$CONDENSED SPECTRUM=NO
##NPOINTS= 177
##XYDATA=(XY..XY) 1 
    33         11
    35          3
    36         12
    37         25
    39        182
    40         19
    43        999
    46         27
    47          3
    50        164
    51        232
    52        104
    53        188
    54         22
    55          9
    56          1
    61         28
    63        180
    64         46
    65         63
    66         20
    67          3
    68          2
    69          3
    70          2
    73         91
    74         97
    75        188
    76         32
    77         52
    79        380
    81         57
    82         14
    84         27
    85         11
    86         15
    87         20
    88         26
    89         15
    90         10
    91         13
    92         10
    94         36
    95         13
    97         44
    98         23
    99         20
   100         14
   101         26
   102         19
   103         12
   104          7
   105          5
   106         10
   109         57
   110         96
   111         20
   112         35
   113         21
   114         22
   115         40
   116         12
   117          4
   118          5
   120         28
   121          2
   123         11
   124         47
   127        201
   128        112
   129         22
   130          8
   131         13
   132         13
   133          5
   134          0
   135          1
   136         10
   137         26
   138         18
   140        130
   141         42
   142         19
   143         17
   144          5
   145          1
   146          0
   147          3
   148         10
   149         20
   150         24
   151         16
   152         26
   154        265
   155        163
   156         36
   157          9
   158          2
   159          2
   160          0
   161          2
   162         12
   163         20
   164         23
   165         23
   166         13
   167         10
   168         17
   169          7
   170         21
   171         37
   172          7
   174         14
   175         52
   176         31
   177         25
   178         18
   179          9
   180         10
   182        167
   183        303
   184         43
   185          7
   188         17
   189         24
   190         28
   191         24
   192         19
   193         11
   194          5
   195          1
   196          0
   197          0
   198          3
   199          9
   200          5
   201         12
   202         11
   203         65
   204         26
   205         66
   206         18
   207         18
   208          3
   209          0
   211          0
   212          0
   214          2
   217        157
   218         73
   219         52
   220         22
   221          9
   222          5
   223          1
   224          1
   230          0
   232          1
   233          2
   234          8
   235          1
   236          2
   244          0
   245          2
   247        132
   248         22
   249         47
   250          7
   251          2
   260          2
   261         21
   262         30
   264        943
   265        146
   266        272
   267         34
   268          3