##TITLE=Library Entry 80155
##JCAMP-DX=Revision 4.10 
##DATA TYPE=MASS SPECTRUM
##SAMPLE DESCRIPTION=Asinex Ltd, Moscow, Russia
##NAMES=HP
##CAS NAME=Acethydrazide, N2-(3-oxo-1,3-diphenylpropylidene)-2-phenoxy-
##MOLFORM=C23H20N2O3
##CAS REGISTRY NO=314765-69-0
##MP= -300
##BP= -300
##MW= 372
##$RETENTION INDEX=0
##$CONDENSED SPECTRUM=NO
##NPOINTS= 216
##XYDATA=(XY..XY) 1 
    39         14
    40          1
    42          3
    43          3
    44          0
    51         50
    52          4
    53          2
    55          1
    56          0
    63         13
    65         27
    66          2
    67          0
    69          4
    70          2
    74          3
    75          6
    77        428
    78         45
    79         34
    81          0
    82          0
    83          0
    85          0
    86          0
    87          1
    89         13
    91         36
    92          5
    93          4
    94         16
    95          2
    96          0
    97          0
    98          0
    99          0
   103        132
   105        999
   107        132
   108          7
   109          1
   110          0
   111          0
   112          0
   113          1
   114          2
   115          9
   116          6
   117         10
   118         13
   119         12
   120         13
   121          2
   122          0
   123          0
   125          0
   126          1
   127          2
   128          4
   130         27
   131         33
   132          5
   133          5
   134          3
   135          2
   136          0
   137          0
   139          4
   140          2
   141          3
   142          0
   143          0
   144          5
   145         15
   146         14
   147          9
   148          2
   149          5
   150          2
   151          4
   152          8
   153          3
   154          0
   156          1
   157          7
   158          3
   159          7
   160          5
   161          9
   162          3
   163          4
   165         33
   166         10
   167          3
   168          1
   169          8
   170          1
   171          1
   173          7
   174          2
   175          0
   176          6
   177          5
   178         20
   179         17
   180          4
   181          4
   182          0
   183          0
   184          0
   186          0
   187          2
   188          3
   189         24
   190          8
   191         31
   192         13
   193          6
   194         13
   195          7
   196          1
   197          1
   201          0
   202          1
   203          1
   204          3
   205          2
   206          3
   207         12
   208         14
   209          5
   210          2
   211          1
   212          0
   214          0
   215          0
   216          1
   217          1
   218          1
   220         95
   221        101
   222        178
   223         57
   224         26
   225          4
   226          0
   227          0
   228          0
   229          0
   230          0
   231          1
   233         83
   234         15
   235          1
   236          2
   237         21
   238         10
   239          2
   240          0
   244          1
   245          0
   246          0
   247          0
   248          0
   249          6
   251         65
   252         19
   253        116
   254         20
   255          1
   256          0
   259          2
   260          9
   261          5
   262          1
   263          0
   265        210
   266         38
   267         11
   268          1
   269          0
   274          1
   276          3
   277          1
   279         40
   280          7
   281          1
   292          0
   293          0
   294          0
   295          1
   296          2
   297          1
   298          0
   300          3
   301          0
   313          0
   314          0
   323          0
   324          0
   325          0
   327          2
   328          0
   343          0
   344          1
   345          0
   354         35
   355         10
   356          1
   357          0
   371         17
   372        353
   373         86
   374         13
   375          1