##TITLE=Library Entry 85282
##JCAMP-DX=Revision 4.10 
##DATA TYPE=MASS SPECTRUM
##SAMPLE DESCRIPTION=NIST Mass Spectrometry Data Center, 1994
##NAMES=HP
##CAS NAME=2,6-Dihydroxybenzamide
##MOLFORM=C7H7NO3
##CAS REGISTRY NO=3147-50-0
##MP= -300
##BP= -300
##MW= 153
##$RETENTION INDEX=0
##$CONDENSED SPECTRUM=NO
##NPOINTS= 64
##XYDATA=(XY..XY) 1 
    12          7
    14         10
    15          9
    16         31
    17         41
    18        102
    19          9
    26         35
    27         71
    28         65
    29         68
    31          9
    36          6
    37         50
    38         99
    39        202
    40         43
    41         54
    42         42
    43         26
    44        151
    45          9
    49         24
    50         84
    51        169
    52        297
    53        198
    54         45
    55         80
    60          6
    61         29
    62         60
    63         89
    64         21
    65         16
    66         20
    67         20
    68         53
    69         86
    70         25
    73          6
    74         11
    75         10
    76         12
    77         28
    78         33
    79        120
    80        246
    81         84
    82          8
    91         17
    95         13
    96          8
   107        223
   108        999
   109         75
   110         10
   111         16
   124         14
   136        783
   137        102
   138         12
   153        576
   154         46