##TITLE=Library Entry 13123
##JCAMP-DX=Revision 4.10 
##DATA TYPE=MASS SPECTRUM
##SAMPLE DESCRIPTION=A.A.Kutin, Moscow, Russia
##NAMES=HP
##CAS NAME=Acetic acid, (1,2,3,4,5,6,7,8-octahydro-3,8,8-trimethylnaphth-2-y
l)methyl ester
##MOLFORM=C16H26O2
##CAS REGISTRY NO=314773-27-8
##MP= -300
##BP= -300
##MW= 250
##$RETENTION INDEX=0
##$CONDENSED SPECTRUM=NO
##NPOINTS= 203
##XYDATA=(XY..XY) 1 
    37          2
    38          6
    39        128
    40         57
    41        381
    42         50
    43        999
    44         46
    45         14
    46          1
    50          8
    51         32
    52         17
    53         99
    54         16
    55        258
    56         26
    57         42
    58          5
    59          8
    60          4
    61         19
    62          2
    63         12
    64          7
    65         68
    66         18
    67        129
    68         17
    69        172
    70         19
    71         23
    72          4
    73         13
    74          2
    75          3
    76          4
    77        179
    78         47
    79        222
    80         37
    81        182
    82         29
    83         51
    84         10
    85         13
    86          2
    87          2
    88          1
    89          8
    91        378
    92         81
    93        261
    94         59
    95        173
    96         26
    97         23
    98          5
    99          5
   100          1
   101          2
   102          6
   103         37
   104         25
   105        540
   106        135
   107        201
   108         58
   109         84
   110         16
   111         11
   112          4
   113          3
   114          1
   115         56
   116         22
   117         86
   118         50
   119        497
   120        212
   121        214
   122         75
   123         39
   124          9
   125          9
   126          5
   127         10
   128         30
   129         34
   130         16
   131         84
   132         35
   133        282
   134        202
   135         90
   136         22
   137         32
   138         13
   139          8
   140          2
   141         11
   142          8
   143         18
   144         11
   145         63
   146         27
   147        263
   148        102
   149         66
   150         46
   151         18
   152          8
   153          6
   154          2
   155          5
   156          4
   157         10
   158          7
   159         36
   160         14
   161         87
   162         58
   163         32
   164         22
   165         10
   166          6
   167          3
   168          1
   169          2
   170          2
   171         14
   172          4
   173         51
   174         17
   175        796
   176        129
   177         33
   178         12
   179          6
   180          2
   181          1
   182          1
   183          2
   184          1
   185          4
   186          7
   187         25
   188         61
   189        127
   190        422
   191         94
   192         14
   193          8
   194          2
   195          1
   196          1
   197          3
   198          0
   199          2
   200          1
   201          4
   202         12
   203         12
   204         48
   205         28
   206         18
   207          8
   208          5
   209          2
   210          1
   211          1
   212          0
   213          1
   214          1
   215          2
   216          1
   217          2
   218          5
   219          4
   220          9
   221          7
   222          4
   223          4
   224          2
   225          2
   226          0
   227          1
   228          0
   229          2
   230          1
   231          1
   232          1
   233          2
   234          1
   235         15
   236          4
   237          1
   248          0
   249          4
   250         68
   251         13
   252          2
   253          0