##TITLE=Library Entry 100217
##JCAMP-DX=Revision 4.10 
##DATA TYPE=MASS SPECTRUM
##SAMPLE DESCRIPTION=A.A.Kutin, Moscow, Russia
##NAMES=HP
##CAS NAME=Propionitrile, 3-(4-butoxybenzylidenhydrazino)-3-oxo-
##MOLFORM=C14H17N3O2
##CAS REGISTRY NO=314753-98-5
##MP= -300
##BP= -300
##MW= 259
##$RETENTION INDEX=0
##$CONDENSED SPECTRUM=NO
##NPOINTS= 130
##XYDATA=(XY..XY) 1 
    33          0
    34          0
    35          0
    36          1
    37          5
    39        153
    40        120
    41        243
    42         34
    43         24
    44         13
    45          0
    50         43
    51         87
    52         42
    53         38
    55         44
    56         49
    57        132
    58          4
    59          0
    62         19
    63         55
    64         36
    65         51
    66          9
    68        125
    69          4
    70          1
    71          0
    74          7
    75         12
    76         22
    77         73
    78         53
    79         27
    80         47
    81         22
    82          2
    83          0
    85         12
    86          1
    87          2
    89         20
    90         38
    91         33
    92         16
    93         16
    94         13
    95          1
    97          0
    98          0
    99          0
   102         10
   103         10
   105         50
   106         29
   107         25
   108         28
   109          3
   110          1
   112          0
   114          0
   115          1
   116          5
   117         24
   119        999
   120        257
   121         26
   122          2
   127          0
   128          0
   129          0
   131          2
   132          3
   133          5
   135         78
   136         12
   137          0
   141          0
   142          0
   143          0
   144          1
   145          2
   146          2
   147          2
   148          0
   149          1
   157          0
   158          0
   160          3
   161          1
   162         11
   163         14
   164          1
   169          0
   171          0
   172          1
   173          1
   174          2
   175         20
   176         15
   177          3
   178          0
   185          0
   186          1
   187          0
   188          0
   189          0
   190          0
   191          4
   192          1
   202         10
   203         10
   204          1
   205          0
   216          3
   217          0
   219          2
   228          0
   229          0
   232          0
   243          1
   244          0
   254          0
   256          3
   257          3
   259        154
   260         22
   261          2