##TITLE=Library Entry 88923
##JCAMP-DX=Revision 4.10 
##DATA TYPE=MASS SPECTRUM
##SAMPLE DESCRIPTION=DB-27-6
##NAMES=HP
##CAS NAME=.alpha.-D-Glucopyranoside, phenyl 2,3,4,6-tetra-O-methyl-
##MOLFORM=C16H24O6
##CAS REGISTRY NO=3149-61-9
##MP= -300
##BP= -300
##MW= 312
##$RETENTION INDEX=0
##$CONDENSED SPECTRUM=NO
##NPOINTS= 36
##XYDATA=(XY..XY) 1 
    45        650
    55         90
    57        120
    59        140
    69         70
    70         10
    71        480
    73        190
    74         50
    75        410
    77         50
    81         70
    83         80
    85        120
    88        120
    89        260
    94         50
    95        180
    99        170
   101        840
   102         60
   111        999
   112         80
   113         60
   115         60
   116         60
   127        240
   129         60
   131         60
   143         50
   145         70
   155        240
   187        930
   188        120
   218        210
   219        100