##TITLE=Library Entry 96596
##JCAMP-DX=Revision 4.10 
##DATA TYPE=MASS SPECTRUM
##SAMPLE DESCRIPTION=Japan AIST/NIMC Database- Spectrum MS-IW-7989
##NAMES=HP
##CAS NAME=(4Balpha,5beta,9beta,9aalpha)-4b,9,9a,10-tetrahydro-5,9-ethenoben
z(a)azulen-8(5H)-one
##MOLFORM=C16H14O
##CAS REGISTRY NO=31502-99-5
##MP= -300
##BP= -300
##MW= 222
##$RETENTION INDEX=0
##$CONDENSED SPECTRUM=NO
##NPOINTS= 123
##XYDATA=(XY..XY) 1 
    26          1
    27          7
    28          5
    38          2
    39         23
    40          2
    41          2
    43          1
    50          9
    51         22
    52          9
    53          5
    55         11
    57          7
    58          5
    61          1
    62          7
    63         25
    64          5
    65         15
    66          4
    69          7
    70          2
    71          2
    74          6
    75          8
    76         18
    77         29
    78         16
    79         14
    80          1
    81          6
    82         25
    83         21
    84          2
    86          3
    87          5
    88          9
    89         57
    90          5
    91         11
    92          1
    93          1
    94         11
    95         11
    96         18
    97          4
    98          2
    99          1
   101          5
   102          8
   103          6
   104          2
   105          2
   106         13
   107        562
   108         42
   109          3
   110          5
   111         14
   113          6
   114          7
   115        269
   116        999
   117        100
   118          6
   126          5
   127         17
   128        138
   129        107
   130         10
   131          6
   138          1
   139         12
   140          3
   141         26
   142         17
   143          3
   144          1
   145          1
   150          3
   151         10
   152         49
   153         23
   154          6
   155          2
   156          2
   163          8
   164          9
   165        103
   166         47
   167         59
   168          9
   169          1
   176          6
   177          8
   178         84
   179         69
   180         11
   181          5
   187          1
   188          1
   189         15
   190          9
   191         17
   192          7
   193         18
   194          8
   195          3
   201          1
   202          9
   203         29
   204         17
   205         21
   206          4
   207         11
   208          2
   219          2
   220          2
   221         30
   222        379
   223         66
   224          6