##TITLE=Library Entry 81433
##JCAMP-DX=Revision 4.10 
##DATA TYPE=MASS SPECTRUM
##SAMPLE DESCRIPTION=Chemical Concepts
##NAMES=HP
##CAS NAME=Benzeneacetic acid, .alpha.-methyl-, methyl ester
##MOLFORM=C10H12O2
##CAS REGISTRY NO=31508-44-8
##MP= -300
##BP= -300
##MW= 164
##$RETENTION INDEX=1193
##$CONDENSED SPECTRUM=NO
##NPOINTS= 62
##XYDATA=(XY..XY) 1 
    26          2
    27         41
    29         11
    30          3
    31          1
    37          1
    38          6
    39         32
    40          2
    41          4
    42          0
    43          4
    49          1
    50         23
    51         64
    52         14
    53         11
    55          1
    57          0
    59         16
    60          1
    61          2
    62          7
    63         20
    64          6
    65         12
    66          1
    67          1
    71          1
    72          1
    73          1
    74          8
    75         12
    76          8
    77        118
    78         45
    79         96
    80          5
    86          1
    87          1
    89         12
    90          5
    91         13
    92          1
    96          2
    98          1
   101          4
   102          7
   103         66
   104         46
   105        999
   106         84
   107          5
   115          1
   121          7
   132          2
   133          3
   149          1
   162          1
   164        182
   165         18
   166          1