##TITLE=Library Entry 60111
##JCAMP-DX=Revision 4.10 
##DATA TYPE=MASS SPECTRUM
##SAMPLE DESCRIPTION=Japan AIST/NIMC Database- Spectrum MS-IW-1209
##NAMES=HP
##CAS NAME=.beta.-D-Galactopyranoside, 4-nitrophenyl
##MOLFORM=C12H15NO8
##CAS REGISTRY NO=3150-24-1
##MP= -300
##BP= -300
##MW= 301
##$RETENTION INDEX=0
##$CONDENSED SPECTRUM=NO
##NPOINTS= 181
##XYDATA=(XY..XY) 1 
    14          5
    15         31
    16          1
    17          9
    18         31
    19          3
    25          2
    26         17
    27         69
    28         66
    29        138
    30         43
    31        147
    32          9
    33          1
    36          1
    37         11
    38         33
    39        212
    40         16
    41        102
    42         67
    43        252
    44         69
    45        191
    46          7
    47         26
    49          7
    50         40
    51         32
    52         22
    53         94
    54         21
    55        118
    56         85
    57        348
    58         30
    59         35
    60        349
    61        275
    62         35
    63         77
    64         46
    65        374
    66         31
    67         16
    68         21
    69        224
    70         80
    71        215
    72         64
    73        947
    74        100
    75         56
    76         36
    77         34
    78         12
    79         14
    80         23
    81        131
    82         17
    83         27
    84         17
    85        445
    86         59
    87        140
    88         15
    89         45
    90         25
    91        999
    92         59
    93        182
    94         42
    95         20
    96         14
    97        192
    98         54
    99         56
   100          6
   101         90
   102         19
   103        120
   104          8
   105          6
   106          9
   107         22
   108         16
   109        323
   110         28
   111          9
   112          5
   113         25
   114         17
   115         78
   116         12
   117          8
   118          6
   119          7
   120          5
   121          6
   122         13
   123        158
   124         25
   125          7
   126          6
   127        175
   128         13
   129          8
   130          2
   131         19
   132          6
   133         19
   134          6
   135          8
   136         14
   137          7
   138          2
   139        752
   140        145
   141         16
   142          3
   143          3
   144         39
   145        348
   146         26
   147          8
   148          2
   149          4
   150          1
   151          3
   152         20
   153          3
   154          1
   155          1
   157          2
   158          1
   159          1
   160          1
   161          2
   162          9
   163        224
   164         18
   165         18
   166          3
   167          1
   168          7
   169          1
   171          2
   173          1
   175          1
   176          2
   177          1
   178          1
   179          1
   180          1
   181         14
   182         13
   183          1
   185          2
   187          1
   189          1
   191          1
   192          2
   193          1
   194          3
   195          1
   199          1
   203          1
   204          1
   206          1
   210          3
   211          1
   212          4
   213          2
   220          1
   227          1
   236          1
   256          2
   271          1
   301          1
   302          1