##TITLE=Library Entry 23436
##JCAMP-DX=Revision 4.10 
##DATA TYPE=MASS SPECTRUM
##SAMPLE DESCRIPTION=NIST Mass Spectrometry Data Center, 1990.
##NAMES=HP
##CAS NAME=2-Nonen-1-ol, (E)-
##MOLFORM=C9H18O
##CAS REGISTRY NO=31502-14-4
##MP= -300
##BP= -300
##MW= 142
##$RETENTION INDEX=1176
##$CONDENSED SPECTRUM=NO
##NPOINTS= 81
##XYDATA=(XY..XY) 1 
    12          0
    15         22
    17          1
    18          4
    19          0
    26         35
    27        406
    28         84
    29        492
    30         20
    31        132
    33          0
    37          3
    39        309
    40         70
    41        671
    42        205
    43        546
    44        147
    45         38
    46          1
    47          0
    50         12
    51         28
    52         18
    53         93
    54        227
    55        394
    56        227
    57        999
    58         73
    59          7
    61          0
    62          2
    63          5
    65         27
    66         40
    67        226
    68        232
    69        190
    70        137
    71        110
    72         36
    73          6
    74          1
    77         14
    78          4
    79         30
    80          1
    81        188
    82        230
    83         59
    84         15
    85         31
    86         10
    87          1
    91          3
    92          0
    93          6
    94          0
    95        173
    96        109
    97         13
    98         15
    99         26
   100          2
   101          0
   107          1
   109         17
   110          1
   111          2
   112          1
   113          6
   114          3
   115          0
   124         28
   125          3
   126          0
   141          0
   142          4
   143          0