##TITLE=Library Entry 3222
##JCAMP-DX=Revision 4.10 
##DATA TYPE=MASS SPECTRUM
##SAMPLE DESCRIPTION=Exported from NIST MS Search
##NAMES=HP
##CAS NAME=6-Nonen-1-ol, (E)-
##MOLFORM=C9H18O
##CAS REGISTRY NO=31502-19-9
##MP= -300
##BP= -300
##MW= 142
##$RETENTION INDEX=1732
##$CONDENSED SPECTRUM=NO
##NPOINTS= 66
##XYDATA=(XY..XY) 1 
    15         12
    17          7
    18         29
    19         13
    26         14
    27        220
    28         58
    29        282
    30         10
    31        279
    37          6
    38          9
    39        255
    40         49
    41        999
    42        180
    43        214
    44         61
    45         44
    50          8
    51         26
    52         16
    53        140
    54        344
    55        598
    56        134
    57        209
    58         19
    59         21
    63          7
    65         30
    66         61
    67        855
    68        546
    69        344
    70         78
    71         44
    72         15
    73         11
    74          9
    77         25
    78          6
    79         51
    80         25
    81        382
    82        535
    83         93
    84         14
    85         15
    91         12
    93         24
    94         19
    95        605
    96        174
    97         23
    98         18
    99         12
   107          4
   109         34
   111          4
   114          6
   122         11
   123          5
   124        128
   125         14
   142         10