##TITLE=Library Entry 51331
##JCAMP-DX=Revision 4.10 
##DATA TYPE=MASS SPECTRUM
##SAMPLE DESCRIPTION=Japan AIST/NIMC Database- Spectrum MS-NW-3454
##NAMES=HP
##CAS NAME=Hexanoic acid, 3-hexenyl ester, (Z)-
##MOLFORM=C12H22O2
##CAS REGISTRY NO=31501-11-8
##MP= -300
##BP= -300
##MW= 198
##$RETENTION INDEX=1380
##$CONDENSED SPECTRUM=NO
##NPOINTS= 77
##XYDATA=(XY..XY) 1 
    14          1
    15          5
    17          2
    18          7
    26          8
    27        101
    28         18
    29         92
    30          3
    31          4
    32          2
    37          2
    38          6
    39        101
    40         18
    41        236
    42         55
    43        311
    44         10
    45          5
    49          1
    50          6
    51         11
    52          6
    53         41
    54         61
    55        201
    56         23
    57          9
    58          4
    59          2
    60         17
    61          3
    62          2
    63          3
    64          1
    65         13
    66          9
    67        586
    68         42
    69         28
    70         12
    71        175
    72         10
    73         13
    74          3
    75          2
    77          5
    78          2
    79         14
    80          8
    81         56
    82        999
    83        125
    84          9
    85          2
    86          2
    87          8
    88          1
    89          2
    95          1
    96          2
    97          6
    98         20
    99        342
   100         23
   101          4
   105          1
   114          4
   115          4
   116          3
   117         16
   118          1
   127          1
   129          1
   142          1
   143          1