##TITLE=Library Entry 83490
##JCAMP-DX=Revision 4.10 
##DATA TYPE=MASS SPECTRUM
##SAMPLE DESCRIPTION=S.A. Rang et al., IR & MS of Unsatd. Hydrocarbons, 1977
##NAMES=HP
##CAS NAME=1-Hepten-4-yne, 6,6-dimethyl-
##MOLFORM=C9H14
##CAS REGISTRY NO=31508-08-4
##MP= -300
##BP= -300
##MW= 122
##$RETENTION INDEX=0
##$CONDENSED SPECTRUM=NO
##NPOINTS= 39
##XYDATA=(XY..XY) 1 
    15        104
    26         47
    27         32
    29        221
    39        389
    41        368
    42         17
    43         15
    50         52
    51        156
    52         62
    53        165
    54         13
    55         80
    56         20
    57        173
    62         28
    63         99
    64         22
    65        223
    66         47
    67        107
    75        285
    76         50
    77        466
    78         52
    79         62
    89         13
    90         20
    91        323
    92        182
    93         32
   103         26
   105        253
   106         45
   107        999
   121         18
   122        110
   123         11