##TITLE=Library Entry 77841
##JCAMP-DX=Revision 4.10 
##DATA TYPE=MASS SPECTRUM
##SAMPLE DESCRIPTION=Japan AIST/NIMC Database- Spectrum MS-IW-7987
##NAMES=HP
##CAS NAME=(1Alpha,5alpha,9R*)-9-phenylbicyclo(3.2.2)nona-3,6-dien-2-one
##MOLFORM=C15H14O
##CAS REGISTRY NO=31502-96-2
##MP= -300
##BP= -300
##MW= 210
##$RETENTION INDEX=0
##$CONDENSED SPECTRUM=NO
##NPOINTS= 112
##XYDATA=(XY..XY) 1 
    26          1
    27         10
    28          1
    38          2
    39         26
    40          2
    41          4
    50         11
    51         43
    52         17
    53          9
    54          1
    55         15
    57          1
    62          4
    63         20
    64         10
    65         27
    66          3
    67          4
    69          2
    70          2
    71          1
    74          5
    75          8
    76         31
    77         84
    78         84
    79         14
    80          1
    81          3
    82         13
    83         14
    86          1
    87          2
    88          4
    89         39
    90         11
    91        143
    92         33
    93          2
    94          2
    95          4
    98          1
   101          3
   102         17
   103         80
   104        999
   105        114
   106         19
   107         20
   108          3
   113          1
   114          1
   115         88
   116         62
   117         60
   118         47
   119        158
   120         12
   126          4
   127         16
   128         51
   129         32
   130         12
   131         20
   132         16
   133         20
   134          2
   139          7
   140          2
   141         37
   142         19
   143          2
   144         10
   145          2
   150          2
   151          7
   152         35
   153         36
   154         38
   155         66
   156         10
   157          1
   163          1
   164          2
   165         60
   166         43
   167         82
   168         20
   169          5
   176          3
   177          8
   178         22
   179         32
   180          7
   181         42
   182         15
   183          5
   189          2
   190          2
   191         21
   192         24
   193         61
   194         15
   195         54
   196          8
   207          1
   209        131
   210        699
   211        114
   212          9