##TITLE=Library Entry 48754
##JCAMP-DX=Revision 4.10 
##DATA TYPE=MASS SPECTRUM
##SAMPLE DESCRIPTION=NIST Mass Spectrometry Data Center
##NAMES=HP
##CAS NAME=1-Nonen-4-yne
##MOLFORM=C9H14
##CAS REGISTRY NO=31508-12-0
##MP= -300
##BP= -300
##MW= 122
##$RETENTION INDEX=0
##$CONDENSED SPECTRUM=NO
##NPOINTS= 59
##XYDATA=(XY..XY) 1 
    15         12
    25          1
    26         30
    27        266
    28         10
    29         91
    30          2
    37          7
    38         30
    39        278
    40         41
    41        255
    42         19
    43         75
    44          2
    49          3
    50         72
    51        174
    52        105
    53        141
    54         25
    55         50
    56          7
    57          2
    61          5
    62         23
    63         55
    64         15
    65        128
    66         71
    67         88
    68         21
    69          2
    73          1
    74         15
    75          7
    77        568
    78        111
    79        999
    80        378
    81        108
    82          6
    86          3
    87          2
    89          6
    91        259
    92         31
    93        200
    94         34
    95          4
   103          6
   104          1
   105         29
   107        195
   108         18
   115          1
   119          1
   122        169
   123         16