##TITLE=Library Entry 57855
##JCAMP-DX=Revision 4.10 
##DATA TYPE=MASS SPECTRUM
##SAMPLE DESCRIPTION=Institute of Chemistry, SAS, Bratislava, Slovakia
##NAMES=HP
##CAS NAME=Methyl(methyl-4-deoxy-2,3-di-O-methyl.beta.l-threo-hex-4-enopyran
osid)uronate
##MOLFORM=C10H16O6
##CAS REGISTRY NO=31506-21-5
##MP= -300
##BP= -300
##MW= 232
##$RETENTION INDEX=0
##$CONDENSED SPECTRUM=NO
##NPOINTS= 20
##XYDATA=(XY..XY) 1 
    45        111
    55         13
    57          4
    59         29
    71          6
    73        163
    75        123
    85         96
    88        999
    89         34
    98         13
   101         12
   111         14
   114          6
   127          4
   131          2
   141         14
   169         16
   201          3
   232          1