##TITLE=Library Entry 10634
##JCAMP-DX=Revision 4.10 
##DATA TYPE=MASS SPECTRUM
##SAMPLE DESCRIPTION=Chemical Concepts
##NAMES=HP
##CAS NAME=2-Hydroxy-2,3-dimethylsuccinic acid
##MOLFORM=C6H10O5
##CAS REGISTRY NO=31519-20-7
##MP= -300
##BP= -300
##MW= 162
##$RETENTION INDEX=0
##$CONDENSED SPECTRUM=NO
##NPOINTS= 67
##XYDATA=(XY..XY) 1 
    25          1
    26         12
    27         72
    28         42
    29         58
    30         10
    31         12
    36          1
    37          1
    38          3
    39         29
    40          3
    41         31
    42         15
    43        999
    44         32
    45         65
    46          5
    47          8
    50          4
    51          6
    52          2
    53         19
    54         12
    55         52
    56         75
    57        106
    58          5
    59          1
    61         17
    65          1
    67          5
    68          1
    69          6
    70          3
    71         16
    72         34
    73         66
    74        273
    75         14
    76          2
    77          2
    79          7
    81          1
    82         11
    83          7
    84          1
    85         34
    86          2
    87          1
    89          5
    90          4
    91          2
    97          4
    98          2
    99        348
   100         70
   101         16
   103         28
   104          2
   105          1
   115          1
   116          1
   117        204
   118         10
   119          1
   129          5