##TITLE=Library Entry 15601
##JCAMP-DX=Revision 4.10 
##DATA TYPE=MASS SPECTRUM
##SAMPLE DESCRIPTION=Div. of Experiment Therapeutics WRAIR, WRAMC, Washingto
n DC 20307
##NAMES=HP
##CAS NAME=4-[4-Methylamino-1-methylbutylamino]-7-chloroquinoline
##MOLFORM=C15H20ClN3
##CAS REGISTRY NO=31510-53-9
##MP= -300
##BP= -300
##MW= 277
##$RETENTION INDEX=0
##$CONDENSED SPECTRUM=NO
##NPOINTS= 138
##XYDATA=(XY..XY) 1 
    41        131
    42        161
    43         24
    44        999
    45         35
    47          6
    48          1
    49          3
    50          9
    51         21
    52         11
    53         11
    54          7
    55         23
    56         42
    57        461
    58         83
    59         50
    60          6
    62          5
    63         13
    64          5
    65          6
    67         10
    68         14
    69         28
    70         29
    71         33
    72          9
    73         11
    74         13
    75         18
    76          6
    77          6
    78          3
    82          9
    83          8
    84        136
    85         14
    86         12
    87          4
    88          6
    89          9
    90          3
    96          5
    97          4
    98        153
    99         50
   100         35
   101         11
   102          9
   103          3
   109          3
   111          7
   112          3
   113          4
   114          8
   115         10
   116          8
   117          3
   123          9
   124          3
   125          4
   126         13
   127         17
   128         17
   129          6
   135         30
   136          6
   137         10
   138          6
   140          4
   141          3
   142          6
   143         11
   144          6
   150         16
   151          7
   152          6
   153          3
   154          3
   155         24
   156          8
   162         27
   163         41
   164         34
   165         16
   166          9
   167          4
   168         15
   169         50
   170         45
   171          6
   177         18
   178         50
   179        353
   180         51
   181        112
   182         16
   183          4
   189          8
   190         15
   191         10
   192          8
   193          4
   195          3
   202          4
   203         20
   204         12
   205        161
   206         58
   207         53
   208         17
   215          3
   216          3
   217         25
   218         11
   219         77
   220         14
   221         23
   222          3
   231         12
   232          1
   233         17
   234          4
   235          4
   245          1
   246          6
   247          5
   248          1
   262          6
   264          2
   276          7
   277         51
   278         11
   279         23
   280          4
   281          1