##TITLE=Library Entry 63174
##JCAMP-DX=Revision 4.10 
##DATA TYPE=MASS SPECTRUM
##SAMPLE DESCRIPTION=Div. of Experiment Therapeutics WRAIR, WRAMC, Washingto
n DC 20307
##NAMES=HP
##CAS NAME=4-[4-Benzylamino-1-methylbutylamino]-7-chloroquinoline
##MOLFORM=C21H24ClN3
##CAS REGISTRY NO=31510-55-1
##MP= -300
##BP= -300
##MW= 353
##$RETENTION INDEX=0
##$CONDENSED SPECTRUM=NO
##NPOINTS= 153
##XYDATA=(XY..XY) 1 
    41        147
    42         96
    43         38
    44         74
    45          5
    50          7
    51         22
    52         11
    53          9
    54          6
    55         21
    56         19
    57         14
    58          7
    62          2
    63         19
    64          4
    65        100
    66          6
    67         17
    68          8
    69         22
    70         16
    71          9
    74          7
    75         13
    76          5
    77         19
    78         10
    79         13
    82          5
    84        153
    85         15
    86          2
    87          2
    88          2
    89         20
    91        999
    92         72
    93          1
    97          7
    98         19
    99         30
   100         10
   101          8
   102          8
   103          6
   104         24
   105          9
   106        153
   107         61
   108          4
   111          6
   114          5
   115          9
   116         12
   117          9
   118         25
   119          6
   120         88
   121          7
   123          7
   124          1
   125          2
   126         10
   127         13
   128         14
   129          6
   132         54
   133         59
   134          7
   135         32
   136          4
   137          8
   138          5
   140          2
   141          1
   142          5
   143         10
   144          6
   145          1
   146          8
   147          6
   149          2
   150         17
   151          7
   152          6
   153          2
   155         27
   156         10
   160         55
   162         34
   163         42
   164         32
   165         16
   166          7
   167          1
   168         13
   169         51
   170         49
   171          6
   174         40
   175          3
   176          9
   177         23
   178         52
   179        432
   180         31
   181        166
   182         16
   189          8
   190         16
   191         16
   192         11
   193          5
   202          4
   203         19
   204          5
   205        226
   206         83
   207         74
   208         25
   209          2
   216          1
   217         21
   218          9
   219         77
   220          6
   221         29
   222          1
   230          2
   231         12
   232          4
   233         18
   234          2
   235          4
   245         28
   246          7
   247         28
   248         26
   249         10
   250          7
   262        117
   263         18
   264         65
   265         12
   266          9
   352         29
   353         82
   354         18
   355         27
   356          6
   357          2