##TITLE=Library Entry 44157
##JCAMP-DX=Revision 4.10 
##DATA TYPE=MASS SPECTRUM
##SAMPLE DESCRIPTION=E.HOLME DEPT. CHEM., GOTHENBURG UNIV., GOTHENBURG, SWED
EN
##NAMES=HP
##CAS NAME=5-Hydroxymethyluracil, 3TMS derivative
##MOLFORM=C14H30N2O3Si3
##CAS REGISTRY NO=31517-04-1
##MP= -300
##BP= -300
##MW= 358
##$RETENTION INDEX=1674
##$CONDENSED SPECTRUM=NO
##NPOINTS= 150
##XYDATA=(XY..XY) 1 
    37         24
    38         36
    39        100
    40         24
    41         68
    42         32
    43        190
    44        158
    45        484
    46         36
    47        216
    48         19
    49        100
    50        160
    51        222
    52        478
    53         73
    54         14
    55        178
    56         35
    57         72
    58         47
    59        117
    60         21
    61         39
    62         11
    63         33
    65         12
    66         23
    67         21
    68         12
    69         54
    70         45
    71         37
    72         89
    73        999
    74        200
    75        915
    76         92
    77        528
    78        117
    79        632
    80         47
    81         20
    82         12
    83         34
    84         55
    85         33
    86         29
    87         14
    89         16
    91         11
    92         14
    93         38
    95         24
    96         16
    97         24
    98         15
    99         29
   100        282
   101         36
   102         22
   103         31
   105         15
   107        114
   108         11
   109         11
   110         25
   111         16
   113         17
   115         17
   116         19
   117         56
   119         17
   120         32
   121         11
   125         11
   127         49
   128         12
   129         21
   131         89
   132         28
   133        105
   134         18
   135         14
   141         11
   143         26
   145         15
   147        485
   148        108
   149         54
   154         29
   155         13
   156         13
   157         17
   158         49
   159         13
   160         11
   170         35
   171         18
   172         12
   174         61
   175         14
   181         35
   184         17
   185         22
   188         67
   189         22
   191         13
   192         64
   193         17
   195         14
   205         11
   207         32
   211         14
   217         17
   221         17
   225         24
   239         25
   241         14
   242         17
   253         27
   254         14
   255        133
   256         32
   257         36
   269         89
   270         29
   271         23
   281         12
   283         12
   285         68
   286         22
   299         18
   313         14
   327         23
   328         13
   329         13
   341         17
   342         24
   343        540
   344        175
   345         85
   346         20
   356         14
   357         53
   358        945
   359        356
   360        167
   361         36