##TITLE=Library Entry 48096
##JCAMP-DX=Revision 4.10 
##DATA TYPE=MASS SPECTRUM
##SAMPLE DESCRIPTION=A.A.Kutin, Moscow, Russia
##NAMES=HP
##CAS NAME=N'-(3,4-Dihydroxybenzylidene)-3-pyridinohydrazide
##MOLFORM=C13H11N3O3
##CAS REGISTRY NO=315207-10-4
##MP= -300
##BP= -300
##MW= 257
##$RETENTION INDEX=0
##$CONDENSED SPECTRUM=NO
##NPOINTS= 58
##XYDATA=(XY..XY) 1 
    37         50
    38        122
    39        177
    40         64
    41         57
    42         52
    43         82
    44         75
    45         29
    48          6
    49         80
    50        560
    51        705
    52        216
    53        201
    54         26
    55         43
    57         11
    61         12
    62         37
    63         78
    64         30
    65         68
    66        123
    67         15
    68         39
    74         27
    75         75
    76        145
    77        112
    78        999
    79        130
    80         30
    81         15
    89         10
    91         10
    93         15
    94         45
    95         23
    96          7
    97         16
   104         16
   105        111
   106        674
   107         49
   109          5
   121         22
   122         35
   123        110
   124         23
   125          8
   133         65
   135        133
   136         44
   137         31
   148         11
   151         25
   257         34