##TITLE=Library Entry 45200
##JCAMP-DX=Revision 4.10 
##DATA TYPE=MASS SPECTRUM
##SAMPLE DESCRIPTION=NIST Mass Spectrometry Data Center
##NAMES=HP
##CAS NAME=4,4-Dimethoxy-2-methyl-2-butanol
##MOLFORM=C7H16O3
##CAS REGISTRY NO=31525-67-4
##MP= -300
##BP= -300
##MW= 148
##$RETENTION INDEX=0
##$CONDENSED SPECTRUM=NO
##NPOINTS= 73
##XYDATA=(XY..XY) 1 
    14          2
    15         34
    16          1
    18          1
    19          1
    26          5
    27         35
    28         33
    29         83
    30          8
    31        137
    32         12
    33         21
    37          1
    38          3
    39         41
    40          7
    41         70
    42         25
    43        576
    44         17
    45         26
    47        122
    48          3
    49          1
    50          2
    51          4
    52          1
    53         11
    54          2
    55         29
    56         16
    57         64
    58        388
    59        936
    60         32
    61         45
    62          1
    65          2
    66          1
    67          5
    68          2
    69          7
    70          1
    71          8
    72          1
    73         34
    75        999
    76         34
    77          5
    82          1
    83          8
    84          3
    85         17
    86          1
    87          4
    88          6
    89         10
    90          1
    98          1
    99          7
   101        195
   102         11
   103          1
   115         39
   116          6
   117         28
   118          2
   129          1
   130          1
   133         34
   134          2
   147          1