##TITLE=Library Entry 83119
##JCAMP-DX=Revision 4.10 
##DATA TYPE=MASS SPECTRUM
##SAMPLE DESCRIPTION=ASES Database, Dalian Institute, P.R. China
##NAMES=HP
##CAS NAME=2-Methyl-N-ethoxycarbonyl-1H-azepine
##MOLFORM=C10H13NO2
##CAS REGISTRY NO=31536-48-8
##MP= -300
##BP= -300
##MW= 179
##$RETENTION INDEX=0
##$CONDENSED SPECTRUM=NO
##NPOINTS= 35
##XYDATA=(XY..XY) 1 
    51         48
    52         50
    53         60
    55         49
    56         29
    57         79
    64         40
    66         60
    67         38
    68         69
    71         49
    73         50
    77        177
    78        100
    79        257
    80         58
    85         39
    91         60
    92         39
    93         50
    94         99
   104         60
   105         30
   106        999
   107        200
   119         49
   120         48
   121         50
   132         59
   133        179
   134         60
   151        169
   152         40
   179        656
   180         69