##TITLE=Library Entry 6615
##JCAMP-DX=Revision 4.10 
##DATA TYPE=MASS SPECTRUM
##SAMPLE DESCRIPTION=Exported from NIST MS Search
##NAMES=HP
##CAS NAME=1-Azabicyclo[2.2.2]oct-2-ene-3-carboxylic acid, methyl ester
##MOLFORM=C9H13NO2
##CAS REGISTRY NO=31539-88-5
##MP= -300
##BP= -300
##MW= 167
##$RETENTION INDEX=0
##$CONDENSED SPECTRUM=NO
##NPOINTS= 66
##XYDATA=(XY..XY) 1 
    39        114
    40         38
    41        262
    42        864
    43        999
    44        402
    45        144
    51         42
    52         59
    53        334
    54        139
    55        237
    56         72
    57         16
    58         16
    59        228
    65         67
    66         84
    67        156
    68        161
    69         59
    70         29
    71         33
    72         42
    77        139
    78        118
    79        406
    80        762
    81        233
    82        110
    83         50
    84         21
    85         25
    91         29
    92         42
    93         97
    94         93
    95         55
    96         33
    97         29
    98         33
    99         42
   105         29
   106        148
   107        245
   108        834
   109        156
   110         50
   111         84
   112         50
   120         50
   124         84
   125        118
   126        148
   134         67
   135         25
   136        330
   137        101
   138         72
   139        211
   140         93
   152        478
   153         67
   166        152
   167        762
   168        161