##TITLE=Library Entry 44521
##JCAMP-DX=Revision 4.10 
##DATA TYPE=MASS SPECTRUM
##SAMPLE DESCRIPTION=Chuck Anderson, Aldrich Chemical Co.
##NAMES=HP
##CAS NAME=Butanoic acid, 4-chloro-, methyl ester
##MOLFORM=C5H9ClO2
##CAS REGISTRY NO=3153-37-5
##MP= -300
##BP= -300
##MW= 136
##$RETENTION INDEX=972
##$CONDENSED SPECTRUM=NO
##NPOINTS= 82
##XYDATA=(XY..XY) 1 
    13          0
    14          6
    15        131
    16          1
    25          1
    26         21
    27         95
    28         47
    29         58
    30          8
    31         32
    32          0
    33          2
    34          0
    35          2
    36          3
    37         13
    38         28
    39        199
    40         30
    41        596
    42        182
    43        278
    44         18
    45         19
    46          0
    47          2
    48          2
    49         53
    50          2
    51         17
    52          0
    53          2
    54          0
    55         26
    56          3
    57          1
    58          4
    59        219
    60          6
    61          6
    62          4
    63          7
    64          1
    65          2
    66          0
    67          0
    68          3
    69         19
    70          1
    71          3
    72          5
    74        999
    75         40
    76         12
    77        126
    78          9
    79         39
    80          2
    81          0
    85          0
    87          7
    88          0
    89          0
    91          0
    93          2
    95          0
    99          2
   100          4
   101         89
   102          4
   103          1
   104          9
   105        502
   106         23
   107        153
   108          6
   109          0
   136          0
   137          2
   138          0
   139          0