##TITLE=Library Entry 80312
##JCAMP-DX=Revision 4.10 
##DATA TYPE=MASS SPECTRUM
##SAMPLE DESCRIPTION=NIST Mass Spectrometry Data Center, 2011
##NAMES=HP
##CAS NAME=Butanoic acid, 4-chloro-, ethyl ester
##MOLFORM=C6H11ClO2
##CAS REGISTRY NO=3153-36-4
##MP= -300
##BP= -300
##MW= 150
##$RETENTION INDEX=1017
##$CONDENSED SPECTRUM=NO
##NPOINTS= 84
##XYDATA=(XY..XY) 1 
    14          3
    15         14
    16          1
    19          2
    25          1
    26         33
    27        188
    28         82
    29        393
    30         19
    31         16
    35          2
    36          2
    37          9
    38         21
    39        195
    40         36
    41        664
    42        349
    43        175
    44         18
    45        266
    46          6
    47          4
    48          4
    49        111
    50          4
    51         38
    52          1
    53          4
    55         75
    56         10
    57         14
    58          4
    60        370
    61        146
    62         12
    63         12
    64          3
    65          3
    66          1
    67          1
    68          7
    69         23
    70        108
    71          8
    73         88
    74          4
    75         16
    76         16
    77        264
    78         23
    79         87
    80          6
    81          1
    85         11
    86          8
    87        194
    88        944
    89         43
    90          5
    97          2
   101         96
   102          6
   103          2
   105        999
   106         49
   107        325
   108         14
   109          1
   115         85
   116          5
   117          1
   121          2
   122          8
   123         98
   124          7
   125         31
   126          1
   135          2
   137          1
   150          3
   151          1
   152          1