##TITLE=Library Entry 73406
##JCAMP-DX=Revision 4.10 
##DATA TYPE=MASS SPECTRUM
##SAMPLE DESCRIPTION=A.A.Kutin, Moscow, Russia
##NAMES=HP
##CAS NAME=Benzoxazole, 2-[2-(4-morpholyl)ethyl]thio-
##MOLFORM=C13H16N2O2S
##CAS REGISTRY NO=31545-03-6
##MP= -300
##BP= -300
##MW= 264
##$RETENTION INDEX=0
##$CONDENSED SPECTRUM=NO
##NPOINTS= 165
##XYDATA=(XY..XY) 1 
    33          0
    34          1
    35          1
    37          2
    38          6
    39         17
    41         42
    42        129
    43         16
    44         18
    45         20
    46          3
    47          1
    48          0
    50          3
    51          8
    52          4
    53          3
    54         29
    55        117
    56        165
    57         25
    58          9
    59          6
    60          5
    61          6
    62          4
    63         17
    64         13
    65          6
    66          1
    68         13
    69         17
    70         87
    71          9
    72         22
    73          1
    74          0
    75          0
    77         29
    78          9
    79          2
    80          0
    81          0
    82         14
    83         45
    84         53
    85        127
    86         18
    87          4
    88          4
    89          2
    90          5
    91         11
    92          4
    93          3
    94          1
    95          6
    96          7
    98         80
   100        999
   101         63
   102          5
   103          2
   104          2
   105          0
   106          0
   107          0
   108          0
   109          0
   110          0
   113        885
   114         83
   115          5
   116          2
   117          6
   118          1
   119          6
   120          5
   122         38
   123          3
   124          2
   125          0
   126          0
   127          0
   128          0
   129          0
   130          0
   131          0
   132          4
   133          3
   134          2
   135          0
   136          0
   138          0
   139          0
   141          0
   142          0
   144          0
   145          2
   146         12
   147          3
   148          0
   150         15
   151         41
   152          9
   153          2
   154          0
   159          0
   160          0
   161          0
   162          0
   163          0
   164          7
   165          1
   166          0
   167          0
   168          0
   170          0
   171          0
   172          0
   173          0
   174          0
   176          9
   177          3
   178          6
   179          1
   180          0
   184          0
   185          0
   186          0
   187          0
   188          0
   191          0
   192          0
   196          0
   199          0
   200          0
   201          0
   202          0
   203          1
   204          0
   205          0
   208          0
   213          0
   214          1
   215          0
   217          9
   218          1
   219          0
   221          0
   222          0
   228          0
   229          5
   230          2
   231          4
   232          0
   233          0
   246          0
   261          5
   262          1
   264         16
   265          2
   266          1
   267          0