##TITLE=Library Entry 27854
##JCAMP-DX=Revision 4.10 
##DATA TYPE=MASS SPECTRUM
##SAMPLE DESCRIPTION=G.S. KING, CHEM. PATHOL. DEP., QUEEN CHARLOTTE'S HOSP,
 LONDON, U
##NAMES=HP
##CAS NAME=2-Dimethylamino-2'-methoxyacetophenone
##MOLFORM=C11H15NO2
##CAS REGISTRY NO=31543-50-7
##MP= -300
##BP= -300
##MW= 193
##$RETENTION INDEX=0
##$CONDENSED SPECTRUM=NO
##NPOINTS= 26
##XYDATA=(XY..XY) 1 
    41         12
    42        172
    43         32
    44         12
    50         24
    51         44
    56         12
    57         32
    58        999
    59         84
    62         12
    63         44
    64         32
    65         24
    76         12
    77        112
    78         12
    79         12
    91         24
    92         52
   105         12
   121         24
   135         72
   150         24
   193         52
   194         12