##TITLE=Library Entry 91017
##JCAMP-DX=Revision 4.10 
##DATA TYPE=MASS SPECTRUM
##SAMPLE DESCRIPTION=Chemical Concepts
##NAMES=HP
##CAS NAME=Isoleucine, N-formyl-, ethyl ester
##MOLFORM=C9H17NO3
##CAS REGISTRY NO=3154-47-0
##MP= -300
##BP= -300
##MW= 187
##$RETENTION INDEX=0
##$CONDENSED SPECTRUM=NO
##NPOINTS= 72
##XYDATA=(XY..XY) 1 
    26          5
    27         67
    28        124
    29        183
    30        101
    31          6
    39         34
    40          5
    41        195
    42         21
    43         30
    44         30
    45         13
    46        288
    47         32
    51          4
    53         10
    54         10
    55         23
    56         73
    57        102
    58        148
    59          8
    65          4
    67          9
    68          9
    69        500
    70         91
    71         12
    72         10
    73          3
    74         73
    75          4
    76          3
    78          3
    83          4
    84         16
    85        621
    86         56
    87         21
    91         24
    92          9
    95          3
    96         12
    97         10
    98         12
    99         10
   100          3
   102         27
   103         10
   104          3
   105          3
   112         10
   113         11
   114        999
   115         80
   116          5
   119          3
   120          3
   121          4
   126          2
   130         17
   131        136
   132         10
   133          3
   134          3
   141          4
   142         82
   143          8
   158          2
   159          2
   188          8