##TITLE=Library Entry 63882
##JCAMP-DX=Revision 4.10 
##DATA TYPE=MASS SPECTRUM
##SAMPLE DESCRIPTION=NIST Mass Spectrometry Data Center
##NAMES=HP
##CAS NAME=4-Methoxy-6-phenethyl-2H-pyran-2-one
##MOLFORM=C14H14O3
##CAS REGISTRY NO=3155-51-9
##MP= -300
##BP= -300
##MW= 230
##$RETENTION INDEX=2126
##$CONDENSED SPECTRUM=NO
##NPOINTS= 112
##XYDATA=(XY..XY) 1 
    26          4
    27         12
    29          5
    37          4
    38         22
    39         62
    40         13
    41         16
    42          8
    43          9
    45          2
    50         20
    51         60
    52         18
    53         52
    54         21
    55         18
    56          2
    57          6
    59         81
    60          3
    61          2
    62          9
    63         32
    64          8
    65         91
    66         34
    67         10
    68         63
    69        269
    70         11
    71          2
    74         10
    75          9
    76         10
    77         82
    78         39
    79         26
    80          3
    81          3
    82          9
    83          7
    84          1
    85          2
    86          2
    87          4
    89         16
    90          5
    91        999
    92         75
    93          7
    94          2
    95          8
    96          2
    97          3
    98         46
    99          4
   101          2
   102         11
   103         44
   104         49
   105         29
   106          3
   107          1
   109          3
   110          2
   111        235
   112         16
   113          2
   115         33
   116          5
   117          3
   124          5
   125        453
   126         32
   127         11
   128         15
   129          8
   130          2
   131         14
   132          3
   133          3
   141         10
   142          4
   143          3
   144          3
   145          3
   151          1
   152          7
   153         13
   154          2
   155          3
   159          3
   169          4
   170          9
   173          2
   174          1
   184          2
   185          4
   186          1
   187          4
   189          1
   197          1
   198          2
   201          8
   202         50
   203          7
   213          6
   215          2
   230        589
   231         88
   232         10