##TITLE=Library Entry 55578
##JCAMP-DX=Revision 4.10 
##DATA TYPE=MASS SPECTRUM
##SAMPLE DESCRIPTION=Div. of Experiment Therapeutics WRAIR, WRAMC, Washingto
n DC 20307
##NAMES=HP
##CAS NAME=3,4-Dihydro-6-hydroxymethyl-4-oxo-2-thioxo-2H-1,3-thiazine
##MOLFORM=C5H5NO2S2
##CAS REGISTRY NO=31555-06-3
##MP= -300
##BP= -300
##MW= 175
##$RETENTION INDEX=0
##$CONDENSED SPECTRUM=NO
##NPOINTS= 45
##XYDATA=(XY..XY) 1 
    41          3
    42          3
    43         16
    44         15
    45        101
    46          2
    47          8
    49          2
    51          2
    52          8
    53         39
    54         23
    55         90
    56         11
    57        164
    58        119
    59        142
    60        103
    61         14
    62          7
    64         40
    66          2
    67          6
    68          2
    69         22
    70          2
    71         30
    73          2
    76         30
    83         16
    85        999
    86         65
    87         65
    88        147
    89          6
    90          8
    98          3
    99          2
   116        336
   117         18
   118          9
   144          5
   175        502
   176         14
   177         64