##TITLE=Library Entry 10418
##JCAMP-DX=Revision 4.10 
##DATA TYPE=MASS SPECTRUM
##SAMPLE DESCRIPTION=Chemical Concepts
##NAMES=HP
##CAS NAME=3,4-Dibromohex-3-ene-2,5-diol
##MOLFORM=C6H10Br2O2
##CAS REGISTRY NO=31556-90-8
##MP= -300
##BP= -300
##MW= 272
##$RETENTION INDEX=0
##$CONDENSED SPECTRUM=NO
##NPOINTS= 120
##XYDATA=(XY..XY) 1 
    26         20
    27        135
    28         21
    29        112
    31         17
    37         14
    38         31
    39        111
    40         17
    41        164
    42         30
    43        999
    44         35
    45        390
    46         13
    50         52
    51        123
    52         43
    53        117
    54         13
    55         10
    57         25
    61         12
    62          7
    63         13
    64          5
    65         28
    66         17
    67        156
    68         21
    69         79
    71        102
    72          7
    74          5
    77         15
    78          7
    79         19
    80         11
    81         56
    82         11
    83         11
    84          5
    85        124
    86          8
    89         12
    90         10
    94          6
    95        124
    96        702
    97        159
    98         70
    99         20
   104          8
   105         29
   106          9
   107         32
   109         14
   111          7
   112          8
   113        362
   114         50
   115          6
   119         12
   121         14
   123          7
   131        181
   132         13
   133        216
   134         12
   135         61
   136          6
   137         21
   147         44
   148          6
   149        202
   150         16
   151        143
   152         10
   159         25
   160         64
   161         32
   162         65
   163         14
   174          7
   175        176
   176         17
   177        362
   178         31
   179        142
   180        127
   184         18
   185          7
   186          5
   187          5
   193         15
   195         16
   210          6
   211         13
   212         11
   213         32
   214          8
   215         29
   217         10
   237          5
   239         20
   241         31
   243         15
   254         21
   257         60
   258         23
   259        100
   260          6
   261         52
   262          5
   272         91
   273          9
   274        169
   275         14
   276         96
   277          7