##TITLE=Library Entry 54883
##JCAMP-DX=Revision 4.10 
##DATA TYPE=MASS SPECTRUM
##SAMPLE DESCRIPTION=Div. of Experiment Therapeutics WRAIR, WRAMC, Washingto
n DC 20307
##NAMES=HP
##CAS NAME=Ethyl 4-[tetrahydropyran-2-yloxy]-2-butynoate
##MOLFORM=C11H16O4
##CAS REGISTRY NO=31555-03-0
##MP= -300
##BP= -300
##MW= 212
##$RETENTION INDEX=0
##$CONDENSED SPECTRUM=NO
##NPOINTS= 90
##XYDATA=(XY..XY) 1 
    41        451
    43        347
    44         23
    45         45
    47         12
    49          4
    51          2
    53        172
    55        633
    56        255
    57        133
    59         17
    60          1
    61          2
    63          4
    66        365
    67        275
    68         98
    69         41
    71         42
    72          3
    73          4
    75          0
    77         12
    79         28
    81         91
    83        205
    85        999
    86         46
    87          3
    88          4
    91         13
    93         22
    94          3
    95         24
    96          6
    97         74
    98         36
    99         23
   101        135
   102          5
   103          1
   105          3
   107          8
   109        118
   111        530
   112        267
   113         45
   114          5
   115          1
   116          3
   119          3
   121         11
   123         12
   125         27
   126          1
   127         26
   129         55
   130          2
   133          0
   135          3
   136          2
   137          9
   139         17
   141         10
   145          0
   147          0
   148          0
   149          2
   150          0
   151          1
   152          2
   154         26
   155          2
   157         89
   158          0
   161          0
   164          0
   165          6
   167         46
   168          4
   169          2
   178          2
   181          3
   183          3
   184          0
   195          1
   211         23
   212          2
   213          0