##TITLE=Library Entry 84136
##JCAMP-DX=Revision 4.10 
##DATA TYPE=MASS SPECTRUM
##SAMPLE DESCRIPTION=Chemical Concepts
##NAMES=HP
##CAS NAME=2-Butenal, 2-methyl-4-(2,6,6-trimethyl-1-cyclohexen-1-yl)-
##MOLFORM=C14H22O
##CAS REGISTRY NO=3155-71-3
##MP= -300
##BP= -300
##MW= 206
##$RETENTION INDEX=1584
##$CONDENSED SPECTRUM=NO
##NPOINTS= 126
##XYDATA=(XY..XY) 1 
    27        183
    29        314
    39        327
    40         72
    41        725
    42         65
    43        398
    44         80
    45         43
    50         22
    51        103
    52         44
    53        311
    54         68
    55        642
    56         72
    57        143
    58         33
    59         18
    60         20
    63         53
    64         23
    65        189
    66         70
    67        382
    68         51
    69        450
    70         49
    71        119
    72         34
    74         47
    76         20
    77        403
    78        116
    79        440
    80        101
    81        664
    82        258
    83        182
    84         53
    85         56
    86         23
    87         18
    88         44
    89         27
    91        565
    92         99
    93        570
    94        103
    95        707
    96        138
    97        115
    98         18
    99         29
   102         18
   103         69
   104         28
   105        444
   106         92
   107        999
   108        432
   109        564
   110         91
   111        139
   112         25
   113         20
   115         68
   116         36
   117         84
   118         29
   119        213
   120         71
   121        592
   122        225
   123        962
   124        137
   125         38
   126         18
   127         41
   128         54
   129         50
   130         40
   131        254
   132         59
   133        257
   134         45
   135        592
   136        203
   137        170
   138         39
   139         36
   141         28
   142         21
   143         32
   144         24
   145        120
   146         27
   147        124
   148        109
   149        155
   150         94
   151         32
   152         23
   157         19
   158         39
   159         37
   161         46
   162         28
   163        468
   164         79
   165         44
   167         24
   173        140
   174         28
   175         22
   176         18
   177         73
   178         56
   189         30
   191        631
   192        101
   193         18
   204         31
   205         29
   206        720
   207        153