##TITLE=Library Entry 31890
##JCAMP-DX=Revision 4.10 
##DATA TYPE=MASS SPECTRUM
##SAMPLE DESCRIPTION=NIST Mass Spectrometry Data Center
##NAMES=HP
##CAS NAME=2,Beta-dinitrostyrene
##MOLFORM=C8H6N2O4
##CAS REGISTRY NO=3156-39-6
##MP= -300
##BP= -300
##MW= 194
##$RETENTION INDEX=0
##$CONDENSED SPECTRUM=NO
##NPOINTS= 70
##XYDATA=(XY..XY) 1 
    17          4
    18          7
    26          9
    27         26
    29         37
    30        435
    37         40
    38         85
    39        341
    40         29
    41         17
    42         15
    44          7
    46         99
    50        388
    51        492
    52        155
    53         28
    54          5
    55          6
    61         44
    62        131
    63        408
    64        225
    65        999
    66        103
    67          7
    68          6
    69          3
    73         24
    74        200
    75        361
    76        364
    77        248
    78         69
    79         34
    80          8
    81          3
    85         10
    86         21
    87         30
    89        510
    90        194
    92        956
    93        103
    94          6
    97          5
    98         27
    99         13
   101        108
   102        214
   103         37
   104         27
   105         24
   106          6
   114          4
   115          8
   116         17
   118        172
   119         29
   120         19
   130         12
   131          7
   132         13
   133          5
   135          5
   146         16
   148         86
   149         11
   194          4