##TITLE=Library Entry 76234
##JCAMP-DX=Revision 4.10 
##DATA TYPE=MASS SPECTRUM
##SAMPLE DESCRIPTION=Asinex Ltd, Moscow, Russia
##NAMES=HP
##CAS NAME=Benzonitrile, 2-(4-bromobenzylidenamino)-
##MOLFORM=C14H9BrN2
##CAS REGISTRY NO=315670-25-8
##MP= -300
##BP= -300
##MW= 284
##$RETENTION INDEX=0
##$CONDENSED SPECTRUM=NO
##NPOINTS= 176
##XYDATA=(XY..XY) 1 
    33          0
    34          3
    36          2
    37         34
    38         85
    39        167
    40         32
    41          4
    42          1
    43          4
    44          8
    45          3
    50        433
    51        447
    52         81
    53          5
    54          0
    55          1
    56          0
    57          1
    59          0
    61         33
    62        129
    63        215
    64         62
    65         11
    66          1
    67          0
    68          0
    69          0
    70          0
    71          0
    73         15
    74        138
    75        582
    76        648
    77        291
    78         20
    79          8
    80         13
    81          8
    82         13
    83          0
    84          1
    85          9
    86         29
    87         42
    88         66
    89        163
    90         23
    91          3
    92          0
    93          0
    94          0
    95          0
    96          0
    97          0
    98          5
    99         24
   100         25
   101         42
   102        999
   103        790
   104         69
   106          9
   107          2
   108          0
   109          0
   110          1
   111          3
   112          3
   113          4
   114         20
   115         29
   116          6
   117          8
   118          6
   119          8
   120          0
   121          0
   122          1
   123          2
   124          3
   125          8
   126         12
   127         14
   128         14
   129        341
   130         34
   131          7
   132          0
   134          0
   135          0
   136          0
   137          0
   138          2
   139          2
   140          4
   141          2
   142         67
   143         72
   145          0
   147          0
   148          0
   149          8
   150         31
   151         83
   152         26
   153         16
   155        132
   156         56
   157        123
   158         55
   159          3
   162          0
   163          1
   164          2
   165          1
   166          2
   167          4
   168          0
   169          7
   170          1
   171          4
   172          0
   173          0
   174          0
   175          8
   176         36
   177        104
   178         80
   179         21
   181         31
   182        138
   183         39
   184        128
   185         11
   186          1
   188          0
   189          0
   190          0
   193          0
   194          1
   195          0
   196          1
   201          0
   202          8
   203         58
   204        101
   205        474
   206         74
   207          6
   208          0
   209          0
   211          0
   212          0
   229          0
   230          0
   231          0
   232          0
   233          0
   243          1
   245          1
   254          0
   257         26
   258          7
   259         28
   260          5
   261          0
   283        496
   284        855
   285        586
   286        834
   287        134
   288          9
   289          0