##TITLE=Library Entry 52627
##JCAMP-DX=Revision 4.10 
##DATA TYPE=MASS SPECTRUM
##SAMPLE DESCRIPTION=B. Derendyaev, Novosibirsk Institute of Organic Chemist
ry
##NAMES=HP
##CAS NAME=Acetoxy(3-aminopropyl)isoamylborane
##MOLFORM=C10H22BNO2
##CAS REGISTRY NO=31569-49-0
##MP= -300
##BP= -300
##MW= 199
##$RETENTION INDEX=0
##$CONDENSED SPECTRUM=NO
##NPOINTS= 28
##XYDATA=(XY..XY) 1 
    29        129
    30         59
    39        169
    41        419
    42        529
    43        369
    45        299
    53         69
    54        149
    55        309
    56         69
    60        159
    65         59
    66         79
    67        189
    68        619
    69        119
    70        149
    81         49
    82        339
    83        999
    84         69
    95         59
    96        189
    97         59
   109         49
   110        249
   139        339