##TITLE=Library Entry 50508
##JCAMP-DX=Revision 4.10 
##DATA TYPE=MASS SPECTRUM
##SAMPLE DESCRIPTION=A.A.Kutin, Moscow, Russia
##NAMES=HP
##CAS NAME=3,3'-Thiobis[N-furfurylpropionamide)
##MOLFORM=C16H20N2O4S
##CAS REGISTRY NO=315677-74-8
##MP= -300
##BP= -300
##MW= 336
##$RETENTION INDEX=0
##$CONDENSED SPECTRUM=NO
##NPOINTS= 120
##XYDATA=(XY..XY) 1 
    33          7
    34          3
    35          4
    36          6
    39        166
    41         61
    42         57
    43         26
    44         32
    45         28
    46         24
    47         21
    49         28
    51         33
    53        326
    55        155
    56         20
    57         22
    59         46
    61         43
    62          5
    63          7
    64         12
    65         17
    67         28
    68         47
    69         64
    71          8
    72          9
    73         19
    74          4
    75          6
    77         19
    78         39
    81        999
    82         48
    84         16
    85         22
    87          9
    89          8
    90          7
    92         12
    93         18
    94         49
    96        649
    97        117
    98         13
    99          3
   101          3
   103          2
   104          8
   106          5
   107          5
   108         10
   109          8
   110          5
   112          1
   113          2
   114          4
   115         10
   116          4
   117          2
   118          2
   120          2
   121          6
   122         14
   123          8
   124          7
   125          1
   126          3
   128          6
   131          1
   132          2
   133         10
   135          4
   136          5
   137          3
   138          6
   139          1
   140          2
   141          2
   142          4
   143         21
   144          2
   145          1
   147          2
   148          4
   150         17
   151         11
   152         11
   153         11
   154          3
   160          5
   166          2
   181          3
   182          7
   183         14
   184         14
   185          5
   186          1
   192          1
   207          3
   209          2
   238          2
   239          2
   240          3
   255          8
   277          1
   279          2
   280         10
   281          7
   329          1
   331          2
   332          1
   333          2
   334          3
   335          4
   336         29
   337          2
   338          2