##TITLE=Library Entry 37135
##JCAMP-DX=Revision 4.10 
##DATA TYPE=MASS SPECTRUM
##SAMPLE DESCRIPTION=A.A.Kutin, Moscow, Russia
##NAMES=HP
##CAS NAME=Benzenamine, N-(2,4-dichlorobenzylidene)-4-(1-pyrrolidinylsulfony
l)-
##MOLFORM=C17H16Cl2N2O2S
##CAS REGISTRY NO=315673-34-8
##MP= -300
##BP= -300
##MW= 382
##$RETENTION INDEX=0
##$CONDENSED SPECTRUM=NO
##NPOINTS= 220
##XYDATA=(XY..XY) 1 
    33          6
    34          5
    36         60
    38         40
    39        128
    40         93
    41        235
    42        697
    43        181
    44         33
    45          8
    48          8
    50        210
    51        163
    52         21
    53         15
    55         62
    56          9
    57         14
    58          2
    60          5
    61          6
    63         91
    64         27
    65         47
    66          6
    68         55
    70        999
    71         44
    73         34
    74         55
    75        134
    76        362
    77        144
    78         18
    79          3
    80          3
    81          3
    82          4
    83          7
    84          8
    85         12
    86         10
    87         16
    89         26
    90         10
    91         13
    92         41
    93         50
    94          5
    95          7
    96          9
    97         12
    99         69
   100         32
   101         21
   102         16
   103         30
   104         23
   105          5
   106          6
   107          5
   108         37
   109         24
   110          8
   111         22
   112          8
   113          8
   114          5
   115          2
   116          0
   117         10
   118         27
   119         11
   120         10
   121          4
   123         76
   124         27
   125         32
   126         11
   127          6
   128          2
   129          0
   132          4
   133          8
   134         10
   135         47
   136         68
   137         27
   138         47
   139         23
   140         13
   141          1
   145          7
   146         10
   147          5
   148          7
   149         22
   150         47
   151         71
   152         22
   153          2
   156         33
   157         13
   158          3
   159         66
   160         44
   161         27
   162         12
   163          5
   164          3
   165          3
   166          4
   167          8
   169          4
   170          4
   171         32
   172         12
   173         23
   174          8
   175         10
   176         25
   177        145
   178        194
   179         26
   180          1
   183          4
   184          2
   185         14
   186         92
   187         21
   188         32
   189          7
   190         12
   191         11
   192          2
   193          1
   194          1
   195          4
   196          4
   197          2
   198          2
   199         12
   200          4
   201         15
   202          5
   203          3
   209          0
   211          6
   212         18
   213         82
   214         33
   215         28
   216          7
   220          0
   221          3
   222          5
   223          2
   224          3
   225          1
   226         20
   227          1
   228          0
   230          0
   235          0
   236          4
   237          3
   238          0
   247         12
   248        160
   249        157
   250        126
   251         97
   252         31
   253         16
   254          0
   262          3
   263          4
   264        163
   265         29
   266        110
   267         16
   268         17
   269          1
   272          4
   274          2
   276          0
   279          0
   296         35
   297          5
   298         24
   299          3
   300          4
   312         45
   313         51
   314         38
   315         33
   316          9
   317         10
   318         16
   319          4
   320         10
   321          1
   322          0
   335         33
   336          5
   337         33
   338          4
   339          9
   340          0
   370          2
   372          2
   374          0
   381          7
   382         94
   383         25
   384         67
   385         13
   386         13
   387          1