##TITLE=Library Entry 4414
##JCAMP-DX=Revision 4.10 
##DATA TYPE=MASS SPECTRUM
##SAMPLE DESCRIPTION=V.A.Korolev, Moscow, Russia
##NAMES=HP
##CAS NAME=1-Methyl-4-[2-nitroethenyl]-1H-pyrazole
##MOLFORM=C6H7N3O2
##CAS REGISTRY NO=3156-58-9
##MP= -300
##BP= -300
##MW= 153
##$RETENTION INDEX=0
##$CONDENSED SPECTRUM=NO
##NPOINTS= 64
##XYDATA=(XY..XY) 1 
    30         82
    36          2
    37        118
    38        274
    39        672
    40         77
    41        142
    42        999
    43        172
    44          6
    46        167
    48          0
    49         31
    50        203
    51        275
    52        241
    53        243
    54        123
    55         62
    56         20
    57          9
    58          4
    59          0
    61         10
    62         32
    63         73
    64        133
    65         65
    66        191
    67         49
    68         41
    69         12
    70          4
    75         11
    76         19
    77         18
    78         40
    79         44
    80         45
    81         31
    82         51
    83          8
    85          0
    88          0
    92         22
    93          2
    94         16
    95        273
    96         16
    97          9
   102          2
   105         79
   106        348
   107         83
   108         18
   109        146
   110         59
   111          3
   123         19
   124          6
   136          6
   137          7
   153        219
   154         18