##TITLE=Library Entry 67888
##JCAMP-DX=Revision 4.10 
##DATA TYPE=MASS SPECTRUM
##SAMPLE DESCRIPTION=J.VOTH UNIV. OF CALIFORNIA, DAVIS, CALIFORNIA, 95616, U
SA
##NAMES=HP
##CAS NAME=Cyclohexanemethanol, .alpha.-(2-methyl-2-propenyl)-
##MOLFORM=C11H20O
##CAS REGISTRY NO=31569-55-8
##MP= -300
##BP= -300
##MW= 168
##$RETENTION INDEX=0
##$CONDENSED SPECTRUM=NO
##NPOINTS= 84
##XYDATA=(XY..XY) 1 
    14          3
    15         29
    16          1
    17          2
    18          9
    19          4
    26         13
    27        214
    28         50
    29        272
    30          6
    31         48
    32          0
    37          3
    38          9
    39        197
    40         33
    41        446
    42         36
    43         78
    44         16
    45         26
    46          0
    50         19
    51         41
    52         19
    53        106
    54         46
    55        438
    56        475
    57        187
    58         10
    59          2
    61          0
    62          2
    63          6
    64          2
    65         18
    66         11
    67        133
    68         32
    69        128
    70         51
    71         16
    72          1
    74          1
    75          2
    76          0
    77         25
    78          6
    79         32
    80         15
    81         49
    82         13
    83        421
    84         35
    85         13
    86          1
    89          1
    91         12
    92          3
    93         24
    94         15
    95        999
    96         81
    97          7
    98          1
    99          0
   105          1
   107          2
   108          1
   109          4
   110         10
   111        184
   112         42
   113        143
   114         11
   115          1
   121          1
   135          3
   150          1
   166          1
   167          0
   168          0