##TITLE=Library Entry 91687
##JCAMP-DX=Revision 4.10 
##DATA TYPE=MASS SPECTRUM
##SAMPLE DESCRIPTION=A.A.Kutin, Moscow, Russia
##NAMES=HP
##CAS NAME=4-(3,4-Dihydro-2H-quinolin-1-yl)-4-oxo-butyric acid hydrazide
##MOLFORM=C13H17N3O2
##CAS REGISTRY NO=315673-61-1
##MP= -300
##BP= -300
##MW= 247
##$RETENTION INDEX=0
##$CONDENSED SPECTRUM=NO
##NPOINTS= 152
##XYDATA=(XY..XY) 1 
    33         80
    34          2
    35          1
    36          7
    37          2
    38          6
    39         19
    40         26
    41         40
    42         70
    43        106
    44         70
    45         38
    46          2
    47          0
    50          2
    51          6
    52          6
    53          9
    54         55
    55        308
    56         39
    57         47
    59        182
    60         12
    61          6
    62          0
    63          2
    64          1
    65          4
    66          1
    67          6
    68          5
    69         37
    70         24
    71         13
    73         69
    74          4
    75          1
    76          2
    77         10
    78          3
    79          4
    80          4
    81          6
    82          8
    83          9
    84          6
    85          9
    86         38
    87        116
    88          7
    89          1
    90          1
    91          5
    92          2
    93          1
    94          1
    95          4
    96          3
    97         14
    98         12
    99          3
   100          5
   101          2
   102          1
   103          2
   104          3
   105          4
   106          2
   107          1
   108          1
   109          2
   110          2
   111          3
   112          5
   115        999
   116         47
   117         11
   118          5
   119          2
   120          2
   121          2
   122          0
   123          1
   124          1
   125          1
   126          0
   127          1
   128          1
   129          4
   130          6
   131          3
   132         30
   133         40
   134          8
   135          2
   136          1
   137          1
   138          0
   139          0
   140          0
   141          0
   142          0
   143          1
   144          0
   145          0
   146          1
   147          0
   149          9
   150          1
   151          0
   152          0
   153          0
   154          0
   155          0
   156          0
   157          1
   158          0
   159          0
   160          1
   161          0
   162          0
   165          0
   167          3
   168          0
   169          0
   170          1
   171          3
   172          1
   173          0
   181          0
   185          1
   186          0
   187          0
   188          1
   189          0
   192          0
   194          0
   197          0
   199          0
   206          0
   212          0
   213          1
   214          1
   216         32
   217          4
   218          0
   228          0
   242          0
   246          0
   247          2