##TITLE=Library Entry 1271
##JCAMP-DX=Revision 4.10 
##DATA TYPE=MASS SPECTRUM
##SAMPLE DESCRIPTION=NIST Mass Spectrometry Data Center
##NAMES=HP
##CAS NAME=p,.beta.-Dinitrostyrene
##MOLFORM=C8H6N2O4
##CAS REGISTRY NO=3156-41-0
##MP= -300
##BP= -300
##MW= 194
##$RETENTION INDEX=0
##$CONDENSED SPECTRUM=NO
##NPOINTS= 71
##XYDATA=(XY..XY) 1 
    10          9
    11         20
    12         25
    13          5
    14         96
    15         17
    16        113
    17          8
    18         51
    25          2
    26          6
    27         44
    29         20
    30        999
    37         32
    38        109
    39        322
    40         16
    42          2
    43         47
    45         15
    46        135
    49          4
    50        718
    51        501
    52        227
    53         21
    61         37
    62        201
    63        521
    64        187
    65        355
    66         12
    68          2
    69         10
    73         35
    74        377
    75        533
    76        838
    77        235
    78        156
    79        124
    86          2
    89        789
    90        479
    91         78
    92        195
    93         24
    98          8
   101        315
   102        845
   103         70
   104         10
   106          2
   116         38
   117        237
   118        451
   119         31
   120         55
   131         16
   132          4
   147        774
   148        120
   150         18
   154          3
   163         63
   164          2
   177         48
   191         46
   194        638
   195         11