##TITLE=Library Entry 68126
##JCAMP-DX=Revision 4.10 
##DATA TYPE=MASS SPECTRUM
##SAMPLE DESCRIPTION=Chemical Concepts
##NAMES=HP
##CAS NAME=1,5-Bis(4-fluorobenzylideneamino)naphthalene
##MOLFORM=C24H16F2N2
##CAS REGISTRY NO=315673-37-1
##MP= -300
##BP= -300
##MW= 370
##$RETENTION INDEX=0
##$CONDENSED SPECTRUM=NO
##NPOINTS= 110
##XYDATA=(XY..XY) 1 
    33         13
    38        186
    40         12
    41          9
    42          4
    43         10
    45         22
    46          8
    50        272
    51        161
    52         27
    53          5
    55          5
    57        184
    58         13
    62        308
    64         19
    65         11
    69        180
    70        141
    71          7
    75        829
    76        152
    77        125
    78         15
    81         95
    82         40
    83         18
    86         46
    87         59
    88         51
    89         32
    90          6
    95        999
    96        316
    97         51
    98         33
    99         54
   100         69
   101         87
   102         48
   103          9
   105         11
   107        331
   108         79
   109         37
   110         72
   113         73
   114         44
   115         26
   116          5
   117         10
   121        470
   122        191
   123        121
   125        160
   126        269
   127        375
   128         91
   129          9
   132          5
   134         27
   137         89
   140         30
   144          5
   145          5
   146          5
   149          4
   152        189
   153         77
   154         59
   155          9
   168          4
   169          5
   170          5
   174          5
   175          4
   177          4
   178          4
   179         12
   180          4
   181          4
   182          4
   184         40
   185         24
   194          6
   199          6
   200          9
   201          6
   202          4
   207          5
   218         17
   219         12
   220         41
   222          5
   226          4
   227          9
   228          4
   232          4
   244          4
   245         15
   246         37
   248        159
   249         43
   250          4
   273         18
   275         29
   369         19
   370         88
   371         19