##TITLE=Library Entry 76207
##JCAMP-DX=Revision 4.10 
##DATA TYPE=MASS SPECTRUM
##SAMPLE DESCRIPTION=Asinex Ltd, Moscow, Russia
##NAMES=HP
##CAS NAME=Benzonitrile, 2-(5-bromo-2-thenylidenamino)-
##MOLFORM=C12H7BrN2S
##CAS REGISTRY NO=315670-73-6
##MP= -300
##BP= -300
##MW= 290
##$RETENTION INDEX=0
##$CONDENSED SPECTRUM=NO
##NPOINTS= 159
##XYDATA=(XY..XY) 1 
    33          5
    34         11
    37         93
    38        232
    39        442
    40         31
    41          6
    42          0
    45        376
    47         18
    50        289
    51        391
    52        101
    53          5
    54          0
    57        130
    58         55
    59          6
    60          5
    61         39
    62         69
    63         89
    64        125
    65         17
    66          4
    69        190
    70         29
    71         10
    72          2
    75        536
    76        402
    77         55
    78         15
    79         24
    80         42
    81        130
    82        420
    83        224
    84         31
    85         13
    86         10
    87         18
    88         25
    89         18
    90         15
    92         26
    93         87
    95        217
    96         14
    97          9
    98          3
    99         20
   100         23
   102        999
   103        840
   104         63
   106         89
   107         16
   108         28
   109         75
   110         10
   111          5
   112          4
   113         18
   114         17
   115          6
   117         73
   119         79
   120         13
   121         28
   123         17
   125         19
   126          7
   127         11
   129        248
   130         20
   131          2
   132          3
   133          4
   134          9
   136         17
   137          2
   138         19
   139         18
   140        111
   141         15
   142          3
   143          1
   145         74
   146         87
   149          0
   150          1
   151          5
   152         13
   153         41
   154          7
   156          3
   157          7
   158          6
   159          7
   161         53
   162        142
   163         47
   164        138
   165         20
   166         29
   167         24
   168          3
   169          0
   170          0
   171          1
   173          0
   174          1
   175          2
   176          2
   177          6
   178         11
   179         22
   180          2
   183         43
   184         78
   185         18
   187         65
   188        159
   189         67
   190        164
   191         11
   192          7
   200          2
   202          3
   207          0
   208          3
   209         19
   210        123
   211        861
   212        130
   213         44
   214          6
   215          0
   236          0
   238          0
   239          0
   240          0
   249          0
   251          0
   263          8
   264          3
   265          8
   266          2
   267          0
   286          2
   287          5
   289        412
   290        746
   291        456
   292        715
   293        110
   294         36
   295          3