##TITLE=Library Entry 48421
##JCAMP-DX=Revision 4.10 
##DATA TYPE=MASS SPECTRUM
##SAMPLE DESCRIPTION=A.A.Kutin, Moscow, Russia
##NAMES=HP
##CAS NAME=Thiazole, 4-(2,4-dimethylthiazol-5-yl)-2-(2-pyridylamino)-
##MOLFORM=C13H12N4S2
##CAS REGISTRY NO=315705-58-9
##MP= -300
##BP= -300
##MW= 288
##$RETENTION INDEX=0
##$CONDENSED SPECTRUM=NO
##NPOINTS= 162
##XYDATA=(XY..XY) 1 
    33          7
    34          3
    35          4
    36         21
    37         19
    38         85
    39        301
    40        149
    41        106
    42        190
    43         48
    44         87
    45        380
    46         22
    47         25
    50        100
    51        515
    52        292
    53         42
    54         10
    55         26
    56          9
    57         50
    58         81
    59        224
    60         13
    61         13
    62         12
    63         69
    64         83
    65         57
    66         87
    67         75
    69        338
    70        147
    71        160
    72         39
    73         20
    74          1
    75         22
    76         40
    77         67
    78        999
    79         36
    80         45
    81         25
    82         43
    83        248
    84        149
    85         56
    86         11
    87          7
    88         31
    89         12
    90          8
    91         25
    92         27
    93         35
    94        159
    95        165
    96         62
    97         32
    98         45
    99         14
   100         27
   101         54
   102         34
   103         22
   104         24
   105         89
   106         11
   108          3
   110         80
   111        126
   112         30
   113         17
   114          7
   115         43
   116         12
   117          5
   118         14
   119         53
   120        192
   121         12
   122          3
   124        142
   125         30
   127        140
   128        157
   129         47
   130         15
   131          5
   136         85
   137        493
   138         54
   139         35
   140          6
   141         12
   142         60
   143        129
   144         46
   145         13
   146          2
   148          2
   149          7
   150         19
   151         64
   152        247
   153         68
   154         35
   155         12
   156          8
   157          5
   158          4
   161          1
   162          2
   167         11
   168        108
   169        142
   170         42
   171         20
   172          6
   173          1
   175          2
   181          2
   182          7
   183         63
   184          8
   185          2
   186          3
   187         13
   188          3
   189          7
   194         63
   195         72
   196          8
   197          4
   202         10
   203          3
   210          1
   212          1
   213         15
   214        105
   215         16
   228          2
   230          5
   231          1
   243          3
   246        107
   247         66
   248         16
   249          2
   254          3
   255         38
   256          5
   257          3
   286         10
   287         47
   288        667
   289        103
   290         64
   291          4