##TITLE=Library Entry 60547
##JCAMP-DX=Revision 4.10 
##DATA TYPE=MASS SPECTRUM
##SAMPLE DESCRIPTION=Chemical Concepts
##NAMES=HP
##CAS NAME=1-Bromo-2-benzyloxybenzene
##MOLFORM=C13H11BrO
##CAS REGISTRY NO=31575-75-4
##MP= -300
##BP= -300
##MW= 262
##$RETENTION INDEX=0
##$CONDENSED SPECTRUM=NO
##NPOINTS= 104
##XYDATA=(XY..XY) 1 
    26          3
    27          8
    28         17
    29          4
    30          1
    31          1
    32          3
    36          0
    37          2
    38         12
    39         50
    40          4
    41         16
    42          2
    43          8
    44          2
    45          1
    49          0
    50         12
    51         26
    52          7
    53          3
    54          0
    55          3
    56          0
    57          3
    58          2
    61          1
    62          8
    63         40
    64         19
    65        100
    66          6
    67          1
    68          0
    69          2
    70          0
    71          1
    73          3
    74          3
    75          6
    76          7
    77         15
    78          4
    79         11
    80          4
    81          1
    82          1
    83          0
    84          0
    85          0
    86          1
    87          1
    88          1
    89         20
    90         12
    91        999
    92        103
    93          5
    94          0
    95          1
    97          0
   103          0
   104          0
   105          4
   106          1
   107          5
   108          3
   109          0
   115          1
   117          3
   119          3
   127          0
   128          1
   129          1
   131          0
   132          0
   135          3
   136          3
   143          6
   144          0
   145          6
   151          0
   152          2
   153          2
   154          1
   155          1
   157          1
   165          1
   168          0
   170          1
   171          1
   172          3
   173          1
   174          2
   181          4
   182          1
   184          5
   185          0
   199          1
   262         29
   263          4
   264         30
   265          4