##TITLE=Library Entry 27626
##JCAMP-DX=Revision 4.10 
##DATA TYPE=MASS SPECTRUM
##SAMPLE DESCRIPTION=NIST Mass Spectrometry Data Center, 2010
##NAMES=HP
##CAS NAME=Phenol, 2,4-bis(1,1-dimethylethyl)-, phosphite (3:1)
##MOLFORM=C42H63O3P
##CAS REGISTRY NO=31570-04-4
##MP= -300
##BP= -300
##MW= 646
##$RETENTION INDEX=3397
##$CONDENSED SPECTRUM=NO
##NPOINTS= 140
##XYDATA=(XY..XY) 1 
    29         24
    39          4
    41        116
    42          2
    43         13
    44          7
    50          1
    52          1
    53          6
    55         42
    57        999
    58         43
    64          1
    65          3
    66          1
    67          3
    69         22
    73          3
    74          1
    77         10
    78          1
    79         12
    81          3
    83          3
    89          1
    91         84
    92          4
    93          6
    95          4
    96          1
   103          3
   104          7
   105         49
   106          6
   107         19
   108          1
   109          2
   115         23
   116         11
   117         41
   118          6
   119         48
   120          7
   121         16
   122          1
   123          1
   128         12
   129          5
   130          7
   131         52
   132         28
   133         24
   134          3
   135          1
   136          1
   141          6
   142          1
   143          8
   144          5
   145         17
   147        349
   148         44
   149         37
   150          4
   151          1
   153          2
   155          1
   156          1
   157          4
   158          2
   159         36
   160          6
   161         30
   162          4
   163         16
   164          3
   165          3
   171          1
   173          6
   174          4
   175         22
   176          1
   177          4
   178          1
   179          1
   181          1
   187          1
   188          1
   189         18
   190          7
   191         65
   192         12
   195          1
   200         12
   203          2
   204          3
   205          8
   207          3
   208          1
   209          2
   217          1
   219         14
   220          4
   221         13
   222          1
   234          1
   235          6
   237         28
   238          5
   251          1
   252          1
   253          1
   255          1
   273          2
   281          2
   308         67
   311          2
   313          1
   315          1
   329          9
   330          2
   331          1
   369          2
   383          1
   385         14
   386          3
   387          1
   401          1
   425          9
   427         14
   428          2
   441        875
   442        247
   443         30
   444          4
   631          4
   632          1
   646         45
   647         24
   648          5