##TITLE=Library Entry 2054
##JCAMP-DX=Revision 4.10 
##DATA TYPE=MASS SPECTRUM
##SAMPLE DESCRIPTION=DC-11-7
##NAMES=HP
##CAS NAME=Octane, 1-isocyanato-
##MOLFORM=C9H17NO
##CAS REGISTRY NO=3158-26-7
##MP= -300
##BP= -300
##MW= 155
##$RETENTION INDEX=0
##$CONDENSED SPECTRUM=NO
##NPOINTS= 53
##XYDATA=(XY..XY) 1 
    14         30
    15        130
    16         20
    17         30
    18         70
    26         70
    27        770
    28        450
    29        820
    30        100
    38         20
    39        400
    40        100
    41        999
    42        400
    43        580
    44         50
    46         20
    51         30
    52         20
    53         60
    54         70
    55        420
    56        680
    57        200
    58         70
    59         30
    68         30
    69         40
    70        150
    71        100
    72         30
    81         20
    82         20
    83         30
    84        100
    85        240
    86         20
    97         20
    98        180
    99        660
   100         80
   101         10
   110         30
   111         20
   113        120
   114         20
   125         20
   126         70
   127         30
   140         20
   154         20
   155         20