##TITLE=Library Entry 48806
##JCAMP-DX=Revision 4.10 
##DATA TYPE=MASS SPECTRUM
##SAMPLE DESCRIPTION=Philip Morris R&D
##NAMES=HP
##CAS NAME=2-Pyridyl t-butyl ketone
##MOLFORM=C10H13NO
##CAS REGISTRY NO=31595-32-1
##MP= -300
##BP= -300
##MW= 163
##$RETENTION INDEX=0
##$CONDENSED SPECTRUM=NO
##NPOINTS= 82
##XYDATA=(XY..XY) 1 
    36          2
    37          3
    38          9
    39         87
    40         13
    41        176
    42         17
    43          1
    44          0
    49          2
    50         36
    51        125
    52        124
    53         41
    54          2
    55         12
    56         33
    57        176
    58          5
    59          0
    60          0
    61          0
    62          1
    63          2
    64          2
    65          3
    66          1
    67          0
    69          1
    70          1
    74          0
    75          2
    76          8
    77         10
    78        233
    79        999
    80        143
    81          5
    85          0
    86          0
    89          1
    90          0
    91          1
    92          8
    93         32
    94          4
   103          0
   104          4
   105          0
   106         55
   107        125
   108         58
   109          3
   110          0
   115          0
   116          0
   117          6
   118          5
   119          1
   120         62
   121          6
   122          7
   123          0
   130          4
   131          2
   132          1
   133          9
   134         26
   135         58
   136          6
   143          0
   144          3
   145          0
   146          3
   147          1
   148         72
   149          8
   160          0
   162          5
   163         87
   164          9
   165          1