##TITLE=Library Entry 18971
##JCAMP-DX=Revision 4.10 
##DATA TYPE=MASS SPECTRUM
##SAMPLE DESCRIPTION=R.I.REED CHEMISTRY DEPT., GLASGOW UNIVERSITY, GLASGOW,
 UK
##NAMES=HP
##CAS NAME=Phenol, o-(2-butenylsulfonyl)-
##MOLFORM=C10H12O3S
##CAS REGISTRY NO=31591-97-6
##MP= -300
##BP= -300
##MW= 212
##$RETENTION INDEX=0
##$CONDENSED SPECTRUM=NO
##NPOINTS= 63
##XYDATA=(XY..XY) 1 
    39        342
    40         24
    41         18
    44         13
    45         20
    48         18
    49          6
    50         35
    51         41
    52         24
    53         71
    54         32
    55        999
    56         41
    57          5
    58         10
    61          6
    62         21
    63         85
    64         53
    65        235
    66         35
    69         14
    70         14
    74          8
    75          8
    76          9
    77         13
    78          8
    79          7
    81          9
    84         20
    85          5
    91         13
    92         62
    93         48
    94         45
    95         11
    96         32
    97         11
   103          5
   105         20
   107         10
   109         14
   110          5
   112         21
   113         20
   115         21
   126          5
   131          5
   133         18
   140        324
   141         30
   142         18
   147          9
   148         35
   157         11
   158        147
   159         13
   160          7
   212         74
   213         11
   214          5