##TITLE=Library Entry 37750
##JCAMP-DX=Revision 4.10 
##DATA TYPE=MASS SPECTRUM
##SAMPLE DESCRIPTION=AAFS Toxicology Section MS DB Committee, U. Alberta, Ca
nada
##NAMES=HP
##CAS NAME=Thioproperazine
##MOLFORM=C22H30N4O2S2
##CAS REGISTRY NO=316-81-4
##MP= -300
##BP= -300
##MW= 446
##$RETENTION INDEX=3528
##$CONDENSED SPECTRUM=NO
##NPOINTS= 222
##XYDATA=(XY..XY) 1 
    30         72
    33          1
    34          5
    36          2
    37          1
    39         38
    41        147
    42        656
    43        623
    44        200
    45         38
    47         18
    50         43
    52         17
    54         34
    55         37
    56        259
    57        125
    58        124
    59         39
    63         29
    64          6
    65         17
    66          6
    67         16
    68         33
    69         69
    70        999
    71        291
    72         85
    73         19
    74         20
    75         15
    77          8
    79         15
    81         28
    82         53
    83         71
    84        112
    85        120
    86         28
    88          5
    89         15
    91          6
    92         16
    93         27
    95         48
    96         69
    97        140
    98        150
    99        143
   101         14
   102          1
   103          1
   105         14
   107          5
   108         24
   109         30
   110         11
   111        137
   113        801
   114        161
   115         33
   116         10
   119          5
   121         14
   122         17
   123          3
   124          8
   126         43
   127        545
   128         95
   129         15
   131         11
   132         16
   134         28
   135         20
   136         19
   139         91
   140         54
   141        343
   142         35
   144          1
   146          5
   148          9
   149          3
   151         13
   152         37
   153         55
   154         57
   155         12
   156          3
   157          5
   158         12
   160          6
   163          7
   164         24
   165         22
   166         28
   167         59
   168         10
   169         29
   170         35
   171         46
   173         12
   175         12
   176          7
   177         18
   178         53
   179         92
   180         80
   181         24
   183         30
   184         29
   185         33
   186         15
   188          2
   189          7
   191         20
   193         24
   194         27
   196        237
   197        203
   198        257
   199        113
   200         30
   201         18
   202         11
   203          8
   205         12
   206         33
   207         27
   208         47
   210        181
   211        172
   212        395
   213         76
   214         98
   215         15
   216         19
   222         52
   223        130
   224        111
   225         65
   226         27
   228         21
   233          4
   236         36
   237         42
   238        142
   239         55
   240         29
   241          7
   243         10
   246          6
   249          5
   252          7
   253         12
   254          7
   255          1
   256          6
   259          5
   262          8
   264          5
   265         18
   267         26
   269         12
   276          5
   280         12
   281         12
   285          6
   287         60
   288          5
   289         12
   292          4
   296          5
   303          5
   305         37
   306         76
   307         21
   308          1
   309          4
   313          6
   314          5
   315          5
   319        108
   320        335
   321         75
   322         43
   323          5
   329         12
   330         11
   332        132
   334         32
   335         10
   337          6
   338        131
   339         32
   340         11
   341          5
   345         76
   346         47
   356          7
   358         10
   361          5
   369          6
   375          5
   388         13
   393          5
   395          5
   399          5
   402         18
   403         17
   404          6
   412          6
   417          5
   418          8
   431          5
   444         11
   446        106
   447         33
   448         23