##TITLE=Library Entry 70884
##JCAMP-DX=Revision 4.10 
##DATA TYPE=MASS SPECTRUM
##SAMPLE DESCRIPTION=Div. of Experiment Therapeutics WRAIR, WRAMC, Washingto
n DC 20307
##NAMES=HP
##CAS NAME=5-.alpha.-Aminopropyltetrazole
##MOLFORM=C4H9N5
##CAS REGISTRY NO=31603-03-9
##MP= -300
##BP= -300
##MW= 127
##$RETENTION INDEX=0
##$CONDENSED SPECTRUM=NO
##NPOINTS= 43
##XYDATA=(XY..XY) 1 
    41        181
    43        697
    44         32
    45          3
    46          0
    49          3
    50          9
    51         14
    52         19
    53         42
    54         13
    55         95
    56         49
    58        324
    59         11
    60          0
    63          0
    64          0
    65          0
    66          1
    67          3
    68         11
    70        631
    71         20
    72          1
    77          0
    81          4
    82          0
    83          6
    84          3
    85          3
    86          0
    97          3
    98        999
    99         34
   100          0
   111          7
   112          0
   113          0
   125          2
   126          8
   127         34
   128          4