##TITLE=Library Entry 54884
##JCAMP-DX=Revision 4.10 
##DATA TYPE=MASS SPECTRUM
##SAMPLE DESCRIPTION=Chemical Concepts
##NAMES=HP
##CAS NAME=2H-Pyran, 2-(4-bromobutoxy)tetrahydro-
##MOLFORM=C9H17BrO2
##CAS REGISTRY NO=31608-22-7
##MP= -300
##BP= -300
##MW= 236
##$RETENTION INDEX=0
##$CONDENSED SPECTRUM=NO
##NPOINTS= 72
##XYDATA=(XY..XY) 1 
    26         10
    27        121
    28         23
    29        170
    30          3
    31         69
    38          1
    39         56
    40         13
    41        254
    42         39
    43        109
    44         31
    45          7
    47          7
    50          0
    51          1
    52          0
    53         18
    54         16
    55        531
    56        243
    57         81
    58          3
    59          4
    65          1
    67         75
    68          4
    69          3
    70          1
    71         11
    72          1
    73          6
    74          5
    80          0
    81          0
    83         10
    84         34
    85        999
    86         54
    87          3
    93          2
    95          2
    98          2
    99          0
   101         18
   102          1
   103          0
   106          7
   107          9
   108          7
   109          8
   115         22
   116          1
   134         21
   135        467
   136         41
   137        444
   138         18
   156          2
   157          8
   158          0
   163          0
   165          0
   178          3
   180          4
   181          0
   235         58
   236          8
   237         55
   238          7
   239          0