##TITLE=Library Entry 59245
##JCAMP-DX=Revision 4.10 
##DATA TYPE=MASS SPECTRUM
##SAMPLE DESCRIPTION=CARL DJERASSI DEPT OF CHEM STANFORD UNIV STANFORD CALIF
 94305
##NAMES=HP
##CAS NAME=Benzene, [(2-methoxyethoxy)methyl]-
##MOLFORM=C10H14O2
##CAS REGISTRY NO=31600-56-3
##MP= -300
##BP= -300
##MW= 166
##$RETENTION INDEX=0
##$CONDENSED SPECTRUM=NO
##NPOINTS= 27
##XYDATA=(XY..XY) 1 
    41         20
    43         20
    45        550
    50         20
    51         50
    52         10
    59         50
    60         20
    63         30
    65        160
    75         20
    77         60
    78         10
    79         40
    89         40
    90         20
    91        999
    92        120
   104         40
   105         90
   106         60
   107        330
   108         30
   133         20
   134         40
   166        180
   167         30