##TITLE=Library Entry 15320
##JCAMP-DX=Revision 4.10 
##DATA TYPE=MASS SPECTRUM
##SAMPLE DESCRIPTION=NIST Mass Spectrometry Data Center, 1990.
##NAMES=HP
##CAS NAME=2-Aminononadecane
##MOLFORM=C19H41N
##CAS REGISTRY NO=31604-55-4
##MP= -300
##BP= -300
##MW= 283
##$RETENTION INDEX=0
##$CONDENSED SPECTRUM=NO
##NPOINTS= 76
##XYDATA=(XY..XY) 1 
    15          1
    18         39
    19          0
    27         15
    28         12
    29         45
    30         35
    31          0
    32          0
    39         10
    41         95
    42         38
    43        177
    44        999
    45         31
    46          0
    51          0
    52          0
    53          4
    54          7
    55         65
    56         39
    57         57
    58          6
    59          2
    65          0
    66          0
    67          7
    68          3
    69         28
    70         19
    71         13
    72          1
    73          0
    77          0
    79          1
    80          0
    81          3
    82          3
    83         13
    84          4
    85          5
    86          1
    93          0
    95          1
    96          1
    97          6
    98          1
    99          0
   100          1
   109          0
   110          0
   111          2
   112          1
   113          0
   114          0
   124          0
   125          0
   126          0
   128          0
   139          0
   140          0
   154          0
   156          0
   168          0
   182          0
   196          0
   198          0
   254          0
   266          0
   268         35
   269          7
   270          0
   282          6
   283          1
   284          0