##TITLE=Library Entry 87977
##JCAMP-DX=Revision 4.10 
##DATA TYPE=MASS SPECTRUM
##SAMPLE DESCRIPTION=A.A.Kutin, Moscow, Russia
##NAMES=HP
##CAS NAME=Thiophene-2-carboxamide, N-(4-acetylaminophenyl)-
##MOLFORM=C13H12N2O2S
##CAS REGISTRY NO=316152-05-3
##MP= -300
##BP= -300
##MW= 260
##$RETENTION INDEX=0
##$CONDENSED SPECTRUM=NO
##NPOINTS= 107
##XYDATA=(XY..XY) 1 
    37          7
    38         22
    39        139
    40          9
    41         10
    42         59
    43        583
    45         40
    46          0
    47          1
    49          3
    50         13
    51         21
    52         60
    53         70
    54         13
    55          2
    56          0
    57         48
    58         12
    59          2
    62          6
    63         16
    64          8
    65          9
    66          4
    67          3
    68          0
    69          6
    70          2
    71          0
    72          1
    73          2
    74          1
    75          1
    76          3
    77          9
    78         16
    79         30
    80         87
    81         29
    82         30
    83         88
    84         10
    85          6
    87          0
    88          0
    89          1
    90          8
    91          5
    92          4
    93          1
    94          0
   102          0
   104          1
   105         22
   106         19
   107        161
   108         20
   109         35
   111        999
   112         63
   113         50
   114          3
   115          0
   117          0
   118          1
   119          3
   120          2
   122          3
   128          0
   130          1
   131          0
   133          2
   134          7
   135          1
   145          2
   147          2
   149         17
   150          3
   151          4
   156          1
   157          2
   162          0
   171          1
   173          1
   175          1
   184          0
   185          1
   187          1
   188          1
   189          3
   190         10
   191          1
   192          0
   201          0
   216          1
   217          9
   218        145
   219         22
   220          7
   232          0
   259          6
   260        475
   261         81
   262         30
   263          4