##TITLE=Library Entry 47712
##JCAMP-DX=Revision 4.10 
##DATA TYPE=MASS SPECTRUM
##SAMPLE DESCRIPTION=A.A.Kutin, Moscow, Russia
##NAMES=HP
##CAS NAME=Aniline, 4-phenylazo-N-(3,4-methylendioxybenzylidene)-
##MOLFORM=C20H15N3O2
##CAS REGISTRY NO=316143-35-8
##MP= -300
##BP= -300
##MW= 329
##$RETENTION INDEX=0
##$CONDENSED SPECTRUM=NO
##NPOINTS= 110
##XYDATA=(XY..XY) 1 
    37          9
    38         42
    39        111
    40         20
    41         20
    42          7
    43         20
    44         23
    45          3
    50        267
    51        402
    52         45
    53         22
    54          5
    55         14
    56          5
    57         12
    58          2
    61          5
    62         44
    63        188
    64         74
    65        111
    66         15
    67          4
    74          0
    75         91
    76        419
    77        999
    78         78
    79         11
    80          1
    81          2
    83         36
    85          3
    86          5
    87         15
    88         18
    89         62
    90         29
    91         26
    92         21
    93         11
    95          2
    97          6
   103          0
   104         29
   105         89
   106          8
   112         70
   113         41
   114         20
   115         60
   116         22
   117         13
   118          6
   120          7
   121         36
   122          4
   125          5
   126         12
   127         19
   128         11
   129          4
   130          3
   131          1
   138         34
   139        321
   140        226
   141         47
   142          6
   146         29
   147         19
   148          5
   151         34
   152         48
   153         24
   154          9
   155          6
   156          1
   165         87
   166        466
   167        131
   168         42
   169         10
   170          1
   171          3
   172          1
   176          4
   177          3
   178          6
   179          6
   180          2
   181          1
   182          3
   183          1
   193         12
   194        195
   195         33
   196         13
   197         10
   198          6
   224        754
   225        115
   226          9
   252         21
   253          2
   329        127
   330         25
   331          2