##TITLE=Library Entry 52249
##JCAMP-DX=Revision 4.10 
##DATA TYPE=MASS SPECTRUM
##SAMPLE DESCRIPTION=Chemical Concepts
##NAMES=HP
##CAS NAME=2-[.alpha.-(2-Hydroxy-4,4-dimethyl-6-oxo-1-cyclohexen-1-yl)-3-nit
robenzyl]-5,5-dimethyl-1,3-cyclohexanedione
##MOLFORM=C23H27NO6
##CAS REGISTRY NO=316132-41-9
##MP= -300
##BP= -300
##MW= 413
##$RETENTION INDEX=0
##$CONDENSED SPECTRUM=NO
##NPOINTS= 197
##XYDATA=(XY..XY) 1 
    32         14
    34          5
    37          8
    39        458
    40        158
    41        641
    42        275
    43        249
    44         56
    45          7
    46          7
    47          4
    48          5
    50         69
    51        152
    52         27
    53        171
    55        872
    56        695
    57         77
    58          8
    59         10
    60          2
    61          6
    62         27
    63         79
    64         21
    65         43
    66         14
    67         32
    69        234
    70        181
    71         20
    72          2
    74         78
    75        204
    76         47
    77         59
    78         16
    79         20
    80          6
    81         14
    83        999
    84        372
    85         26
    87         11
    88         25
    89        106
    90         25
    91         26
    92          9
    93          8
    94          5
    95         12
    97         78
    98         15
    99         16
   101        344
   102         75
   103         31
   104         13
   105         17
   106          8
   107          9
   109         13
   110          3
   112        152
   114         83
   115        248
   116         41
   117         19
   118         16
   119          6
   120          5
   121          4
   122          2
   123          3
   124          2
   125         28
   126         11
   127         23
   128         62
   129        156
   130         33
   131         22
   132          4
   133          3
   135          1
   136          8
   137          4
   138          1
   139          9
   140        156
   141         44
   142         30
   143         34
   144         43
   145         10
   146          4
   147         23
   148          6
   149         11
   150          8
   151          9
   152         16
   153         21
   155         24
   156         28
   158         14
   159         15
   161        413
   162         36
   163          5
   165         11
   166          6
   167          7
   168          9
   170         57
   171         56
   172         21
   173          9
   175         57
   176         27
   177          5
   178          2
   179          4
   180          1
   181          5
   182          7
   183          8
   184         11
   185          7
   186         10
   187          4
   189        108
   190         19
   191          6
   193          3
   195          3
   196          2
   197          4
   198         14
   199         13
   200         44
   201          8
   202         13
   203         12
   207          2
   210          4
   211          4
   212          3
   214          6
   216         27
   217          7
   218          5
   223          3
   224          2
   226        156
   227         71
   228         27
   230         65
   231          7
   240          5
   241          1
   242         17
   243         14
   244         16
   245          9
   246          2
   251          6
   253          2
   254          2
   256        312
   257         53
   258         22
   259          3
   270          3
   272         46
   273        183
   274         16
   275          4
   283          5
   284          9
   286          8
   294          4
   295          7
   296          4
   337          2
   338          1
   367          2
   378          5
   379          1
   396         19
   397          6
   398          1
   413         35
   414          6