##TITLE=Library Entry 28239
##JCAMP-DX=Revision 4.10 
##DATA TYPE=MASS SPECTRUM
##SAMPLE DESCRIPTION=Japan AIST/NIMC Database- Spectrum MS-NW-9972
##NAMES=HP
##CAS NAME=Sulfur trioxide trimethylamine complex
##MOLFORM=C3H9NO3S
##CAS REGISTRY NO=3162-58-1
##MP= -300
##BP= -300
##MW= 139
##$RETENTION INDEX=0
##$CONDENSED SPECTRUM=NO
##NPOINTS= 41
##XYDATA=(XY..XY) 1 
    14         10
    15        176
    16          2
    26          5
    27         21
    28        103
    29         44
    30        254
    31          9
    32          9
    34          2
    38          3
    39          5
    40         23
    41         37
    42        262
    43         64
    44         29
    45          1
    48         57
    50          2
    51          1
    52          2
    54          3
    55          2
    56         22
    57         43
    58        999
    59        701
    60         26
    64        106
    65          3
    66          5
    76          9
    80         66
    81          1
    82          4
   107          1
   139        147
   140         14
   141          8