##TITLE=Library Entry 11528
##JCAMP-DX=Revision 4.10 
##DATA TYPE=MASS SPECTRUM
##SAMPLE DESCRIPTION=A.A.Kutin, Moscow, Russia
##NAMES=HP
##CAS NAME=Bicyclo[3,3,1]non-2-ene, 7-oxa-2,8,9-trimethyl-5-acetoxymethyl-
##MOLFORM=C14H22O3
##CAS REGISTRY NO=316365-57-8
##MP= -300
##BP= -300
##MW= 238
##$RETENTION INDEX=0
##$CONDENSED SPECTRUM=NO
##NPOINTS= 129
##XYDATA=(XY..XY) 1 
    34          0
    36          1
    38          2
    39        110
    40         37
    41        206
    42         38
    43        999
    44         32
    45         28
    50          5
    51         29
    52         15
    53         76
    54         12
    55         89
    56          9
    57         17
    58         10
    59         69
    60          3
    61          9
    62          1
    63          8
    64          4
    65         53
    66         12
    67         59
    68          8
    69         24
    70          4
    71          7
    72          2
    73         10
    74          4
    75          1
    77        138
    78         37
    79        133
    80         44
    81         35
    82         17
    83          8
    84          3
    85          3
    87          3
    88          0
    89          4
    90          4
    91        329
    92        199
    93        158
    94         65
    95         37
    96          5
    97         11
    98          1
   101          0
   102          3
   103         31
   104         20
   105        384
   106        394
   107        127
   108         25
   109         25
   110          7
   111          2
   112          1
   113          0
   115         19
   116          8
   117         75
   118         62
   119        851
   120        202
   121        169
   122         24
   123         26
   124          4
   125          1
   127          0
   128          2
   129          3
   130          2
   131         17
   132        152
   133         99
   134        240
   135         94
   136         17
   137          8
   138          0
   139          0
   143          1
   144          0
   145         25
   146         17
   147        262
   148        108
   149         29
   150          4
   151          3
   152          4
   157          0
   159          2
   160         27
   161          5
   162          1
   163         19
   164          3
   165          5
   166          5
   171          2
   173          1
   177          1
   178        101
   179         15
   180          1
   181          2
   193          0
   194          7
   195          1
   196          1
   202          0
   220          0
   238         63
   239          8
   240          0