##TITLE=Library Entry 109367
##JCAMP-DX=Revision 4.10 
##DATA TYPE=MASS SPECTRUM
##SAMPLE DESCRIPTION=NIST Mass Spectrometry Data Center
##NAMES=HP
##CAS NAME=2-Aminoresorcinol
##MOLFORM=C6H7NO2
##CAS REGISTRY NO=3163-15-3
##MP= -300
##BP= -300
##MW= 125
##$RETENTION INDEX=0
##$CONDENSED SPECTRUM=NO
##NPOINTS= 60
##XYDATA=(XY..XY) 1 
    15          3
    17          1
    18          4
    19          1
    25          1
    26         10
    27         20
    28         62
    29         27
    30          6
    33          2
    34          1
    35          1
    36          4
    37         21
    38         45
    39        106
    40         26
    41         85
    42         36
    43         14
    44          9
    49         12
    50         35
    51         92
    52        260
    53         96
    54         28
    55         14
    56          2
    57          5
    61          4
    62         27
    64          4
    65          8
    66         14
    67         38
    68         33
    69         16
    70          6
    75          5
    76         12
    77          7
    78         81
    79        196
    80         36
    81          3
    82          1
    94          2
    95         13
    96        151
    97         10
   106         12
   107        352
   108         27
   109          2
   124         37
   125        999
   126         70
   127          6