##TITLE=Library Entry 98707
##JCAMP-DX=Revision 4.10 
##DATA TYPE=MASS SPECTRUM
##SAMPLE DESCRIPTION=Institute of Organic Chemistry, Novosibirsk, USSR 1988
##NAMES=HP
##CAS NAME=3,5-Diphenyl-1,2,4-triazin-6(1H)-one
##MOLFORM=C15H11N3O
##CAS REGISTRY NO=31633-54-2
##MP= -300
##BP= -300
##MW= 249
##$RETENTION INDEX=0
##$CONDENSED SPECTRUM=NO
##NPOINTS= 59
##XYDATA=(XY..XY) 1 
    26         26
    27         39
    28         53
    29         12
    31         19
    37         12
    38         19
    39        181
    40         12
    41         19
    50         73
    51        141
    52         33
    61         12
    62         67
    63        263
    64         87
    65         19
    74         12
    75         26
    76        114
    77        256
    78         26
    82         12
    83         12
    86         12
    87         19
    88         26
    89        539
    90         94
    91        357
    92         26
    96         39
   102         19
   103         87
   104         73
   111         46
   112          6
   117         33
   118        999
   119         94
   123         12
   146         12
   165         26
   166          6
   172         59
   190         12
   191          6
   192        208
   193         80
   194         12
   207          6
   220        127
   221        229
   222         33
   248         33
   249        834
   250        141
   251         12