##TITLE=Library Entry 19574
##JCAMP-DX=Revision 4.10 
##DATA TYPE=MASS SPECTRUM
##SAMPLE DESCRIPTION=Leung Pu, NIH, Bethesda, Maryland, U.S.
##NAMES=HP
##CAS NAME=1-(Nitromethyl)-cyclohexanol
##MOLFORM=C7H13NO3
##CAS REGISTRY NO=3164-73-6
##MP= -300
##BP= -300
##MW= 159
##$RETENTION INDEX=0
##$CONDENSED SPECTRUM=NO
##NPOINTS= 87
##XYDATA=(XY..XY) 1 
    41        509
    42        830
    43        495
    44         26
    45         35
    46          3
    47         31
    48         13
    52         12
    53         77
    54         96
    55        999
    56        144
    57         74
    58         16
    59          2
    60         34
    61          7
    62          9
    63          7
    64          0
    65         17
    66          6
    67         76
    69        488
    70        334
    71         43
    72          1
    73        148
    74          7
    75          1
    77         20
    78         16
    79         42
    80         72
    81        135
    83        165
    84         10
    86          7
    87         23
    88         13
    89          0
    91          7
    92          0
    93         16
    95        210
    97         75
    98        594
    99        214
   100         12
   101          9
   102          1
   103          1
   104          0
   105          1
   106          7
   107          4
   108          0
   109          3
   110          0
   111          4
   112          7
   113         39
   114          3
   115          1
   116          6
   117          1
   119          0
   120          0
   121          1
   122          1
   123          1
   124          7
   125         16
   126          1
   127          1
   129          0
   130          0
   131          0
   133          0
   134          1
   141          0
   142          2
   143          1
   158          1
   159          5
   160          0