##TITLE=Library Entry 16659
##JCAMP-DX=Revision 4.10 
##DATA TYPE=MASS SPECTRUM
##SAMPLE DESCRIPTION=A.Pleshkova, Nesmeyanov Inst.Org.Elem.Cpds, Moscow
##NAMES=HP
##CAS NAME=Dimethyl-cyano-phosphine
##MOLFORM=C3H6NP
##CAS REGISTRY NO=31641-57-3
##MP= -300
##BP= -300
##MW= 87
##$RETENTION INDEX=0
##$CONDENSED SPECTRUM=NO
##NPOINTS= 27
##XYDATA=(XY..XY) 1 
    27        961
    28        613
    29         22
    31        122
    32          9
    41        842
    42        843
    43         28
    44        561
    45        999
    46        903
    47        782
    48         28
    57        551
    58        413
    59         25
    60        323
    61        163
    62         11
    70        382
    71        181
    72        754
    73         28
    86         81
    87        873
    88         42
    89          1