##TITLE=Library Entry 21934
##JCAMP-DX=Revision 4.10 
##DATA TYPE=MASS SPECTRUM
##SAMPLE DESCRIPTION=Exported from NIST MS Search
##NAMES=HP
##CAS NAME=Aziridine, 1-(2-phenylethyl)-
##MOLFORM=C10H13N
##CAS REGISTRY NO=3164-46-3
##MP= -300
##BP= -300
##MW= 147
##$RETENTION INDEX=0
##$CONDENSED SPECTRUM=NO
##NPOINTS= 98
##XYDATA=(XY..XY) 1 
    15         77
    16          3
    17          2
    18          7
    25          1
    26         19
    27         76
    28        147
    29         44
    30         34
    31          1
    32          7
    37          4
    38         13
    39         71
    40         14
    41         45
    42        106
    43         11
    44          7
    45          1
    49          2
    50         28
    51         67
    52         18
    53          9
    54         13
    55          8
    56        999
    57         38
    58         12
    59          1
    61          3
    62         10
    63         30
    64          8
    65         51
    66          4
    67          1
    68          1
    70          3
    71          4
    72          3
    73          4
    74          7
    75          8
    76          8
    77         69
    78         39
    79         31
    80          3
    85          1
    86          2
    87          2
    88          2
    89         14
    90          7
    91        109
    92         13
    93          1
    94          1
    97          1
    98          1
    99          1
   100          1
   101          3
   102         12
   103         46
   104        139
   105         48
   106          4
   107          1
   111          1
   113          1
   114          1
   115          9
   116          6
   117         10
   118         11
   119          4
   120          1
   127          1
   128          3
   129          6
   130         10
   131         10
   132         13
   133          2
   134          1
   141          1
   142          1
   143          2
   144         20
   145         10
   146        137
   147         84
   148          9
   149          1