##TITLE=Library Entry 32721
##JCAMP-DX=Revision 4.10 
##DATA TYPE=MASS SPECTRUM
##SAMPLE DESCRIPTION=NIST Mass Spectrometry Data Center, 1998.
##NAMES=HP
##CAS NAME=9,12-Tetradecadien-1-ol, acetate, (Z,E)-
##MOLFORM=C16H28O2
##CAS REGISTRY NO=31654-77-0
##MP= -300
##BP= -300
##MW= 252
##$RETENTION INDEX=1811
##$CONDENSED SPECTRUM=NO
##NPOINTS= 126
##XYDATA=(XY..XY) 1 
    14          1
    15         10
    26          3
    27         56
    28         14
    29        100
    30          3
    31          8
    37          1
    38          4
    39        155
    40         31
    41        455
    42         65
    43        912
    44         27
    45          7
    50          5
    51         24
    52         19
    53        209
    54        152
    55        653
    56         44
    57         48
    58          4
    59          1
    60          2
    61         71
    62          2
    63          6
    64          2
    65         80
    66        100
    67        999
    68        781
    69        215
    70         16
    71         18
    72          2
    73         33
    74          2
    75          1
    76          1
    77        149
    78         61
    79        930
    80        382
    81        901
    82        586
    83         94
    84          7
    85         15
    86          2
    87          2
    89          1
    91        115
    92         34
    93        429
    94        367
    95        507
    96        275
    97         48
    98          6
    99          2
   100          1
   101          1
   102          1
   103          3
   104          1
   105         23
   106         10
   107        220
   108        138
   109        124
   110        173
   111         31
   112          3
   113          1
   114          1
   115          2
   116          1
   117          2
   119          5
   120          7
   121        242
   122         86
   123         42
   124         60
   125         11
   126          1
   127          1
   128          1
   129          1
   131          1
   133          3
   134          3
   135        152
   136         62
   137         13
   138          4
   139          1
   140          1
   141          1
   143          1
   147          1
   148          1
   149         69
   150         26
   151          7
   153          1
   155          1
   161          1
   163         34
   164         26
   165          3
   167          1
   177          4
   178          1
   191          5
   192        107
   193         16
   209          5
   210          1
   252          5
   253          1