##TITLE=Library Entry 6093
##JCAMP-DX=Revision 4.10 
##DATA TYPE=MASS SPECTRUM
##SAMPLE DESCRIPTION=NIST Mass Spectrometry Data Center, 1994
##NAMES=HP
##CAS NAME=Decyl 4-nitrophenyl ether
##MOLFORM=C16H25NO3
##CAS REGISTRY NO=31657-37-1
##MP= -300
##BP= -300
##MW= 279
##$RETENTION INDEX=0
##$CONDENSED SPECTRUM=NO
##NPOINTS= 100
##XYDATA=(XY..XY) 1 
    12          2
    15          5
    17          1
    18          6
    26         12
    27        204
    29        457
    30         69
    37          3
    38         21
    39        165
    40          3
    41        786
    42        157
    43        999
    44         35
    45          1
    50         36
    51         20
    52         13
    53         57
    54         36
    55        414
    56        191
    57        715
    58         26
    61          1
    62          9
    63         53
    64         46
    65         78
    66         15
    67         39
    68         26
    69        196
    70        145
    71        278
    72         13
    74          8
    75         41
    76         58
    77         19
    78         22
    79         15
    80         12
    81         31
    82         32
    83        176
    84         89
    85        235
    86         12
    89          1
    90          1
    91         12
    92         29
    93         45
    94         16
    95          5
    96         24
    97        135
    98         49
    99         30
   100          2
   103          2
   105          5
   106         24
   107         18
   108          2
   109        145
   110         19
   111         62
   112         34
   113          2
   118          1
   119          3
   120          2
   122         37
   123        128
   124         58
   125          8
   131          5
   133          7
   135          2
   136          2
   139        112
   140        110
   141         65
   142          4
   152         27
   153          2
   165          1
   166          1
   249          6
   250          2
   262         21
   263          8
   264          1
   279        109
   280         21
   281          3