##TITLE=Library Entry 59836
##JCAMP-DX=Revision 4.10 
##DATA TYPE=MASS SPECTRUM
##SAMPLE DESCRIPTION=LAC, NIDDK, NIH, Bethesda, MD 20892
##NAMES=HP
##CAS NAME=Benzonitrile, 2-(p-toluenesulfonylamino)-
##MOLFORM=C14H12N2O2S
##CAS REGISTRY NO=31659-28-6
##MP= -300
##BP= -300
##MW= 272
##$RETENTION INDEX=0
##$CONDENSED SPECTRUM=NO
##NPOINTS= 81
##XYDATA=(XY..XY) 1 
    41         50
    43          4
    45         15
    48         12
    50         69
    51        109
    52         66
    53         18
    54          2
    55          1
    56          1
    57          1
    58          1
    61         10
    62         59
    63        345
    64         88
    65        665
    66         14
    67          9
    69          7
    71          6
    74         13
    75         20
    76         11
    77         58
    78         19
    79         12
    80          1
    82          1
    86          9
    87         12
    89        225
    90        463
    91        999
    92         66
    93          2
    95          3
   102          6
   103          1
   104          1
   107          7
   108          1
   109          1
   111          5
   115          5
   116          8
   117        204
   118         28
   119          1
   121          7
   122          1
   123          1
   127          1
   129          1
   139         20
   140          4
   152          5
   153          2
   155        541
   156         39
   157         26
   164          1
   165          5
   166          3
   167          2
   178          2
   179          4
   180         11
   181          5
   182          1
   192         19
   193          7
   205          9
   206          8
   207         22
   208          7
   272        419
   273         62
   274         25
   275          3