##TITLE=Library Entry 76971
##JCAMP-DX=Revision 4.10 
##DATA TYPE=MASS SPECTRUM
##SAMPLE DESCRIPTION=TEXAS A&M UNIVERSITY, COLLEGE STATION, TEXAS, USA
##NAMES=HP
##CAS NAME=Benzene, 1-azido-2-methyl-
##MOLFORM=C7H7N3
##CAS REGISTRY NO=31656-92-5
##MP= -300
##BP= -300
##MW= 133
##$RETENTION INDEX=0
##$CONDENSED SPECTRUM=NO
##NPOINTS= 53
##XYDATA=(XY..XY) 1 
    14          9
    15         15
    25          9
    26         71
    27        131
    28        115
    36         12
    37         90
    38        128
    39        312
    40         31
    41         43
    43         12
    48          9
    49         34
    50        281
    51        343
    52        312
    53         46
    54         18
    61         53
    62         68
    63        150
    64         81
    65        187
    66         31
    69         28
    73         18
    74         56
    75         53
    76         75
    77        312
    78        656
    79        531
    80         37
    86         15
    87          9
    88         15
    89         18
    90         59
    91         59
    92         18
   102         25
   103         31
   104        999
   105        656
   106         90
   107         50
   119         12
   120         12
   131         12
   133        406
   134         37