##TITLE=Library Entry 32078
##JCAMP-DX=Revision 4.10 
##DATA TYPE=MASS SPECTRUM
##SAMPLE DESCRIPTION=James Little,Eastman Chem.Co.,Kingsport,TN
##NAMES=HP
##CAS NAME=5-Allyl-2-norbornene
##MOLFORM=C10H14
##CAS REGISTRY NO=31663-53-3
##MP= -300
##BP= -300
##MW= 134
##$RETENTION INDEX=0
##$CONDENSED SPECTRUM=NO
##NPOINTS= 26
##XYDATA=(XY..XY) 1 
    27         26
    38         12
    39         94
    40         31
    41         46
    50         13
    51         29
    52         12
    53         26
    63         18
    65         80
    66        999
    67        118
    68         14
    77         80
    78         28
    79         64
    80         38
    91         91
    92         52
    93         31
   105         22
   106         12
   119         36
   132         11
   134         42