##TITLE=Library Entry 85822
##JCAMP-DX=Revision 4.10 
##DATA TYPE=MASS SPECTRUM
##SAMPLE DESCRIPTION=Chuck Anderson, Aldrich Chemical Co.
##NAMES=HP
##CAS NAME=Ethanone, 1-(2-methyl-1-cyclopenten-1-yl)-
##MOLFORM=C8H12O
##CAS REGISTRY NO=3168-90-9
##MP= -300
##BP= -300
##MW= 124
##$RETENTION INDEX=1504
##$CONDENSED SPECTRUM=NO
##NPOINTS= 83
##XYDATA=(XY..XY) 1 
    14          1
    15         23
    16          0
    25          0
    26          6
    27         73
    28          8
    29         18
    30          0
    31          1
    32          0
    33          0
    37          5
    38         18
    39        161
    40         29
    41        160
    42         17
    43        507
    44         11
    45          5
    46          0
    47          0
    49          3
    50         42
    51         82
    52         48
    53        264
    54         17
    55         48
    56          2
    57          0
    58          2
    59          0
    60          0
    61          3
    62          9
    63         21
    64          5
    65         60
    66         37
    67         37
    68          3
    69          4
    70          0
    71          1
    73          1
    74          6
    75          3
    76          0
    77        104
    78         12
    79        521
    80         47
    81        358
    82         24
    83          2
    84          0
    85          0
    86          0
    87          0
    89          0
    91         13
    92          2
    93          4
    94          1
    95          7
    96          1
    97          0
   102          0
   103          1
   105          3
   106          1
   107          3
   109        999
   110         67
   111          4
   121          0
   122          0
   123          0
   124        478
   125         39
   126          2