##TITLE=Library Entry 47465
##JCAMP-DX=Revision 4.10 
##DATA TYPE=MASS SPECTRUM
##SAMPLE DESCRIPTION=CARL DJERASSI DEPT OF CHEM STANFORD UNIV STANFORD CALIF
 94305
##NAMES=HP
##CAS NAME=2-Furanacetaldehyde, .alpha.-isopropylidene-
##MOLFORM=C9H10O2
##CAS REGISTRY NO=31681-28-4
##MP= -300
##BP= -300
##MW= 150
##$RETENTION INDEX=0
##$CONDENSED SPECTRUM=NO
##NPOINTS= 67
##XYDATA=(XY..XY) 1 
    41        560
    42         50
    43        240
    44         10
    49         10
    50        200
    51        480
    52        170
    53        350
    54         30
    55         90
    56         10
    57         10
    58         10
    60         10
    61         20
    62         60
    63        150
    64         30
    65        230
    66         40
    67        150
    68         30
    69        230
    70         20
    71         70
    72         10
    73         10
    74         50
    75         40
    76         20
    77        999
    78        260
    79        270
    80         20
    81        260
    82         50
    83         10
    84         20
    85         10
    86         10
    87         10
    89         20
    90         20
    91        550
    92         50
    93        440
    94         50
    95        200
    96         60
    97         10
   103         40
   104         10
   105         20
   106        120
   107        150
   108         10
   109         10
   119         10
   120         10
   121        530
   122        110
   123         10
   135         10
   150        890
   151         80
   152         10