##TITLE=Library Entry 61589
##JCAMP-DX=Revision 4.10 
##DATA TYPE=MASS SPECTRUM
##SAMPLE DESCRIPTION=Chemical Concepts
##NAMES=HP
##CAS NAME=2H-Tetrazol-5-amine, 2-(phenylmethyl)-
##MOLFORM=C8H9N5
##CAS REGISTRY NO=31694-91-4
##MP= -300
##BP= -300
##MW= 175
##$RETENTION INDEX=0
##$CONDENSED SPECTRUM=NO
##NPOINTS= 105
##XYDATA=(XY..XY) 1 
    26         25
    27         94
    28         49
    29         44
    30         18
    36         28
    37         14
    38         40
    39        170
    40         34
    41         94
    42         57
    43        126
    44        160
    45         21
    49          9
    50         88
    51        186
    52         51
    53         18
    54         13
    55         41
    56         21
    57         36
    58          9
    59         11
    60         23
    61         16
    62         34
    63        106
    64         41
    65        269
    66         31
    67         16
    68         12
    69         35
    70        315
    71         34
    73         19
    74         28
    75         31
    76         80
    77        227
    78        107
    79         37
    80         19
    81         15
    82         15
    83         35
    84         23
    85         22
    86          9
    87         11
    88         11
    89        103
    90         94
    91        999
    92        288
    93         67
    94         15
    95         18
    96         13
    97         22
    98         24
    99         14
   100          9
   101         12
   102         27
   103        123
   104        309
   105         98
   106         39
   107         33
   108         19
   109         15
   110         10
   111         11
   112         10
   115         16
   116         14
   117         56
   118        199
   119        477
   120        107
   121         19
   122         13
   124          7
   126          9
   127         10
   128         10
   129         20
   130         12
   131         40
   132         22
   133         21
   139         10
   145         62
   146        297
   147        308
   148         34
   149         46
   150         13
   174         10
   175        177
   176         21