##TITLE=Library Entry 63033
##JCAMP-DX=Revision 4.10 
##DATA TYPE=MASS SPECTRUM
##SAMPLE DESCRIPTION=Chemical Concepts
##NAMES=HP
##CAS NAME=1H-Tetrazol-5-amine, 1-(phenylmethyl)-
##MOLFORM=C8H9N5
##CAS REGISTRY NO=31694-90-3
##MP= -300
##BP= -300
##MW= 175
##$RETENTION INDEX=0
##$CONDENSED SPECTRUM=NO
##NPOINTS= 69
##XYDATA=(XY..XY) 1 
    27         22
    29         28
    38         13
    39         80
    40         47
    41         59
    42         15
    43         43
    44         31
    45         16
    50         38
    51         72
    52         19
    53          9
    54          8
    55         36
    56         28
    57         40
    60         14
    61          7
    62         17
    63         41
    64         16
    65        115
    66         12
    67         16
    68         11
    69         44
    70         29
    71         24
    73         19
    74         16
    75         15
    76         21
    77         64
    78         43
    79         15
    81         25
    82         15
    83         22
    84         11
    85         11
    89         41
    90         24
    91        999
    92        109
    93         21
    95         15
    97         16
    98         16
   103         16
   104         89
   105         41
   106         10
   107         10
   109         12
   112         21
   113         10
   118         58
   119        177
   120         21
   128         12
   131         10
   133         15
   137         11
   146         91
   147         17
   175        328
   176         52