##TITLE=Library Entry 31758
##JCAMP-DX=Revision 4.10 
##DATA TYPE=MASS SPECTRUM
##SAMPLE DESCRIPTION=Div. of Experiment Therapeutics WRAIR, WRAMC, Washingto
n DC 20307
##NAMES=HP
##CAS NAME=S-2-[3-Succinimidopropylamino]ethyl thiosulfuric acid
##MOLFORM=C9H16N2O5S2
##CAS REGISTRY NO=31701-75-4
##MP= -300
##BP= -300
##MW= 296
##$RETENTION INDEX=0
##$CONDENSED SPECTRUM=NO
##NPOINTS= 135
##XYDATA=(XY..XY) 1 
    41        101
    42         75
    43         23
    44        113
    45         21
    46          6
    47          7
    48        259
    49          4
    50         13
    51          1
    52          7
    53          7
    54         31
    55         82
    56        114
    57         26
    58         60
    59         21
    60         16
    61         39
    62          2
    64        999
    65         81
    66         29
    67         14
    68         15
    69         12
    70         24
    71          7
    72          4
    73          1
    74          1
    76          1
    77          1
    78          2
    79          1
    80          9
    81          5
    82         17
    83         16
    84         33
    85         12
    86          3
    87          4
    88         25
    89          1
    90         13
    91          0
    92          1
    93          2
    94          3
    95          3
    96          4
    97          3
    98          6
    99         13
   100          5
   101          1
   102         21
   103          1
   104          1
   107          5
   108          3
   109         14
   110         14
   111          3
   112         67
   113          7
   114          7
   115          1
   116          6
   121          5
   122          4
   123          6
   124          5
   125          2
   126          2
   127          2
   128          4
   133          0
   135         11
   136          8
   137         29
   138         29
   139         31
   140        229
   141         18
   142          2
   149          1
   150          7
   151          4
   152          8
   153          8
   154          2
   155          1
   156          7
   157          2
   160          1
   163         13
   164          1
   165          8
   167         18
   168          5
   169        220
   170         20
   171          1
   181          5
   182          3
   183          3
   192          1
   193          1
   194          1
   195         23
   196        101
   197         21
   198         25
   199          7
   200          2
   213          5
   215          2
   217         14
   218          1
   224          1
   225          1
   226          2
   227         16
   228          3
   229          3
   240          3
   241          0
   248          3
   295          0
   296          1
   297          0