##TITLE=Library Entry 72840
##JCAMP-DX=Revision 4.10 
##DATA TYPE=MASS SPECTRUM
##SAMPLE DESCRIPTION=P. Vainiotalo, Dep. Chem., Joensuu Univ., Joensuu, Finl
and
##NAMES=HP
##CAS NAME=Oxazolidine, 2,4,4-trimethyl-
##MOLFORM=C6H13NO
##CAS REGISTRY NO=31720-56-6
##MP= -300
##BP= -300
##MW= 115
##$RETENTION INDEX=0
##$CONDENSED SPECTRUM=NO
##NPOINTS= 42
##XYDATA=(XY..XY) 1 
    15         83
    26         22
    27        143
    29        145
    30         96
    31         36
    38         18
    39        151
    40         55
    41        276
    42        709
    43        247
    44        220
    45        167
    46        297
    53         21
    54         25
    55        444
    56        282
    57        256
    58        110
    59         15
    60        120
    68         31
    69         11
    70        351
    71         40
    72        342
    73        189
    74         11
    82         17
    83         31
    84        454
    85        460
    86         42
    87         16
    89         21
    98         10
   100        999
   101         64
   115        153
   116         10