##TITLE=Library Entry 97237
##JCAMP-DX=Revision 4.10 
##DATA TYPE=MASS SPECTRUM
##SAMPLE DESCRIPTION=Japan AIST/NIMC Database- Spectrum MS-IW- 565
##NAMES=HP
##CAS NAME=Cyclopropanemethanol, 1-phenyl-
##MOLFORM=C10H12O
##CAS REGISTRY NO=31729-66-5
##MP= -300
##BP= -300
##MW= 148
##$RETENTION INDEX=0
##$CONDENSED SPECTRUM=NO
##NPOINTS= 97
##XYDATA=(XY..XY) 1 
    15          2
    17          2
    18         11
    26          3
    27         49
    28         12
    29         14
    30          1
    31         37
    32          1
    37          1
    38          9
    39        149
    40         14
    41         66
    42         11
    43         42
    44          2
    45          7
    46          3
    50         45
    51        165
    52         40
    53         24
    54          1
    55         84
    56          3
    57         17
    58          3
    59          1
    60          1
    61          2
    62         20
    63         88
    64         52
    65        149
    66         16
    67          2
    68          1
    69         27
    70         12
    71          8
    72          2
    73          2
    74         17
    75         26
    76         34
    77        185
    78        174
    79         74
    80          5
    81          1
    86          4
    87          8
    88          5
    89         73
    90         23
    91        890
    92        148
    93          9
    94          2
    98          1
    99          1
   101          9
   102         66
   103         92
   104         84
   105        219
   106         82
   107         16
   108          1
   113          6
   114          8
   115        639
   116        145
   117        999
   118        429
   119         93
   120        252
   121         21
   122          2
   126          3
   127         32
   128         74
   129        184
   130        364
   131         57
   132          6
   133        200
   134         19
   135          1
   145          3
   146          8
   147         63
   148        321
   149         34
   150          2