##TITLE=Library Entry 76398
##JCAMP-DX=Revision 4.10 
##DATA TYPE=MASS SPECTRUM
##SAMPLE DESCRIPTION=V.G.Zaikin, Petrochem. Synth. Inst., Moscow
##NAMES=HP
##CAS NAME=Tri(isobutyl)silanol
##MOLFORM=C12H28OSi
##CAS REGISTRY NO=317374-14-4
##MP= -300
##BP= -300
##MW= 216
##$RETENTION INDEX=0
##$CONDENSED SPECTRUM=NO
##NPOINTS= 49
##XYDATA=(XY..XY) 1 
    26          5
    27         67
    28         10
    29         63
    39         78
    40         21
    41        172
    42         39
    43         73
    44         19
    45        329
    46         26
    47        171
    48          6
    49          6
    55         26
    56         25
    57         54
    58         45
    59         22
    60         71
    61        995
    62         69
    63         45
    67         12
    71          7
    73         18
    74         91
    75         93
    76          5
    85         37
    86         11
    87         69
    88         14
    89          5
    93          7
   101         47
   102         19
   103        999
   104         85
   105         36
   117         75
   118         11
   119          4
   158         27
   159        937
   160        129
   161         61
   216          2