##TITLE=Library Entry 37089
##JCAMP-DX=Revision 4.10 
##DATA TYPE=MASS SPECTRUM
##SAMPLE DESCRIPTION=Chuck Anderson, Aldrich Chemical Co.
##NAMES=HP
##CAS NAME=3-Hydroxy-2,2,4-trimethyl-3-pentenoic acid .beta.-lactone
##MOLFORM=C8H12O2
##CAS REGISTRY NO=3173-79-3
##MP= -300
##BP= -300
##MW= 140
##$RETENTION INDEX=0
##$CONDENSED SPECTRUM=NO
##NPOINTS= 84
##XYDATA=(XY..XY) 1 
    14          0
    15         11
    16          0
    25          0
    26         12
    27         94
    28         14
    29         23
    30          0
    31          2
    32          0
    36          0
    37         10
    38         32
    39        399
    40         92
    41        558
    42        683
    43         89
    44          5
    45          2
    46          1
    47          0
    48          0
    49          0
    50         10
    51         17
    52          7
    53         56
    54         17
    55         40
    56         17
    57          3
    58          0
    59          0
    61          1
    62          3
    63          7
    64          1
    65         18
    66          9
    67         35
    68         13
    69        214
    70        999
    71         51
    72          3
    73          0
    74          1
    75          0
    76          0
    77         22
    78          3
    79         87
    80          8
    81        322
    82         23
    83          5
    84         57
    85          4
    86          0
    89          0
    91          4
    92          0
    93          4
    94          0
    95         17
    96        115
    97         25
    98          1
    99          0
   101          0
   109          0
   110          0
   111          3
   112          4
   113          0
   123          1
   124          0
   125          0
   140        312
   141         27
   142          2
   143          0