##TITLE=Library Entry 54812
##JCAMP-DX=Revision 4.10 
##DATA TYPE=MASS SPECTRUM
##SAMPLE DESCRIPTION=C.J.W.BROOKS CHEM. DEPT., THE UNIVERSITY GLASGOW, U.K.
##NAMES=HP
##CAS NAME=1,3,2-Oxazaborolane, 2-butyl-
##MOLFORM=C6H14BNO
##CAS REGISTRY NO=31748-10-4
##MP= -300
##BP= -300
##MW= 127
##$RETENTION INDEX=0
##$CONDENSED SPECTRUM=NO
##NPOINTS= 55
##XYDATA=(XY..XY) 1 
    30        155
    31         10
    32          5
    36          2
    37          5
    38          5
    39         35
    40         30
    41         70
    42        155
    43        125
    44        575
    45         15
    50          5
    51          7
    52          7
    53         20
    54         30
    55         70
    56         65
    57         20
    58          7
    61         10
    64          5
    65          7
    66         10
    67         10
    68         30
    69         60
    70        115
    71         45
    72         25
    78          2
    79          5
    80          5
    81          2
    82         10
    83         20
    84        235
    85        999
    86         40
    87          2
    95          5
    96         15
    97         37
    98        145
    99         45
   100          2
   111          2
   112         15
   113          5
   125         10
   126         52
   127         47
   128          5