##TITLE=Library Entry 29611
##JCAMP-DX=Revision 4.10 
##DATA TYPE=MASS SPECTRUM
##SAMPLE DESCRIPTION=N.W. Davies, Centr. Sci. Lab., Univ. Tasmania, Hobart,
 Australia
##NAMES=HP
##CAS NAME=4.beta.H,5.alpha.H-Eudesman-11-ol
##MOLFORM=C15H28O
##CAS REGISTRY NO=31756-53-3
##MP= -300
##BP= -300
##MW= 224
##$RETENTION INDEX=0
##$CONDENSED SPECTRUM=NO
##NPOINTS= 85
##XYDATA=(XY..XY) 1 
    24         20
    27         46
    30         15
    31         47
    32        359
    34          3
    35         23
    36         19
    38         22
    39         34
    40         68
    41        183
    42         34
    43        111
    45         27
    46         15
    47         13
    48         25
    50         16
    51         18
    53         57
    55        130
    56         58
    57         54
    58         60
    59        999
    60         56
    63         28
    65         27
    66         34
    67         98
    68         20
    69        109
    70          4
    71         53
    77         58
    78         25
    79         24
    80         25
    81        171
    82        107
    83         39
    86          4
    91         11
    92         13
    93         50
    94         34
    95        208
    96        147
    97          6
    98         22
   104         13
   105          1
   107         37
   108          9
   109        276
   110        168
   111         13
   113          6
   118         18
   121         34
   122         45
   123         80
   124         27
   128         20
   131         19
   135         23
   136         16
   137         30
   138         20
   139         18
   140         12
   145         11
   148         22
   149         39
   151        276
   152         46
   165         29
   166        187
   167         26
   190         15
   191         46
   195         15
   206         15
   209         28