##TITLE=Library Entry 70313
##JCAMP-DX=Revision 4.10 
##DATA TYPE=MASS SPECTRUM
##SAMPLE DESCRIPTION=Exported from NIST MS Search
##NAMES=HP
##CAS NAME=Propane, 1,2,2-trichloro-
##MOLFORM=C3H5Cl3
##CAS REGISTRY NO=3175-23-3
##MP= -300
##BP= -300
##MW= 146
##$RETENTION INDEX=781
##$CONDENSED SPECTRUM=NO
##NPOINTS= 87
##XYDATA=(XY..XY) 1 
    12          1
    13          1
    14          3
    15          6
    18          2
    24          1
    25          4
    26         19
    27         35
    28          3
    32          1
    35         10
    36          9
    37         26
    38         35
    39        159
    40         13
    41         39
    42          1
    43          1
    47         12
    48          8
    49        110
    50          4
    51         35
    52          1
    55          1
    59          1
    60         15
    61        227
    62         47
    63        133
    64         15
    65         20
    66          1
    70          1
    71          1
    72          5
    73         13
    74          3
    75        192
    76         16
    77         64
    78          5
    79          1
    82          2
    83         74
    84          2
    85         48
    86          1
    87          8
    94          2
    95         37
    96        138
    97        999
    98        110
    99        636
   100         28
   101        100
   102          2
   103          1
   104          1
   105          3
   106          1
   107          1
   109          5
   110          5
   111        442
   112         19
   113        290
   114         11
   115         46
   116          2
   130          2
   131         31
   132          7
   133         30
   134          5
   135         10
   136          2
   137          1
   145          1
   146          2
   147          1
   148          2
   149          1
   150          1