##TITLE=Library Entry 85265
##JCAMP-DX=Revision 4.10 
##DATA TYPE=MASS SPECTRUM
##SAMPLE DESCRIPTION=A.A.Kutin, Moscow, Russia
##NAMES=HP
##CAS NAME=Hexanohydrazide, 2-butyl-2-hydroxy-N2-phenyl-
##MOLFORM=C16H26N2O2
##CAS REGISTRY NO=3178-55-0
##MP= -300
##BP= -300
##MW= 278
##$RETENTION INDEX=0
##$CONDENSED SPECTRUM=NO
##NPOINTS= 185
##XYDATA=(XY..XY) 1 
    37          0
    39        108
    40         12
    41        316
    42         41
    43        142
    44         16
    45         23
    46          0
    50         11
    51         55
    52         24
    53         31
    54          9
    55        188
    57        174
    58         42
    59         23
    61          1
    62          5
    63         25
    64         22
    65        248
    66         36
    67         19
    69        308
    71         28
    72          4
    73         15
    74          3
    75          1
    76          4
    77        293
    78         77
    79         34
    80         32
    81         23
    83        102
    84         11
    85         41
    86          2
    87         32
    88          4
    89          0
    90          6
    91         66
    92        317
    93        231
    94         19
    95          9
    96          2
    97          6
    98         16
    99          4
   101          1
   105         25
   106         62
   107        249
   108        999
   109         96
   110          9
   111         13
   112          2
   113          8
   115          1
   116          0
   117          2
   118          3
   119          7
   120          5
   121          0
   122          1
   123          6
   124          1
   125          8
   126          2
   127          1
   128          1
   129          0
   130          4
   131          2
   132          9
   133         14
   134        396
   135         39
   136          2
   137          0
   138          0
   140          6
   141          4
   142          1
   143        242
   144         29
   145          4
   146          7
   147          5
   148          7
   149          7
   150          5
   151          0
   152          5
   153         78
   154         11
   155         10
   156          3
   158         12
   159          3
   160         10
   161         14
   162        152
   163         21
   164          0
   167          0
   168         44
   169          5
   171          2
   172          4
   174          6
   175         13
   176         63
   177          6
   178          1
   179          0
   180          1
   183          0
   184          1
   185          0
   186          6
   187          5
   188          2
   189          1
   190         15
   191          5
   197          0
   199          1
   200         11
   201          2
   202          1
   203         38
   204         37
   205         21
   206          2
   207          1
   211          0
   213          2
   214         29
   215          5
   216         14
   217         58
   218         14
   219          0
   220          8
   221         10
   222          0
   228          0
   229          0
   231         27
   232         30
   233          3
   234          0
   238          0
   240          0
   241          0
   242          4
   243          5
   244          0
   245          1
   249          0
   256          0
   258          1
   259          3
   260        334
   261         74
   262          8
   263          1
   264          0
   265          0
   276          1
   277          1
   278        324
   279         58
   280          8
   281          0
   282          0
   283          0