##TITLE=Library Entry 75971
##JCAMP-DX=Revision 4.10 
##DATA TYPE=MASS SPECTRUM
##SAMPLE DESCRIPTION=Div. of Experiment Therapeutics WRAIR, WRAMC, Washingto
n DC 20307
##NAMES=HP
##CAS NAME=S-3-[5-Phthalimidopentylamino]propyl hydrogen thiosulfate
##MOLFORM=C16H22N2O5S2
##CAS REGISTRY NO=31786-57-9
##MP= -300
##BP= -300
##MW= 386
##$RETENTION INDEX=0
##$CONDENSED SPECTRUM=NO
##NPOINTS= 78
##XYDATA=(XY..XY) 1 
    41        163
    42         93
    43         63
    44         91
    45         60
    46         14
    48        184
    50         43
    51         25
    53         17
    54         10
    55         41
    56         56
    57         16
    58         10
    60        104
    61         37
    62          8
    64        273
    65          4
    66         18
    67         11
    68         16
    69          8
    70         80
    71         31
    73        101
    74         71
    75         24
    76         64
    77         71
    78          4
    79          4
    80          5
    82         19
    83          1
    84         25
    85          0
    86          8
    87          1
    88         25
    89         24
    90          5
    91          8
    94          0
    96         26
    97          4
    98         14
   100          0
   101          3
   102        999
   104        154
   105         31
   106          1
   110         10
   115          1
   116         19
   117          3
   118          1
   128          8
   130         51
   131          3
   133         32
   134          0
   144          8
   147          0
   148          8
   149          0
   160        133
   161          9
   174          1
   243         11
   245         14
   259          8
   271          5
   304        125
   305         23
   306          8