##TITLE=Library Entry 23715
##JCAMP-DX=Revision 4.10 
##DATA TYPE=MASS SPECTRUM
##SAMPLE DESCRIPTION=NIST Mass Spectrometry Data Center, 1990.
##NAMES=HP
##CAS NAME=Heptane, 4-propyl-
##MOLFORM=C10H22
##CAS REGISTRY NO=3178-29-8
##MP= -300
##BP= -300
##MW= 142
##$RETENTION INDEX=924
##$CONDENSED SPECTRUM=NO
##NPOINTS= 33
##XYDATA=(XY..XY) 1 
    15          4
    27        107
    28         25
    29        123
    39        105
    41        354
    42        100
    43        253
    44          9
    51          8
    52          4
    53         32
    54         16
    55        143
    56        132
    57        999
    58         46
    65          7
    67         14
    68         11
    69         58
    70        100
    71         47
    77          4
    83         14
    84         11
    85         11
    98        296
    99         56
   100          3
   112         12
   113          4
   142         15