##TITLE=Library Entry 99767
##JCAMP-DX=Revision 4.10 
##DATA TYPE=MASS SPECTRUM
##SAMPLE DESCRIPTION=Chemical Concepts
##NAMES=HP
##CAS NAME=N-(2,2,2-Trifluoro-1-(trifluoromethyl)-1-[2-(trifluoromethyl)anil
ino]ethyl)-p-toluamide
##MOLFORM=C18H13F9N2O
##CAS REGISTRY NO=317841-70-6
##MP= -300
##BP= -300
##MW= 444
##$RETENTION INDEX=0
##$CONDENSED SPECTRUM=NO
##NPOINTS= 163
##XYDATA=(XY..XY) 1 
    33          2
    34          1
    36          1
    37          1
    38          8
    39         36
    40         24
    41         16
    42          3
    43          7
    44         15
    45          3
    46          3
    47          1
    50         11
    51         15
    52          7
    53          3
    54          1
    55          6
    56          4
    57          9
    58          1
    61          2
    62          7
    63         26
    64         11
    65         98
    66          7
    67          2
    69         24
    70          4
    71          5
    72          1
    73          1
    74          4
    75         10
    76          6
    77          7
    78          4
    79          3
    80          1
    81          3
    83          7
    84          2
    85          2
    86          1
    87          3
    88          6
    89         32
    91        300
    92         23
    93          3
    94          3
    95         11
    96          5
    97          2
    98          1
    99          2
   100          1
   101          1
   102          4
   104          3
   106          7
   107          2
   108          1
   109          1
   110          2
   111          3
   112          3
   113          6
   114         16
   115          4
   116          5
   117         12
   119        999
   120         76
   121          7
   122          2
   125          9
   126          6
   127          2
   128          1
   131          1
   132          2
   133          4
   135        118
   136         13
   137          2
   139          3
   140          6
   141         11
   142          3
   143          2
   144          4
   145         74
   146          7
   147          4
   148          1
   149          1
   151          1
   152          7
   153          2
   159          1
   160          9
   161         69
   162          6
   163          1
   166          1
   167          7
   168          1
   169          1
   170          2
   171          4
   172          1
   186          1
   187          7
   188          1
   189          1
   190          1
   196          1
   197          2
   199          1
   202          1
   210          1
   212          8
   215          2
   217          1
   218          1
   222          4
   235          4
   236          1
   237          1
   238          1
   240        121
   241         14
   255          3
   256          1
   258          2
   264          1
   269          1
   270          1
   277          1
   278          2
   279          4
   283          3
   284          6
   285          1
   286          1
   287          1
   288          1
   290         23
   291          2
   306          2
   309         48
   310          6
   311          1
   375         17
   376          3
   441          1
   444         53
   445          9
   446          1