##TITLE=Library Entry 27484
##JCAMP-DX=Revision 4.10 
##DATA TYPE=MASS SPECTRUM
##SAMPLE DESCRIPTION=Chemical Concepts
##NAMES=HP
##CAS NAME=Ethyl 3,3,3-trifluoro-2-propionamido-2-[4-(trifluoromethoxy)anili
no]propionate
##MOLFORM=C15H16F6N2O4
##CAS REGISTRY NO=317840-03-2
##MP= -300
##BP= -300
##MW= 402
##$RETENTION INDEX=0
##$CONDENSED SPECTRUM=NO
##NPOINTS= 178
##XYDATA=(XY..XY) 1 
    33          3
    34          9
    36          1
    37          4
    38         11
    39         20
    40        182
    41         15
    42         12
    43         39
    44        190
    45         15
    46          3
    47          5
    49          1
    50         17
    51         11
    52         22
    53         24
    54         13
    55         38
    56         39
    57        999
    58         31
    59          4
    60          1
    61          2
    62          9
    63         45
    64         61
    65         16
    66          7
    67          2
    69        165
    70          5
    71         12
    72         18
    73         62
    74         16
    75         44
    76         20
    77          9
    78          6
    79          9
    80         36
    81          6
    82          2
    83         12
    84          3
    85          1
    86          1
    89          1
    90         15
    91          8
    92         67
    93         10
    94         11
    95        291
    96         40
    97          3
    98          2
    99          1
   100          1
   101          5
   102          3
   103          3
   104          1
   105          5
   106          4
   108        100
   109          9
   110          4
   111          1
   112          1
   113          5
   114          3
   117          3
   118          5
   119          3
   120          4
   121          3
   122          1
   123          3
   124          2
   125          2
   128          2
   129          1
   132          2
   133          8
   134          3
   135          1
   137          1
   138          1
   139          4
   140          2
   141          1
   142          6
   146          1
   149          9
   150          1
   151          1
   152          3
   153          1
   154          1
   159          1
   161        136
   162         11
   163          1
   167          1
   168          2
   170          4
   171          4
   175          1
   176         27
   177        176
   178         20
   179          2
   181          1
   185          1
   187         19
   188        130
   189         13
   190          2
   201          2
   203         39
   204          9
   205          2
   211          1
   213          3
   214          2
   215          1
   216         38
   217          4
   218          1
   225          1
   229          2
   231          1
   232          1
   233          2
   237          4
   244         12
   245          1
   249          9
   250          1
   251          4
   252          3
   253          1
   254          1
   256        293
   257         32
   258          1
   260          1
   261          2
   271         49
   273        597
   274         54
   275          6
   277         31
   278          3
   282          1
   283          2
   285          1
   299          9
   300          1
   301          1
   307          2
   311          1
   312          1
   317          8
   327          2
   329        254
   330         32
   331          4
   333          5
   343          1
   356          2
   402         49
   403          8