##TITLE=Library Entry 15672
##JCAMP-DX=Revision 4.10 
##DATA TYPE=MASS SPECTRUM
##SAMPLE DESCRIPTION=Div. of Experiment Therapeutics WRAIR, WRAMC, Washingto
n DC 20307
##NAMES=HP
##CAS NAME=S-2-[3-[3-Oxo-1,2-benzisothiazolin-2-yl]propylamino]ethyl hydroge
nthiosulfate S,S-dioxide
##MOLFORM=C12H16N2O6S3
##CAS REGISTRY NO=31786-63-7
##MP= -300
##BP= -300
##MW= 380
##$RETENTION INDEX=0
##$CONDENSED SPECTRUM=NO
##NPOINTS= 217
##XYDATA=(XY..XY) 1 
    41        214
    42        178
    43         92
    44        999
    45         80
    46         16
    47         15
    48        256
    49          8
    50        154
    51         55
    52         16
    53         10
    54         27
    55         13
    56        246
    57         53
    58         39
    59         56
    60         57
    61        107
    62         13
    64        706
    65         45
    66         32
    67          7
    68         25
    69         23
    70         81
    71        105
    72         16
    73         13
    74         32
    75         36
    76        239
    77        138
    78         21
    79          5
    80         16
    81          7
    82         25
    83         21
    84         18
    85          9
    86         21
    87         13
    88         46
    90         76
    91          6
    92         56
    93          8
    94          2
    95          9
    96         19
    97         23
    98          5
    99         11
   100          5
   101         13
   102        100
   103         49
   104        101
   105         86
   106         12
   107          3
   108          6
   109          4
   110          2
   111          8
   112          8
   113          2
   114         59
   115         13
   116         24
   117         13
   118          9
   119         31
   120         73
   121         16
   122          6
   123          2
   124          5
   125          4
   126          4
   127          7
   128         17
   129          7
   130         13
   131         21
   132         26
   133         25
   134          8
   135          4
   136          9
   137          3
   138          3
   140         17
   141         10
   142          6
   143          3
   144         13
   145          1
   146         26
   147          8
   148          6
   149          5
   150          1
   151          1
   152         15
   153          6
   154          2
   155          2
   156          3
   157         14
   158          4
   159         46
   160         12
   161          0
   162         11
   163          1
   164          2
   165          0
   166         18
   167          3
   168          5
   169         21
   170          8
   171          6
   172          0
   173         11
   174          1
   175          9
   176         11
   177          3
   179          1
   180          1
   181          1
   183         99
   184         22
   185          8
   186          2
   187          3
   188          1
   189          3
   190          3
   192          6
   193          2
   194          2
   196        156
   197         17
   198          5
   199          1
   201          3
   203          1
   204          1
   206          2
   207          1
   208          1
   210          3
   212          0
   215          1
   216          0
   217          1
   220          0
   221          1
   222         10
   224        133
   225         15
   226          7
   227          1
   234          1
   239          1
   241          9
   242          2
   243          1
   245          1
   248          8
   249          1
   250          3
   251          2
   252          1
   253        388
   254         38
   255         18
   256          3
   265          2
   266          1
   267         10
   269          6
   270          0
   276          3
   278          4
   279          3
   281          3
   282          1
   283          1
   295          1
   298          0
   299          3
   301         20
   302          3
   303          0
   307          1
   309          1
   311          7
   312          1
   313          3
   314          1
   322          0
   323          2
   324         18
   325          4
   326          2
   327          1
   379          1
   380          3
   381          0