##TITLE=Library Entry 22386
##JCAMP-DX=Revision 4.10 
##DATA TYPE=MASS SPECTRUM
##SAMPLE DESCRIPTION=Japan AIST/NIMC Database- Spectrum MS-NW-3836
##NAMES=HP
##CAS NAME=Cyclohexane, (1,1-dimethylethyl)-
##MOLFORM=C10H20
##CAS REGISTRY NO=3178-22-1
##MP= -300
##BP= -300
##MW= 140
##$RETENTION INDEX=985
##$CONDENSED SPECTRUM=NO
##NPOINTS= 47
##XYDATA=(XY..XY) 1 
    15          4
    26          2
    27         44
    28          5
    29         81
    30          2
    38          1
    39         52
    40          9
    41        236
    42         16
    43         43
    44          1
    50          2
    51          6
    52          3
    53         20
    54         32
    55        211
    56        999
    57        674
    58         30
    63          1
    65          4
    66          3
    67        106
    68          8
    69        128
    70          8
    71          2
    77          5
    78          1
    79          6
    80          1
    81         16
    82        140
    83        130
    84          9
    91          2
    95          2
    96          1
    97          2
   109          1
   119          1
   125         36
   126          4
   140          7