##TITLE=Library Entry 16926
##JCAMP-DX=Revision 4.10 
##DATA TYPE=MASS SPECTRUM
##SAMPLE DESCRIPTION=A.Mazepa, Phys.-Chem.Institute, Odessa, Ukraine
##NAMES=HP
##CAS NAME=Dibenzo[b,N]-30-crown-10, 2,22-dibromo-
##MOLFORM=C28H38Br2O10
##CAS REGISTRY NO=317854-62-9
##MP= -300
##BP= -300
##MW= 692
##$RETENTION INDEX=0
##$CONDENSED SPECTRUM=NO
##NPOINTS= 176
##XYDATA=(XY..XY) 1 
    30         20
    31        212
    32         13
    40         10
    41        149
    42         46
    43        875
    44        120
    45        999
    46         27
    50         12
    51         53
    52         21
    53         16
    61          7
    62          7
    63         53
    64         21
    65         33
    69         37
    70          9
    71        218
    72         17
    73        260
    74         19
    75         16
    78         28
    79        180
    80         50
    81         36
    85          7
    86         10
    87        115
    88         10
    89        201
    90         23
    91         39
    92         22
    93         13
    94         24
   106          7
   107         36
   108         95
   109         36
   110         12
   111          5
   113          8
   114          5
   115        108
   116          7
   119          9
   120         23
   121         84
   122         26
   123          9
   131         10
   132          5
   133         77
   134         28
   135         29
   136        193
   137         76
   138          8
   142          4
   143         51
   144         36
   145         14
   146          4
   147          7
   155          8
   156          5
   157         18
   158         69
   159         49
   160         74
   161         29
   162         30
   163         21
   164          5
   165         10
   184          4
   185         17
   186         19
   187         86
   188         48
   189         63
   190         25
   191          4
   197          4
   198          7
   199        234
   200         29
   201        232
   202         22
   203         11
   204          4
   205          4
   211          3
   212          3
   213         24
   214        365
   215        170
   216        357
   217        137
   218          9
   219          2
   220          2
   239          3
   240          4
   241         35
   242          8
   243         36
   244          4
   256          3
   257          3
   258         20
   259         47
   260         27
   261         44
   262          4
   263          2
   267          7
   268          4
   269          3
   270          5
   271          3
   272          2
   273          1
   276          2
   277          9
   278          5
   279         14
   280          2
   281          8
   282          2
   290          1
   291          2
   292          9
   293          6
   294         22
   295          7
   296         11
   297          3
   298          1
   301          2
   302         19
   303         20
   304         19
   305         22
   306          3
   307          2
   345          2
   346         13
   347          8
   348         15
   349          3
   350          2
   351          1
   352          1
   389          1
   390          3
   391          2
   392          3
   393          1
   394          1
   606          4
   608          2
   609          1
   690          1
   692         75
   693         19
   694        154
   695         42
   696         69
   697         41
   698          3