##TITLE=Library Entry 52774
##JCAMP-DX=Revision 4.10 
##DATA TYPE=MASS SPECTRUM
##SAMPLE DESCRIPTION=CONTINENTAL OIL CO., PONCA CITY, OKLA, USA
##NAMES=HP
##CAS NAME=Cyclohexane, 1,1'-(1,3-propanediyl)bis-
##MOLFORM=C15H28
##CAS REGISTRY NO=3178-24-3
##MP= -300
##BP= -300
##MW= 208
##$RETENTION INDEX=0
##$CONDENSED SPECTRUM=NO
##NPOINTS= 74
##XYDATA=(XY..XY) 1 
    14         20
    15          6
    16          2
    26          4
    27         70
    28         11
    29         89
    30          2
    37          3
    38          2
    39         75
    40         15
    41        334
    42         27
    43         41
    44          2
    50          1
    51          5
    52          4
    53         40
    54         65
    55        487
    56         31
    57         12
    63          1
    65          8
    66         10
    67        191
    68         37
    69         94
    70          8
    71          3
    77          9
    78          3
    79         15
    80          8
    81         90
    82        836
    83        999
    84         65
    85          3
    89          1
    91          8
    92          2
    93          4
    94          3
    95         34
    96        126
    97         64
    98          5
   105          1
   107          1
   108          3
   109         29
   110          7
   111          6
   112          2
   123          4
   124         20
   125         22
   126          3
   137          2
   138          2
   139          1
   151          2
   152          2
   165          2
   178          2
   179          3
   180          5
   207          2
   208        150
   209         24
   210          2