##TITLE=Library Entry 37536
##JCAMP-DX=Revision 4.10 
##DATA TYPE=MASS SPECTRUM
##SAMPLE DESCRIPTION=NIST Mass Spectrometry Data Center, 1990.
##NAMES=HP
##CAS NAME=Cyclohexane, (1,1-dimethylpropyl)-
##MOLFORM=C11H22
##CAS REGISTRY NO=31797-64-5
##MP= -300
##BP= -300
##MW= 154
##$RETENTION INDEX=1130
##$CONDENSED SPECTRUM=NO
##NPOINTS= 42
##XYDATA=(XY..XY) 1 
    27        107
    28         13
    29        148
    39        151
    40         33
    41        381
    42         90
    43        432
    44         17
    50          5
    51         18
    52         11
    53         75
    54         61
    55        468
    56         38
    57         99
    58          4
    65         21
    67        159
    69        381
    70        999
    71        561
    72         26
    77         22
    78          5
    79         30
    80          7
    81         50
    82         98
    83        210
    84         12
    91          7
    95          7
    97         30
   109          6
   110          6
   111          9
   124         54
   125        169
   126         14
   139          6