##TITLE=Library Entry 27871
##JCAMP-DX=Revision 4.10 
##DATA TYPE=MASS SPECTRUM
##SAMPLE DESCRIPTION=Japan AIST/NIMC Database- Spectrum MS-NW-1099
##NAMES=HP
##CAS NAME=1-Propanol, 3-(dimethylamino)-
##MOLFORM=C5H13NO
##CAS REGISTRY NO=3179-63-3
##MP= -300
##BP= -300
##MW= 103
##$RETENTION INDEX=0
##$CONDENSED SPECTRUM=NO
##NPOINTS= 39
##XYDATA=(XY..XY) 1 
    14          1
    15         30
    17          1
    18          7
    26          4
    27         16
    28         23
    29         17
    30         54
    31         32
    32          3
    38          1
    39          6
    40          3
    41         14
    42         94
    43         26
    44         74
    45         24
    46          3
    54          3
    55          3
    56         18
    57         26
    58        999
    59         37
    68          2
    70          9
    71          7
    72         12
    73          2
    74          1
    84         10
    85          1
    86          1
   100          1
   102          3
   103         75
   104          5