##TITLE=Library Entry 35595
##JCAMP-DX=Revision 4.10 
##DATA TYPE=MASS SPECTRUM
##SAMPLE DESCRIPTION=NIST Mass Spectrometry Data Center
##NAMES=HP
##CAS NAME=2-Propenoic acid, 2-methyl-, decyl ester
##MOLFORM=C14H26O2
##CAS REGISTRY NO=3179-47-3
##MP= -300
##BP= -300
##MW= 226
##$RETENTION INDEX=1557
##$CONDENSED SPECTRUM=NO
##NPOINTS= 106
##XYDATA=(XY..XY) 1 
    15          1
    26          3
    27         47
    28          2
    29        100
    30          2
    31          4
    37          1
    38          6
    39        178
    40         46
    41        676
    42        122
    43        310
    44         14
    45          8
    51          3
    52          2
    53         32
    54         51
    55        407
    56        333
    57        245
    58         14
    59         32
    60          1
    65          5
    66          6
    67         63
    68         96
    69        999
    70        481
    71         98
    72          5
    73          5
    74         17
    77          3
    79          7
    80          2
    81         32
    82        109
    83        375
    84        215
    85         60
    86         29
    87        908
    88        149
    89         10
    91          1
    93          2
    94          2
    95         19
    96         61
    97        317
    98        126
    99         26
   100          5
   101          3
   107          1
   108          2
   109         11
   110         34
   111        183
   112        157
   113         47
   114          8
   115          3
   123          6
   124          9
   125          9
   126          3
   127         26
   128          7
   129          2
   130          1
   137          5
   138         15
   139          8
   140        180
   141         31
   142          8
   143          2
   144          1
   149          2
   150          3
   151          3
   152          6
   153         19
   154          3
   155          5
   156          4
   157          4
   165          3
   166          3
   167          8
   168          1
   169          3
   170          1
   179          1
   180          1
   183         11
   184          1
   185          3
   193          1
   208          1
   227          2