##TITLE=Library Entry 15669
##JCAMP-DX=Revision 4.10 
##DATA TYPE=MASS SPECTRUM
##SAMPLE DESCRIPTION=Div. of Experiment Therapeutics WRAIR, WRAMC, Washingto
n DC 20307
##NAMES=HP
##CAS NAME=Ethanethiol, 2-(5-phthalimidopentylamino)-, hydrogen sulfate
##MOLFORM=C15H20N2O5S2
##CAS REGISTRY NO=31792-45-7
##MP= -300
##BP= -300
##MW= 372
##$RETENTION INDEX=0
##$CONDENSED SPECTRUM=NO
##NPOINTS= 140
##XYDATA=(XY..XY) 1 
    41        279
    42        168
    44        999
    45        114
    48        363
    50        123
    51         53
    53         39
    54         31
    55         43
    56        189
    57         56
    58         30
    59         68
    61        214
    64        525
    65         30
    66         25
    67         24
    69         72
    70         55
    71          2
    72         54
    74         37
    76        211
    77        161
    78         18
    80         18
    82         28
    84        195
    85          8
    86         33
    88         68
    90        147
    91         10
    92          9
    93          5
    94          4
    96         28
    98        199
    99         16
   100          3
   101          2
   102         68
   104        137
   105         82
   106          9
   107          1
   108          4
   110         16
   112         17
   114         72
   116         29
   117         11
   118          6
   120         12
   122          5
   123          3
   124          3
   125          2
   126          6
   127          1
   128         11
   130        121
   131         13
   133         86
   134          8
   135          2
   136          0
   137          0
   138          2
   139          1
   140          7
   142          9
   143          1
   144          7
   146         13
   147         27
   148         32
   149          4
   151          2
   152          0
   154          4
   155          1
   156          2
   157          2
   158          6
   160        462
   161         49
   162          7
   166          1
   167          0
   168          2
   170         12
   171          1
   172          4
   174         28
   175         12
   176          1
   181          0
   182          0
   184          2
   186         20
   187          1
   188          6
   192          0
   194          0
   197          0
   198          0
   202          0
   203          2
   213          2
   214          3
   215          0
   216         10
   217          0
   229          0
   231          3
   233         30
   234          2
   243         10
   245        371
   246         50
   247          5
   256          0
   257          3
   258          0
   259         15
   260          0
   261          4
   271          3
   273          6
   274          1
   275          1
   288          0
   289          0
   290          5
   371          2
   372          2
   373          0