##TITLE=Library Entry 31189
##JCAMP-DX=Revision 4.10 
##DATA TYPE=MASS SPECTRUM
##SAMPLE DESCRIPTION=NIST Mass Spectrometry Data Center, 1994
##NAMES=HP
##CAS NAME=1,3-Bis(methylthio)-2-propanol
##MOLFORM=C5H12OS2
##CAS REGISTRY NO=31805-83-1
##MP= -300
##BP= -300
##MW= 152
##$RETENTION INDEX=0
##$CONDENSED SPECTRUM=NO
##NPOINTS= 80
##XYDATA=(XY..XY) 1 
    12          3
    13          7
    14         26
    15        145
    16          1
    18          5
    19          4
    26         11
    27        239
    28         15
    29         90
    30          3
    31         32
    32          4
    33          8
    34          9
    35        178
    36          2
    37         13
    38         10
    39         65
    40          6
    41         38
    42         28
    43        173
    44         59
    45        486
    46        226
    47        317
    48         84
    49         38
    50          4
    51          2
    53          9
    55          6
    57         49
    58         51
    59         41
    60          2
    61        999
    62        307
    63         76
    64         16
    65          2
    69          7
    70          2
    71         15
    72          8
    73         77
    74          2
    75         77
    76         32
    77          7
    78          4
    79          8
    81          1
    85          6
    87        361
    88         25
    89         41
    90         36
    91        365
    92         20
    93         34
    94          4
   103         10
   104          2
   105          2
   108          2
   119          5
   122          2
   134        302
   135         24
   136         29
   137         47
   138          3
   139          4
   152         81
   153          7
   154          7