##TITLE=Library Entry 78226
##JCAMP-DX=Revision 4.10 
##DATA TYPE=MASS SPECTRUM
##SAMPLE DESCRIPTION=Japan AIST/NIMC Database- Spectrum MS-IW-7594
##NAMES=HP
##CAS NAME=1,3-Bis-(methylthio)-2-methoxypropane
##MOLFORM=C6H14OS2
##CAS REGISTRY NO=31805-84-2
##MP= -300
##BP= -300
##MW= 166
##$RETENTION INDEX=0
##$CONDENSED SPECTRUM=NO
##NPOINTS= 89
##XYDATA=(XY..XY) 1 
    14          1
    15         10
    26          2
    27         37
    28         16
    29         13
    30          2
    31         11
    32          5
    33          1
    34          1
    35         33
    37          2
    38          2
    39         29
    40          4
    41         65
    42         11
    43         43
    44          5
    45        109
    46         28
    47         57
    48         15
    49          5
    50          1
    53          9
    54          1
    55          4
    56          4
    57         13
    58         51
    59         24
    60          9
    61        423
    62        104
    63         40
    64          6
    65          1
    67          1
    69          3
    70          1
    71         31
    72         23
    73         52
    74          9
    75        111
    76          9
    77          7
    78          1
    79          4
    85          6
    86          1
    87        252
    88         22
    89         51
    90        105
    91          9
    92          5
    93          7
    94          5
    99          4
   101          3
   103         14
   104         14
   105        999
   106         54
   107         49
   108          9
   115          1
   117          2
   118          9
   119          6
   120          1
   121          6
   134        392
   135         31
   136         36
   137          2
   138          1
   146          1
   148          1
   151         21
   152          1
   153          2
   166        149
   167         11
   168         13
   169          1