##TITLE=Library Entry 38788
##JCAMP-DX=Revision 4.10 
##DATA TYPE=MASS SPECTRUM
##SAMPLE DESCRIPTION=NIST Mass Spectrometry Data Center
##NAMES=HP
##CAS NAME=Octacosan-14-one
##MOLFORM=C28H56O
##CAS REGISTRY NO=31815-02-8
##MP= -300
##BP= -300
##MW= 408
##$RETENTION INDEX=2989
##$CONDENSED SPECTRUM=NO
##NPOINTS= 118
##XYDATA=(XY..XY) 1 
    26          3
    27         15
    29         53
    39         34
    41        258
    42         77
    43        734
    44         28
    45          6
    53         22
    54         42
    55        419
    57        847
    58        461
    59        238
    60         10
    67        122
    69        250
    71        999
    72         90
    77         12
    79         32
    80         14
    81        167
    82        197
    85        372
    86         38
    93         17
    94         18
    95        275
    96        341
    98         73
    99         58
   100         70
   101         11
   109        170
   110        110
   113         65
   114         62
   115         10
   121         16
   122          8
   123         85
   124         63
   127        106
   128         27
   135         15
   137         47
   138         64
   141         22
   142         15
   151         22
   152         40
   154          9
   155         30
   156         15
   159          3
   165          8
   166         91
   168         30
   169         34
   170         15
   172          3
   180         70
   182         23
   183         41
   184         18
   194         12
   197         31
   198         11
   208         39
   210          8
   211        702
   212        112
   213         12
   222         27
   223          6
   224         12
   225        695
   226        202
   227        274
   228         41
   229          6
   239         59
   240        101
   241        232
   242         44
   243          4
   249          5
   253         67
   254         15
   264          9
   267         33
   268         11
   277          2
   278          7
   279          6
   294          2
   295         14
   296          4
   309         10
   324          1
   325          2
   333          1
   347          1
   352          2
   365          4
   366          3
   367          1
   379          8
   380          2
   390          3
   391          2
   392          2
   407          4
   408         22
   409          7
   410          1