##TITLE=Library Entry 31043
##JCAMP-DX=Revision 4.10 
##DATA TYPE=MASS SPECTRUM
##SAMPLE DESCRIPTION=NIST Mass Spectrometry Data Center, 1994
##NAMES=HP
##CAS NAME=(S)-(-)-2-Amino-3-phenyl-1-propanol
##MOLFORM=C9H13NO
##CAS REGISTRY NO=3182-95-4
##MP= -300
##BP= -300
##MW= 151
##$RETENTION INDEX=0
##$CONDENSED SPECTRUM=NO
##NPOINTS= 69
##XYDATA=(XY..XY) 1 
    14          0
    15         37
    16          0
    17          3
    18         32
    26          3
    27         19
    28         52
    29         26
    30        102
    31         48
    37          2
    38         10
    39         58
    40          8
    41         25
    42        201
    43         40
    44          3
    46          1
    50         21
    51         50
    52         13
    53          6
    54          3
    55          2
    56          1
    57          1
    60        999
    61         27
    62         12
    63         26
    64          9
    65         70
    66          7
    67          2
    72          1
    73          1
    74          5
    75          4
    76          5
    77         62
    78         15
    79          7
    80          2
    86          1
    87          1
    89         17
    91        133
    92         23
    93         20
    94          3
   102          7
   103         70
   104         11
   105          4
   106          1
   115          3
   116          2
   117          7
   118         16
   119          1
   120        227
   121         21
   122          0
   130          1
   131          1
   132          1
   133          2