##TITLE=Library Entry 15617
##JCAMP-DX=Revision 4.10 
##DATA TYPE=MASS SPECTRUM
##SAMPLE DESCRIPTION=Patti Price, Georgia Bureau of Investigation, Decatur,
 Georgia
##NAMES=HP
##CAS NAME=Mexiletine
##MOLFORM=C11H17NO
##CAS REGISTRY NO=31828-71-4
##MP= -300
##BP= -300
##MW= 179
##$RETENTION INDEX=1397
##$CONDENSED SPECTRUM=NO
##NPOINTS= 69
##XYDATA=(XY..XY) 1 
    41         93
    42         36
    43         22
    44        999
    50          6
    51         22
    52         11
    53         18
    54          1
    55          2
    56         13
    57         26
    58        646
    59         22
    62          2
    63         10
    64          1
    65         24
    66          3
    67          1
    73          1
    74          1
    75          1
    76          2
    77         85
    78         21
    79         26
    80          1
    82          1
    87          1
    89          1
    90          1
    91         58
    92          9
    93          4
    94          1
    95          1
   101          1
   102          3
   103         18
   104          6
   105         34
   106          3
   107         33
   108          2
   116          1
   117          1
   118          3
   119          1
   120          1
   121         40
   122         30
   123          2
   129          1
   131          1
   133          1
   135          4
   136          6
   137          1
   143          1
   145          1
   146          1
   147          2
   148          4
   162          1
   163          1
   164          1
   179         16
   180          1