##TITLE=Library Entry 1731
##JCAMP-DX=Revision 4.10 
##DATA TYPE=MASS SPECTRUM
##SAMPLE DESCRIPTION=A.A.Kutin, Moscow, Russia
##NAMES=HP
##CAS NAME=Imidazol-5(2H)-one, 4-amino-2-(2-furyl)-, oxime, 3-oxide
##MOLFORM=C7H8N4O3
##CAS REGISTRY NO=318259-17-5
##MP= -300
##BP= -300
##MW= 196
##$RETENTION INDEX=0
##$CONDENSED SPECTRUM=NO
##NPOINTS= 142
##XYDATA=(XY..XY) 1 
    33         21
    34         33
    35          0
    37        205
    38        389
    39        999
    40        337
    41        338
    42        405
    43        731
    44        279
    45         49
    46         19
    47          3
    48          8
    49         23
    50        181
    51        401
    52        583
    53        377
    54        158
    55        180
    56         69
    57         49
    58         44
    59        116
    60         21
    61         23
    62         10
    63         29
    64        104
    65         83
    66        148
    67        103
    68        183
    69        232
    70        122
    71         41
    72         15
    73         39
    74         16
    75         18
    76         34
    77         45
    78        111
    80        602
    81         97
    82         54
    83         64
    84         71
    86        551
    87         19
    88          7
    89          9
    90          8
    91         33
    93        289
    94        428
    95        557
    96        301
    97         87
    98         19
    99          4
   100          3
   101          4
   102         11
   103         25
   104         58
   106        146
   107        368
   108        305
   109         88
   110         34
   111         21
   112         32
   113         16
   114          1
   115          9
   116          3
   117          4
   118         15
   119        109
   120         80
   121        249
   122        108
   123         43
   124         17
   125          5
   126         12
   127          5
   128          6
   129         13
   130          7
   131         13
   132         44
   133         56
   134         59
   135         99
   136         25
   137         24
   138         26
   139         29
   140          2
   141          2
   142          2
   143          0
   145          7
   146         32
   148         85
   149        267
   150         67
   151        111
   152         29
   153          6
   154          0
   157          0
   158          2
   159          1
   161         72
   162        147
   163         78
   164         17
   165         12
   166         22
   167         20
   168          6
   169          2
   171          5
   172          1
   173          0
   174          0
   176         12
   178         79
   179        216
   180        185
   181         15
   185          1
   193          4
   194         17
   196        482
   197         37
   198          3