##TITLE=Library Entry 27768
##JCAMP-DX=Revision 4.10 
##DATA TYPE=MASS SPECTRUM
##SAMPLE DESCRIPTION=Chemical Concepts
##NAMES=HP
##CAS NAME=Bis(2,2,6,6-tetramethylpiperidin-4-one) 4,4'-methylenebis[O-(phen
ylcarbamoyl)oxime]
##MOLFORM=C33H46N6O4
##CAS REGISTRY NO=318259-46-0
##MP= -300
##BP= -300
##MW= 590
##$RETENTION INDEX=0
##$CONDENSED SPECTRUM=NO
##NPOINTS= 158
##XYDATA=(XY..XY) 1 
    33          2
    36          2
    38         21
    39        193
    40         75
    41        284
    42        403
    43         59
    44         39
    45          5
    46          2
    47          1
    50         26
    51         44
    52         28
    53         54
    54         58
    55        196
    56        108
    58        999
    59         54
    60         15
    61          7
    62         12
    63         30
    64         17
    65         14
    66         13
    67         29
    68         17
    69         24
    70         40
    71         14
    72         10
    73          8
    74          7
    75         12
    76         22
    77         46
    78         16
    79         18
    80         26
    81         38
    82         53
    83         36
    84         16
    86          3
    87          4
    88          5
    89          9
    90         16
    91          8
    92          3
    93         10
    94         25
    95         28
    96         68
    97         37
    98        148
    99         13
   100          2
   101          3
   102          6
   103         10
   104         10
   105          6
   106         13
   107          6
   108         12
   109         11
   110         40
   111          8
   112         12
   113          7
   114         10
   115          5
   116          4
   117          1
   118          2
   119          5
   120         17
   121         13
   122         47
   123         16
   124          7
   125          6
   126          2
   127          4
   128          2
   129          1
   130          1
   132         36
   133          4
   134          1
   135          2
   136         18
   137         39
   138         22
   139         32
   140          9
   141          3
   143          2
   144          1
   149          1
   150          2
   151          8
   152         10
   153         62
   155        213
   156         19
   157          1
   162          1
   163          1
   164          4
   165         19
   166          9
   167          4
   168          4
   170         99
   171          9
   172          1
   176          1
   177          4
   178          4
   179          4
   180         19
   181          4
   182          5
   183          1
   189          1
   190          3
   191          2
   192          2
   193          5
   194          5
   195          5
   196          1
   203          1
   204          1
   206         12
   207          9
   208         64
   209          9
   210          1
   218          1
   219          1
   221         36
   222          9
   223         11
   224         19
   225          3
   231          1
   247          4
   249         29
   250        110
   251         18
   252          2
   420          2