##TITLE=Library Entry 32574
##JCAMP-DX=Revision 4.10 
##DATA TYPE=MASS SPECTRUM
##SAMPLE DESCRIPTION=D.HENNEBERG, MAX-PLANCK INSTITUTE, MULHEIM, WEST GERMAN
Y
##NAMES=HP
##CAS NAME=1,5-Cyclododecadiene, (Z,Z)-
##MOLFORM=C12H20
##CAS REGISTRY NO=31821-17-7
##MP= -300
##BP= -300
##MW= 164
##$RETENTION INDEX=1364
##$CONDENSED SPECTRUM=NO
##NPOINTS= 90
##XYDATA=(XY..XY) 1 
    26          7
    27        154
    28         41
    29        130
    30          2
    37          5
    38          5
    39        295
    40         47
    41        625
    42         39
    43         53
    44          2
    46          1
    48          0
    49          0
    50          8
    51         31
    52         23
    53        165
    54        839
    55        457
    56         37
    57         10
    58          2
    59          3
    60          0
    61          1
    62          1
    63         10
    64          4
    65         60
    66         97
    67        999
    68        422
    69        129
    70          6
    71          2
    73          0
    74          1
    75          5
    76          2
    77         79
    78         57
    79        385
    80        442
    81        723
    82        331
    83         82
    84          4
    85          0
    87          0
    88          0
    89          3
    90          1
    91         47
    92         13
    93        248
    94        220
    95        238
    96        121
    97         45
    98          2
   103          1
   104          0
   105          7
   106          2
   107        157
   108        102
   109         93
   110         42
   111          4
   115          0
   116          0
   117          0
   120          3
   121        295
   122         83
   123         30
   124          3
   134          0
   135        142
   136         85
   137          8
   138          0
   149         34
   150          3
   164         58
   165          7
   166          1