##TITLE=Library Entry 59223
##JCAMP-DX=Revision 4.10 
##DATA TYPE=MASS SPECTRUM
##SAMPLE DESCRIPTION=Asinex Ltd, Moscow, Russia
##NAMES=HP
##CAS NAME=Propane-1,3-diamine, N-benzylsulfonyl-N'-(2-chloro-4-nitrophenyl)
-
##MOLFORM=C16H18ClN3O4S
##CAS REGISTRY NO=318260-07-0
##MP= -300
##BP= -300
##MW= 383
##$RETENTION INDEX=0
##$CONDENSED SPECTRUM=NO
##NPOINTS= 225
##XYDATA=(XY..XY) 1 
    33          0
    34          2
    35          3
    36         21
    37          4
    38         16
    39         60
    40         44
    41         34
    42         19
    43         74
    44        486
    45         21
    48         23
    50         22
    51         31
    52         19
    53          5
    54          4
    56         45
    57         47
    58         10
    59          2
    60          2
    61          5
    62         16
    63         55
    64         58
    65        140
    66         11
    67          1
    68          2
    69          8
    70          1
    71          2
    72          2
    73          5
    74          9
    75         28
    76         37
    77         29
    78         15
    79          6
    80          3
    81          1
    82          1
    83          1
    84          3
    85          2
    86          3
    87          3
    89         51
    91        999
    92         74
    93          3
    94          1
    95          1
    96          0
    97          3
    98          5
    99          6
   100          3
   101          3
   102          8
   103          7
   104         20
   105         11
   106         29
   107         11
   108          5
   109          2
   110          8
   111          5
   112          5
   113          2
   114          2
   115          2
   116          6
   117         26
   118         18
   119          6
   120         10
   121          3
   122          2
   123          2
   124          3
   125          7
   126          6
   127          7
   128          8
   129          4
   130          5
   131          8
   132          4
   133          3
   134          3
   135          0
   137          7
   138         12
   139         96
   140         12
   141         35
   142          7
   143          1
   144          2
   145          1
   146          3
   147          1
   148          1
   149          2
   150          1
   151          7
   152          8
   153         29
   154         10
   155         16
   156          6
   157          2
   158          1
   159          0
   160          1
   161          0
   163          2
   164          5
   165          7
   166          4
   167          3
   168          4
   169         13
   170          3
   171          8
   172          6
   173          1
   174          2
   175          1
   177         54
   178          6
   179          2
   180          3
   181          3
   182         10
   183         24
   185        299
   186         29
   187         88
   188          7
   189          0
   191          0
   192          1
   193          2
   194          2
   195          6
   196          1
   197          4
   199        153
   200         18
   201         45
   202          5
   203          0
   205          0
   206          0
   207          0
   208          0
   209          0
   210          2
   211          8
   212          6
   213          3
   214          2
   215          1
   216          0
   217          0
   219          0
   220          0
   221          0
   225          0
   226          4
   227          2
   228          8
   229          9
   230          3
   231          2
   232          0
   239          0
   240          0
   241          0
   242          0
   243          0
   244          0
   245          0
   246          0
   255          0
   256          0
   257          0
   258          0
   259          0
   260          0
   261          0
   262          0
   263          0
   273          0
   275          0
   276          0
   277          0
   282          0
   291          0
   292          0
   293          0
   294          0
   302          0
   304          0
   310          1
   350          0
   351          0
   353          0
   366          0
   367          3
   368          0
   369          1
   381          0
   383         75
   384         15
   385         28
   386          5
   387          1