##TITLE=Library Entry 5130
##JCAMP-DX=Revision 4.10 
##DATA TYPE=MASS SPECTRUM
##SAMPLE DESCRIPTION=A.A.Kutin, Moscow, Russia
##NAMES=HP
##CAS NAME=Imidazo[4,5-d]imidazole-2,5-dione, perhydro-1-ethyl-4,6-dimethyl-
3-(2-oxiranylmethyl)-
##MOLFORM=C11H18N4O3
##CAS REGISTRY NO=318466-56-7
##MP= -300
##BP= -300
##MW= 254
##$RETENTION INDEX=0
##$CONDENSED SPECTRUM=NO
##NPOINTS= 130
##XYDATA=(XY..XY) 1 
    33          9
    34          0
    36          1
    37          0
    39         21
    40         51
    42        999
    43        171
    44        132
    45         23
    46          1
    47          1
    49          5
    51          2
    52          5
    53         11
    54         23
    56        369
    57        112
    58        144
    60         18
    61         56
    62          4
    64          0
    65          0
    66          2
    67          8
    69        214
    70        133
    71         98
    72         22
    73          6
    74          4
    75          9
    77          5
    79          2
    80          1
    81          7
    83        216
    84        109
    85        136
    86         39
    87         17
    88          5
    89         17
    91          2
    92          0
    93          3
    94          1
    95          5
    97        158
    98        170
    99        117
   100          8
   101          3
   103          2
   104          0
   105          1
   106          0
   107          0
   110        143
   112        984
   113        163
   114         10
   115          6
   117          7
   118          0
   119          0
   121          0
   122          0
   124          6
   126        178
   127        211
   128         42
   129          9
   130          1
   131          0
   132          0
   135          1
   136          0
   138          8
   140        279
   141         78
   142         11
   143          1
   144          0
   145          0
   148          0
   149          0
   150          0
   151          1
   154        361
   155        154
   156         18
   157          2
   158          0
   159          0
   160          0
   164          0
   166          1
   167          1
   168          6
   169          2
   170          2
   171          0
   172          0
   173          0
   175          0
   179          0
   181          3
   183         87
   184          7
   185          1
   186          0
   193          0
   194          0
   196         16
   198        618
   199         53
   200          4
   201          0
   203          0
   211          1
   212          0
   232          0
   239          0
   254          8
   255          0
   257          0
   259          0