##TITLE=Library Entry 6908
##JCAMP-DX=Revision 4.10 
##DATA TYPE=MASS SPECTRUM
##SAMPLE DESCRIPTION=Japan AIST/NIMC Database- Spectrum MS-NW-7503
##NAMES=HP
##CAS NAME=2-Oxoadipic acid
##MOLFORM=C6H8O5
##CAS REGISTRY NO=3184-35-8
##MP= -300
##BP= -300
##MW= 160
##$RETENTION INDEX=0
##$CONDENSED SPECTRUM=NO
##NPOINTS= 95
##XYDATA=(XY..XY) 1 
    12          1
    13          2
    14         22
    15         43
    16          2
    17          7
    18         30
    24          1
    25          3
    26         39
    27        425
    28         63
    29         67
    30          3
    31         73
    32          1
    33          2
    34          9
    35         15
    36          3
    37         14
    38         26
    39        182
    40         32
    41        537
    42        274
    43        999
    44         46
    45        839
    46         26
    47          5
    49         14
    50          4
    51          5
    52          2
    53          8
    54          3
    55        496
    56         20
    57         11
    58          8
    59         10
    60        197
    61          6
    62          1
    63          1
    65          1
    66          1
    67          2
    68         39
    69         88
    70         18
    71          7
    72          1
    73         20
    74          2
    77          1
    79          2
    80          1
    81          2
    82          2
    83          1
    84          3
    85          9
    86         18
    87        634
    88         79
    89          8
    90          1
    95          5
    96          1
    97         98
    98          8
    99          4
   100          1
   101          2
   105          1
   107          1
   109          1
   111          2
   113          2
   114         12
   115        784
   116         41
   117          8
   124          2
   125          3
   126          1
   137          1
   139          1
   142         10
   143         28
   144          3
   145          1
   160          1