##TITLE=Library Entry 12497
##JCAMP-DX=Revision 4.10 
##DATA TYPE=MASS SPECTRUM
##SAMPLE DESCRIPTION=Exported from NIST MS Search
##NAMES=HP
##CAS NAME=Podocarp-13-ene-14-glycolic acid, 7-hydroxy-8,13-dimethyl-3-oxo-,
 .delta.-lactone
##MOLFORM=C21H30O4
##CAS REGISTRY NO=31858-08-9
##MP= -300
##BP= -300
##MW= 346
##$RETENTION INDEX=0
##$CONDENSED SPECTRUM=NO
##NPOINTS= 226
##XYDATA=(XY..XY) 1 
    25         10
    26         20
    27        100
    28         20
    29        280
    30         10
    31         20
    39        130
    40         20
    41        870
    42         70
    43        999
    44         20
    45         40
    50         10
    51         30
    52         20
    53        230
    54         30
    55        630
    56         40
    57         70
    58         10
    59         90
    63         10
    64         10
    65        100
    66         40
    67        400
    68         50
    69        320
    70         40
    71        170
    72         20
    77        270
    78         50
    79        350
    80        100
    81        420
    82         80
    83        170
    84         40
    85        100
    86         40
    87         20
    91        410
    92         70
    93        420
    94        100
    95        410
    96        130
    97        120
    98         50
    99         40
   100         10
   101         10
   102         10
   103         40
   104         30
   105        380
   106        100
   107        370
   108        180
   109        430
   110        150
   111        220
   112         20
   113         10
   115         60
   116         40
   117         80
   118         40
   119        400
   120        170
   121        590
   122        160
   123        420
   124        100
   125        150
   126         20
   127         30
   128         50
   129         70
   130         30
   131        130
   132         70
   133        320
   134        120
   135        380
   136        200
   137        480
   138        410
   139        150
   140         40
   141         40
   142         30
   143         70
   144         40
   145        170
   146         80
   147        320
   148        150
   149        900
   150        630
   151        350
   152        100
   153        160
   154         30
   155         30
   156         10
   157         90
   158         30
   159        170
   160        120
   161        150
   162        160
   163        130
   164        220
   165        320
   166        130
   167         40
   168         10
   169         30
   170         20
   171         80
   172         40
   173        120
   174         50
   175        170
   176         40
   177        100
   178         30
   179         40
   180         10
   181         10
   183         40
   184         20
   185        120
   186         50
   187         80
   188         30
   189        130
   190         50
   191        200
   192         50
   193         10
   194         40
   195         20
   196         10
   197         30
   198         40
   199        100
   200         40
   201         80
   202         40
   203        140
   204         60
   205         50
   206         30
   209         10
   211         20
   212         10
   213         50
   214         30
   215         50
   216         40
   217         90
   218         30
   219         10
   225         10
   227         40
   228         20
   229         40
   230         10
   231         30
   232         10
   239         10
   241         50
   242         30
   243         40
   244         20
   245         40
   246         10
   251         10
   253         10
   255         30
   257         20
   258         10
   259         40
   260         10
   267         20
   269         80
   270         30
   271         40
   272         20
   273         90
   274         50
   275         20
   281         10
   283         20
   284         60
   285         40
   286         20
   287        320
   288         70
   289         20
   299        100
   300         50
   301        350
   302        500
   303        100
   304         20
   313         10
   315         30
   316         20
   317        400
   318         80
   319         20
   328         20
   329         10
   330         30
   331         10
   345         10
   346        360
   347         90
   348         10