##TITLE=Library Entry 62606
##JCAMP-DX=Revision 4.10 
##DATA TYPE=MASS SPECTRUM
##SAMPLE DESCRIPTION=Japan AIST/NIMC Database- Spectrum MS-NW-7670
##NAMES=HP
##CAS NAME=Benzene, 1-methyl-4-(methylsulfonyl)-
##MOLFORM=C8H10O2S
##CAS REGISTRY NO=3185-99-7
##MP= -300
##BP= -300
##MW= 170
##$RETENTION INDEX=0
##$CONDENSED SPECTRUM=NO
##NPOINTS= 81
##XYDATA=(XY..XY) 1 
    14          1
    15         23
    26          2
    27         12
    28         18
    29          1
    31          1
    32          3
    34          1
    37          3
    38         10
    39        101
    40          8
    41         24
    43          1
    44          3
    45          9
    46          1
    47          1
    48          2
    49          1
    50         26
    51         46
    52         12
    53         10
    55          1
    58          1
    61          6
    62         21
    63         66
    64         18
    65        198
    66         11
    67          4
    69          5
    70          1
    71          2
    73          1
    74          7
    75          6
    76          4
    77         68
    78         13
    79         52
    80          3
    81          1
    82          1
    84          1
    85          2
    86          5
    87          5
    88          2
    89         53
    90         22
    91        999
    92         77
    93          3
    95          1
   103          1
   105          4
   106          1
   107        259
   108         37
   109          3
   111          3
   121          3
   122          2
   123          2
   137          1
   138          4
   139         16
   140          1
   141          1
   155        309
   156         27
   157         15
   158          1
   170        267
   171         26
   172         14
   173          1