##TITLE=Library Entry 61966
##JCAMP-DX=Revision 4.10 
##DATA TYPE=MASS SPECTRUM
##SAMPLE DESCRIPTION=A.A.Kutin, Moscow, Russia
##NAMES=HP
##CAS NAME=Propenal, 3-phenyl-, .alpha.-toluyl hydrazone
##MOLFORM=C17H16N2O
##CAS REGISTRY NO=318512-81-1
##MP= -300
##BP= -300
##MW= 264
##$RETENTION INDEX=0
##$CONDENSED SPECTRUM=NO
##NPOINTS= 121
##XYDATA=(XY..XY) 1 
    36          0
    37          3
    38         14
    39        120
    40         46
    41         32
    42         30
    43         27
    44         23
    45          9
    48          0
    50         30
    51         87
    52         20
    53          6
    54          1
    55          4
    56          2
    57         11
    59          3
    60          1
    61          3
    62         22
    63         77
    64         23
    65        203
    66         13
    67          4
    68          4
    69        189
    70         10
    71          2
    73          3
    74         10
    75         14
    76         18
    77        148
    78         33
    79          5
    80          0
    81          1
    82          0
    83          1
    84          2
    85          2
    86          3
    87          6
    88          6
    89         82
    90         56
    91        999
    92        484
    93         40
    94          2
    95          0
    96          0
    97          0
    98          1
    99          1
   100          0
   101          6
   102         29
   103         42
   104         36
   105          6
   106          4
   107          1
   108          0
   109          0
   110          0
   111          0
   113          5
   114          6
   115        187
   116         46
   117         38
   118         80
   119         15
   120          3
   121          0
   122          0
   123          0
   124          0
   125          0
   127          5
   128         52
   129        452
   130        512
   131         53
   132          4
   133          1
   134         50
   135        103
   136         13
   137          1
   138          0
   141          0
   144         12
   145        504
   146         86
   147          7
   148          1
   173          6
   174          0
   187          2
   188          0
   190          0
   191          1
   192          0
   205          1
   206          2
   207          0
   221          2
   222          0
   236          0
   246          0
   263         28
   264         45
   265          9
   266          1
   268          0