##TITLE=Library Entry 48087
##JCAMP-DX=Revision 4.10 
##DATA TYPE=MASS SPECTRUM
##SAMPLE DESCRIPTION=D. Rasala, Inst. Chem., Pedagogical Univ., Kielce, Pola
nd
##NAMES=HP
##CAS NAME=Pyridine, 4-methoxy-3-nitro-
##MOLFORM=C6H6N2O3
##CAS REGISTRY NO=31872-62-5
##MP= -300
##BP= -300
##MW= 154
##$RETENTION INDEX=0
##$CONDENSED SPECTRUM=NO
##NPOINTS= 31
##XYDATA=(XY..XY) 1 
    50        330
    51        600
    52        170
    53        180
    54        140
    55         40
    64         50
    65        150
    66        300
    67         80
    68         40
    69         80
    70         40
    76         40
    77         50
    78        999
    79         80
    80         70
    81         60
    93        560
    94        550
    95         40
    96         90
   107        240
   108         20
   124        400
   125         40
   126          1
   139          1
   154        370
   155         27