##TITLE=Library Entry 27810
##JCAMP-DX=Revision 4.10 
##DATA TYPE=MASS SPECTRUM
##SAMPLE DESCRIPTION=A.A.Kutin, Moscow, Russia
##NAMES=HP
##CAS NAME=1-Propanone, 1-(1-adamantyl)-3-dimethylamino-
##MOLFORM=C15H25NO
##CAS REGISTRY NO=31878-58-7
##MP= -300
##BP= -300
##MW= 235
##$RETENTION INDEX=0
##$CONDENSED SPECTRUM=NO
##NPOINTS= 95
##XYDATA=(XY..XY) 1 
    33          1
    39         43
    40         53
    41         74
    42        269
    43        202
    44        239
    45        110
    47          0
    50          5
    51          7
    52          5
    53         13
    54          9
    55         30
    56         35
    58        999
    59         31
    60          1
    62          0
    63          2
    64          1
    65          7
    66          2
    67         13
    68          3
    69          5
    70         17
    71         17
    72         61
    73          2
    75          1
    77         19
    79         32
    80          3
    81          7
    82          2
    83          1
    84          5
    85          0
    86          0
    87          0
    89          0
    91         15
    92          2
    93         16
    94          2
    95          1
    96          1
    98          6
   100         10
   101          0
   102          0
   103          1
   105          3
   106          0
   107          5
   108          0
   109          0
   110          3
   112          4
   114          2
   115         16
   116          1
   117          0
   118          0
   119          0
   120          0
   121          0
   122          0
   123          0
   124          0
   126          0
   127          1
   128          0
   129          0
   130          0
   131          0
   132          0
   133          0
   135         21
   136          2
   139          0
   141          0
   142          0
   145          0
   147          0
   149          0
   162          0
   169          0
   171          0
   173          0
   175          0
   235          4
   236          0