##TITLE=Library Entry 29546
##JCAMP-DX=Revision 4.10 
##DATA TYPE=MASS SPECTRUM
##SAMPLE DESCRIPTION=NIST Mass Spectrometry Data Center, 1998.
##NAMES=HP
##CAS NAME=Ethane, (chloromethoxy)-
##MOLFORM=C3H7ClO
##CAS REGISTRY NO=3188-13-4
##MP= -300
##BP= -300
##MW= 94
##$RETENTION INDEX=633
##$CONDENSED SPECTRUM=NO
##NPOINTS= 49
##XYDATA=(XY..XY) 1 
    13          1
    14          7
    15         12
    16          1
    25          4
    26         46
    27        169
    28         54
    29        318
    30         26
    31        310
    32          4
    33          1
    35         11
    36          6
    37          5
    38          2
    39          1
    40          1
    41         15
    42         10
    43         46
    44         28
    45          3
    47          6
    48          9
    49        210
    50          9
    51         79
    52          2
    53          5
    57          7
    58         62
    59        999
    60         36
    61          3
    62          1
    63         11
    64          1
    65          8
    67          2
    79        111
    80          2
    81         35
    82          1
    93          8
    94          5
    95          3
    96          2