##TITLE=Library Entry 58783
##JCAMP-DX=Revision 4.10 
##DATA TYPE=MASS SPECTRUM
##SAMPLE DESCRIPTION=Div. of Experiment Therapeutics WRAIR, WRAMC, Washingto
n DC 20307
##NAMES=HP
##CAS NAME=S-2-[2-[2-Phthalimidoethylthio]ethylamino]ethyl hydrogen thiosulf
ate
##MOLFORM=C14H18N2O5S3
##CAS REGISTRY NO=31888-58-1
##MP= -300
##BP= -300
##MW= 390
##$RETENTION INDEX=0
##$CONDENSED SPECTRUM=NO
##NPOINTS= 231
##XYDATA=(XY..XY) 1 
    41         40
    42        125
    43        174
    44        163
    45        167
    46         36
    47         42
    48        369
    49          2
    50        114
    51         64
    52         12
    53         13
    54         19
    55         21
    56        145
    57         74
    58         89
    59        140
    60        126
    61        303
    62          5
    64        869
    65        136
    66         47
    67         11
    68         11
    69         11
    70         33
    71         36
    72         13
    73         29
    74        344
    75         75
    76        227
    77        228
    78         33
    79          7
    80         10
    81          4
    82          4
    83          3
    84          9
    85         30
    86        127
    87         61
    88        136
    89         78
    90        999
    91         48
    92         46
    93         11
    94          3
    95          3
    96         10
    97          3
    98         12
    99          9
   100         12
   101         22
   102        122
   103         67
   104        204
   105        115
   106         16
   107          5
   108          4
   109          4
   110          3
   111          7
   112         10
   113          2
   114        175
   115         15
   116        132
   117         22
   118         16
   119          6
   120         13
   121          5
   122          9
   123          5
   124         12
   125          8
   126          5
   127         10
   128         15
   129         37
   130        279
   131         35
   132         38
   133        101
   134         14
   135          2
   136         15
   137         16
   138          4
   139          4
   140          4
   142         15
   143          5
   144          8
   145          6
   146         23
   147         72
   148        255
   149         27
   150          7
   151          2
   152          3
   153          2
   155          2
   156          4
   157          6
   158          7
   160        659
   161         76
   162         17
   163          3
   164          2
   165          3
   168          5
   169          8
   170         41
   171         20
   172         15
   173         65
   174        371
   175         49
   176          7
   178         12
   179          6
   180          4
   185         13
   186          9
   187          9
   188         45
   189          7
   190          6
   192         10
   193          3
   197          2
   200          2
   202          3
   203          5
   204         15
   205         23
   206        418
   207         79
   208         42
   209          6
   215          3
   217          3
   220         18
   221        183
   222         31
   223         20
   224          7
   225          2
   231          2
   233        111
   234        172
   235         23
   236          8
   238          4
   239         32
   240          8
   241          4
   245         41
   246          8
   249          4
   250         12
   251        111
   252         18
   253          6
   256          2
   259          3
   261          6
   263        393
   264         65
   265         29
   266          5
   271          3
   272          2
   277         16
   278          3
   279          3
   289          4
   291          3
   293         12
   294          2
   295         10
   305          2
   306         14
   307          6
   308          4
   309         14
   310         13
   311        288
   312         54
   313         34
   314          4
   319         20
   320          4
   321         17
   322          4
   323         12
   332          4
   333          2
   334         46
   335         24
   336         14
   337         19
   338          5
   339          9
   340          8
   341          6
   342          5
   343          3
   352          0
   353          0
   362          3
   364          2
   365          0
   366          0
   374          0
   375          4
   376          1
   390         13
   391          7
   392          1