##TITLE=Library Entry 89667
##JCAMP-DX=Revision 4.10 
##DATA TYPE=MASS SPECTRUM
##SAMPLE DESCRIPTION=HB-13
##NAMES=HP
##CAS NAME=4-Methyl-5-ethylthiazole
##MOLFORM=C6H9NS
##CAS REGISTRY NO=31883-01-9
##MP= -300
##BP= -300
##MW= 127
##$RETENTION INDEX=1028
##$CONDENSED SPECTRUM=NO
##NPOINTS= 84
##XYDATA=(XY..XY) 1 
    15          0
    17          0
    18          5
    25          0
    26         12
    27         49
    28         46
    29         12
    32          9
    33          0
    34          1
    37          7
    38         12
    39         91
    40         15
    41         75
    42         25
    43          0
    44          5
    45        192
    46          9
    47         15
    48          0
    49          2
    50         11
    51         19
    52         14
    53         31
    54          8
    55         18
    56          4
    57          6
    58         32
    59         64
    60         10
    61          5
    62          5
    63          6
    64          2
    65         38
    66         14
    67         66
    68         24
    69         39
    70         12
    71         73
    72         19
    73          8
    74          0
    75          0
    76          1
    78          0
    80          1
    81          2
    82          7
    83          4
    84          9
    85        309
    86         23
    87         13
    88          0
    92          2
    93          0
    94         25
    95          1
    96          0
    97          9
    98         26
    99         58
   100         44
   101          4
   102          1
   111          1
   112        999
   113         67
   114         47
   115          1
   124          1
   125          0
   126         50
   127        736
   128         59
   129         34
   130          1