##TITLE=Library Entry 39376
##JCAMP-DX=Revision 4.10 
##DATA TYPE=MASS SPECTRUM
##SAMPLE DESCRIPTION=NIST Mass Spectrometry Data Center, 2009
##NAMES=HP
##CAS NAME=N,N-Dimethyl-1,2,3-trithian-5-amine
##MOLFORM=C5H11NS3
##CAS REGISTRY NO=31895-21-3
##MP= -300
##BP= -300
##MW= 181
##$RETENTION INDEX=1507
##$CONDENSED SPECTRUM=NO
##NPOINTS= 88
##XYDATA=(XY..XY) 1 
    14          1
    15         13
    18          2
    26          2
    27         13
    28         19
    29          7
    30         11
    32          5
    33          1
    34          1
    35          1
    37          1
    38          4
    39         34
    40          7
    41         50
    42        182
    43         69
    44         63
    45         77
    46         37
    47         17
    48          2
    49          1
    51          1
    52          2
    53          1
    54         15
    55         25
    56        233
    57         16
    58        100
    59         21
    60          2
    61          7
    64         36
    65          3
    66          4
    67          1
    68          9
    69          9
    70        190
    71        999
    72         54
    73         29
    74          4
    75          2
    76         12
    77          2
    78          4
    79          1
    80          1
    82          2
    83          2
    84         14
    85          3
    86          7
    87          5
    88         12
    89          1
    90          1
    91          2
    96          3
    97          1
    98          1
   100         12
   101          5
   102         11
   103         14
   104          6
   105          5
   106          1
   108          1
   110          3
   114          2
   115          1
   116          2
   135        712
   136         47
   137         68
   138          4
   139          2
   147          1
   149          5
   181         23
   182          2
   183          3