##TITLE=Library Entry 77647
##JCAMP-DX=Revision 4.10 
##DATA TYPE=MASS SPECTRUM
##SAMPLE DESCRIPTION=Chemical Concepts
##NAMES=HP
##CAS NAME=1H-Indole, 7-methoxy-
##MOLFORM=C9H9NO
##CAS REGISTRY NO=3189-22-8
##MP= -300
##BP= -300
##MW= 147
##$RETENTION INDEX=0
##$CONDENSED SPECTRUM=NO
##NPOINTS= 77
##XYDATA=(XY..XY) 1 
    25          3
    26         34
    27         44
    28         84
    29         84
    30         21
    31         22
    36          2
    37         37
    38         60
    39         49
    40          9
    41         12
    42          3
    43          5
    48          1
    49         16
    50        134
    51        210
    52         85
    53         24
    54          8
    55          3
    60          4
    61         40
    62         91
    63        143
    64         40
    65         39
    66          7
    67          3
    72          1
    73         14
    74         71
    75         77
    76        158
    77        296
    78        131
    79          9
    84          4
    85         13
    86         24
    87         27
    88         31
    89        137
    90         41
    91         26
    92          4
    99          4
   100          5
   101          4
   102         44
   103         56
   104        999
   105         88
   106          4
   111          1
   112          0
   113          1
   114         13
   115         28
   116         94
   117         47
   118         70
   119         14
   129          3
   130          3
   131          6
   132        312
   133         32
   134          2
   144          2
   145          2
   146          7
   147        336
   148         39
   149          3