##TITLE=Library Entry 15859
##JCAMP-DX=Revision 4.10 
##DATA TYPE=MASS SPECTRUM
##SAMPLE DESCRIPTION=D. Seebach, Lab. Org. Chem., Swiss Tech. Univ., Zurich,
 Switzerland
##NAMES=HP
##CAS NAME=1,3-Propanediamine, N,N',2,2-tetramethyl-
##MOLFORM=C7H18N2
##CAS REGISTRY NO=31892-15-6
##MP= -300
##BP= -300
##MW= 130
##$RETENTION INDEX=0
##$CONDENSED SPECTRUM=NO
##NPOINTS= 14
##XYDATA=(XY..XY) 1 
    28        130
    30        170
    32        110
    41        110
    42        180
    44        999
    55         70
    56        150
    70         90
    71         70
    84        330
    86         70
    87         70
    99        220