##TITLE=Library Entry 86698
##JCAMP-DX=Revision 4.10 
##DATA TYPE=MASS SPECTRUM
##SAMPLE DESCRIPTION=TNO Volatile Compounds in Food - Chemical Concepts
##NAMES=HP
##CAS NAME=.delta.-Lindane
##MOLFORM=C6H6Cl6
##CAS REGISTRY NO=319-86-8
##MP= -300
##BP= -300
##MW= 288
##$RETENTION INDEX=1801
##$CONDENSED SPECTRUM=NO
##NPOINTS= 138
##XYDATA=(XY..XY) 1 
    25          5
    26         58
    35         43
    36         48
    37         47
    38        157
    39        127
    45          1
    46          3
    47         27
    48         24
    49        158
    50        226
    51        453
    52         11
    53          4
    54          2
    55         22
    56         29
    59          2
    60         29
    61        170
    62         52
    63         81
    64         11
    65         16
    68          2
    71          4
    73        289
    74        122
    75        292
    76         30
    77        182
    82          4
    83        368
    84         34
    85        387
    86         52
    87        209
    88         25
    89         38
    90          9
    91         18
    92          9
    95         21
    96        140
    97         37
    98         93
    99         69
   100         23
   101         21
   102          6
   107         17
   108          6
   109        999
   110         42
   111        689
   112         93
   113        155
   114         23
   115          4
   117          5
   119         18
   120         10
   121        157
   122         69
   123        108
   124         54
   125         16
   126          8
   130          2
   131         17
   132          2
   133         54
   134         28
   135         65
   136         19
   137         20
   138          3
   139          4
   143         82
   144         11
   145        235
   146        148
   147        168
   148        108
   149         56
   150         16
   151          3
   155         11
   156        136
   157         65
   158        113
   159         61
   160         34
   161         18
   162          4
   167          4
   168          6
   169         33
   170         13
   171         22
   172          2
   173          7
   179          3
   180         11
   181        890
   182         77
   183        901
   184         65
   185        271
   186         20
   187         34
   188          4
   191          4
   193          5
   205          2
   216        175
   217        715
   218        226
   219        950
   220        152
   221        438
   222         49
   223         91
   224          6
   225          6
   252         58
   253          8
   254         90
   255          6
   256         66
   257          8
   258         22
   260          3
   288          2
   290          4
   292          2