##TITLE=Library Entry 96550
##JCAMP-DX=Revision 4.10 
##DATA TYPE=MASS SPECTRUM
##SAMPLE DESCRIPTION=Chuck Anderson, Aldrich Chemical Co.
##NAMES=HP
##CAS NAME=3-Bromophenylacetonitrile
##MOLFORM=C8H6BrN
##CAS REGISTRY NO=31938-07-5
##MP= -300
##BP= -300
##MW= 195
##$RETENTION INDEX=0
##$CONDENSED SPECTRUM=NO
##NPOINTS= 83
##XYDATA=(XY..XY) 1 
    25          0
    26          6
    27          6
    28          4
    36          1
    37         11
    38         21
    39         36
    40          6
    41          2
    43          6
    44          8
    45          2
    49          7
    50         69
    51         31
    52          7
    53          0
    56          4
    57          0
    58         77
    60          2
    61         23
    62         55
    63        106
    64         28
    65         18
    66          2
    73          7
    74         37
    75         57
    76         36
    77          5
    79          6
    80          1
    81          7
    82          1
    84          3
    85         10
    86         15
    87         32
    88         44
    89        323
    90         53
    91          3
    93          1
    95          1
    97         12
    98          3
    99          7
   100          0
   104          1
   105          1
   106          1
   107          1
   110          0
   111          2
   112          1
   114         37
   115         32
   116        999
   117         72
   118          4
   119          4
   128          1
   129          1
   130          1
   131          1
   141          1
   143          2
   145          1
   155          4
   157          4
   167          3
   169          6
   170          0
   171          3
   194          5
   195        314
   196         18
   197        316
   198         22
   199          0