##TITLE=Library Entry 30357
##JCAMP-DX=Revision 4.10 
##DATA TYPE=MASS SPECTRUM
##SAMPLE DESCRIPTION=Chemical Concepts
##NAMES=HP
##CAS NAME=N-Thiazol-2-ylthioacetamide
##MOLFORM=C5H6N2S2
##CAS REGISTRY NO=31931-46-1
##MP= -300
##BP= -300
##MW= 158
##$RETENTION INDEX=0
##$CONDENSED SPECTRUM=NO
##NPOINTS= 124
##XYDATA=(XY..XY) 1 
    25          4
    26         18
    27         18
    29          5
    30          2
    31          1
    33          7
    34          6
    35          0
    36          1
    37          2
    38          8
    39         13
    40         30
    41         37
    42        117
    43         36
    44         25
    45        113
    46         35
    47         10
    48          2
    49          0
    50          2
    51          9
    52         12
    53          9
    54          7
    55         79
    56          7
    57         89
    58        298
    59        999
    60         54
    61         50
    62          2
    63          2
    64         17
    65          2
    66          3
    67         14
    68          2
    69          6
    70         15
    71         12
    72         17
    73        116
    74          7
    75          6
    76          6
    77          1
    78          1
    79         18
    80          2
    81         18
    82          4
    83         10
    84         15
    85         18
    86          5
    87          2
    88          1
    89          1
    90          8
    91          2
    92          1
    93          1
    94          1
    95          3
    96          2
    97          4
    98         10
    99         14
   100        800
   101         69
   102         54
   103          3
   104          1
   105          1
   106          1
   107          1
   108          1
   109          1
   110          1
   111          5
   112          1
   113          6
   114          1
   115          2
   116         10
   117         80
   118         13
   119          8
   120          1
   121          1
   122          0
   123          1
   124         12
   125         51
   126          5
   127          3
   128          1
   129          2
   130          0
   131          1
   132          0
   133          0
   134          1
   135          1
   137          1
   138          1
   139          1
   140          0
   141          1
   142          7
   143         50
   144          5
   145          5
   157          4
   158        559
   159         73
   160         59
   161          6
   162          2