##TITLE=Library Entry 89220
##JCAMP-DX=Revision 4.10 
##DATA TYPE=MASS SPECTRUM
##SAMPLE DESCRIPTION=NIST Mass Spectrometry Data Center
##NAMES=HP
##CAS NAME=4-Hexamethyleneiminobutyronitrile
##MOLFORM=C10H18N2
##CAS REGISTRY NO=3194-43-2
##MP= -300
##BP= -300
##MW= 166
##$RETENTION INDEX=0
##$CONDENSED SPECTRUM=NO
##NPOINTS= 70
##XYDATA=(XY..XY) 1 
    15         22
    17          1
    18          5
    26         15
    27        107
    28        141
    29         49
    30         72
    37          3
    39        123
    40         37
    41        337
    42        319
    43         75
    44         96
    48          2
    51          6
    52         15
    53         26
    54         60
    55        132
    56         58
    57         98
    58        233
    64          3
    65          6
    66         13
    67         20
    68         75
    69         34
    70         54
    71         21
    72          3
    77          3
    78          3
    79          7
    80         10
    81         14
    82         34
    83         24
    84        129
    85          9
    93          3
    94          8
    95         13
    96         14
    97         45
    98         15
    99          2
   108          5
   109         23
   110         31
   112        999
   113         79
   114          3
   121          2
   123         30
   124          8
   126         19
   127          2
   135          3
   137         65
   138          9
   149          2
   151          7
   163          2
   164          6
   165         27
   166         90
   167          9