##TITLE=Library Entry 81745
##JCAMP-DX=Revision 4.10 
##DATA TYPE=MASS SPECTRUM
##SAMPLE DESCRIPTION=Chemical Concepts
##NAMES=HP
##CAS NAME=Decane, 1,10-bis(4'-benzoylphenyl)-
##MOLFORM=C36H38O2
##CAS REGISTRY NO=31948-18-2
##MP= -300
##BP= -300
##MW= 502
##$RETENTION INDEX=0
##$CONDENSED SPECTRUM=NO
##NPOINTS= 304
##XYDATA=(XY..XY) 1 
    25          0
    26          0
    27          4
    29         10
    30          0
    38          0
    39          3
    41         25
    42          1
    43         18
    44          1
    50          1
    51          7
    52          0
    53          1
    54          0
    55         22
    56          1
    57          5
    58          0
    63          1
    64          0
    65          4
    66          0
    67          3
    68          0
    69          6
    70          0
    71          0
    74          0
    75          0
    76          4
    77        167
    78         14
    79          4
    80          0
    81          2
    82          0
    83          1
    84          0
    85          0
    86          0
    89          8
    90         51
    91         78
    92          7
    93          1
    94          0
    95          1
    97          0
   101          0
   102          1
   103         14
   104         13
   105        999
   106         77
   107          9
   108          0
   109          0
   111          0
   114          0
   115          8
   116          3
   117         22
   118         58
   119         20
   120          1
   121          0
   127          0
   128          4
   129          5
   130          2
   131        105
   132         20
   133         16
   134          1
   139          1
   141          5
   142          1
   143          2
   144          1
   145         10
   146          2
   147          3
   148          0
   151          2
   152         24
   153          8
   154          1
   155          1
   156          0
   157          3
   158          1
   159          4
   160          1
   161          2
   163          0
   164          1
   165         37
   166         17
   167        147
   168         21
   169          2
   170          0
   171          1
   172          0
   173          5
   174        204
   175          8
   176          0
   177          1
   178          8
   179          7
   180         28
   181         25
   182          4
   183         89
   184         13
   185          2
   186          0
   187          4
   188          4
   189         13
   190          1
   191          2
   192          1
   193         11
   194         18
   195         52
   196        311
   197         51
   198          5
   199          1
   201          2
   202          1
   203          1
   204          0
   205          4
   206          2
   207          7
   208          4
   209        591
   210        115
   211         13
   212          6
   213          8
   214          0
   215          9
   216          1
   217          4
   218          1
   219          5
   220         20
   221          9
   222          8
   223         29
   224          8
   225          1
   227          0
   228          2
   229          4
   230          1
   231          1
   232          4
   233         15
   234          6
   235         19
   236         32
   237         47
   238         22
   239          4
   240          0
   241          1
   242          1
   243          6
   244          1
   245          0
   246          0
   247          1
   248          7
   249         17
   250          5
   251         24
   252         10
   253          2
   254          0
   255          0
   256          0
   257          1
   258          0
   259          0
   261          0
   262          0
   263          3
   264          1
   265         17
   266         17
   267          3
   268          0
   269          0
   270          1
   271          6
   272          2
   273          0
   275          0
   276          0
   277          3
   278          0
   279         10
   280          6
   281          1
   282          0
   283          0
   284          0
   285          1
   286          1
   287          0
   289          0
   290          0
   291          1
   292          3
   293         10
   294        124
   295         29
   296          4
   297          1
   298          0
   299          0
   301          0
   302          0
   303          0
   304          0
   305          0
   306          0
   307         13
   308          3
   309          1
   311          0
   312          0
   315          0
   319          1
   320         54
   321         14
   322          1
   323          0
   341          0
   347          0
   360          0
   371          0
   372          0
   375          3
   376          1
   377          0
   378          0
   379          9
   380          3
   381          0
   386          0
   388          0
   392          0
   393         43
   394         14
   395          2
   396          1
   397         26
   398          9
   399          1
   400          0
   401          0
   402          0
   406          1
   407          1
   408          0
   413          0
   414          0
   423          0
   424          0
   425          3
   426          1
   427          0
   445          0
   446          0
   456          0
   459          2
   460          0
   461          0
   466          6
   467          2
   468          0
   473          0
   474          0
   483          0
   484         16
   485          7
   486          1
   487          0
   496          0
   500          0
   501          4
   502        311
   503        119
   504         25
   505          3
   506          0