##TITLE=Library Entry 24891
##JCAMP-DX=Revision 4.10 
##DATA TYPE=MASS SPECTRUM
##SAMPLE DESCRIPTION=Japan AIST/NIMC Database- Spectrum MS-NW-9569
##NAMES=HP
##CAS NAME=Acetamide, N-ethenyl-N-methyl-
##MOLFORM=C5H9NO
##CAS REGISTRY NO=3195-78-6
##MP= -300
##BP= -300
##MW= 99
##$RETENTION INDEX=0
##$CONDENSED SPECTRUM=NO
##NPOINTS= 41
##XYDATA=(XY..XY) 1 
    13          1
    14          9
    15        105
    16          1
    25          2
    26         24
    27         79
    28        264
    29        143
    30        108
    31          3
    32          1
    37          1
    38          3
    39          8
    40         18
    41         41
    42        207
    43        777
    44         21
    45          2
    51          5
    52         13
    53          4
    54         86
    55         55
    56        900
    57        999
    58         81
    59          2
    68          2
    70          2
    71         10
    72          1
    73          1
    82          1
    84          3
    98         16
    99        680
   100         65
   101          4