##TITLE=Library Entry 88960
##JCAMP-DX=Revision 4.10 
##DATA TYPE=MASS SPECTRUM
##SAMPLE DESCRIPTION=Japan AIST/NIMC Database- Spectrum MS-IW-7934
##NAMES=HP
##CAS NAME=Adipic acid, diphenyl ester
##MOLFORM=C18H18O4
##CAS REGISTRY NO=3195-37-7
##MP= -300
##BP= -300
##MW= 298
##$RETENTION INDEX=2397
##$CONDENSED SPECTRUM=NO
##NPOINTS= 73
##XYDATA=(XY..XY) 1 
    26          1
    27         14
    28         15
    29         19
    38          3
    39         43
    40          6
    41         27
    42          7
    43          3
    50          4
    51         19
    52          2
    53          7
    54          3
    55        233
    56         20
    57          1
    62          1
    63          6
    64          4
    65         57
    66         18
    67          5
    68          6
    69          5
    74          1
    76          3
    77        112
    78          8
    79          3
    81          3
    82          3
    83        128
    84         13
    85          1
    91          6
    92          2
    93         13
    94        231
    95        199
    96         11
   105          2
   107          9
   108          1
   109          1
   110          3
   111        999
   112         69
   113          6
   115          1
   121         69
   122          5
   131          2
   133          7
   135         17
   136          2
   141          2
   149          1
   159         72
   160          9
   161          2
   163          2
   176          1
   177         48
   178          6
   187          2
   204          1
   205        584
   206         77
   207          8
   298          3
   299          1