##TITLE=Library Entry 97524
##JCAMP-DX=Revision 4.10 
##DATA TYPE=MASS SPECTRUM
##SAMPLE DESCRIPTION=H. Fales, LC, NHLBI, NIH, Bethesda, MD 20892
##NAMES=HP
##CAS NAME=Benz[c]pyran-1,3-dione, 4,4-dimethyl-
##MOLFORM=C11H10O3
##CAS REGISTRY NO=31952-55-3
##MP= -300
##BP= -300
##MW= 190
##$RETENTION INDEX=0
##$CONDENSED SPECTRUM=NO
##NPOINTS= 113
##XYDATA=(XY..XY) 1 
    41         99
    42          1
    43        123
    44         26
    45         36
    46          1
    47          1
    48          0
    49         12
    50        392
    51        533
    52        136
    53         71
    54          5
    55         13
    58        501
    61         34
    62        111
    63        263
    64         50
    65        226
    66         28
    67          4
    68          1
    69          4
    71         17
    72         37
    73         24
    74        158
    75        148
    76        188
    77        495
    78        447
    79         44
    80          2
    81          2
    82          1
    83          0
    84          5
    85          9
    86         23
    87         34
    88          8
    89        107
    90         43
    91        408
    92         35
    93          2
    94          0
    95          1
    96          0
    97          3
    98         15
    99          5
   100          1
   101         38
   102        170
   103        492
   104         60
   105         22
   106          2
   107          1
   108          0
   109          2
   110          1
   111          1
   113          5
   114          5
   115        355
   117        999
   118        177
   119         29
   120          2
   121          0
   122          0
   123          0
   124          1
   125          1
   126          0
   127          6
   128         44
   129         38
   131        866
   132         27
   133         11
   134          1
   135          0
   136          0
   137          1
   138          1
   139          0
   140          0
   141          0
   142          0
   143          1
   144          1
   145        371
   146        845
   147         44
   148         12
   149          1
   150          0
   151          0
   152          0
   153          0
   154          0
   155          0
   157          1
   161          1
   190         41
   191         17
   192          2
   193          0