##TITLE=Library Entry 15966
##JCAMP-DX=Revision 4.10 
##DATA TYPE=MASS SPECTRUM
##SAMPLE DESCRIPTION=J.CASSAN FACULTY OF SCIENCE, UNIV. OF NICE, NICE, FRANC
E
##NAMES=HP
##CAS NAME=1,3,2-Dioxaphosphorinan-2-amine, N,N-dimethyl-5,5-diphenyl-, 2-ox
ide
##MOLFORM=C17H20NO3P
##CAS REGISTRY NO=31951-88-9
##MP= -300
##BP= -300
##MW= 317
##$RETENTION INDEX=0
##$CONDENSED SPECTRUM=NO
##NPOINTS= 138
##XYDATA=(XY..XY) 1 
    40        249
    41        749
    42        285
    43        714
    44        999
    45        464
    46         60
    47         64
    48         71
    49         82
    50        253
    51        464
    52        178
    53        267
    54        114
    55        410
    56        178
    57        285
    58         82
    59        374
    60        103
    61         82
    62        107
    63        285
    64         96
    65        357
    66        285
    67        464
    68         92
    69        185
    70         85
    71         60
    72         71
    73        110
    74        392
    75        124
    76        321
    77        464
    78        160
    79        171
    80        149
    81        167
    82        321
    83        321
    84         92
    85         96
    86         74
    87         60
    89        214
    90        114
    91        892
    92        146
    93        107
    94        285
    95        124
    97        149
   101         71
   102        235
   103        357
   104        203
   105        192
   106        117
   107         89
   108         96
   109        110
   110         99
   111         82
   113         64
   114         82
   115        357
   116        232
   117        100
   118         60
   119        157
   120         46
   121        132
   123         71
   124         82
   125        107
   127         60
   128         92
   130         64
   132         60
   133         92
   134         60
   138         64
   139        128
   140         67
   141         85
   145        107
   149         99
   150         67
   151         92
   152        160
   153        103
   163         82
   164        100
   165        535
   166        217
   167        149
   168         96
   169         60
   172         74
   174         82
   175         64
   176        114
   177         78
   178        464
   179        392
   180        892
   181        167
   182         82
   183         64
   184         60
   187         60
   188        139
   189        121
   190        196
   191        285
   192        185
   193        174
   194         71
   196         64
   200         78
   202         67
   203         49
   206        107
   207         60
   208        128
   210        149
   220         60
   226         64
   235         64
   257         82
   272        121
   317        157
   318         67
   319         57