##TITLE=Library Entry 71428
##JCAMP-DX=Revision 4.10 
##DATA TYPE=MASS SPECTRUM
##SAMPLE DESCRIPTION=ORMSBG,9(11)1073(1974); ECKHARDT
##NAMES=HP
##CAS NAME=Piperidine, 1,1'-(1,3-propanediyl)bis-
##MOLFORM=C13H26N2
##CAS REGISTRY NO=31951-46-9
##MP= -300
##BP= -300
##MW= 210
##$RETENTION INDEX=0
##$CONDENSED SPECTRUM=NO
##NPOINTS= 21
##XYDATA=(XY..XY) 1 
    41        170
    42        141
    44         68
    55        112
    56         58
    69         66
    70         82
    83         56
    84        138
    85         30
    96        111
    97         64
    98        999
    99         85
   110        677
   111         85
   112        114
   124        127
   125        657
   126         80
   210        199