##TITLE=Library Entry 57176
##JCAMP-DX=Revision 4.10 
##DATA TYPE=MASS SPECTRUM
##SAMPLE DESCRIPTION=LAC, NIDDK, NIH, Bethesda, MD 20892
##NAMES=HP
##CAS NAME=Methyl .alpha.-bromostearate
##MOLFORM=C19H37BrO2
##CAS REGISTRY NO=3196-18-7
##MP= -300
##BP= -300
##MW= 376
##$RETENTION INDEX=0
##$CONDENSED SPECTRUM=NO
##NPOINTS= 231
##XYDATA=(XY..XY) 1 
    41        577
    43        986
    44         31
    45         20
    51          3
    53         52
    55        706
    56         90
    57        541
    59        215
    60          8
    61          8
    65          8
    66          2
    67        135
    68         23
    69        340
    70         84
    71        223
    72         18
    73         10
    74        373
    75         89
    76          5
    77          7
    79         32
    80          5
    81        183
    82         68
    83        232
    84        145
    85        117
    87        999
    88         72
    89          8
    91         11
    92          1
    93         23
    95        170
    96        137
    97        207
    98        176
    99         40
   100         19
   101         67
   102          9
   103          1
   105          6
   106          5
   107         20
   108         16
   109         98
   110         74
   111        111
   112         46
   113         87
   114         24
   115         40
   116         20
   117          3
   119         16
   120          9
   121         28
   122         13
   123         73
   124         41
   125         62
   126         16
   127         48
   128         30
   129         64
   130         81
   131          9
   133         20
   134         15
   135         33
   136          6
   137         53
   138         36
   139         37
   140         18
   141         58
   142          4
   143        168
   144         20
   145          2
   146          1
   147         15
   148         15
   149         24
   150          9
   151         49
   152        621
   153         60
   154        572
   155         36
   156          7
   157         43
   158          8
   161         11
   162          7
   163         16
   164         16
   165        116
   166         51
   167        103
   168         14
   169         18
   170          4
   171         28
   172         12
   173          2
   175         13
   176          5
   177         16
   178          7
   179         25
   180         69
   181         25
   182          6
   183         13
   184          3
   185         30
   186         17
   187          2
   189          8
   190          3
   191         10
   192          3
   193         26
   194         41
   195         17
   196         30
   197         10
   199        104
   200         23
   201          4
   203          5
   205          6
   206          3
   207        155
   208         36
   209        140
   210         18
   211          7
   212          1
   213         89
   214         20
   215          3
   217          4
   219          4
   220         49
   221        165
   222        117
   223        160
   224         17
   225          5
   227         35
   228         12
   233          2
   235         24
   236         19
   237         11
   238          1
   239          7
   240          3
   241         24
   242          7
   246         29
   247         34
   248          7
   249         18
   250          6
   251         16
   252          3
   253         28
   254          7
   255        200
   256         37
   257          5
   263         42
   264        432
   265        168
   266         25
   267         24
   268          6
   269        109
   270         22
   271          3
   277         32
   278         15
   279         35
   280          5
   283         13
   284          6
   291          5
   292          6
   293          6
   294          3
   295          3
   296         56
   297        884
   298        287
   299         49
   300          6
   305          6
   307          6
   310          1
   311         16
   312          6
   314          1
   319         10
   321         10
   325          7
   326          3
   333         11
   334          1
   335         10
   336          1
   345          7
   347          8
   348          2
   350          1
   361          3
   363          3
   375          5
   376        253
   377         84
   378        252
   379         76
   380         11