##TITLE=Library Entry 4113
##JCAMP-DX=Revision 4.10 
##DATA TYPE=MASS SPECTRUM
##SAMPLE DESCRIPTION=Chuck Anderson, Aldrich Chemical Co.
##NAMES=HP
##CAS NAME=Butanoic acid, 2-bromo-, methyl ester
##MOLFORM=C5H9BrO2
##CAS REGISTRY NO=3196-15-4
##MP= -300
##BP= -300
##MW= 180
##$RETENTION INDEX=0
##$CONDENSED SPECTRUM=NO
##NPOINTS= 113
##XYDATA=(XY..XY) 1 
    12          0
    13          0
    14          3
    15        121
    16          2
    24          0
    25          1
    26         25
    27        113
    28         13
    29         94
    30          9
    31         23
    32          0
    33          2
    34          0
    35          0
    36          1
    37         15
    38         41
    39        308
    40         48
    41        999
    42        112
    43         38
    44          6
    45         23
    46          0
    49          0
    50          1
    51          0
    52          0
    53          6
    54          2
    55         78
    56          3
    57          3
    58          0
    59        368
    60         10
    61          1
    66          0
    67          0
    68          7
    69        139
    70         14
    71          3
    72          5
    73          4
    74          5
    75          0
    79          4
    80          1
    81          4
    82          1
    83          0
    85          3
    86          0
    87          8
    88          0
    91          0
    92          3
    93         14
    94          5
    95         21
    96          1
    97          5
    99          2
   100          2
   101        449
   102         25
   103          2
   104          0
   105          7
   106          4
   107          9
   108          4
   109          5
   110          0
   111          2
   116          0
   117          0
   118          0
   119          3
   120         32
   121        149
   122         34
   123        143
   124          5
   125          3
   133          3
   134          0
   135          4
   136          0
   137          2
   139          2
   141          0
   147          0
   148          1
   149         38
   150          2
   151         33
   152        481
   153         15
   154        459
   155         14
   156          2
   165          0
   167          0
   180          3
   181          1
   182          3
   183          1