##TITLE=Library Entry 56275
##JCAMP-DX=Revision 4.10 
##DATA TYPE=MASS SPECTRUM
##SAMPLE DESCRIPTION=Div. of Experiment Therapeutics WRAIR, WRAMC, Washingto
n DC 20307
##NAMES=HP
##CAS NAME=5-Phthalimido-2-pentanone oxime
##MOLFORM=C13H14N2O3
##CAS REGISTRY NO=3197-26-0
##MP= -300
##BP= -300
##MW= 246
##$RETENTION INDEX=0
##$CONDENSED SPECTRUM=NO
##NPOINTS= 120
##XYDATA=(XY..XY) 1 
    41        110
    42        185
    43         31
    44         12
    45          5
    46         13
    47          4
    48          2
    49         29
    50        109
    51         77
    52         19
    53         24
    54         41
    55         47
    56         38
    57         12
    58         29
    59          1
    60          3
    61          0
    62          3
    63         10
    64          7
    65         13
    66         17
    67         19
    68         52
    69         12
    70          9
    71          2
    72          2
    73        523
    74         56
    75         67
    76        219
    77        211
    78         23
    79          1
    80         21
    81        114
    82        191
    84         65
    85          5
    86        999
    87         57
    88          6
    89          8
    90         11
    91          6
    92          3
    93          1
    95          2
    96          1
    97          1
    98         17
    99         28
   100          7
   101          3
   102         49
   103         22
   104        135
   105         79
   106          7
   107          0
   114          0
   115          4
   116          3
   117         15
   118          3
   119          1
   125          0
   127          0
   128          2
   129         12
   130        153
   131         15
   132         34
   133         69
   134          5
   140          1
   142          1
   143          2
   144          1
   145          3
   146          3
   147         23
   148         23
   149          6
   158          6
   159          5
   160        313
   161         60
   162         14
   163          1
   169          8
   170          3
   171          0
   172          5
   173          9
   174        259
   175         29
   176          2
   184          0
   186          7
   187          3
   188          9
   189          1
   199          6
   200          3
   211          0
   213          0
   216          0
   226          0
   227          2
   229        212
   230         31
   231          3
   246         15
   247          1