##TITLE=Library Entry 81387
##JCAMP-DX=Revision 4.10 
##DATA TYPE=MASS SPECTRUM
##SAMPLE DESCRIPTION=Exported from NIST MS Search
##NAMES=HP
##CAS NAME=.alpha.-Muurolene
##MOLFORM=C15H24
##CAS REGISTRY NO=31983-22-9
##MP= -300
##BP= -300
##MW= 204
##$RETENTION INDEX=0
##$CONDENSED SPECTRUM=NO
##NPOINTS= 89
##XYDATA=(XY..XY) 1 
    27         44
    29         39
    39         66
    40          5
    41        200
    42         11
    43        100
    51         17
    52          8
    53         62
    54          7
    55        111
    56         10
    57         22
    63          8
    64          6
    65         43
    66         12
    67         59
    68          9
    69         86
    70         10
    75          6
    77        124
    78         29
    79        141
    80         33
    81        214
    82         18
    83          9
    89          8
    91        204
    92         83
    93        352
    94        352
    95         97
    96          7
   102          6
   103         20
   104         16
   105        999
   106        155
   107         97
   108         35
   109         23
   110         15
   115         36
   116         17
   117         45
   118         19
   119        210
   120         48
   121        117
   122         30
   123         93
   124          9
   127         12
   128         26
   129         28
   130         15
   131         36
   132         14
   133        128
   134         73
   135         40
   136         42
   141          7
   142          7
   143          7
   144          7
   145         42
   146         12
   147        107
   148         73
   149         48
   150          7
   157          6
   159         21
   160         43
   161        655
   162        107
   163         11
   175         24
   176          7
   189        121
   190         19
   204        390
   205         69
   206          8