##TITLE=Library Entry 84460
##JCAMP-DX=Revision 4.10 
##DATA TYPE=MASS SPECTRUM
##SAMPLE DESCRIPTION=Dr. Jiri Zamecnik, DCIEM, North York, Canada, GP Librar
y
##NAMES=HP
##CAS NAME=1-(4-Ethoxyphenyl)-2-propanone oxime
##MOLFORM=C11H15NO2
##CAS REGISTRY NO=319913-93-4
##MP= -300
##BP= -300
##MW= 193
##$RETENTION INDEX=0
##$CONDENSED SPECTRUM=NO
##NPOINTS= 29
##XYDATA=(XY..XY) 1 
    38        122
    51        112
    52         67
    53         47
    63         51
    77        278
    78        156
    79         48
    89         62
    91         59
    94         57
   105         79
   107        999
   108        108
   119         27
   122         31
   132        195
   133        139
   134        211
   135        239
   146        300
   147         91
   148        155
   160         55
   175         71
   176         92
   177         20
   193        463
   194         54