##TITLE=Library Entry 1909
##JCAMP-DX=Revision 4.10 
##DATA TYPE=MASS SPECTRUM
##SAMPLE DESCRIPTION=K.Undheim ET AL,Acta Chem. Scand.25,2943(1971)
##NAMES=HP
##CAS NAME=(3-Hydroxy-2-pyridylthio)acetic acid
##MOLFORM=C7H7NO3S
##CAS REGISTRY NO=32002-80-5
##MP= -300
##BP= -300
##MW= 185
##$RETENTION INDEX=0
##$CONDENSED SPECTRUM=NO
##NPOINTS= 69
##XYDATA=(XY..XY) 1 
    39        999
    40         91
    41         72
    42         84
    43         25
    44        106
    45        278
    46         76
    47         38
    50         16
    51         38
    52         57
    53         59
    54         84
    55         48
    57         14
    58         27
    59         16
    60         16
    63         16
    64         76
    65        116
    66        157
    67        498
    68        144
    69         46
    70         95
    71         87
    72         48
    73          8
    76          8
    78         25
    79         38
    80         95
    81         16
    82         40
    83         38
    84          8
    85          6
    93         46
    94        116
    95        125
    96         95
    97         38
    98        144
    99         19
   100         16
   106         14
   108        600
   109         46
   110         95
   111        116
   112         46
   113          6
   125          6
   126         38
   127          6
   128         19
   134          6
   138        184
   139        365
   140        526
   141        878
   142         84
   143         36
   152          4
   167        123
   168         16
   185         23