##TITLE=Library Entry 70698
##JCAMP-DX=Revision 4.10 
##DATA TYPE=MASS SPECTRUM
##SAMPLE DESCRIPTION=A.A.Kutin, Moscow, Russia
##NAMES=HP
##CAS NAME=1H-Pyrazole, 3-ethoxy-5-methyl-
##MOLFORM=C6H10N2O
##CAS REGISTRY NO=3201-21-6
##MP= -300
##BP= -300
##MW= 126
##$RETENTION INDEX=0
##$CONDENSED SPECTRUM=NO
##NPOINTS= 50
##XYDATA=(XY..XY) 1 
    33         12
    34          2
    36         17
    37         39
    39        681
    40        262
    41        344
    42        229
    43         48
    44         23
    45          9
    46          0
    49          4
    50         16
    51         21
    52         22
    53         27
    54         59
    55         53
    56         37
    57          6
    58          9
    59          2
    63          0
    64          1
    67        386
    68         67
    69        120
    70        166
    71         10
    77          0
    79          4
    80          3
    81         14
    82         33
    83         30
    84         13
    85          1
    94          0
    97        401
    98        999
    99         52
   100          3
   107          0
   109          2
   111         99
   112          3
   126        389
   127         16
   128          1