##TITLE=Library Entry 89598
##JCAMP-DX=Revision 4.10 
##DATA TYPE=MASS SPECTRUM
##SAMPLE DESCRIPTION=Asinex Ltd, Moscow, Russia
##NAMES=HP
##CAS NAME=2,3-Dimethyl-3-pyrazolin-5-one
##MOLFORM=C5H8N2O
##CAS REGISTRY NO=3201-28-3
##MP= -300
##BP= -300
##MW= 112
##$RETENTION INDEX=0
##$CONDENSED SPECTRUM=NO
##NPOINTS= 65
##XYDATA=(XY..XY) 1 
    33          0
    34          0
    35          1
    36          7
    37         26
    38         58
    39        247
    40        103
    41        179
    42        123
    43        145
    44        104
    45         57
    46         58
    47          3
    48          1
    49          2
    50          7
    51         13
    52         22
    53         19
    54         39
    55         58
    56        116
    57          8
    58          3
    60          1
    62          1
    63          3
    64          6
    65          9
    66         31
    67        146
    68         67
    69         91
    70         12
    71         14
    72          3
    73          1
    77          1
    78          2
    79          2
    80          3
    81         11
    82        117
    83         37
    84         46
    85          7
    87          0
    92          1
    93         29
    94          5
    95          8
    96         29
    97         32
    98          2
    99          0
   104          0
   108          1
   109          4
   111        410
   112        999
   113         63
   114          4
   115          0