##TITLE=Library Entry 97297
##JCAMP-DX=Revision 4.10 
##DATA TYPE=MASS SPECTRUM
##SAMPLE DESCRIPTION=Exported from NIST MS Search
##NAMES=HP
##CAS NAME=2-Oxazoline, 5-octyl-2-phenyl-
##MOLFORM=C17H25NO
##CAS REGISTRY NO=32014-90-7
##MP= -300
##BP= -300
##MW= 259
##$RETENTION INDEX=0
##$CONDENSED SPECTRUM=NO
##NPOINTS= 19
##XYDATA=(XY..XY) 1 
    77        450
    78         30
    91        210
    92         20
   104        120
   105        950
   106         70
   117        999
   118         80
   122        250
   123         20
   130         10
   146        150
   147         10
   161         70
   202         50
   216         35
   259         80
   260         20