##TITLE=Library Entry 87828
##JCAMP-DX=Revision 4.10 
##DATA TYPE=MASS SPECTRUM
##SAMPLE DESCRIPTION=A.A.Kutin, Moscow, Russia
##NAMES=HP
##CAS NAME=1H-Imidazol-5(4H)-one, 4,4-dimethyl-2-phenyl-
##MOLFORM=C11H12N2O
##CAS REGISTRY NO=32024-05-8
##MP= -300
##BP= -300
##MW= 188
##$RETENTION INDEX=0
##$CONDENSED SPECTRUM=NO
##NPOINTS= 83
##XYDATA=(XY..XY) 1 
    33          2
    34          3
    35         14
    36          7
    37         10
    38         44
    39        212
    40         55
    41          6
    42          1
    43          4
    44         14
    45         15
    50         12
    51         12
    52          5
    53          6
    55          2
    56          1
    57         15
    58          8
    60          0
    61          3
    62         22
    63         43
    64          9
    65          5
    66          1
    67          0
    69          3
    70          1
    71          1
    74          3
    75         10
    76          5
    77          3
    81          3
    82         10
    83         87
    84          7
    85          6
    86          2
    87          6
    88         18
    89         57
    90         10
    91          1
   101          8
   102          0
   111        999
   112         66
   113         47
   114         13
   115         15
   116         40
   117          7
   127          1
   128          6
   142          3
   143          5
   144          5
   145          2
   149          1
   152          0
   157          0
   158          1
   159         43
   160         25
   161          3
   162          0
   169          0
   170          1
   171          1
   172          0
   173         19
   174          2
   175          0
   185          0
   187          8
   188        141
   189         19
   190          1
   191          0