##TITLE=Library Entry 94026
##JCAMP-DX=Revision 4.10 
##DATA TYPE=MASS SPECTRUM
##SAMPLE DESCRIPTION=Exported from NIST MS Search
##NAMES=HP
##CAS NAME=1,2,4-Thiadiazole, 5-amino-3-propyl-
##MOLFORM=C5H9N3S
##CAS REGISTRY NO=32039-20-6
##MP= -300
##BP= -300
##MW= 143
##$RETENTION INDEX=0
##$CONDENSED SPECTRUM=NO
##NPOINTS= 24
##XYDATA=(XY..XY) 1 
    27        310
    41        330
    42        100
    43        240
    45        140
    46        170
    47         80
    55         90
    59        200
    60        330
    70        130
    72        270
    73        659
    74        559
    75        240
    86        170
   100        140
   101        490
   115        999
   116        180
   117        150
   128        819
   142        180
   143        749