##TITLE=Library Entry 33961
##JCAMP-DX=Revision 4.10 
##DATA TYPE=MASS SPECTRUM
##SAMPLE DESCRIPTION=HCACAV,61(1)357(1978); G. BIERI ET AL
##NAMES=HP
##CAS NAME=2-Propynenitrile, 3-fluoro-
##MOLFORM=C3FN
##CAS REGISTRY NO=32038-83-8
##MP= -300
##BP= -300
##MW= 69
##$RETENTION INDEX=0
##$CONDENSED SPECTRUM=NO
##NPOINTS= 6
##XYDATA=(XY..XY) 1 
    24         10
    26         10
    31         90
    35         40
    50         50
    69        999