##TITLE=Library Entry 9725
##JCAMP-DX=Revision 4.10 
##DATA TYPE=MASS SPECTRUM
##SAMPLE DESCRIPTION=Chemical Concepts
##NAMES=HP
##CAS NAME=4-(4-Nitroanilino)-6-piperidino-1,2,3-triazin-2(1H)-one
##MOLFORM=C14H16N6O3
##CAS REGISTRY NO=320367-58-6
##MP= -300
##BP= -300
##MW= 316
##$RETENTION INDEX=0
##$CONDENSED SPECTRUM=NO
##NPOINTS= 125
##XYDATA=(XY..XY) 1 
    43        999
    44        525
    45        227
    46          8
    50        107
    51         94
    52         94
    53        111
    55        633
    56        210
    57         72
    60        197
    61         25
    63        124
    64         85
    65        115
    66         42
    67         90
    69        370
    70         94
    71         38
    73         47
    74         21
    75         47
    76        107
    77         81
    78         64
    79         77
    80         72
    81         68
    82         98
    84        706
    85         38
    86         17
    90        232
    91         81
    92         72
    93         30
    94         30
    95         21
    96         25
    97         30
    98         47
    99         12
   102          4
   104         21
   105         64
   106         47
   107         25
   108         47
   109         47
   110         30
   111         42
   112         25
   113          4
   115          4
   116         17
   117         59
   118        111
   119         21
   120          8
   121         17
   122         21
   124         59
   125         42
   127          4
   129          8
   130          8
   132         38
   133        111
   134         17
   135         17
   136          4
   137         17
   138         21
   143         34
   144         59
   145         12
   147         12
   149         30
   150         12
   151         21
   152         42
   153          4
   154          4
   157         12
   158         21
   159         30
   160         21
   161          4
   163         34
   164         30
   170          4
   171          8
   178          4
   179         25
   180          8
   186         59
   190         47
   207         38
   208          4
   232         47
   233         47
   234         17
   241         25
   247         21
   248         51
   249         85
   259          8
   260         42
   261         85
   262         21
   263          8
   269         12
   271         25
   273         68
   274         42
   275         12
   287        141
   288         38
   300          4
   301        102
   315         94
   316        280
   317         34