##TITLE=Library Entry 53597
##JCAMP-DX=Revision 4.10 
##DATA TYPE=MASS SPECTRUM
##SAMPLE DESCRIPTION=LAC, NIDDK, NIH, Bethesda, MD 20892
##NAMES=HP
##CAS NAME=dl-Stachydrine
##MOLFORM=C7H13NO2
##CAS REGISTRY NO=32039-73-9
##MP= -300
##BP= -300
##MW= 143
##$RETENTION INDEX=0
##$CONDENSED SPECTRUM=NO
##NPOINTS= 50
##XYDATA=(XY..XY) 1 
    41         92
    42        345
    43         49
    44        139
    45         29
    47         39
    48         18
    49         17
    50        128
    51         62
    52         45
    53         16
    54         31
    55         69
    56         65
    57         56
    58        165
    59         17
    67         24
    68         22
    69         21
    70         53
    71         61
    72          2
    78          2
    80         12
    81         18
    82        144
    83         40
    84        999
    85         62
    86         67
    88         15
    95          2
    96          8
    97         14
    98         44
    99         13
   100          8
   108          3
   110          5
   114          5
   126         14
   127          2
   128         12
   129          2
   141          6
   142         15
   143         39
   144          3