##TITLE=Library Entry 5115
##JCAMP-DX=Revision 4.10 
##DATA TYPE=MASS SPECTRUM
##SAMPLE DESCRIPTION=J.VOTH UNIV. OF CALIFORNIA, DAVIS, CALIFORNIA, 95616, U
SA
##NAMES=HP
##CAS NAME=Aziridine, 2-tert-butyl-1,3-dimethyl-, trans-
##MOLFORM=C8H17N
##CAS REGISTRY NO=3203-94-9
##MP= -300
##BP= -300
##MW= 127
##$RETENTION INDEX=0
##$CONDENSED SPECTRUM=NO
##NPOINTS= 86
##XYDATA=(XY..XY) 1 
     2          5
    12          0
    13          2
    14         13
    15        271
    16          4
    17          5
    18         21
    19          0
    25          0
    26         32
    27        261
    28        172
    29        216
    30         79
    31          3
    32          6
    36          0
    37          5
    38         15
    39        190
    40         28
    41        312
    42        999
    43        142
    44        174
    45          5
    46          0
    47          1
    48          4
    49          1
    50          8
    51         16
    52         11
    53         43
    54         33
    55        154
    56        169
    57         66
    58        125
    59         16
    60          0
    61          0
    62          1
    63          2
    64          1
    65          5
    66          4
    67         15
    68         28
    69         72
    70        135
    71         33
    72         16
    73          1
    74          0
    75          0
    77          2
    78          1
    79          5
    80          9
    81         26
    82         58
    83         17
    84        200
    85         26
    86          2
    91          0
    92          0
    93          0
    94          7
    95          4
    96         25
    97         18
    98          7
    99          3
   108          1
   109          0
   110          5
   112        775
   113         62
   114          2
   126         34
   127         38
   128          4
   129          0