##TITLE=Library Entry 82179
##JCAMP-DX=Revision 4.10 
##DATA TYPE=MASS SPECTRUM
##SAMPLE DESCRIPTION=Exported from NIST MS Search
##NAMES=HP
##CAS NAME=Methanone, (3-[1,1'-biphenyl]-4-yl-1-ethyl-2-aziridinyl)phenyl-,
 trans-
##MOLFORM=C23H21NO
##CAS REGISTRY NO=32044-34-1
##MP= -300
##BP= -300
##MW= 327
##$RETENTION INDEX=0
##$CONDENSED SPECTRUM=NO
##NPOINTS= 72
##XYDATA=(XY..XY) 1 
    29         82
    39         37
    41         41
    51         71
    63         31
    65         23
    77        493
    78         43
    79          6
    89         74
    90         34
    91         95
    92          9
   104         16
   105        999
   106         82
   107          6
   115         65
   116         41
   117         27
   139         41
   140          9
   145          9
   146         41
   147         11
   152        164
   153         54
   154         20
   165        419
   166         82
   167        684
   168         50
   169          9
   174        376
   175         43
   176         11
   178         43
   179         27
   180         54
   181         82
   182         27
   192         41
   193        106
   194         68
   195         11
   221         57
   222        821
   223         54
   224         41
   228         16
   241         41
   242         13
   243         79
   244         19
   250        164
   251         27
   252          8
   259         27
   260         41
   282         93
   283        109
   284         24
   297         95
   298         98
   299         21
   310        694
   311        201
   312         30
   326        178
   327        931
   328        250
   329         31