##TITLE=Library Entry 79479
##JCAMP-DX=Revision 4.10 
##DATA TYPE=MASS SPECTRUM
##SAMPLE DESCRIPTION=Exported from NIST MS Search
##NAMES=HP
##CAS NAME=Methanone, [3-[1,1'-biphenyl]-4-yl-1-(1-methylethyl)-2-aziridinyl
]phenyl-, cis-
##MOLFORM=C24H23NO
##CAS REGISTRY NO=32044-35-2
##MP= -300
##BP= -300
##MW= 341
##$RETENTION INDEX=0
##$CONDENSED SPECTRUM=NO
##NPOINTS= 56
##XYDATA=(XY..XY) 1 
    39         23
    41         75
    42        105
    51         41
    77        424
    78         38
    89         41
    90         11
    91         41
    92          8
   104         13
   105        999
   106         82
   107          9
   115         47
   116         30
   117         13
   145          9
   146         50
   147          8
   152         52
   153         27
   164         27
   165        205
   166         41
   167         84
   168         16
   180         27
   181         41
   182         13
   188         95
   189         13
   190          6
   193         60
   194        109
   228         11
   236        205
   237         38
   238         11
   241         54
   242         13
   243         68
   244         17
   282         38
   283         43
   284         74
   298        180
   299         52
   300         38
   324         82
   325         23
   326         23
   339         46
   340         47
   341        115
   342         20