##TITLE=Library Entry 31843
##JCAMP-DX=Revision 4.10 
##DATA TYPE=MASS SPECTRUM
##SAMPLE DESCRIPTION=A.A.Kutin, Moscow, Russia
##NAMES=HP
##CAS NAME=Benzaldehyde, 2-hydroxy-5-(4-nitrophenylazo)-
##MOLFORM=C13H9N3O4
##CAS REGISTRY NO=32041-64-8
##MP= -300
##BP= -300
##MW= 271
##$RETENTION INDEX=0
##$CONDENSED SPECTRUM=NO
##NPOINTS= 178
##XYDATA=(XY..XY) 1 
    33          2
    34          4
    35          0
    36          2
    37         61
    39        987
    40         86
    41         84
    42         37
    43         78
    44         26
    45         10
    46         27
    47          1
    48          1
    50        511
    51        169
    52        159
    53        229
    54         27
    55         70
    56         24
    57         44
    58          2
    59          2
    61         34
    62        145
    63        329
    64        199
    65        999
    66         83
    67         27
    68          7
    69         17
    70         13
    71         16
    73         16
    74        158
    75        424
    76        378
    77         63
    78         26
    79         23
    80         38
    81         26
    82          4
    83          6
    84          4
    85          5
    86          6
    87         12
    88         15
    89         19
    90         22
    92        228
    93        407
    94         29
    95          7
    96          1
    97          3
    98          2
    99          3
   100          3
   101          3
   102          6
   103          5
   104          6
   105          9
   106         24
   107          7
   108          7
   109         11
   110          2
   111          2
   112          3
   113          6
   114          7
   115         28
   116          4
   117          2
   119         16
   121        762
   122        221
   123         26
   124          2
   125          2
   126          2
   127          6
   128          7
   129          4
   130          1
   131          1
   132          0
   133          2
   134          2
   135          4
   136          8
   137         20
   138          5
   139         37
   140          9
   141          6
   142          2
   143          1
   144          0
   146          4
   147          4
   149        311
   150         43
   151         10
   152          6
   153          1
   154          1
   155          2
   156          1
   157          2
   158          0
   159          0
   162          0
   163          0
   164          0
   165          3
   167          3
   168          8
   169          2
   170          0
   171          1
   178          0
   179          1
   180          0
   181          0
   182          0
   183          1
   184          1
   185          1
   186          0
   189          0
   193          0
   194          0
   195          1
   196          5
   197          1
   198          0
   199          0
   205          0
   207          0
   211          0
   213          2
   214          0
   215          0
   223          0
   224          1
   225          0
   226          0
   227          0
   231          0
   232          0
   233          0
   236          0
   239          0
   240          0
   241         13
   242          7
   243         10
   244          2
   248          0
   254          0
   255          2
   256          0
   257          0
   259          0
   266          0
   267          1
   268          3
   269          5
   271        257
   272         34
   273          4