##TITLE=Library Entry 44155
##JCAMP-DX=Revision 4.10 
##DATA TYPE=MASS SPECTRUM
##SAMPLE DESCRIPTION=Exported from NIST MS Search
##NAMES=HP
##CAS NAME=Phosphoric acid, 2,3-bis(trimethylsiloxy)propyl 2-[bis(trimethyls
ilyl)amino]ethyl trimethylsilyl ester
##MOLFORM=C20H54NO6PSi5
##CAS REGISTRY NO=32046-29-0
##MP= -300
##BP= -300
##MW= 575
##$RETENTION INDEX=0
##$CONDENSED SPECTRUM=NO
##NPOINTS= 109
##XYDATA=(XY..XY) 1 
    70         10
    71          5
    72         34
    73        999
    74         85
    75         71
    77          5
   100         41
   101         68
   102         10
   103        171
   104         12
   105         10
   106          1
   107          1
   113          7
   114         22
   115         11
   116         28
   117         18
   118          7
   119         10
   120          1
   121          7
   122          1
   123          1
   159          1
   160          1
   162          1
   163          1
   164          1
   165          1
   172         61
   173         14
   174        162
   175         32
   176         12
   177          5
   179          5
   180         10
   181          1
   182          4
   187         14
   188        145
   189         28
   190         14
   191          1
   192         17
   193          1
   194         25
   195         10
   196         10
   217         12
   219         10
   220          1
   221          1
   240          5
   241         28
   242          5
   243         12
   244          1
   253         12
   254          5
   255          5
   256         11
   257         21
   258          4
   259          1
   299        291
   300         68
   301         42
   302         10
   303          1
   339          1
   340         20
   341         32
   342         11
   343          1
   344          1
   357        400
   358        111
   359         64
   360         11
   361          2
   414         82
   415         37
   416         20
   417          8
   430          8
   431          1
   432          1
   445        288
   446        105
   447         57
   448         11
   461        222
   462         85
   463         42
   464          8
   533         20
   534          7
   535          7
   536          2
   560         84
   561         40
   562         25
   563          7
   564          1
   575          4