##TITLE=Library Entry 1989
##JCAMP-DX=Revision 4.10 
##DATA TYPE=MASS SPECTRUM
##SAMPLE DESCRIPTION=Exported from NIST MS Search
##NAMES=HP
##CAS NAME=Pyrazine, methoxy-, 1-oxide
##MOLFORM=C5H6N2O2
##CAS REGISTRY NO=32046-05-2
##MP= -300
##BP= -300
##MW= 126
##$RETENTION INDEX=0
##$CONDENSED SPECTRUM=NO
##NPOINTS= 27
##XYDATA=(XY..XY) 1 
    37         86
    38        200
    39        320
    40        999
    41        283
    42        206
    43        126
    44        116
    45         46
    46         53
    51        146
    52        539
    53        260
    54        126
    55        100
    56        160
    57         80
    68        146
    78        433
    79        273
    80        100
    95         40
   109        153
   110         50
   125         53
   126        106
   127         40