##TITLE=Library Entry 44150
##JCAMP-DX=Revision 4.10 
##DATA TYPE=MASS SPECTRUM
##SAMPLE DESCRIPTION=Exported from NIST MS Search
##NAMES=HP
##CAS NAME=Phosphoric acid, bis[2,3-bis[(trimethylsilyl)oxy]propyl] trimethy
lsilyl ester
##MOLFORM=C21H55O8PSi5
##CAS REGISTRY NO=32046-28-9
##MP= -300
##BP= -300
##MW= 606
##$RETENTION INDEX=2171
##$CONDENSED SPECTRUM=NO
##NPOINTS= 87
##XYDATA=(XY..XY) 1 
    55          8
    57          2
    58          8
    59         48
    61          8
    71          1
    72         24
    73        999
    74         68
    75         94
    76          2
    77          4
    99          5
   101        134
   102         11
   103        327
   104         27
   105         11
   113         16
   115         16
   116         52
   117         35
   118          2
   119          8
   163          9
   189          5
   191          9
   193          9
   195         11
   196          4
   197          4
   218         13
   219         50
   220         79
   221         16
   222          8
   241         11
   243         24
   253         11
   255          2
   256          2
   257         31
   258          2
   297          8
   298          8
   299        161
   300         41
   301         27
   302          5
   312         17
   313          8
   314          8
   315         74
   316         20
   317         13
   341         16
   342          5
   357        373
   358         98
   359         52
   360          9
   415          9
   416          1
   417          1
   445        161
   446         61
   447         32
   448          9
   461         24
   462         11
   463          1
   464          1
   503        137
   504         54
   505         31
   506         11
   507          1
   508          1
   516         65
   517         30
   518         13
   519          1
   520          1
   591         32
   592         13
   593          9
   606          2