##TITLE=Library Entry 38957
##JCAMP-DX=Revision 4.10 
##DATA TYPE=MASS SPECTRUM
##SAMPLE DESCRIPTION=Exported from NIST MS Search
##NAMES=HP
##CAS NAME=Glycerol 3-phospho(dimethyl)ethanolamine, 3TMS derivative
##MOLFORM=C16H42NO6PSi3
##CAS REGISTRY NO=32046-30-3
##MP= -300
##BP= -300
##MW= 459
##$RETENTION INDEX=0
##$CONDENSED SPECTRUM=NO
##NPOINTS= 77
##XYDATA=(XY..XY) 1 
    56         72
    57         17
    58        325
    59         66
    70        110
    71        999
    72        895
    73        418
    74         52
    75        139
    77         37
   100        104
   102        107
   115         23
   116         34
   117         52
   119         17
   121         26
   181         37
   217         52
   218        142
   219         75
   220         34
   221         17
   223        447
   224        203
   225         98
   226        145
   227         34
   228         23
   239         17
   240        209
   241        252
   242        340
   243        191
   244         37
   282         17
   283        157
   284        130
   285        354
   286         81
   287         52
   297         17
   298         66
   299        848
   300        441
   301        273
   302         58
   303         40
   313         49
   314        444
   315        290
   316        139
   317         43
   341         29
   343         37
   344         34
   356        232
   357        764
   358        191
   359        113
   360         23
   369        139
   370        290
   371        110
   372         78
   373        101
   374         37
   375         17
   444         46
   445        302
   446         75
   447         17
   448          5
   458         61
   459         75
   460         34