##TITLE=Library Entry 5445
##JCAMP-DX=Revision 4.10 
##DATA TYPE=MASS SPECTRUM
##SAMPLE DESCRIPTION=TAT 0357
##NAMES=HP
##CAS NAME=Morphinan-6.alpha.-ol, 7,8-didehydro-3-methoxy-N-methyl-
##MOLFORM=C18H23NO2
##CAS REGISTRY NO=3205-45-6
##MP= -300
##BP= -300
##MW= 285
##$RETENTION INDEX=0
##$CONDENSED SPECTRUM=NO
##NPOINTS= 79
##XYDATA=(XY..XY) 1 
    41        240
    42        999
    43        230
    44        410
    45         50
    51        230
    52         30
    53        140
    54         20
    55        160
    56         20
    57        110
    58        160
    59        160
    60         20
    63        170
    64         20
    65        150
    66         20
    70        120
    71         10
    77        290
    78        120
    79         20
    82        100
    83         10
    89        100
    90         10
    91        200
    92         20
    94        110
    95         10
    96         90
    97         10
   102        110
   103        130
   104         10
   115        390
   116        110
   117         10
   121        110
   122         10
   127        140
   128        290
   129        160
   130         20
   139        110
   140         30
   141        150
   142         20
   144        130
   145         20
   146        240
   147         30
   152        180
   153        160
   154         20
   162        130
   163         20
   164        260
   165        270
   166        100
   167         10
   171        100
   172         10
   174        100
   175         10
   226        160
   227        120
   228         90
   229         10
   268        170
   269         20
   270        100
   271         10
   284         90
   285        550
   286        110
   287         10