##TITLE=Library Entry 69680
##JCAMP-DX=Revision 4.10 
##DATA TYPE=MASS SPECTRUM
##SAMPLE DESCRIPTION=CARL DJERASSI DEPT OF CHEM STANFORD UNIV STANFORD CALIF
 94305
##NAMES=HP
##CAS NAME=3-Decen-5-one, 2-methyl-
##MOLFORM=C11H20O
##CAS REGISTRY NO=32064-75-8
##MP= -300
##BP= -300
##MW= 168
##$RETENTION INDEX=0
##$CONDENSED SPECTRUM=NO
##NPOINTS= 36
##XYDATA=(XY..XY) 1 
    27        130
    28         30
    29        110
    39         90
    40         20
    41        500
    42         40
    43        480
    44         20
    51         10
    53         60
    54         20
    55        100
    56         10
    67         40
    68         20
    69        210
    70         30
    71        270
    72         20
    77         10
    79         30
    80         20
    81         10
    83         20
    95         20
    97        999
    98         70
    99        390
   100         30
   112        360
   113         30
   125        190
   126         20
   153         10
   168         40