##TITLE=Library Entry 52387
##JCAMP-DX=Revision 4.10 
##DATA TYPE=MASS SPECTRUM
##SAMPLE DESCRIPTION=Exported from NIST MS Search
##NAMES=HP
##CAS NAME=3-Decen-5-one
##MOLFORM=C10H18O
##CAS REGISTRY NO=32064-73-6
##MP= -300
##BP= -300
##MW= 154
##$RETENTION INDEX=1350
##$CONDENSED SPECTRUM=NO
##NPOINTS= 34
##XYDATA=(XY..XY) 1 
    39        150
    40         30
    41        170
    42         40
    43        140
    51         20
    53         70
    54         30
    55        370
    56         30
    57         20
    65         20
    67         40
    69         20
    70         20
    71         30
    77         30
    79         30
    81         20
    83        999
    84         60
    86         40
    91         20
    95         40
    97         30
    98        350
    99         60
   111        120
   112         50
   113         40
   121         40
   125        150
   126         20
   154         20