##TITLE=Library Entry 21344
##JCAMP-DX=Revision 4.10 
##DATA TYPE=MASS SPECTRUM
##SAMPLE DESCRIPTION=CARL DJERASSI DEPT OF CHEM STANFORD UNIV STANFORD CALIF
 94305
##NAMES=HP
##CAS NAME=7-Dodecen-6-one
##MOLFORM=C12H22O
##CAS REGISTRY NO=32064-76-9
##MP= -300
##BP= -300
##MW= 182
##$RETENTION INDEX=0
##$CONDENSED SPECTRUM=NO
##NPOINTS= 34
##XYDATA=(XY..XY) 1 
    39        180
    40         60
    41        490
    42         50
    43        360
    44         20
    53         70
    54         40
    55        999
    56         30
    57         20
    58         10
    67         40
    68         80
    69         70
    70        310
    71         80
    79         20
    81         30
    83         80
    84         40
    97        190
    98         10
    99        130
   100         10
   111        920
   112         80
   125        320
   126        530
   127         50
   139         30
   154         30
   167         10
   182         10