##TITLE=Library Entry 87562
##JCAMP-DX=Revision 4.10 
##DATA TYPE=MASS SPECTRUM
##SAMPLE DESCRIPTION=Exported from NIST MS Search
##NAMES=HP
##CAS NAME=Quinoline, decahydro-1,7-dimethyl-
##MOLFORM=C11H21N
##CAS REGISTRY NO=32064-85-0
##MP= -300
##BP= -300
##MW= 167
##$RETENTION INDEX=0
##$CONDENSED SPECTRUM=NO
##NPOINTS= 21
##XYDATA=(XY..XY) 1 
    41         30
    42         40
    44         20
    55         20
    67         20
    68         20
    70         20
    82         30
    94         30
    96         80
    97         70
   108         20
   110        999
   111         90
   124         30
   152         20
   164         30
   165         20
   166         40
   167        150
   168         20