##TITLE=Library Entry 8592
##JCAMP-DX=Revision 4.10 
##DATA TYPE=MASS SPECTRUM
##SAMPLE DESCRIPTION=Exported from NIST MS Search
##NAMES=HP
##CAS NAME=3-Hepten-2-one, 3-propyl-
##MOLFORM=C10H18O
##CAS REGISTRY NO=32064-69-0
##MP= -300
##BP= -300
##MW= 154
##$RETENTION INDEX=0
##$CONDENSED SPECTRUM=NO
##NPOINTS= 41
##XYDATA=(XY..XY) 1 
    39        120
    40         10
    41        350
    42         20
    43        999
    44         70
    45         20
    51         30
    52         20
    53        100
    54         30
    55        330
    56         30
    57         30
    65         20
    67         70
    68         20
    69        530
    70         40
    71         30
    72         20
    77         30
    79         30
    81         50
    83         50
    84         70
    85         20
    91         20
    93         20
    95         20
    97         70
    98         20
   107         40
   111        200
   112         30
   125        250
   126         50
   139        290
   140         30
   154        360
   155         50