##TITLE=Library Entry 21146
##JCAMP-DX=Revision 4.10 
##DATA TYPE=MASS SPECTRUM
##SAMPLE DESCRIPTION=CARL DJERASSI DEPT OF CHEM STANFORD UNIV STANFORD CALIF
 94305
##NAMES=HP
##CAS NAME=6-Decen-5-one
##MOLFORM=C10H18O
##CAS REGISTRY NO=32064-79-2
##MP= -300
##BP= -300
##MW= 154
##$RETENTION INDEX=0
##$CONDENSED SPECTRUM=NO
##NPOINTS= 40
##XYDATA=(XY..XY) 1 
    26         20
    27        240
    28         60
    29        230
    30         10
    38         10
    39        200
    40         50
    41         60
    42        120
    43         10
    44         10
    50         10
    51         20
    52         10
    53         50
    54         10
    55        999
    56         30
    57         90
    58         20
    60         20
    65         10
    66         10
    67         20
    68         70
    69         90
    70        160
    71         10
    73         10
    79         10
    81         10
    82         50
    84         20
    97        870
    98         50
   111        190
   112        280
   113         20
   125         20