##TITLE=Library Entry 23011
##JCAMP-DX=Revision 4.10 
##DATA TYPE=MASS SPECTRUM
##SAMPLE DESCRIPTION=A.A.Kutin, Moscow, Russia
##NAMES=HP
##CAS NAME=Antipyrine, 4-((p-methoxybenzylidene)amino)-
##MOLFORM=C19H19N3O2
##CAS REGISTRY NO=32061-14-6
##MP= -300
##BP= -300
##MW= 321
##$RETENTION INDEX=0
##$CONDENSED SPECTRUM=NO
##NPOINTS= 199
##XYDATA=(XY..XY) 1 
    37          1
    38          7
    39         15
    40          4
    41          6
    42          6
    43          9
    44          0
    50         18
    51         44
    52          9
    56        999
    57         16
    62          9
    63         29
    64         39
    65         31
    66          6
    67          8
    68          2
    69          1
    70          0
    71          0
    74          4
    75         11
    76         39
    77        116
    78         14
    79          4
    80          1
    81          1
    82          4
    83          4
    84          0
    86          0
    87          2
    88          6
    89         21
    91        127
    92         20
    93         11
    94          2
    95          1
    96          1
    97          0
   102         19
   103         41
   104         11
   105         10
   106          3
   107          5
   108          1
   110          3
   111          0
   112          0
   113          0
   114          5
   115         11
   116         10
   117         13
   119         61
   121        208
   123         27
   124          1
   126          0
   127          0
   128          4
   129          6
   130          9
   131          6
   132          8
   133         21
   134         17
   135         30
   136          2
   137          0
   138          0
   139          1
   140          1
   141          1
   142          1
   143          2
   144          4
   145         15
   146         64
   147         14
   148         22
   149          1
   150          0
   151          0
   152          1
   153          1
   154          0
   155          0
   156          1
   157          4
   158          6
   159         17
   160         48
   161         63
   162          0
   165          0
   166          1
   167          6
   168          1
   169          5
   170          2
   171          6
   172          6
   173          7
   174          5
   175          1
   176          1
   177          0
   178          0
   179          0
   180          1
   181          0
   182          0
   183          0
   184          4
   185          6
   186         10
   187         61
   188        105
   189         15
   190          1
   191          0
   192          0
   193          2
   194          1
   195          1
   196          0
   197          0
   198          2
   199          9
   200         22
   201         49
   202         17
   203          2
   204          0
   205          0
   206          0
   207          0
   208          0
   210         13
   212        138
   213         20
   214          6
   215          1
   216          0
   217          0
   220          0
   221          0
   222          0
   227          7
   228         19
   229        120
   230         18
   231          1
   234          0
   235          0
   237          2
   238          0
   244          4
   245          0
   246          0
   248          0
   249          0
   261          0
   262          0
   263          0
   264          0
   265          0
   273          0
   275          0
   276          0
   277          0
   278          0
   279          0
   280          0
   281          3
   282          0
   289          0
   290          0
   291          3
   292          2
   293          2
   294          0
   304          2
   305          0
   306          2
   307          0
   318          0
   320         28
   321        323
   322         65
   323          8
   324          0