##TITLE=Library Entry 2403
##JCAMP-DX=Revision 4.10 
##DATA TYPE=MASS SPECTRUM
##SAMPLE DESCRIPTION=NIST Mass Spectrometry Data Center, 1994
##NAMES=HP
##CAS NAME=Hexadec-2-enylsuccinic anhydride
##MOLFORM=C20H34O3
##CAS REGISTRY NO=32072-96-1
##MP= -300
##BP= -300
##MW= 322
##$RETENTION INDEX=0
##$CONDENSED SPECTRUM=NO
##NPOINTS= 165
##XYDATA=(XY..XY) 1 
    14          4
    27        150
    28         69
    29        336
    32          0
    39        174
    41        999
    42        163
    43        940
    44         40
    51         14
    52         20
    53        173
    54        329
    55        810
    56        181
    57        469
    58         26
    65         66
    66         73
    67        551
    68        306
    69        371
    70        148
    71        211
    72         33
    73         12
    77         90
    79        420
    80        178
    81        486
    82        355
    83        675
    84        133
    85        100
    86         15
    91         77
    92         34
    93        145
    94        162
    95        420
    96        370
    97        375
    98        104
    99        137
   100        155
   101         12
   104         16
   105         47
   106         34
   107        119
   108        117
   109        251
   110        139
   111        135
   112         61
   113         36
   117         47
   118         13
   119         67
   120         30
   121        165
   122         78
   123        227
   124        141
   125         92
   126         40
   127         52
   128        360
   129         35
   130         13
   131         49
   132         22
   133         60
   134         31
   135        102
   136         91
   137        184
   138        108
   139         70
   140        108
   141        413
   142        174
   143         23
   144         22
   145         44
   146         16
   147         43
   148         24
   149        121
   150         86
   151         83
   152         90
   153         66
   154        255
   155        137
   156         29
   159         25
   161         24
   162         15
   163        100
   164        187
   165         86
   166         66
   167        468
   168        102
   169         41
   170         14
   173         21
   174         15
   175         13
   176         13
   177         97
   178        166
   179         56
   180         47
   181         92
   182         39
   183         24
   187         14
   191         94
   192        132
   193         35
   194        122
   195         85
   196         25
   205         68
   206         42
   207         18
   208         13
   209         25
   210         13
   219         37
   220         29
   221         17
   222         16
   223         16
   227         18
   233         28
   234         16
   235         26
   236         18
   241         20
   245         13
   247         12
   248         13
   249         70
   250         24
   251         10
   258          8
   259         54
   260         19
   261         12
   262         26
   263         17
   276         38
   277        137
   278         33
   279         17
   281         12
   304        110
   305         23
   322        557
   323        125
   324         17