##TITLE=Library Entry 72781
##JCAMP-DX=Revision 4.10 
##DATA TYPE=MASS SPECTRUM
##SAMPLE DESCRIPTION=A.A.Kutin, Moscow, Russia
##NAMES=HP
##CAS NAME=Propan-2-ol, 1-(2-isopropyl-5-methylcyclohexyloxy)-3-(4-morpholyl
)-
##MOLFORM=C17H33NO3
##CAS REGISTRY NO=320784-52-9
##MP= -300
##BP= -300
##MW= 299
##$RETENTION INDEX=0
##$CONDENSED SPECTRUM=NO
##NPOINTS= 136
##XYDATA=(XY..XY) 1 
    39         54
    40         31
    41        244
    42        158
    43        202
    44         58
    45         20
    47          0
    49          0
    51          7
    53         28
    54         19
    55        166
    56        157
    57         64
    58         20
    59          3
    60          1
    61          0
    62          0
    63          2
    64          0
    65          6
    67         37
    68         13
    69         62
    70         56
    71         35
    72         21
    73          2
    74          1
    75          1
    76          0
    77         10
    78          2
    79         11
    80          3
    81         35
    82         10
    83         43
    84          7
    85          9
    86         12
    87         25
    88         11
    89          1
    91          5
    93          5
    94          1
    95         21
    96          5
    97         10
    98         24
   100        999
   101         65
   102          7
   103          1
   104          0
   105          0
   106          0
   107          1
   108          0
   109          2
   110          1
   111          2
   112          4
   113          3
   114          3
   115          1
   116          2
   118          3
   119          1
   120          0
   121          0
   123          3
   124          1
   125          0
   126          4
   127          3
   128          3
   129          3
   130         35
   131          3
   132          0
   133          0
   134          0
   135          0
   136          0
   137          0
   138          2
   139          7
   140          1
   141          0
   142         11
   143          3
   144         17
   145          2
   146          0
   149          1
   150          0
   151          0
   152          0
   153          0
   154          0
   155          0
   157          0
   158          0
   160         34
   161          3
   162          1
   163          0
   167          0
   169          0
   170          0
   171          1
   179          0
   181          0
   182          0
   184          0
   185          0
   192          0
   194          5
   195          1
   196          0
   199          0
   224          0
   238          0
   256          0
   281          4
   282          1
   283          0
   284          0
   298          0
   299          1
   300          0
   301          0