##TITLE=Library Entry 38282
##JCAMP-DX=Revision 4.10 
##DATA TYPE=MASS SPECTRUM
##SAMPLE DESCRIPTION=P.Dagaut ET AL.Chromatographia,40,147,(1995)
##NAMES=HP
##CAS NAME=Tetrahydrofuran, 2-propyl-
##MOLFORM=C7H14O
##CAS REGISTRY NO=3208-22-8
##MP= -300
##BP= -300
##MW= 114
##$RETENTION INDEX=867
##$CONDENSED SPECTRUM=NO
##NPOINTS= 38
##XYDATA=(XY..XY) 1 
    37         18
    38         31
    39        222
    40         33
    41        356
    42        109
    43        403
    44         23
    45          8
    49          5
    50         12
    51         18
    52          5
    53         25
    54         19
    55         57
    56         36
    57         18
    58          5
    65          5
    67         18
    68         14
    69         30
    70        147
    71        999
    72         50
    73          4
    76          6
    77          5
    79          9
    81         11
    83          5
    84          5
    95          6
    97         10
   112          3
   113         15
   114          3