##TITLE=Library Entry 49939
##JCAMP-DX=Revision 4.10 
##DATA TYPE=MASS SPECTRUM
##SAMPLE DESCRIPTION=NIST Mass Spectrometry Data Center, 1990.
##NAMES=HP
##CAS NAME=Furan, 2-ethyl-
##MOLFORM=C6H8O
##CAS REGISTRY NO=3208-16-0
##MP= -300
##BP= -300
##MW= 96
##$RETENTION INDEX=703
##$CONDENSED SPECTRUM=NO
##NPOINTS= 46
##XYDATA=(XY..XY) 1 
    14          2
    15         10
    25          2
    26         19
    27         67
    28         13
    29         35
    31          4
    32          3
    36          3
    37         25
    38         52
    39        162
    40         33
    41         85
    42         16
    43          4
    49          6
    50         47
    51         62
    52         43
    53        330
    54         18
    55         12
    57          3
    60          2
    61         11
    62         19
    63         29
    64          7
    65         59
    66         26
    67         76
    68         18
    69          3
    77          7
    78          2
    79          4
    80          2
    81        999
    82         56
    83          3
    94         10
    95         60
    96        307
    97         18