##TITLE=Library Entry 48361
##JCAMP-DX=Revision 4.10 
##DATA TYPE=MASS SPECTRUM
##SAMPLE DESCRIPTION=P. BRUCK, MAGYAR TUDOMANYOS AKADEMIA, HUNGARY
##NAMES=HP
##CAS NAME=4H-Pyrido[1,2-a]pyrimidine-3-carboxylic acid, 4-oxo-, ethyl ester
##MOLFORM=C11H10N2O3
##CAS REGISTRY NO=32092-18-5
##MP= -300
##BP= -300
##MW= 218
##$RETENTION INDEX=0
##$CONDENSED SPECTRUM=NO
##NPOINTS= 40
##XYDATA=(XY..XY) 1 
    39         82
    50         32
    51        191
    52         91
    53        162
    63         65
    64         50
    65         15
    66         29
    67          9
    68          9
    76         18
    77         26
    78        999
    79        206
    80          9
    90        124
    91         32
   104          9
   105        397
   106         24
   116          3
   117         47
   118        412
   119         38
   144         24
   145        324
   146        868
   147         88
   162        162
   163         18
   172          6
   173        882
   174        124
   175         18
   190         74
   191         18
   218        691
   219         88
   220          6