##TITLE=Library Entry 71331
##JCAMP-DX=Revision 4.10 
##DATA TYPE=MASS SPECTRUM
##SAMPLE DESCRIPTION=Exported from NIST MS Search
##NAMES=HP
##CAS NAME=7,14-Methano-4H,6H-dipyrido[1,2-a:1',2'-e][1,5]diazocin-4-one, 2,
3,7,7a,8,9,10,11,13,14-decahydro-, [7S-(7.alpha.,7a.beta.,14.alpha.)]-
##MOLFORM=C15H22N2O
##CAS REGISTRY NO=32101-29-4
##MP= -300
##BP= -300
##MW= 246
##$RETENTION INDEX=2118
##$CONDENSED SPECTRUM=NO
##NPOINTS= 67
##XYDATA=(XY..XY) 1 
    53         32
    54         40
    55         60
    56         32
    65         25
    66         18
    67         60
    68         70
    69         30
    70         40
    77         35
    78         15
    79         30
    80         40
    81         20
    82         40
    83         30
    84         88
    85         81
    91         25
    92         13
    93         25
    94         45
    95         25
    96         92
    97        445
    98        999
    99         80
   106         34
   107         15
   108         22
   109         29
   110         37
   119         13
   120         45
   121         95
   122         48
   123         30
   124         22
   132         15
   133         15
   134         78
   135         60
   136         55
   146         13
   147         38
   148         48
   149         28
   150         18
   161         17
   162         35
   163         48
   164         18
   175         13
   189         26
   190         35
   191         13
   203         20
   204         18
   205         22
   217         20
   218         19
   244         13
   245        102
   246        340
   247         53
   248          6