##TITLE=Library Entry 32046
##JCAMP-DX=Revision 4.10 
##DATA TYPE=MASS SPECTRUM
##SAMPLE DESCRIPTION=Chemical Concepts
##NAMES=HP
##CAS NAME=Tetrazolo[1,5-a]pyrimidine, 5,7-dimethyl-
##MOLFORM=C6H7N5
##CAS REGISTRY NO=3210-44-4
##MP= -300
##BP= -300
##MW= 149
##$RETENTION INDEX=0
##$CONDENSED SPECTRUM=NO
##NPOINTS= 70
##XYDATA=(XY..XY) 1 
    33          2
    34         16
    36          7
    37         44
    38        124
    39        481
    40        453
    41        233
    42        221
    43        114
    44        190
    45          3
    49          2
    50         43
    51        143
    52        227
    53        739
    54        305
    55        109
    56         14
    57         57
    61          2
    62         10
    63         24
    64         47
    65        209
    66        999
    67        480
    68         46
    69         39
    70         11
    71         28
    73          4
    75          4
    76         10
    77         23
    78         87
    79        151
    80        216
    81         65
    82         29
    83         47
    84          2
    85         30
    91         24
    92        182
    93         55
    94         61
    95         63
    96         51
    97         27
    99          2
   105          6
   106        376
   107         40
   108         12
   109         11
   110          4
   111         17
   119          2
   120        109
   121        155
   122         11
   123        155
   124         11
   125          8
   135          3
   149        523
   150         37
   151          2