##TITLE=Library Entry 84329
##JCAMP-DX=Revision 4.10 
##DATA TYPE=MASS SPECTRUM
##SAMPLE DESCRIPTION=P. VAINIOTALO, DEPT. CHEM., UNIV. JOENSUU, JOENSUU, FIN
LAND
##NAMES=HP
##CAS NAME=2-Methyl-1-cyclopentene-1,4-dicarboxylic acid
##MOLFORM=C8H10O4
##CAS REGISTRY NO=32116-55-5
##MP= -300
##BP= -300
##MW= 170
##$RETENTION INDEX=0
##$CONDENSED SPECTRUM=NO
##NPOINTS= 26
##XYDATA=(XY..XY) 1 
    27        190
    39        200
    41        170
    43        190
    45         93
    50         52
    51        128
    52         80
    53        178
    55         67
    65         63
    67         66
    77        233
    78        101
    79        836
    80        192
    81        235
    95         89
    96        119
    97        132
   107        999
   108        101
   124        227
   125        386
   152        897
   153        129