##TITLE=Library Entry 32734
##JCAMP-DX=Revision 4.10 
##DATA TYPE=MASS SPECTRUM
##SAMPLE DESCRIPTION=A.Pleshkova, Nesmeyanov Inst.Org.Elem.Cpds, Moscow
##NAMES=HP
##CAS NAME=Bicyclo[10.1.0]trideca-4,8-diene-13-carboxylic acid (2-hydroxy-4-
nitrophenyl)amide
##MOLFORM=C20H24N2O4
##CAS REGISTRY NO=321142-70-5
##MP= -300
##BP= -300
##MW= 356
##$RETENTION INDEX=0
##$CONDENSED SPECTRUM=NO
##NPOINTS= 112
##XYDATA=(XY..XY) 1 
    50         39
    51        104
    52        120
    53        388
    54        286
    55        409
    56         26
    57         59
    63         77
    64         17
    65        151
    66        125
    67        999
    68        137
    69        165
    70         17
    77        288
    78        143
    79        800
    80        211
    81        778
    82         69
    83        116
    84          7
    91        487
    92         96
    93        669
    94        109
    95        351
    96         30
    97         49
   105        273
   106         78
   107        312
   108         55
   109        117
   115         42
   116         22
   117        154
   118         35
   119        261
   120         58
   121        249
   122         46
   123         39
   124        132
   125         16
   129         55
   130         20
   131        126
   132         45
   133        279
   134         62
   135        177
   136         19
   137         22
   153         36
   154        146
   155         19
   157         50
   158         22
   159        169
   160        146
   161        172
   162         22
   175        257
   176         30
   178         78
   179         23
   180         10
   181         37
   182          5
   183         16
   185         94
   186         10
   191         54
   192          6
   203        330
   204        138
   205         17
   215         47
   217         60
   218         18
   219         12
   222         23
   233         28
   235         37
   236          4
   237          3
   243          9
   247          6
   248          3
   255         12
   256          5
   269         20
   270          5
   273          4
   281          3
   282          2
   283          7
   284          4
   289          6
   295          6
   297          5
   309          5
   310          8
   315          2
   326          5
   338         24
   339          5
   356         58
   357          5