##TITLE=Library Entry 168
##JCAMP-DX=Revision 4.10 
##DATA TYPE=MASS SPECTRUM
##SAMPLE DESCRIPTION=A.Pleshkova, Nesmeyanov Inst.Org.Elem.Cpds, Moscow
##NAMES=HP
##CAS NAME=Azetidine, 1-chloro-
##MOLFORM=C3H6ClN
##CAS REGISTRY NO=32115-53-0
##MP= -300
##BP= -300
##MW= 91
##$RETENTION INDEX=0
##$CONDENSED SPECTRUM=NO
##NPOINTS= 31
##XYDATA=(XY..XY) 1 
    26        169
    27        517
    28        999
    29        445
    30        195
    31         11
    36         47
    37          9
    38         16
    39         29
    40         34
    41        107
    42        705
    43         55
    44         34
    45        104
    46          9
    53         23
    54         75
    55         62
    56         78
    57         13
    62         31
    63        450
    64         78
    65        153
    66         26
    91        127
    92          8
    93         42
    94          3