##TITLE=Library Entry 60706
##JCAMP-DX=Revision 4.10 
##DATA TYPE=MASS SPECTRUM
##SAMPLE DESCRIPTION=G. Lange, Inst. Org. Chem., Univ. Wurzburg, Germany
##NAMES=HP
##CAS NAME=Benzene, 1,3-bis(benzyloxy)-5-(2-nitro-1-propenyl)-
##MOLFORM=C23H21NO4
##CAS REGISTRY NO=321125-60-4
##MP= -300
##BP= -300
##MW= 375
##$RETENTION INDEX=0
##$CONDENSED SPECTRUM=NO
##NPOINTS= 15
##XYDATA=(XY..XY) 1 
    39         10
    41          7
    51          5
    63          6
    65         58
    77          5
    89          9
    91        999
    92         75
   180         27
   181         51
   182          7
   329          8
   375         71
   376         18