##TITLE=Library Entry 8179
##JCAMP-DX=Revision 4.10 
##DATA TYPE=MASS SPECTRUM
##SAMPLE DESCRIPTION=A.A.Kutin, Moscow, Russia
##NAMES=HP
##CAS NAME=endo-2-Methyl-2-norbornanol
##MOLFORM=C8H14O
##CAS REGISTRY NO=3212-16-6
##MP= -300
##BP= -300
##MW= 126
##$RETENTION INDEX=999
##$CONDENSED SPECTRUM=NO
##NPOINTS= 87
##XYDATA=(XY..XY) 1 
    33          3
    34          3
    35         11
    36          5
    37          9
    38         30
    39        291
    40        106
    41        344
    42         89
    43        999
    44         50
    45         70
    46          5
    47         25
    48         11
    49          9
    50         22
    51         40
    52         21
    53         98
    54         46
    55        265
    56         38
    57         71
    58        589
    59        782
    60         28
    61          5
    62          4
    63         11
    64          3
    65         62
    66        301
    67        415
    68        167
    69        105
    70         34
    71        489
    72         35
    73          3
    74          2
    75          1
    76          2
    77         67
    78         27
    79        138
    80         49
    81         46
    82         60
    83        349
    84         74
    85         81
    86          4
    87          9
    88          0
    89          1
    90          1
    91         56
    92         13
    93        283
    94         26
    95         10
    97        156
    98         23
    99          2
   103          1
   105          2
   107         11
   108        133
   109         20
   110          6
   111        208
   112         17
   113          2
   114          0
   117          1
   118          2
   119          1
   120          1
   121          1
   122          0
   124          1
   125          7
   126         97
   127          9
   128          1