##TITLE=Library Entry 29701
##JCAMP-DX=Revision 4.10 
##DATA TYPE=MASS SPECTRUM
##SAMPLE DESCRIPTION=M. PECHAL, SHOE & LEATHER RES. INST., GOTTWALDOV, CZ
##NAMES=HP
##CAS NAME=2-Hydroxy-2,4-dimethyl-3-pentanone
##MOLFORM=C7H14O2
##CAS REGISTRY NO=3212-67-7
##MP= -300
##BP= -300
##MW= 130
##$RETENTION INDEX=1376
##$CONDENSED SPECTRUM=NO
##NPOINTS= 29
##XYDATA=(XY..XY) 1 
    15         40
    17         31
    18        137
    26         18
    27         78
    28        193
    29         32
    31        240
    32         13
    38         16
    39         81
    40         24
    41        267
    42         47
    43        314
    44         22
    45         18
    55         17
    57         14
    58         35
    59        999
    60         46
    69        111
    70         19
    71         24
    87         28
    97         25
   112         18
   130          6