##TITLE=Library Entry 59690
##JCAMP-DX=Revision 4.10 
##DATA TYPE=MASS SPECTRUM
##SAMPLE DESCRIPTION=NIST Mass Spectrometry Data Center
##NAMES=HP
##CAS NAME=Methyl 4-benzyloxybenzoate
##MOLFORM=C15H14O3
##CAS REGISTRY NO=32122-11-5
##MP= -300
##BP= -300
##MW= 242
##$RETENTION INDEX=0
##$CONDENSED SPECTRUM=NO
##NPOINTS= 62
##XYDATA=(XY..XY) 1 
    15          4
    27          2
    29          2
    31          1
    37          1
    38         13
    39         43
    40          2
    41         17
    50         18
    51         27
    52         10
    53          4
    59          6
    61          2
    62         13
    63         59
    64         40
    65        173
    66         13
    67          1
    74          4
    75          8
    76         17
    77         16
    78          3
    79          2
    80          3
    87          1
    89         29
    91        999
    92        166
    93          9
    94          1
    95         10
   103          2
   104          3
   105          5
   107          1
   108          2
   115          1
   119          3
   120         15
   121          7
   122          1
   123         20
   124          1
   127          1
   128          1
   151          6
   152          7
   153          5
   154          2
   155          1
   181          4
   182          1
   183          1
   211         20
   212          3
   242         54
   243          9
   244          1