##TITLE=Library Entry 34706
##JCAMP-DX=Revision 4.10 
##DATA TYPE=MASS SPECTRUM
##SAMPLE DESCRIPTION=J.T. CLERC, ORGANIC CHEM. LAB., ETH, ZURICH, SWITZ.
##NAMES=HP
##CAS NAME=1-Penten-3-one, 2,4-dimethyl-
##MOLFORM=C7H12O
##CAS REGISTRY NO=3212-68-8
##MP= -300
##BP= -300
##MW= 112
##$RETENTION INDEX=0
##$CONDENSED SPECTRUM=NO
##NPOINTS= 22
##XYDATA=(XY..XY) 1 
    26          1
    27         21
    28         16
    40          6
    41        281
    42         37
    43        510
    44         21
    45          1
    53          6
    55          6
    67         21
    68         11
    69        999
    70         37
    79          1
    81          6
    93          1
    97         16
   111         21
   112        255
   113          6