##TITLE=Library Entry 38427
##JCAMP-DX=Revision 4.10 
##DATA TYPE=MASS SPECTRUM
##SAMPLE DESCRIPTION=Chemical Concepts
##NAMES=HP
##CAS NAME=Butyric acid, thio-, S-ester with 1-mercapto-2-butanone
##MOLFORM=C8H14O2S
##CAS REGISTRY NO=32132-35-7
##MP= -300
##BP= -300
##MW= 174
##$RETENTION INDEX=0
##$CONDENSED SPECTRUM=NO
##NPOINTS= 131
##XYDATA=(XY..XY) 1 
    25          1
    26         22
    27        185
    28         34
    29        196
    30          7
    31          3
    33          1
    34          1
    35          1
    36          0
    37          2
    38          9
    39         87
    40         12
    41        175
    42         80
    43        737
    44         34
    45         41
    46         40
    47         23
    48          3
    49          1
    50          3
    51          4
    52          2
    53          6
    54          2
    55         34
    56         11
    57        352
    58         22
    59          9
    60          7
    61         12
    62          1
    63          2
    64          0
    65          1
    66          0
    67          2
    68          1
    69          8
    70         22
    71        999
    72        101
    73          8
    74          2
    75          4
    76          5
    77          2
    78          5
    79          2
    80          1
    81          2
    82          1
    83          2
    84          2
    85          2
    86          2
    87          7
    88          1
    89          4
    90          1
    91          5
    92          1
    93          2
    94          2
    95          1
    96          1
    97          2
    98          0
    99          1
   100          1
   101          0
   102          1
   103         18
   104         28
   105         24
   106          4
   107          2
   108          0
   109          2
   110          0
   111          1
   112          0
   113          3
   114          0
   115          0
   116          0
   117         19
   118         45
   119          7
   120          3
   121          1
   122          0
   123          0
   124          0
   125          0
   126          0
   127         16
   128          1
   129          1
   130          1
   131         14
   132          7
   133          1
   134          0
   135          0
   136          0
   137          0
   138          0
   139          0
   140          2
   141          1
   142          0
   143          0
   144          0
   145         15
   146         14
   147          2
   148          1
   149          0
   156          1
   159          2
   174        158
   175         21
   176         11
   177          1
   178          0