##TITLE=Library Entry 100625
##JCAMP-DX=Revision 4.10 
##DATA TYPE=MASS SPECTRUM
##SAMPLE DESCRIPTION=A.A.Kutin, Moscow, Russia
##NAMES=HP
##CAS NAME=Benzhydrazide, 3-methyl-N2-[1-methyl-2-(5-methyl-3-nitro-1-pyrazo
lyl)ethylideno]-
##MOLFORM=C15H17N5O3
##CAS REGISTRY NO=321341-34-8
##MP= -300
##BP= -300
##MW= 315
##$RETENTION INDEX=0
##$CONDENSED SPECTRUM=NO
##NPOINTS= 103
##XYDATA=(XY..XY) 1 
    33         11
    34          0
    36          1
    39        102
    41        138
    42         32
    43          6
    44          4
    46          4
    50          9
    51         18
    52         18
    53         21
    54         10
    55          5
    56          5
    57          3
    60          0
    63         28
    65        127
    66         17
    67         11
    68          2
    69          3
    70          2
    71          1
    73          0
    74          1
    75          2
    77         11
    78          3
    79          4
    80          2
    81          2
    82          7
    83          1
    84          0
    86          0
    87          1
    89         31
    91        379
    92         18
    93          3
    94          4
    95          2
    96          1
    97          1
    98          0
   101          0
   102          1
   103          2
   104          3
   105          2
   106          1
   107          1
   108          0
   109          1
   110          2
   111          3
   112          1
   113          1
   114          0
   119        999
   122          0
   125          1
   127          3
   128          2
   130         10
   131          2
   132          7
   133          2
   134          1
   135          2
   136          0
   137          0
   140          1
   141          1
   143          0
   144          0
   145          1
   146          0
   147          0
   149          0
   150          0
   155          0
   156          0
   157          4
   158          0
   159          0
   165          0
   170          0
   171          1
   175        577
   176         48
   177          3
   178          0
   180          0
   187          0
   188          0
   189          0
   191          0
   235          0
   315          0