##TITLE=Library Entry 33672
##JCAMP-DX=Revision 4.10 
##DATA TYPE=MASS SPECTRUM
##SAMPLE DESCRIPTION=James Little,Eastman Chem.Co.,Kingsport,TN
##NAMES=HP
##CAS NAME=Butanoic acid, 2-cyano-3-methyl-, ethyl ester
##MOLFORM=C8H13NO2
##CAS REGISTRY NO=3213-49-8
##MP= -300
##BP= -300
##MW= 155
##$RETENTION INDEX=0
##$CONDENSED SPECTRUM=NO
##NPOINTS= 17
##XYDATA=(XY..XY) 1 
    27         14
    28         32
    29         31
    39         14
    41         21
    43         19
    68        999
    82         25
    83         15
    85         56
    96         22
   110         24
   112         12
   113         30
   128          3
   140          8
   155          4