##TITLE=Library Entry 1363
##JCAMP-DX=Revision 4.10 
##DATA TYPE=MASS SPECTRUM
##SAMPLE DESCRIPTION=NIST Mass Spectrometry Data Center, 1994
##NAMES=HP
##CAS NAME=2,3-Dimethoxyphenethylamine
##MOLFORM=C10H15NO2
##CAS REGISTRY NO=3213-29-4
##MP= -300
##BP= -300
##MW= 181
##$RETENTION INDEX=0
##$CONDENSED SPECTRUM=NO
##NPOINTS= 83
##XYDATA=(XY..XY) 1 
     4          4
    14          4
    15         29
    18          1
    26          3
    27         12
    28         43
    29          1
    30        999
    31         17
    37          2
    38          9
    39         67
    40          8
    41         13
    42         10
    43          8
    44          3
    45          4
    47          3
    49          1
    50         14
    51         48
    52         18
    53         16
    54          5
    55          8
    59          1
    61          2
    62          7
    63         23
    64         13
    65         97
    66         23
    67          9
    68          2
    69          1
    74          3
    75          4
    77         63
    78         42
    79         32
    80         10
    81         13
    82          1
    89         15
    91        121
    92         17
    93         18
    94         18
    95          7
   103          2
   104          7
   105         22
   106         23
   107         19
   108          7
   109         32
   110          3
   116          3
   117          3
   118          4
   119          4
   120          2
   121         23
   122         18
   123          7
   132          1
   133          4
   134          9
   135         17
   136         52
   137         82
   138         10
   147          1
   148          5
   149         40
   150        228
   151         32
   152        157
   153         14
   165          2
   181          2