##TITLE=Library Entry 15980
##JCAMP-DX=Revision 4.10 
##DATA TYPE=MASS SPECTRUM
##SAMPLE DESCRIPTION=A.A.Kutin, Moscow, Russia
##NAMES=HP
##CAS NAME=Benzamide, 2-fluoro-4,6-dinitro-N,N-dimethyl-
##MOLFORM=C9H8FN3O5
##CAS REGISTRY NO=321341-27-9
##MP= -300
##BP= -300
##MW= 257
##$RETENTION INDEX=0
##$CONDENSED SPECTRUM=NO
##NPOINTS= 68
##XYDATA=(XY..XY) 1 
    37          4
    38          7
    40        131
    42        236
    44        999
    46         92
    50         15
    51          5
    52          1
    56         19
    57         50
    60         14
    61         22
    62         23
    63          9
    68         15
    69          8
    70          1
    72        167
    74        106
    75         26
    76          7
    77          6
    80         11
    81         72
    82         27
    83         10
    84          3
    88          1
    92         28
    93        464
    94         94
    95         26
    96         11
    97          5
   106          5
   107         12
   108         11
   109         56
   110         29
   111          4
   121        162
   122         52
   123         17
   124          5
   125         11
   126         15
   136         14
   137         61
   138         51
   139          1
   140         12
   152          5
   154         11
   167        178
   168         15
   183         13
   185          3
   197         29
   198          2
   210          3
   211          1
   213        229
   214         71
   215          3
   227          6
   257         81
   258          4