##TITLE=Library Entry 33587
##JCAMP-DX=Revision 4.10 
##DATA TYPE=MASS SPECTRUM
##SAMPLE DESCRIPTION=Chemical Concepts
##NAMES=HP
##CAS NAME=2-Piperidinone, 3,6-bis(1-methylethenyl)-1-phenyl-, cis-
##MOLFORM=C17H21NO
##CAS REGISTRY NO=32138-53-7
##MP= -300
##BP= -300
##MW= 255
##$RETENTION INDEX=0
##$CONDENSED SPECTRUM=NO
##NPOINTS= 193
##XYDATA=(XY..XY) 1 
    24          1
    25          0
    26         11
    27        220
    28         54
    29        102
    30          6
    31          1
    37          5
    38         19
    39        323
    40        118
    41        427
    42         94
    43         63
    44          2
    47          0
    50         29
    51        226
    52         42
    53        327
    54         51
    55        180
    56         11
    57          8
    58          2
    59          1
    61          1
    62          5
    63         30
    64         58
    65        134
    66         55
    67        620
    68        999
    69         92
    70          6
    71          1
    72          1
    73          0
    74          3
    75         10
    77        702
    78         80
    79        202
    80         93
    81        189
    82         55
    83         87
    84          7
    85          2
    86          1
    87          1
    88          2
    89         12
    90         17
    91        216
    92        148
    93        681
    94        227
    95        132
    96         16
    97          4
    98         11
    99          1
   100          2
   101          2
   102          6
   103         23
   104         64
   105         60
   106         55
   107        210
   108         65
   109         38
   110         12
   111          3
   112          1
   113          2
   115         26
   116         14
   117         64
   118        158
   119        323
   120         79
   121        197
   122         28
   123         11
   124          6
   125          0
   126          1
   127          5
   128         21
   129         19
   130        169
   131         56
   132         47
   133         28
   134         30
   135         55
   136         14
   137          1
   138          2
   139          0
   140          2
   141          5
   142         19
   143         41
   144        172
   145         98
   146        126
   147         26
   148         16
   149          7
   150        135
   151        142
   152         13
   153          3
   154          7
   155          5
   156         28
   157         18
   158         53
   159         17
   160         18
   161         17
   162         13
   163         20
   164        150
   165         19
   166          3
   167          5
   168          8
   169          8
   170         37
   171         13
   172         47
   173        145
   174        249
   175         33
   176          2
   178          1
   179          0
   180          3
   181          1
   182         10
   183          4
   184         37
   185         18
   186         94
   187         39
   188         11
   189          1
   193          1
   194          2
   195          2
   196          7
   197          6
   198         27
   199         13
   200         34
   201          6
   207          0
   209          1
   210          2
   212         42
   213         10
   214         24
   215          7
   216          2
   221          0
   222          1
   223          1
   224          1
   226         16
   227         44
   228         23
   229          6
   230          0
   236          0
   237          1
   238          2
   240        100
   241         12
   242          0
   249          1
   250          1
   252          0
   253          7
   254        141
   255        388
   256         88
   257          7