##TITLE=Library Entry 1364
##JCAMP-DX=Revision 4.10 
##DATA TYPE=MASS SPECTRUM
##SAMPLE DESCRIPTION=NIST Mass Spectrometry Data Center, 1994
##NAMES=HP
##CAS NAME=3,5-Dimethoxyphenethylamine
##MOLFORM=C10H15NO2
##CAS REGISTRY NO=3213-28-3
##MP= -300
##BP= -300
##MW= 181
##$RETENTION INDEX=0
##$CONDENSED SPECTRUM=NO
##NPOINTS= 94
##XYDATA=(XY..XY) 1 
    14          3
    15         42
    16          1
    17          1
    18          2
    26          3
    27         17
    28         37
    29          1
    30        999
    31         16
    37          2
    38         13
    39         60
    40          8
    41         18
    42         15
    43         14
    44          2
    45          5
    47          1
    50         18
    51         53
    52         23
    53         21
    54          5
    55         11
    56          2
    57          2
    59          4
    61          2
    62         11
    63         28
    64         12
    65         66
    66         22
    67         15
    68          4
    69         20
    70          0
    74          5
    75          5
    77         82
    78         59
    79         41
    80         10
    81          6
    82          1
    83          1
    87          1
    89         13
    90         10
    91         65
    92         22
    93         13
    94         11
    95          5
    96          1
   103          2
   104          6
   105         11
   106          9
   107         18
   108         16
   109         26
   110          3
   116          1
   117          2
   118          2
   119          4
   120          9
   121         33
   122         17
   123         43
   124          4
   132          1
   133          4
   134         11
   135          5
   136          3
   137         19
   138          7
   139          1
   148          3
   149          5
   151         44
   152        374
   153         40
   154          3
   164          1
   165          1
   166          1
   181         42
   182          5