##TITLE=Library Entry 9007
##JCAMP-DX=Revision 4.10 
##DATA TYPE=MASS SPECTRUM
##SAMPLE DESCRIPTION=NIST Mass Spectrometry Data Center, 1994
##NAMES=HP
##CAS NAME=2,5-Octanedione
##MOLFORM=C8H14O2
##CAS REGISTRY NO=3214-41-3
##MP= -300
##BP= -300
##MW= 142
##$RETENTION INDEX=984
##$CONDENSED SPECTRUM=NO
##NPOINTS= 62
##XYDATA=(XY..XY) 1 
    12          1
    13          1
    14         12
    15         89
    16          2
    17          0
    18          0
    19          1
    26         26
    27        196
    28         75
    29         39
    30          1
    31          3
    37          3
    38          9
    39         76
    40         12
    41        133
    42         82
    43        999
    44         27
    45          3
    50          4
    51          5
    52          2
    53         14
    54          4
    55         36
    56         14
    57         36
    58          6
    65          2
    66          0
    67          3
    68          1
    69         11
    70          0
    71        349
    72         32
    73          3
    77          1
    79          2
    81         18
    82          2
    83          2
    84          7
    85          9
    95          2
    96          0
    97          2
    99        321
   100         17
   101          1
   109          3
   114         86
   115          5
   124         13
   125          1
   127          4
   142         24
   143          2