##TITLE=Library Entry 21741
##JCAMP-DX=Revision 4.10 
##DATA TYPE=MASS SPECTRUM
##SAMPLE DESCRIPTION=A.A.Kutin, Moscow, Russia
##NAMES=HP
##CAS NAME=1-[3-Chloro-5-(trifluoromethyl)pyridin-2-yl]piperidine-4-carbohyd
razide
##MOLFORM=C12H14ClF3N4O
##CAS REGISTRY NO=321430-54-0
##MP= -300
##BP= -300
##MW= 322
##$RETENTION INDEX=0
##$CONDENSED SPECTRUM=NO
##NPOINTS= 211
##XYDATA=(XY..XY) 1 
    33          3
    36         21
    38         11
    39        171
    40         33
    41        217
    42        103
    43         40
    44         34
    45         12
    46          2
    50          8
    51         19
    52         19
    53        110
    54         73
    55        999
    56        121
    57         49
    58         33
    59         26
    63          2
    65         77
    66         23
    67        187
    68         44
    69        191
    70         82
    71         18
    72         23
    73          2
    74          7
    75         28
    76         20
    77         10
    78         18
    79         10
    80         71
    81         30
    82        216
    83         80
    84         37
    85         29
    87        451
    88         21
    91          8
    92          6
    93         12
    94         13
    95         39
    96         22
    97         34
    98        102
    99         41
   100        236
   101         47
   102          7
   104          2
   107          7
   108         11
   109         24
   110        146
   111         36
   112         25
   113         40
   114         20
   115        171
   116         10
   117          7
   118          7
   119         15
   120          4
   121          3
   124          5
   125         59
   126        102
   127         46
   128         12
   130         16
   131         34
   132         15
   133          8
   134          2
   135         17
   139          2
   140         10
   141         18
   142         19
   144         12
   145         25
   146        120
   147         51
   148         14
   149          8
   152         13
   153          8
   154          9
   155          6
   158          1
   159          2
   160         45
   161         23
   162         31
   163          9
   164          8
   167          3
   169          4
   170          3
   171         15
   172         13
   173         13
   174          3
   175         22
   176         12
   177         11
   178          3
   180        211
   181        168
   182         94
   183         54
   184         15
   185          9
   186          8
   187         23
   188          7
   189         30
   190         12
   191          7
   194         24
   195         96
   196         58
   197        164
   198         40
   199        112
   200         23
   201         31
   202          6
   206          2
   207         61
   208        153
   209        770
   210        143
   211        247
   212         38
   213         19
   215          3
   219         10
   221        284
   223        359
   224         56
   225         91
   226         18
   227         65
   228         13
   232          4
   233         38
   235        557
   236        125
   237        182
   238         34
   239          3
   244          1
   245          8
   246         21
   247         42
   248         52
   249         36
   250         30
   251          6
   253         22
   254          6
   255         14
   257          2
   259         11
   261        548
   262        135
   263        420
   264         74
   265         93
   266         17
   267          4
   270          4
   271          2
   272          1
   273         21
   274          6
   275          9
   277          2
   278          7
   279         23
   280          5
   286          8
   287         49
   288         25
   289         17
   291        583
   292         87
   293        187
   294         25
   303         97
   304         23
   305         50
   306        256
   307         51
   308         78
   309         14
   322        667
   323         91
   324        205
   325         29
   326          3