##TITLE=Library Entry 98105
##JCAMP-DX=Revision 4.10 
##DATA TYPE=MASS SPECTRUM
##SAMPLE DESCRIPTION=Chemical Concepts
##NAMES=HP
##CAS NAME=2-Phenyl-2,3,4,5-tetrahydro-1H-benzo[d]azepine
##MOLFORM=C16H17N
##CAS REGISTRY NO=321526-84-5
##MP= -300
##BP= -300
##MW= 223
##$RETENTION INDEX=0
##$CONDENSED SPECTRUM=NO
##NPOINTS= 162
##XYDATA=(XY..XY) 1 
    36          1
    37          1
    38          6
    39         79
    40         31
    41         61
    42         21
    43         89
    44         11
    45         15
    46          3
    47          2
    48          0
    49          3
    50         18
    51         67
    52         22
    53         14
    54          7
    55         24
    56         10
    57         31
    58         10
    59         11
    60          6
    61          3
    62          8
    63         42
    64         15
    65        111
    66         10
    67          8
    68          3
    69         14
    70         10
    71         18
    72          3
    73          8
    74          6
    75         11
    76         18
    77        146
    78         70
    79         55
    80          6
    81          6
    82          6
    83         12
    84          4
    85          9
    86          2
    87         11
    88          6
    89         83
    90         46
    91        691
    92         81
    93          9
    94          5
    95          6
    96          5
    97          8
    98          3
    99          4
   100          1
   101          8
   102         21
   103         73
   104        104
   105         99
   106         57
   107         13
   108          7
   109          4
   110          2
   111          5
   112          2
   113          5
   114          4
   115        183
   116        114
   117        366
   118        999
   119        112
   120         18
   121          4
   122          3
   123          3
   124          0
   125          2
   126          2
   127          7
   128         13
   129          7
   130         51
   131         21
   132         98
   133         11
   134          3
   135          1
   136          0
   137          1
   138          0
   139          6
   140          1
   141          4
   142          3
   143          3
   144         12
   145          5
   146         27
   147          4
   148          0
   149          3
   150          2
   151          4
   152         15
   153          5
   154          1
   155          2
   163          3
   164          4
   165         29
   166         11
   167          5
   168          0
   175          0
   176          6
   177          7
   178         63
   179         69
   180         15
   181         80
   182         16
   183          1
   187          0
   188          0
   189         14
   190          7
   191         13
   192          7
   193         18
   194         20
   195          4
   196          0
   202          2
   203          3
   204          3
   205          4
   206         13
   207          3
   208         31
   209          5
   217          2
   218          2
   219          1
   220          6
   221          9
   222         42
   223        389
   224         70
   225          5