##TITLE=Library Entry 11231
##JCAMP-DX=Revision 4.10 
##DATA TYPE=MASS SPECTRUM
##SAMPLE DESCRIPTION=NIST Mass Spectrometry Data Center
##NAMES=HP
##CAS NAME=1-Acetyl-4-piperidone
##MOLFORM=C7H11NO2
##CAS REGISTRY NO=32161-06-1
##MP= -300
##BP= -300
##MW= 141
##$RETENTION INDEX=0
##$CONDENSED SPECTRUM=NO
##NPOINTS= 61
##XYDATA=(XY..XY) 1 
    13          1
    14          8
    15         71
    16          1
    18          1
    25          1
    26         25
    27        105
    28        110
    29         52
    30         57
    31          2
    37          2
    38          6
    39         27
    40         26
    41         68
    42        403
    43        999
    44         53
    45          3
    50          3
    51          5
    52          8
    53         11
    54         38
    55         82
    56        365
    57        403
    58         18
    59          3
    67          2
    68         15
    69         11
    70         79
    71         67
    72         65
    73          2
    80          2
    81          1
    82          9
    83          1
    84         11
    85        136
    86         10
    87          1
    96          2
    97          2
    98        269
    99         52
   100          3
   112         32
   113        477
   114         32
   115          2
   126          7
   139          1
   140          1
   141        286
   142         22
   143          2