##TITLE=Library Entry 8006
##JCAMP-DX=Revision 4.10 
##DATA TYPE=MASS SPECTRUM
##SAMPLE DESCRIPTION=A.A.Kutin, Moscow, Russia
##NAMES=HP
##CAS NAME=Octanoic acid [2,2,2-trichloro-1-(1,1-dioxo-tetrahydro-thiophen-3
-ylamino)-ethyl]-amide
##MOLFORM=C14H25Cl3N2O3S
##CAS REGISTRY NO=321684-14-4
##MP= -300
##BP= -300
##MW= 406
##$RETENTION INDEX=0
##$CONDENSED SPECTRUM=NO
##NPOINTS= 291
##XYDATA=(XY..XY) 1 
    34          0
    35          4
    36         14
    37          1
    38          7
    39        130
    40         15
    41        646
    42        178
    43        999
    44        220
    45        140
    46          1
    47          4
    48          6
    49         10
    50          1
    51          6
    52          4
    53         51
    54        106
    55        658
    56        182
    57        826
    58         40
    59        145
    60          9
    61          1
    62          3
    63          7
    64         32
    65         10
    66         11
    67         35
    68         12
    69         72
    70         85
    71        372
    72         71
    73          4
    74          3
    75          6
    76          3
    77          2
    78          0
    79          2
    80          8
    81         13
    82         30
    83         28
    84         13
    85         10
    86         13
    87          1
    88          2
    89          1
    90          1
    91          3
    92          1
    93          1
    94          1
    95          2
    96          2
    97         15
    98          9
    99          6
   100          9
   101          4
   102          3
   103          4
   104          2
   106          0
   107          0
   108          0
   109         22
   110          9
   111         33
   112         13
   113         20
   114          9
   115          3
   116          4
   117         19
   118          5
   119         70
   120          5
   121          5
   122          2
   123          1
   124          4
   125         14
   126         16
   127        111
   128         26
   129          7
   130          4
   131          3
   132          1
   133          0
   134          4
   135          4
   136         42
   137         36
   138          9
   139         27
   140          4
   141          5
   142         18
   143         14
   144        416
   145         79
   146         37
   147         18
   148         14
   150          5
   151          3
   152         11
   153          6
   154          9
   155          2
   156          1
   158          2
   159          0
   160          1
   161         18
   162         13
   163        725
   164         85
   165         66
   166          6
   167          2
   168          1
   169          1
   170          0
   171          7
   172          6
   173          3
   174          3
   175          0
   176          1
   177          0
   178          2
   179          2
   180          8
   181         14
   182          9
   183          8
   184         11
   185          2
   186          3
   187          1
   188          1
   189          2
   190          0
   191          0
   192          0
   193          0
   194          0
   195          1
   196          1
   197        204
   198         33
   199          5
   200          2
   201          1
   202          1
   203          0
   204          2
   206          0
   207          0
   208          1
   209         11
   210          2
   211          4
   212          1
   213          0
   214          2
   215          3
   216          0
   217          8
   218          1
   219          0
   220          0
   221          0
   222          0
   223          2
   224          0
   225          2
   226          0
   227          3
   228          2
   229          4
   230          2
   231          1
   232          0
   233          0
   234          0
   235          3
   236          1
   237          1
   238          1
   239          0
   240          0
   241          0
   242          0
   243          5
   244         39
   245         18
   246         27
   247         10
   248          6
   249          2
   250          1
   251          0
   252          0
   253          0
   254          0
   255          0
   257          0
   260          0
   261          0
   262          1
   263          1
   264         15
   265          2
   266         16
   267          1
   268          5
   269          0
   270          4
   271         15
   272          3
   273          5
   274          1
   275          0
   278          0
   279          0
   280          0
   281          0
   282          0
   285          0
   287          4
   288          1
   289        134
   290         22
   291          9
   292          1
   293          0
   297          0
   299          1
   300          0
   301          1
   302          0
   303          0
   305          0
   306          1
   307          9
   308          2
   309          6
   310          1
   311          0
   314          0
   315          0
   316          0
   323          0
   331          0
   332          0
   334          1
   335         44
   336          8
   337         16
   338          2
   339          0
   340          0
   341          0
   343          0
   370         13
   371          3
   372          9
   373          2
   374          1
   375          0
   386          0
   406          0
   407         22
   408          4
   409         24
   410          4
   411          8
   412          1
   413          0