##TITLE=Library Entry 109263
##JCAMP-DX=Revision 4.10 
##DATA TYPE=MASS SPECTRUM
##SAMPLE DESCRIPTION=Chemical Concepts
##NAMES=HP
##CAS NAME=2-Chlorobenzyl 2,2,2-trichloro-1-(2-pyrimidylamino)ethylcarbamate
##MOLFORM=C14H12Cl4N4O2
##CAS REGISTRY NO=321686-48-0
##MP= -300
##BP= -300
##MW= 408
##$RETENTION INDEX=0
##$CONDENSED SPECTRUM=NO
##NPOINTS= 98
##XYDATA=(XY..XY) 1 
    35        157
    36        146
    37         89
    38        165
    39        249
    40        307
    41        126
    42         98
    43         94
    44         88
    45         22
    47        127
    48         38
    49         69
    50        170
    51        251
    52        186
    53        271
    54         29
    55          9
    60         25
    61         44
    62        124
    63        273
    64         84
    65         45
    66         72
    67        123
    68        227
    69         25
    70          2
    73         80
    74         87
    75        150
    76         72
    77        218
    78         58
    79        283
    80        111
    81         13
    82        104
    83         54
    84         71
    85         55
    86         26
    87         22
    89        623
    90        123
    91         38
    92         12
    93         12
    95        370
    96        119
    97         11
    99        136
   100         14
   101         40
   102          7
   104          3
   105         16
   106         66
   107         52
   108          8
   109         11
   110          9
   111         69
   112         11
   113         37
   114          4
   115          5
   117        158
   119        169
   121         65
   122         27
   123         76
   125        999
   126        102
   127        284
   128         22
   139         31
   140          5
   141         30
   142          5
   143          2
   149         17
   150          4
   153          6
   154         23
   155          2
   156          6
   169          5
   188          4
   190          3
   247         12
   291         21
   292          4
   293         11
   294          3