##TITLE=Library Entry 28670
##JCAMP-DX=Revision 4.10 
##DATA TYPE=MASS SPECTRUM
##SAMPLE DESCRIPTION=Chemical Concepts
##NAMES=HP
##CAS NAME=5-Methoxy-cyclooctene
##MOLFORM=C9H16O
##CAS REGISTRY NO=32160-45-5
##MP= -300
##BP= -300
##MW= 140
##$RETENTION INDEX=0
##$CONDENSED SPECTRUM=NO
##NPOINTS= 88
##XYDATA=(XY..XY) 1 
    25          2
    26          3
    27         78
    28        124
    29        173
    30         12
    31         20
    33         14
    36          4
    38          3
    39        183
    40         43
    41        645
    42        191
    43        215
    44         13
    45        204
    46          7
    47          3
    48          2
    49          9
    50          2
    51         15
    52         17
    53        190
    54        336
    55        258
    56         56
    57         56
    58        999
    59        292
    60         15
    61          3
    63          5
    64          5
    65         73
    66        175
    67        813
    68        104
    69         69
    70          9
    71        812
    72        743
    73        100
    74          6
    75          5
    77        122
    78         89
    79        652
    80        776
    81        184
    82        173
    83         47
    84        190
    85        989
    86        130
    87          9
    88          8
    90          5
    91         89
    92         16
    93        491
    94         59
    95         36
    96         14
    97        524
    98        218
    99         66
   100          5
   103          3
   104          2
   105         11
   106          3
   107         43
   108        374
   109        118
   110         19
   111        630
   112        594
   113         64
   114          4
   123          3
   124          3
   125         75
   126          8
   139         18
   140        122
   141         13