##TITLE=Library Entry 27995
##JCAMP-DX=Revision 4.10 
##DATA TYPE=MASS SPECTRUM
##SAMPLE DESCRIPTION=Japan AIST/NIMC Database- Spectrum MS-IW-1196
##NAMES=HP
##CAS NAME=2-Propanol, 1-(dimethylamino)-, acetate (ester)
##MOLFORM=C7H15NO2
##CAS REGISTRY NO=32188-28-6
##MP= -300
##BP= -300
##MW= 145
##$RETENTION INDEX=0
##$CONDENSED SPECTRUM=NO
##NPOINTS= 47
##XYDATA=(XY..XY) 1 
    14          2
    15         58
    17          1
    18          5
    27          4
    28          9
    29          8
    30         35
    31          2
    39          6
    40          2
    41         13
    42         56
    43         86
    44         31
    45         13
    46          3
    47          2
    48          1
    55          1
    56         10
    57         17
    58        999
    59         45
    60          1
    61          1
    68          2
    69          1
    70         11
    71         18
    72         13
    73          1
    84         10
    85         60
    86         37
    87          5
    88         26
    89          1
    91          8
    92          5
    93         25
   100          2
   101          6
   102         12
   144          1
   145          6
   146          1