##TITLE=Library Entry 43036
##JCAMP-DX=Revision 4.10 
##DATA TYPE=MASS SPECTRUM
##SAMPLE DESCRIPTION=NIST Mass Spectrometry Data Center, 2011
##NAMES=HP
##CAS NAME=Trimethylsilyl O-(trimethylsilyl)isohomovanillate
##MOLFORM=C15H26O4Si2
##CAS REGISTRY NO=321884-12-2
##MP= -300
##BP= -300
##MW= 326
##$RETENTION INDEX=1757
##$CONDENSED SPECTRUM=NO
##NPOINTS= 186
##XYDATA=(XY..XY) 1 
    15          2
    27          1
    29          3
    31          2
    39          3
    41          1
    42          2
    43         19
    44         15
    45        103
    46          7
    47         23
    48          1
    49          1
    50          2
    51          9
    52          2
    53          3
    54          1
    55          5
    56          1
    57          6
    58         12
    59         56
    60          8
    61         19
    62          2
    63          6
    64          2
    65          9
    66          2
    67          2
    68          1
    69          3
    70          3
    71          4
    73        999
    74         88
    75        195
    76         17
    77         33
    78          8
    79          5
    80          1
    81          2
    82          2
    83          6
    84          1
    85          4
    86          1
    87          2
    88          2
    89         32
    90         11
    91         23
    92          4
    93          4
    94          2
    95          6
    96          1
    97          4
    98          1
    99          5
   100          1
   101          2
   102          2
   103          9
   104         22
   105         20
   106          3
   107          5
   108          1
   109          3
   110          1
   111          1
   115          6
   116          2
   117         10
   118          4
   119         11
   120          4
   121          8
   122          3
   123          3
   124          1
   125          1
   129          1
   131          6
   132          2
   133         18
   134          5
   135         45
   136          8
   137         12
   138          1
   140         32
   143          1
   145          3
   146          1
   147         23
   148         49
   149        102
   150         16
   151         10
   152          1
   153          2
   159          2
   160          2
   161         18
   162          7
   163         20
   164          6
   165          9
   166          2
   167          2
   175          4
   176          5
   177         19
   178         49
   179        560
   180         89
   181         28
   182          3
   189          1
   190          1
   191          5
   192         29
   193         23
   194          7
   195          5
   196          1
   203          1
   206         62
   207         23
   208         10
   209        323
   210         59
   211         17
   212          2
   219          2
   220          1
   221          4
   222          1
   223          5
   224          2
   225          3
   233          1
   235          2
   236          6
   237         60
   238         13
   239          6
   240          1
   249          1
   250          1
   251          5
   252         31
   253         11
   254          4
   255          3
   256          1
   265          2
   267        388
   268         94
   269         37
   270          6
   271          1
   280          1
   281          1
   282          1
   283          1
   296        131
   297         34
   298         14
   299          2
   300          1
   311        174
   312         45
   313         18
   314          3
   315          1
   326        419
   327        111
   328         44
   329          8
   330          1