##TITLE=Library Entry 2235
##JCAMP-DX=Revision 4.10 
##DATA TYPE=MASS SPECTRUM
##SAMPLE DESCRIPTION=A.A.Kutin, Moscow, Russia
##NAMES=HP
##CAS NAME=Cyclopropane-1-carbohydrazide, 2-phenyl-N2-(3-methylcyclohexylide
no)-
##MOLFORM=C17H22N2O
##CAS REGISTRY NO=321863-50-7
##MP= -300
##BP= -300
##MW= 270
##$RETENTION INDEX=0
##$CONDENSED SPECTRUM=NO
##NPOINTS= 175
##XYDATA=(XY..XY) 1 
    33          7
    34          1
    39        747
    41        999
    42        166
    43        168
    44         80
    45         32
    46          2
    50         80
    51        195
    52         80
    53        221
    54        233
    55        517
    56        121
    57        109
    59         31
    60          2
    62         42
    63        113
    65        251
    67        310
    68        164
    69        293
    70         33
    71         16
    72         27
    74         17
    75         21
    77        171
    78         76
    79         92
    81        366
    82         66
    83         85
    84         76
    85         21
    86          8
    87          9
    89         97
    91        601
    92         46
    93         52
    94         58
    95        172
    96         82
    97         43
    98         39
    99          9
   100          2
   102         37
   103         38
   104         64
   105         34
   106         65
   107         27
   108         66
   109         36
   110        127
   111        114
   112         82
   113         50
   115        606
   116        203
   117        606
   118         89
   119          9
   120          4
   121          4
   122         13
   123         53
   124        159
   125        103
   127        475
   128         41
   129         19
   130         28
   131         24
   132         40
   133          5
   134          2
   135          6
   136          8
   137         12
   138          8
   139         10
   140          4
   141          3
   142         11
   143         17
   144         58
   145        215
   146         23
   148         33
   149          4
   150          3
   151         11
   153         36
   154          3
   155          1
   156          6
   157          4
   158          6
   159         17
   160         70
   161         14
   162         19
   163          3
   164          3
   165          8
   166          8
   167          2
   168          1
   169          1
   170          7
   171          5
   172          3
   173          2
   174          2
   175          1
   176          1
   177          1
   179         59
   180          6
   181          0
   182          1
   184          9
   185          7
   186          7
   187          1
   188          2
   189          0
   190          0
   192          1
   193          2
   194          0
   195          0
   196          1
   197          1
   198          5
   199         18
   200         77
   201         11
   202          1
   203          0
   210          2
   211          1
   212          7
   213         29
   214          8
   215         10
   216          2
   217          0
   224          1
   226         11
   227         21
   228          3
   229          0
   230          0
   238          0
   239          0
   241          4
   242          2
   243          0
   252          0
   253          1
   255         28
   256         11
   257          1
   267          1
   268          3
   270        133
   271         21
   272          2