##TITLE=Library Entry 12232
##JCAMP-DX=Revision 4.10 
##DATA TYPE=MASS SPECTRUM
##SAMPLE DESCRIPTION=H. SUESS, CIBA-GEIGY AG, MUNCHWILEN, SWITZER
##NAMES=HP
##CAS NAME=cis-1,3-Diacetamidocyclohexane
##MOLFORM=C10H18N2O2
##CAS REGISTRY NO=32189-20-1
##MP= -300
##BP= -300
##MW= 198
##$RETENTION INDEX=0
##$CONDENSED SPECTRUM=NO
##NPOINTS= 23
##XYDATA=(XY..XY) 1 
    43        999
    44        160
    56        260
    58         30
    59         60
    60        590
    69        380
    70        150
    79         50
    80        200
    81        100
    85        250
    86         50
    96        460
    97        420
    98        130
   111        150
   112         30
   113        140
   139        960
   140        140
   155        110
   198         20