##TITLE=Library Entry 82696
##JCAMP-DX=Revision 4.10 
##DATA TYPE=MASS SPECTRUM
##SAMPLE DESCRIPTION=FLO 0028
##NAMES=HP
##CAS NAME=2-Butanone, 1-amino-1-phenyl-
##MOLFORM=C10H13NO
##CAS REGISTRY NO=32187-26-1
##MP= -300
##BP= -300
##MW= 163
##$RETENTION INDEX=0
##$CONDENSED SPECTRUM=NO
##NPOINTS= 67
##XYDATA=(XY..XY) 1 
    14          3
    15          5
    26         10
    27         65
    29         90
    30         14
    31          4
    39         32
    40          3
    41          7
    42          3
    43          4
    44          2
    49          2
    50         22
    51         62
    52         25
    53         21
    54          7
    55          3
    56          2
    57         19
    58          2
    59          6
    60          2
    61          3
    62          4
    63         13
    64          3
    65          6
    66          2
    67          2
    73          1
    74          5
    75          9
    76          8
    77        160
    78         40
    79        325
    80         25
    81          1
    86          1
    87          1
    88          1
    89          7
    90          5
    91          7
    92          1
   102          2
   103          3
   104         60
   105         18
   106        999
   107         90
   108          4
   116          2
   117          1
   118          2
   119          3
   120          1
   134          1
   136          1
   137          1
   147          5
   148          1
   163          8
   164          1