##TITLE=Library Entry 36957
##JCAMP-DX=Revision 4.10 
##DATA TYPE=MASS SPECTRUM
##SAMPLE DESCRIPTION=K.J. SHAW, CSIRO DIV. FOOD RES., NORTH RYDE, N.S.W., AU
ST.
##NAMES=HP
##CAS NAME=2,4,6-Tribromophenyl trifluoroacetate
##MOLFORM=C8H2Br3F3O2
##CAS REGISTRY NO=321913-23-9
##MP= -300
##BP= -300
##MW= 424
##$RETENTION INDEX=0
##$CONDENSED SPECTRUM=NO
##NPOINTS= 69
##XYDATA=(XY..XY) 1 
    36        120
    38         30
    49         20
    50         40
    53         50
    69        999
    73         60
    74        170
    90         30
    93         30
    97         60
   116         30
   117         30
   118         30
   140         30
   141        350
   142         50
   143        310
   153         30
   155         30
   171         20
   172         20
   174         30
   195         20
   197         50
   199         20
   220         40
   221         20
   222         80
   224         40
   234         30
   248         60
   250        120
   251         20
   252         60
   253         40
   255         20
   295         20
   297         50
   298         30
   299        120
   300         50
   301        290
   302         30
   303        270
   305         80
   313         40
   315         30
   327        220
   328         20
   329        650
   330         50
   331        630
   332         40
   333        210
   345        250
   346         20
   347        490
   348         40
   349        240
   350         20
   424        250
   425         20
   426        720
   427         60
   428        710
   429         60
   430        240
   431         20