##TITLE=Library Entry 10586
##JCAMP-DX=Revision 4.10 
##DATA TYPE=MASS SPECTRUM
##SAMPLE DESCRIPTION=A.A.Kutin, Moscow, Russia
##NAMES=HP
##CAS NAME=4-(3-Amino-1H-1,2,4-triazol-5-yliminomethyl)resorcinol
##MOLFORM=C9H9N5O2
##CAS REGISTRY NO=321968-42-7
##MP= -300
##BP= -300
##MW= 219
##$RETENTION INDEX=0
##$CONDENSED SPECTRUM=NO
##NPOINTS= 118
##XYDATA=(XY..XY) 1 
    33          2
    36          6
    38         93
    39        390
    41        355
    42        581
    43        999
    44         56
    45         10
    46          9
    48         11
    50        104
    51        189
    53        239
    54         39
    55        104
    57        138
    58         28
    60          3
    61         15
    62         70
    63         97
    65        399
    66        388
    67         61
    68        118
    69        151
    70         50
    71         14
    73         10
    74         35
    75         39
    76         34
    77         47
    78         59
    79         67
    80         40
    81         64
    82         11
    84         94
    85        149
    87          2
    89         12
    90         34
    91         57
    92        114
    93         75
    94         87
    95         24
    96         12
    97         22
    99        679
   100         30
   101          3
   102          9
   103         16
   104         11
   105         31
   106         22
   107         39
   108         38
   109         25
   110         27
   111         15
   113          4
   117         12
   118         13
   119         40
   120         64
   121        113
   122         20
   123          3
   124          3
   126          2
   130          2
   131          5
   132         14
   134         18
   135         76
   136         73
   137         49
   138          2
   144          5
   145          8
   146         10
   148        108
   149         32
   150         13
   151          1
   159          4
   160         11
   161         13
   162         25
   163         64
   164          9
   165          2
   171          2
   173          6
   175          6
   177         14
   178          1
   179          1
   186          7
   187          2
   188         15
   190         11
   192          2
   194          5
   196          3
   197          8
   202        475
   203         34
   204          3
   218        138
   219        262
   220         31
   223          3
   231          2