##TITLE=Library Entry 41160
##JCAMP-DX=Revision 4.10 
##DATA TYPE=MASS SPECTRUM
##SAMPLE DESCRIPTION=NIST Mass Spectrometry Data Center, 1994
##NAMES=HP
##CAS NAME=Trimethylsilylmethanol
##MOLFORM=C4H12OSi
##CAS REGISTRY NO=3219-63-4
##MP= -300
##BP= -300
##MW= 104
##$RETENTION INDEX=0
##$CONDENSED SPECTRUM=NO
##NPOINTS= 54
##XYDATA=(XY..XY) 1 
    13          2
    14          8
    15         34
    16          1
    18          2
    26          4
    27         18
    28         54
    29        139
    30         16
    31        115
    32          5
    33          1
    39          3
    40          1
    41         14
    42         63
    43        252
    44         54
    45        498
    46         29
    47         71
    48          3
    49          1
    52          2
    53         36
    54          9
    55         33
    56          7
    57         20
    58         41
    59         45
    60          1
    61        622
    62         38
    63         21
    65          3
    66          3
    67          2
    70          5
    71          7
    72         54
    73        999
    74         88
    75         69
    76          3
    77          2
    88          4
    89         77
    90          5
    91          2
   104         27
   105          3
   106          1