##TITLE=Library Entry 50450
##JCAMP-DX=Revision 4.10 
##DATA TYPE=MASS SPECTRUM
##SAMPLE DESCRIPTION=William W. Christie, Mylnefield Lipid Analysis, Invergo
wrie, Dundee, Scotland, UK
##NAMES=HP
##CAS NAME=Methyl 2-octylcyclopropene-1-octanoate
##MOLFORM=C20H36O2
##CAS REGISTRY NO=3220-60-8
##MP= -300
##BP= -300
##MW= 308
##$RETENTION INDEX=0
##$CONDENSED SPECTRUM=NO
##NPOINTS= 131
##XYDATA=(XY..XY) 1 
    51         10
    52         20
    53        119
    54         80
    55        529
    56         60
    57         90
    58         10
    59        119
    65         70
    66         50
    67        619
    68        589
    69        299
    70         30
    71         30
    73         20
    74         60
    75         10
    77        119
    78         30
    79        369
    80        149
    81        999
    82        449
    83        159
    84         30
    85         40
    87         50
    91        119
    92         20
    93        229
    94        169
    95        869
    96        229
    97        100
    98         20
    99         10
   101         10
   105         40
   106         10
   107        119
   108         70
   109        329
   110        279
   111         70
   112         10
   113         10
   115         20
   117         10
   118         10
   119         30
   120         10
   121        139
   122        109
   123        159
   124         50
   125         20
   126         10
   127         10
   129         10
   131         20
   133         30
   134         30
   135        159
   136        139
   137         80
   138         20
   139         10
   140         30
   141         20
   142         10
   143         10
   145         40
   146         10
   147         20
   149        100
   150         60
   151        109
   152         30
   153         20
   154         60
   155         10
   159         20
   160         10
   161         20
   163        109
   164         40
   165         60
   166         70
   167         40
   168         10
   173         10
   175         10
   177         40
   178         60
   179         40
   180         10
   181         20
   182         10
   183         10
   187         20
   191         20
   192         10
   193         50
   194         10
   195         60
   196         20
   197         10
   201         10
   205         20
   207         10
   209         40
   210         40
   211         10
   219         10
   223         20
   224         10
   234         10
   237         30
   238         10
   251         10
   259         10
   276         10
   277        139
   278         30
   279         10
   293         10
   307         20
   308        149
   309         30