##TITLE=Library Entry 44154
##JCAMP-DX=Revision 4.10 
##DATA TYPE=MASS SPECTRUM
##SAMPLE DESCRIPTION=Exported from NIST MS Search
##NAMES=HP
##CAS NAME=Serine, N-(trimethylsilyl)-, L-, trimethylsilyl ester, 2,3-bis(tr
imethylsiloxy)propyl trimethylsilyl phosphate (ester)
##MOLFORM=C21H54NO8PSi5
##CAS REGISTRY NO=32204-75-4
##MP= -300
##BP= -300
##MW= 619
##$RETENTION INDEX=0
##$CONDENSED SPECTRUM=NO
##NPOINTS= 107
##XYDATA=(XY..XY) 1 
    50         12
    51         21
    52         44
    53          3
    54         12
    55         19
    56         14
    57         22
    58         24
    59         91
    60         17
    69         34
    70         11
    71         12
    72         34
    73        999
    74         98
    75        266
    76         24
    77         22
    78         12
    79         49
    99          6
   100         22
   101         83
   102         14
   103        114
   104          8
   105          8
   113         19
   114          7
   115         24
   116         77
   117         19
   118          6
   119         11
   121          2
   159         19
   160          1
   179          1
   180          1
   203         14
   204          8
   205         19
   206          1
   207         34
   208          3
   209          3
   210          1
   211         92
   212         12
   213          8
   215         12
   216          9
   217          9
   218         34
   219         22
   220          1
   221          1
   242         17
   243          1
   244         45
   245          7
   246          1
   254          2
   255          1
   256         44
   257         14
   258          1
   298         12
   299        303
   300         79
   301         46
   302          8
   339          1
   340         22
   341          1
   342          1
   344          1
   356         19
   357        333
   358         98
   359         55
   360         18
   457          2
   458          4
   459          2
   460          2
   461          2
   462          0
   463          0
   474          1
   475          0
   476          0
   502         15
   503          7
   504          4
   516          2
   517          1
   518          0
   529          2
   530          1
   531          0
   604          8
   605          3
   606          3
   619          0