##TITLE=Library Entry 9397
##JCAMP-DX=Revision 4.10 
##DATA TYPE=MASS SPECTRUM
##SAMPLE DESCRIPTION=JCPKBH, (6)703(1977); R. G. SUTHERLAND ET AL.
##NAMES=HP
##CAS NAME=Manganese, tricarbonyl[(1,2,3,4,5-.eta.)-1-[(dimethylamino)sulfon
yl]-2-(1-hydroxy-1-methylethyl)-2,4-cyclopentadien-1-yl]-
##MOLFORM=C13H16MnNO6S
##CAS REGISTRY NO=32201-20-0
##MP= -300
##BP= -300
##MW= 369
##$RETENTION INDEX=0
##$CONDENSED SPECTRUM=NO
##NPOINTS= 24
##XYDATA=(XY..XY) 1 
    39        204
    41        187
    43        999
    55        511
    58        238
    59        324
    72        136
    77        238
    78        662
    79        156
    83        272
    91        136
    97        102
   101        136
   106        136
   120         85
   134        136
   148        255
   160        136
   203        156
   267        238
   285        204
   354         10
   369         68