##TITLE=Library Entry 43563
##JCAMP-DX=Revision 4.10 
##DATA TYPE=MASS SPECTRUM
##SAMPLE DESCRIPTION=CHARLES C.SWEELEY,MICHIGAN STATE UNIV.EAST LANSING,MICH
##NAMES=HP
##CAS NAME=5.beta.-Pregnane, 3.alpha.,11.beta.,17,20.alpha.,21-pentakis(trim
ethylsiloxy)-
##MOLFORM=C36H76O5Si5
##CAS REGISTRY NO=32213-62-0
##MP= -300
##BP= -300
##MW= 728
##$RETENTION INDEX=3122
##$CONDENSED SPECTRUM=NO
##NPOINTS= 162
##XYDATA=(XY..XY) 1 
    45         26
    47         12
    55         41
    61         11
    67         30
    69         16
    73        999
    74         75
    75        201
    76         16
    79         37
    81         56
    83         18
    89         13
    91         49
    93         48
    94         12
    95         51
   101         22
   103        101
   104         13
   105         71
   106         18
   107         65
   109         17
   115         13
   116         13
   117         84
   118         22
   119         43
   121         25
   129        150
   130         26
   131         54
   132         14
   133         59
   134         12
   135         18
   141         13
   142         18
   143         96
   144         22
   145         65
   146         17
   147        230
   148         34
   149         34
   154         34
   155         42
   156         18
   157         46
   158         13
   159         42
   160         12
   161         18
   167         11
   168         16
   169         62
   170         17
   171         57
   172         14
   173         19
   175         16
   181         23
   182         14
   183         25
   185         26
   187         13
   189         50
   190         14
   191        128
   192         26
   193         26
   194         13
   195         57
   196         18
   197         32
   199         33
   201         23
   203         23
   204         14
   205         60
   206         18
   209         18
   211         43
   212         13
   213         34
   214         11
   215         18
   216         12
   217         73
   218         20
   219         16
   223         17
   225         13
   227         22
   228         18
   229         13
   230         27
   231         28
   233         13
   235         12
   242         16
   243        312
   244         87
   245         42
   247         11
   249         13
   253        305
   254         89
   255         20
   265         42
   266         12
   267         18
   269         11
   279         38
   283         21
   301         14
   305         16
   320         22
   333         18
   343        283
   344         87
   345         28
   355         62
   356         22
   357         13
   369         26
   370         12
   432         11
   433        140
   434         56
   435         22
   445        210
   446         84
   447         36
   458         14
   459         38
   460         17
   461         14
   522         14
   523        263
   524        119
   525         54
   526         18
   534         22
   535        250
   536        125
   537         57
   538         18
   548         55
   549         30
   550         13
   625         54
   626         32
   627         17
   638         44
   639         25
   640         13
   728         32
   729         22
   730         14