##TITLE=Library Entry 24427
##JCAMP-DX=Revision 4.10 
##DATA TYPE=MASS SPECTRUM
##SAMPLE DESCRIPTION=NIST Mass Spectrometry Data Center, 1992
##NAMES=HP
##CAS NAME=4-tert-Butylcyclohexyl acetate
##MOLFORM=C12H22O2
##CAS REGISTRY NO=32210-23-4
##MP= -300
##BP= -300
##MW= 198
##$RETENTION INDEX=1368
##$CONDENSED SPECTRUM=NO
##NPOINTS= 78
##XYDATA=(XY..XY) 1 
    15         59
    16          1
    17          3
    18         10
    27         80
    28         43
    29        173
    30          4
    31          6
    37          0
    39        105
    41        424
    42         63
    43        687
    44         23
    45          6
    50          3
    51         10
    52          9
    53         57
    54         83
    55        176
    56        285
    57        999
    58         48
    59          2
    60          2
    61        183
    62          5
    63          3
    65         18
    67        459
    68         42
    69         71
    70         22
    71         12
    72          1
    77         26
    78          9
    79         87
    80        349
    81        352
    82        489
    83        179
    84         18
    85          2
    86          3
    91         12
    92          2
    93          9
    94         14
    95         60
    96         29
    97         16
    98          5
    99         16
   100          1
   104          0
   105          3
   106          0
   107          7
   108          2
   109          9
   110         15
   111          2
   117          9
   118          1
   121          2
   123        159
   124         16
   125          1
   138         75
   139          9
   141         19
   142         21
   143         17
   144          2
   155          5