##TITLE=Library Entry 41592
##JCAMP-DX=Revision 4.10 
##DATA TYPE=MASS SPECTRUM
##SAMPLE DESCRIPTION=STER PREG MOTM L SE30 01 3038 E M.HORN
##NAMES=HP
##CAS NAME=5.alpha.-Pregnan-20-one, 3.alpha.,11.beta.,17,21-tetrakis(trimeth
ylsiloxy)-, O-methyloxime
##MOLFORM=C34H69NO5Si4
##CAS REGISTRY NO=32221-30-0
##MP= -300
##BP= -300
##MW= 683
##$RETENTION INDEX=0
##$CONDENSED SPECTRUM=NO
##NPOINTS= 357
##XYDATA=(XY..XY) 1 
    41        170
    42         55
    43        210
    44         70
    45        195
    46         25
    47         70
    48         20
    49         20
    50         25
    51         20
    53         45
    54         60
    55        300
    56         40
    57         65
    58         40
    59        140
    60         35
    61         90
    62         20
    63         25
    65         25
    66         25
    67        235
    68        120
    69        130
    70         40
    71         30
    72         70
    73        999
    74        480
    75        999
    76        115
    77        120
    78         30
    79        235
    80         50
    81        370
    82         80
    83         85
    84        150
    85         45
    86         30
    87         30
    88         25
    89        230
    90         35
    91        335
    92         65
    93        380
    94         80
    95        270
    96         45
    97         55
    98         35
    99         40
   100         75
   101        125
   102         35
   103        860
   104        115
   105        470
   106        115
   107        470
   108         85
   109        155
   110         35
   111         35
   112         20
   113         60
   114        170
   115        145
   116        105
   117        235
   118        110
   119        290
   120         85
   121        175
   122         40
   123         45
   124         20
   125         30
   126         30
   127         65
   128         95
   129        380
   130        130
   131        330
   132        130
   133        330
   134         80
   135         90
   136         20
   137         20
   139         20
   140         40
   141        110
   142        120
   143        400
   144        170
   145        325
   146        100
   147        660
   148        130
   149        135
   150         30
   151         30
   152         20
   153         30
   154         85
   155        160
   156        135
   157        205
   158        100
   159        300
   160         70
   161        100
   162         40
   163         60
   164         20
   165         40
   166         30
   167         70
   168        290
   169        270
   170        130
   171        155
   172        220
   173        180
   174         70
   175         60
   176         20
   177         30
   178         20
   179         50
   180         45
   181        100
   182        185
   183        130
   184        100
   185         90
   186         55
   187         80
   188         65
   189         30
   190         10
   191         90
   192         30
   193         80
   194         60
   195        110
   196         70
   197         90
   198        120
   199        110
   200         45
   201         90
   202        250
   203         80
   204         80
   205         60
   206         30
   207        115
   208         70
   209         80
   210         40
   211         90
   212         40
   213        160
   214        135
   215        160
   216         90
   217         45
   218         30
   219         60
   220         60
   221         80
   222         50
   223         50
   224         30
   225         65
   226         30
   227        170
   228        130
   229         40
   230         50
   231         50
   232         50
   233        100
   234         50
   235         50
   236         40
   237         60
   238         55
   239        150
   240         45
   241         35
   242         40
   243         50
   244        270
   245        150
   246        555
   247        135
   248         70
   249         55
   250         30
   251        110
   252         40
   253        320
   254        100
   255         30
   256         40
   257         50
   258        115
   259         60
   260        130
   261         40
   262         30
   263         70
   264         35
   265         25
   266         20
   267         20
   268         20
   269         50
   270         40
   271         20
   272         30
   273         20
   274         40
   275         55
   276        490
   277        120
   278         65
   279         20
   280         15
   281         30
   282         20
   283         30
   284         20
   285         15
   286         15
   287         20
   288         70
   289         40
   290         20
   291         20
   292        110
   293         40
   295         20
   296         30
   297         20
   299         20
   300         55
   301         30
   302         35
   303         25
   304         20
   308         15
   310         30
   311         10
   312         20
   313         20
   314         15
   315         30
   316         15
   317         30
   318         65
   319         30
   323         30
   324         40
   325         20
   327         45
   328         30
   329         20
   330         10
   339         40
   340         20
   341         75
   342         75
   343        165
   344         60
   345         25
   353         10
   354         20
   355         25
   356         10
   365         20
   366         20
   368         20
   369         20
   370         15
   382        210
   383         70
   384         30
   398         20
   403         20
   404         10
   405         20
   406         15
   407         20
   413         30
   414         20
   415         10
   417         30
   418         25
   419         20
   431         30
   432         40
   433         50
   434         30
   435         15
   441         15
   442         10
   444         20
   470         20
   471         40
   472        370
   473        165
   474         75
   475         20
   503         30
   504         20
   507         10
   508         15
   522         30
   523         30
   524         20
   534         25
   561         40
   562        430
   563        235
   564        120
   565         45
   566         15
   578         20
   579         10
   580         30
   581         15
   593         40
   594         20
   595         10
   651         90
   652        999
   653        600
   654        320
   655        120
   656         50
   657         20
   668         30
   669         10
   683        270
   684        160
   685         80
   686         30
   687         10