##TITLE=Library Entry 97982
##JCAMP-DX=Revision 4.10 
##DATA TYPE=MASS SPECTRUM
##SAMPLE DESCRIPTION=NIST Mass Spectrometry Data Center, 1994
##NAMES=HP
##CAS NAME=5-Cyano-2-picoline
##MOLFORM=C7H6N2
##CAS REGISTRY NO=3222-48-8
##MP= -300
##BP= -300
##MW= 118
##$RETENTION INDEX=0
##$CONDENSED SPECTRUM=NO
##NPOINTS= 57
##XYDATA=(XY..XY) 1 
    12          4
    13          4
    14          9
    15         37
    17          1
    18          4
    24          3
    25         12
    26         84
    27         65
    28         91
    36         11
    37        134
    38        172
    39        253
    40         88
    41         73
    42         48
    44          1
    46          6
    48          6
    49         37
    50        146
    51        179
    52        134
    53         13
    54         13
    60         10
    61         62
    62         90
    63        181
    64        290
    65         69
    66         15
    67         32
    68          4
    75         55
    76        126
    77         53
    78         41
    79          6
    86          9
    87         19
    88         23
    89         16
    90         74
    91        519
    92        113
    93          7
   100          1
   101          2
   103         62
   104          4
   117        166
   118        999
   119         83
   120          3