##TITLE=Library Entry 29248
##JCAMP-DX=Revision 4.10 
##DATA TYPE=MASS SPECTRUM
##SAMPLE DESCRIPTION=A. DANIEL
##NAMES=HP
##CAS NAME=Bicyclo[2.2.1]heptan-2-ol, 3-(dimethylamino)-4,7,7-trimethyl-, (e
ndo,endo)-
##MOLFORM=C12H23NO
##CAS REGISTRY NO=32235-43-1
##MP= -300
##BP= -300
##MW= 197
##$RETENTION INDEX=0
##$CONDENSED SPECTRUM=NO
##NPOINTS= 74
##XYDATA=(XY..XY) 1 
    30         10
    31         10
    39         40
    40         10
    41         90
    42         80
    43         20
    44         70
    45         40
    46         40
    51         10
    53         30
    54         10
    55         50
    56         10
    57         20
    58        999
    59         40
    65         10
    66         10
    67         20
    68         20
    69         30
    70         20
    71         40
    72         20
    80         10
    81         20
    82         30
    83         20
    84         50
    85         10
    86         40
    87        130
    88        210
    89         10
    91         20
    92         90
    93         10
    94         10
    95        410
    96         60
    97         20
    98        180
    99         40
   100         80
   101         10
   108         10
   109         20
   110         80
   111         20
   112         30
   113         10
   114         50
   115         10
   123         10
   124         10
   125         10
   126        220
   127         20
   140        250
   141         30
   154         10
   155         10
   168         90
   169         70
   170         10
   180         30
   182         90
   183         10
   196         10
   197        470
   198         60
   199         10