##TITLE=Library Entry 2133
##JCAMP-DX=Revision 4.10 
##DATA TYPE=MASS SPECTRUM
##SAMPLE DESCRIPTION=A.A.Kutin, Moscow, Russia
##NAMES=HP
##CAS NAME=Bicyclo[10.1.0]trideca-4,8-diene-13-carboxamide, N-(3-chloropheny
l)-
##MOLFORM=C20H24ClNO
##CAS REGISTRY NO=322417-02-7
##MP= -300
##BP= -300
##MW= 329
##$RETENTION INDEX=0
##$CONDENSED SPECTRUM=NO
##NPOINTS= 200
##XYDATA=(XY..XY) 1 
    34          0
    35          7
    36          9
    37         14
    38         49
    39        682
    40        137
    41        999
    43         78
    44         12
    45          3
    46          2
    47          1
    49          5
    50         44
    51        103
    52         84
    53        450
    54        336
    55        220
    56         12
    57         11
    58          1
    60          2
    61          3
    62         30
    63        110
    64         61
    65        200
    66        103
    67        425
    68         81
    69         50
    70          4
    71          3
    72          3
    73         29
    74         14
    75         68
    76         30
    77        205
    78         61
    79        312
    81        246
    82         18
    83         17
    84          3
    85          5
    86          2
    87          3
    88          3
    89         16
    90         51
    91        236
    92         56
    93        140
    94         29
    95         55
    97         10
    99        119
   101         50
   102         12
   103         18
   104         11
   105         77
   106         17
   107         47
   108          7
   109         15
   111         84
   112         11
   113         25
   114          4
   115         16
   117         39
   118         10
   119         42
   120         10
   121         29
   122          5
   123          4
   125         19
   126         60
   127        137
   128         48
   129         48
   130         21
   131         26
   132         11
   133         45
   135         24
   137          2
   138          5
   139          2
   140          5
   141          2
   142          3
   143          8
   144          3
   145          7
   146          4
   147          9
   148          3
   149          2
   150          0
   151          2
   152          4
   153          9
   154         27
   155          7
   156         10
   157          6
   158          3
   159         12
   160         13
   161          9
   162          2
   163          0
   164          4
   165          2
   166          5
   167          3
   168          7
   169         10
   170          6
   171          3
   172          2
   173          3
   174          6
   175         21
   176          2
   177          1
   178          1
   179          0
   180          3
   181          0
   182          3
   183          2
   184          1
   185          4
   186          0
   188          0
   190          0
   191          0
   192          2
   193          3
   194          2
   195          6
   196          2
   197          1
   198          0
   200          0
   201          1
   202          2
   203         10
   204          2
   205          1
   206          6
   207          2
   208          6
   209          2
   210          2
   211          0
   213          0
   216          0
   218          0
   219          1
   220          1
   221          1
   222          1
   223          0
   230          0
   231          0
   232          1
   234          1
   235          0
   244          0
   246          1
   247          0
   248          0
   250          0
   259          0
   260          1
   261          0
   262          1
   263          0
   273          0
   275          0
   276          0
   288          0
   301          0
   312          0
   320          0
   325          1
   326          2
   328          2
   329          5
   330          1
   331          1
   332          0