##TITLE=Library Entry 3970
##JCAMP-DX=Revision 4.10 
##DATA TYPE=MASS SPECTRUM
##SAMPLE DESCRIPTION=NIST Mass Spectrometry Data Center, 1994
##NAMES=HP
##CAS NAME=Tetradecyl isothiocyanate
##MOLFORM=C15H29NS
##CAS REGISTRY NO=3224-48-4
##MP= -300
##BP= -300
##MW= 255
##$RETENTION INDEX=0
##$CONDENSED SPECTRUM=NO
##NPOINTS= 104
##XYDATA=(XY..XY) 1 
    15          5
    27        198
    28        101
    29        448
    30         44
    32         17
    39        157
    41        999
    42        177
    43        789
    44         53
    45         21
    51          5
    52          6
    53         63
    54         86
    55        746
    56        189
    57        349
    58         29
    59         21
    60         27
    62          9
    65         11
    67        110
    68         58
    69        326
    70        119
    71        113
    72        247
    73         18
    74         32
    75         23
    76          9
    77          8
    79         19
    80          9
    81         42
    82         92
    83        127
    84         50
    85         45
    86         27
    87          7
    88          8
    89          5
    93         15
    94          8
    95         28
    96        215
    97         61
    98         24
    99         13
   100         60
   101        103
   102         12
   103          7
   107          7
   108          8
   109         14
   110         83
   111         13
   112         21
   113          7
   114        108
   115        820
   116         61
   117         41
   121          9
   122          7
   123         13
   124         32
   125          5
   126         10
   127          5
   128        106
   129        110
   130         15
   136          4
   137          5
   138         20
   139          5
   140         11
   142         23
   143          6
   144          2
   150          3
   152         20
   153          3
   154          5
   156         12
   166         23
   170          6
   180         31
   181          4
   194         20
   195          5
   212          5
   222        740
   223        123
   224          9
   226          4
   254         13
   255          4