##TITLE=Library Entry 39931
##JCAMP-DX=Revision 4.10 
##DATA TYPE=MASS SPECTRUM
##SAMPLE DESCRIPTION=Exported from NIST MS Search
##NAMES=HP
##CAS NAME=Pregnan-18-ol, 20-methyl-20-(methylamino)-, (5.alpha.)-
##MOLFORM=C23H41NO
##CAS REGISTRY NO=32253-20-6
##MP= -300
##BP= -300
##MW= 347
##$RETENTION INDEX=0
##$CONDENSED SPECTRUM=NO
##NPOINTS= 65
##XYDATA=(XY..XY) 1 
    41         50
    42         10
    43         30
    44         20
    53         10
    55         50
    56         30
    57         10
    58         30
    59         10
    66         30
    67         10
    68         30
    69         10
    71         20
    72        999
    73        130
    74         10
    76         10
    78         20
    79         10
    80         30
    81         10
    82         10
    83         20
    84         10
    85         10
    90         30
    92         30
    94         20
    97         20
   100         10
   101         10
   105         20
   107         30
   109         30
   118         20
   120         20
   132         20
   134         20
   147         20
   149         20
   243         10
   244          5
   271          4
   272          1
   284          1
   285          2
   286          8
   287          2
   300          2
   301          2
   302          3
   303          1
   314          3
   315          2
   316          1
   317          3
   318          1
   332         23
   333          8
   334          2
   344          1
   346          2
   347          1