##TITLE=Library Entry 22430
##JCAMP-DX=Revision 4.10 
##DATA TYPE=MASS SPECTRUM
##SAMPLE DESCRIPTION=Chemical Concepts
##NAMES=HP
##CAS NAME=N.alpha.-[N-(tert-butoxycarbonyl)methionyl]tyrosine hydrazide
##MOLFORM=C19H30N4O5S
##CAS REGISTRY NO=322682-65-5
##MP= -300
##BP= -300
##MW= 426
##$RETENTION INDEX=0
##$CONDENSED SPECTRUM=NO
##NPOINTS= 198
##XYDATA=(XY..XY) 1 
    34          3
    35         49
    36          8
    37         36
    38         63
    39        413
    41        859
    42        114
    43        222
    44         79
    45        103
    46         44
    47         91
    48         64
    49         35
    50         63
    51         92
    52         47
    53         75
    54         79
    55        243
    56        999
    57        982
    58         81
    59        284
    61        972
    62         46
    63         74
    64         15
    65         73
    66         14
    67         17
    68         22
    69         47
    70         54
    71         47
    72         29
    73         47
    74         50
    75         53
    77        230
    78         66
    79         61
    80         15
    81         24
    82         20
    83         52
    84         38
    85         83
    86         37
    87         56
    88        177
    89         51
    90         35
    91        236
    92         26
    93         19
    94         34
    95         11
    96         12
    97         28
    98          5
    99         18
   100         41
   101         40
   102         31
   104        804
   105         83
   106         84
   107        672
   108        109
   109         12
   110          9
   111         35
   112         26
   113         29
   114         37
   115         18
   116         56
   117         24
   118         58
   119         62
   120        115
   121         49
   122         17
   123         10
   124          4
   125          7
   126          5
   127         20
   128         10
   129         17
   130         32
   131        170
   132         36
   133         45
   134         41
   135        163
   136        777
   137         85
   138          8
   139         18
   140         10
   141          5
   142          4
   143          5
   144         32
   145         28
   146         30
   147        270
   148         91
   149         80
   150         16
   151         10
   152          8
   154          6
   155          4
   157         12
   158         60
   159         87
   160         15
   161         32
   162         76
   163        127
   164         37
   165          5
   166          4
   171         33
   172          9
   174         16
   175          8
   176         54
   177         47
   178        205
   179         46
   180         12
   181          9
   186         10
   187          8
   188         13
   189          9
   190         19
   191          5
   192         72
   193         33
   195         10
   196         17
   201         10
   202          7
   203         11
   204          4
   205          5
   208          5
   217          9
   218         13
   219          7
   220         45
   221          4
   222          9
   223          4
   232          7
   233          5
   234          9
   236         16
   237          8
   245          4
   249          9
   252         15
   263         16
   264         53
   265         18
   266         12
   267         50
   268          8
   277          5
   278          5
   281         17
   293         41
   294         54
   295         31
   296         36
   297          6
   308          5
   309          4
   310          6
   311         20
   320          8
   326         38
   327          4
   337          9
   339        121
   340         16
   341          7
   353         13
   366          5
   370         60
   371         14
   426          4