##TITLE=Library Entry 79882
##JCAMP-DX=Revision 4.10 
##DATA TYPE=MASS SPECTRUM
##SAMPLE DESCRIPTION=A.A.Kutin, Moscow, Russia
##NAMES=HP
##CAS NAME=Propenhydrazide, 2-benzoylamino-3-(2-thienyl)-
##MOLFORM=C14H13N3O2S
##CAS REGISTRY NO=322665-85-0
##MP= -300
##BP= -300
##MW= 287
##$RETENTION INDEX=0
##$CONDENSED SPECTRUM=NO
##NPOINTS= 203
##XYDATA=(XY..XY) 1 
    33          0
    34          0
    37          5
    38         15
    39         31
    40          6
    42          2
    43          8
    44         12
    45         56
    46          4
    47          3
    48          0
    50         84
    51        229
    52         32
    53         16
    54          3
    55          2
    56          1
    57          9
    58         21
    59          6
    60          2
    61          4
    62         12
    63         26
    64          8
    65         12
    66          2
    67          1
    69         40
    70         54
    71          9
    72          2
    73          3
    74         21
    75         21
    77        826
    78         70
    79          7
    80         12
    81          4
    82          6
    83          4
    84          6
    85          3
    86          1
    87          1
    88          2
    89          2
    90          3
    91          4
    92          3
    93          7
    94          5
    95         47
    96        113
    97         72
    98         10
    99          4
   100          1
   101          0
   102          1
   105        999
   106         71
   107          7
   108          7
   109          4
   110         10
   111          3
   112          3
   113          0
   114          0
   115          1
   116          0
   117          0
   118          1
   119         11
   120          4
   121          9
   122         65
   123         58
   124         74
   125         12
   126          5
   127          6
   128          1
   129          1
   130          0
   131          0
   132          1
   133          0
   134          1
   135          4
   136          3
   137         11
   138          6
   139          2
   140          1
   141          0
   142          0
   143          0
   144          0
   145          0
   146          0
   147          0
   149          2
   150          2
   151          1
   152          5
   153          1
   154          1
   155          0
   156          0
   157          0
   158          0
   159          0
   160          0
   161          0
   162          0
   163          2
   164          0
   165          4
   166         13
   167          2
   168          1
   169          0
   170          0
   171          2
   172          1
   173          1
   174          0
   175          0
   176          0
   178          3
   179          0
   180          0
   181          1
   182          3
   183          1
   184          2
   185          1
   186          0
   187          0
   188          0
   189          0
   190          0
   191          0
   192          0
   193          0
   194          0
   195          0
   196          0
   197          0
   198          0
   199          1
   200          0
   201          2
   202          0
   203          0
   204          0
   208          0
   209          1
   210          8
   211          1
   212          2
   213          0
   214          0
   222          0
   223          0
   225          0
   226          0
   227          1
   228          3
   229          1
   230          0
   236          0
   237          0
   238          0
   239          0
   241          0
   242          0
   251          0
   253          0
   255         53
   256        410
   257         69
   258         25
   259          3
   260          0
   268          0
   269          4
   270          1
   271          0
   272          0
   273          0
   285          0
   286          0
   287         45
   288          7
   289          2
   290          0