##TITLE=Library Entry 2169
##JCAMP-DX=Revision 4.10 
##DATA TYPE=MASS SPECTRUM
##SAMPLE DESCRIPTION=Chemical Concepts
##NAMES=HP
##CAS NAME=Cyclopropane, 1,1-dibromo-2,2-dimethyl-
##MOLFORM=C5H8Br2
##CAS REGISTRY NO=32264-50-9
##MP= -300
##BP= -300
##MW= 226
##$RETENTION INDEX=0
##$CONDENSED SPECTRUM=NO
##NPOINTS= 100
##XYDATA=(XY..XY) 1 
    26        127
    27        246
    28         69
    29        149
    30         48
    31         66
    32          8
    33          3
    35          3
    37         86
    39        755
    41        999
    42         62
    43         29
    44         13
    45         74
    46          2
    47          3
    50        160
    51        161
    52         71
    53        127
    54          6
    55          9
    56          3
    57         11
    58          3
    59         29
    60          6
    61         23
    62         32
    63         45
    65        239
    67        724
    68        132
    69         16
    70          1
    71          2
    72          5
    73         16
    74          1
    75          3
    77          4
    79         42
    80          9
    81         47
    82          9
    83          3
    85          3
    86          1
    87         17
    88          3
    89          3
    90          1
    91         19
    93         85
    94          6
    95         67
    96          1
   102          1
   103          9
   104          2
   105         14
   106          2
   107         12
   108          1
   109          2
   117          8
   119         19
   120          1
   121         12
   123          2
   125          1
   130          1
   131         21
   132          4
   133         20
   134          3
   146        161
   147        107
   148        146
   149        100
   150          6
   160         11
   162          9
   167          1
   169          1
   172         39
   174         74
   175          1
   176         34
   184          2
   186          4
   188          1
   211         10
   213         20
   215          9
   226          3
   228          7
   230          3