##TITLE=Library Entry 84413
##JCAMP-DX=Revision 4.10 
##DATA TYPE=MASS SPECTRUM
##SAMPLE DESCRIPTION=J.MACAK, DEP. COKE GAS TECH., PRAGUE INST. CHEM. TECH.,
 CZEC
##NAMES=HP
##CAS NAME=2-n-Hexylphenol
##MOLFORM=C12H18O
##CAS REGISTRY NO=3226-32-2
##MP= -300
##BP= -300
##MW= 178
##$RETENTION INDEX=0
##$CONDENSED SPECTRUM=NO
##NPOINTS= 29
##XYDATA=(XY..XY) 1 
    39         40
    40         10
    41         40
    42         10
    43         20
    51         20
    52         10
    53         20
    55         20
    64         10
    65         20
    66         10
    77         90
    78         30
    79         20
    91         20
    93         10
    94         20
   105         10
   107        999
   108        110
   109         10
   115         10
   119         10
   120         20
   121         10
   133         10
   178        160
   179         30