##TITLE=Library Entry 47681
##JCAMP-DX=Revision 4.10 
##DATA TYPE=MASS SPECTRUM
##SAMPLE DESCRIPTION=Asinex Ltd, Moscow, Russia
##NAMES=HP
##CAS NAME=Ethanone, 1-(2,5-diphenyl-2H-1,2,3-triazol-4-yl 3-oxide)-, oxime
##MOLFORM=C16H14N4O2
##CAS REGISTRY NO=322647-19-8
##MP= -300
##BP= -300
##MW= 294
##$RETENTION INDEX=0
##$CONDENSED SPECTRUM=NO
##NPOINTS= 172
##XYDATA=(XY..XY) 1 
    34          0
    37          4
    38         14
    39         46
    40         46
    41         14
    42         31
    43         13
    44          7
    50         56
    51        232
    52         32
    53          4
    54          3
    55          2
    58         19
    61          2
    62         12
    63         46
    64         66
    65         28
    66          4
    67          6
    68          0
    69          0
    70          3
    74         23
    75         41
    77        999
    78        112
    79          6
    80          0
    82          3
    86          2
    87          6
    88         11
    89         47
    91        429
    92         46
    93          5
    94          1
    98          2
    99          3
   100         10
   101         16
   102         35
   103         31
   104         33
   105        362
   106         31
   107          8
   108          0
   110          0
   113          3
   114          9
   115         28
   116         10
   117          7
   118         23
   119          2
   120          0
   121          2
   123          2
   126         10
   127         69
   128         58
   129         34
   130         16
   131          7
   132          3
   133          0
   139         24
   140          8
   141          5
   142         17
   143         13
   144          9
   145          3
   146          0
   148         13
   149          0
   150          0
   151          4
   152          7
   153          2
   154          2
   155          9
   156          4
   157          2
   158          8
   159         20
   160          4
   161          3
   163          0
   165         22
   166         12
   167         39
   168         14
   169          3
   170          1
   171          0
   172          0
   173          1
   175          0
   176         11
   177          8
   178         17
   179          7
   180          6
   181          4
   182          2
   183          1
   189         83
   190         13
   191          7
   192         13
   193         44
   194        229
   195         45
   196          4
   200          0
   201          1
   202          6
   203         10
   204         33
   205         14
   206         12
   207          7
   208         11
   209          3
   211        477
   212         70
   213          6
   216          2
   217         15
   218         29
   219         53
   220         80
   221         27
   222          4
   223          8
   224          1
   230          1
   231          8
   232         15
   233         42
   234         38
   235         17
   236         22
   237          5
   245          6
   246         49
   247         29
   248         11
   249          6
   250          1
   252          1
   259          8
   260         22
   261         89
   262         24
   263         12
   264         38
   265          7
   276          3
   277        169
   278         88
   279         14
   280          0
   294        440
   295         86
   296          9