##TITLE=Library Entry 84266
##JCAMP-DX=Revision 4.10 
##DATA TYPE=MASS SPECTRUM
##SAMPLE DESCRIPTION=Chemical Concepts
##NAMES=HP
##CAS NAME=Na-(3,5-dinitrobenzoyl)tyrosine N'-(1-methylpentylidene)hydrazide
##MOLFORM=C22H25N5O7
##CAS REGISTRY NO=322682-51-9
##MP= -300
##BP= -300
##MW= 471
##$RETENTION INDEX=0
##$CONDENSED SPECTRUM=NO
##NPOINTS= 200
##XYDATA=(XY..XY) 1 
    32          9
    33          3
    34          4
    37          4
    38         10
    39         70
    40         74
    41        231
    42        374
    43        103
    44         95
    45         13
    46          5
    50         25
    51         31
    52         23
    53         35
    54         23
    55        139
    56         69
    57        397
    58         51
    59          8
    60          4
    61          3
    62          9
    63         43
    64         26
    65         38
    66          9
    67         18
    68         21
    69         27
    70         78
    71         58
    72        568
    73         57
    74         35
    75        305
    76         41
    77        139
    78         45
    79         42
    80         13
    81         21
    82         20
    83         47
    84         26
    85         95
    86         18
    87          7
    88          3
    89         19
    90         24
    91        117
    92         17
    93          9
    94         49
    95         13
    96         14
    97         16
    98         98
    99         33
   100         75
   101          9
   102         12
   103        112
   104         26
   105         17
   106         50
   107        999
   108         92
   109         17
   110         14
   111         37
   112         25
   113         48
   114         27
   115         56
   116         17
   117         10
   118         18
   119         75
   120         47
   121         18
   122          7
   123          6
   124          5
   125          9
   126          8
   127          9
   128          7
   129          4
   130          4
   131          6
   132         13
   133         26
   134         72
   135        119
   136         31
   137         18
   138          5
   139         12
   140          5
   141        132
   142         11
   143          3
   144          6
   145         11
   147        649
   148         73
   149        309
   150         34
   151         11
   152          9
   153         41
   154          6
   155          4
   159          3
   160          6
   162         48
   163         29
   164         10
   165         78
   166         11
   167          6
   170         19
   171          7
   175          9
   176          6
   177         16
   178         17
   179         36
   180          8
   181          7
   182          3
   189         10
   190         13
   191          4
   193          5
   195        382
   196         30
   197          7
   201          4
   203        269
   204         34
   205          5
   206          3
   208          4
   209          3
   212          6
   217         32
   218        284
   219         51
   220          8
   224          3
   229          3
   231         11
   232         16
   233          5
   235          3
   237          3
   245         23
   246          8
   258          3
   259          9
   260        188
   261         80
   262         12
   266          3
   267          3
   273         20
   274          6
   279          3
   284          5
   299          4
   300          5
   301          5
   308         13
   313          4
   314         17
   315          3
   322          5
   323          7
   328          3
   329         16
   330         59
   331         17
   332          3
   336         15
   337          3
   356          3
   364         18
   365         49
   366          8
   407          4
   429         48
   430          9
   471         11
   472          3