##TITLE=Library Entry 46845
##JCAMP-DX=Revision 4.10 
##DATA TYPE=MASS SPECTRUM
##SAMPLE DESCRIPTION=Asinex Ltd, Moscow, Russia
##NAMES=HP
##CAS NAME=Ethanone, 1-[(2,5-diphenyl-2H-1,2,3-triazol-4-yl)-, 3-oxide]-
##MOLFORM=C16H13N3O2
##CAS REGISTRY NO=322647-24-5
##MP= -300
##BP= -300
##MW= 279
##$RETENTION INDEX=0
##$CONDENSED SPECTRUM=NO
##NPOINTS= 174
##XYDATA=(XY..XY) 1 
    33          3
    34          1
    36          0
    37          6
    38         21
    39         59
    40         43
    41         18
    43        671
    44         20
    45          1
    46          0
    48          1
    50         98
    51        412
    52         39
    53          5
    54          1
    55          4
    56          0
    57          1
    58          0
    61          6
    62         25
    63         75
    64        105
    65         48
    66          5
    67          1
    68          0
    69          1
    70          0
    71          0
    74         49
    75        111
    76         82
    77        999
    78         75
    79          4
    80          2
    81          1
    82          0
    83          0
    84          0
    85          1
    86          4
    87          9
    88         20
    89         39
    91        686
    92         63
    93          6
    94          2
    95          0
    96          0
    98          5
    99          3
   101         50
   102         20
   103         25
   104         61
   105         36
   106         11
   107          5
   108          3
   109          0
   110          0
   111          0
   112          0
   113          3
   114         17
   115         43
   116          9
   117         11
   118          4
   119          2
   120          0
   123          0
   126          4
   127          7
   129        129
   130         13
   131          7
   132         14
   133          1
   134          3
   135          0
   137          0
   138          0
   139          4
   140          3
   141          3
   142          1
   143          2
   144          9
   145          2
   146          0
   149          0
   150          2
   151          6
   152          8
   153          2
   154          1
   155          0
   156          1
   160          0
   162          0
   163          2
   164          4
   165         22
   166         17
   167         64
   168         25
   169          3
   170          0
   171          0
   172          0
   175          0
   176          8
   177          5
   178         14
   179          7
   180          8
   181          4
   182          1
   183          0
   188          0
   189          1
   190          6
   191          6
   192         18
   193         41
   194        198
   195         31
   196          2
   202          0
   203          1
   204          2
   205          9
   206          7
   207          5
   208          5
   209          1
   210          0
   211          0
   217          1
   218          9
   219         82
   220        266
   221         86
   222         12
   223          0
   231          0
   232          8
   233          4
   234          2
   236        179
   237        139
   238         21
   239          1
   246          0
   248         54
   249        103
   250         18
   251          1
   261          1
   262         31
   263         54
   264         10
   265          1
   279        398
   280         77
   281          9
   282          0