##TITLE=Library Entry 26019
##JCAMP-DX=Revision 4.10 
##DATA TYPE=MASS SPECTRUM
##SAMPLE DESCRIPTION=L.N.Kulikova, V.G. Zaikin, RPFU, Moscow, Russia
##NAMES=HP
##CAS NAME=Propanedioic acid, bis(1-methylpropyl) ester
##MOLFORM=C11H20O4
##CAS REGISTRY NO=32260-07-4
##MP= -300
##BP= -300
##MW= 216
##$RETENTION INDEX=1298
##$CONDENSED SPECTRUM=NO
##NPOINTS= 55
##XYDATA=(XY..XY) 1 
    26          4
    27         81
    29        237
    30          6
    39         51
    41        260
    42        163
    43        102
    45         47
    53          2
    54          4
    55         48
    56        227
    57        999
    58         43
    59         37
    60         62
    61          8
    69         30
    71          3
    72         10
    73        282
    74         12
    83        272
    84          8
    86          4
    87        856
    88         28
    89         11
    97          2
    99          6
   101         26
   105        727
   106         25
   107          6
   113          2
   114          2
   116         42
   117         19
   125        405
   126         32
   127          5
   131        330
   132         37
   133          5
   143        450
   144         36
   145         71
   146          4
   160         14
   161         21
   187         33
   188          3
   201          2
   217          2