##TITLE=Library Entry 84348
##JCAMP-DX=Revision 4.10 
##DATA TYPE=MASS SPECTRUM
##SAMPLE DESCRIPTION=Chemical Concepts
##NAMES=HP
##CAS NAME=Na-(3,5-dinitrobenzoyl)tyrosine N'-(4-propoxybenzylidene)hydrazid
e
##MOLFORM=C26H25N5O8
##CAS REGISTRY NO=322682-71-3
##MP= -300
##BP= -300
##MW= 535
##$RETENTION INDEX=0
##$CONDENSED SPECTRUM=NO
##NPOINTS= 115
##XYDATA=(XY..XY) 1 
    33          7
    36         12
    37         39
    38         73
    39        217
    41        264
    42         62
    43        338
    44        357
    45         15
    50        123
    51        207
    52        130
    53         86
    54         37
    55         27
    57         26
    61         17
    62         40
    63        118
    64         83
    65        180
    66         52
    67         15
    68         36
    69         21
    70         21
    71         29
    73          9
    74         78
    75        398
    76         93
    77        323
    78        311
    79         91
    80         85
    81         47
    82         15
    84          8
    89         63
    90         60
    91        140
    92         39
    94        295
    95         38
   102         42
   103        132
   104         45
   105        227
   106        327
   107        999
   108        123
   109         28
   111          6
   112         16
   117         33
   118         42
   119        381
   120        354
   121        348
   122        110
   123         12
   132         42
   133         44
   134         98
   135        263
   136        376
   137         47
   138         13
   144          6
   146         15
   147        280
   148        182
   149        286
   150         46
   151         13
   159          9
   162        717
   163        295
   164        322
   165         75
   171         32
   176         25
   177        108
   178        421
   179        101
   180          9
   190         17
   194          9
   195        369
   196         41
   204         16
   205        183
   208          6
   211          9
   218        158
   219         28
   231          9
   233          8
   234         22
   235          7
   250         10
   252          4
   268         16
   281         17
   283         11
   284          6
   298          6
   324        104
   325         47
   329         35
   330         46
   428          9
   429         18
   535         44