##TITLE=Library Entry 60310
##JCAMP-DX=Revision 4.10 
##DATA TYPE=MASS SPECTRUM
##SAMPLE DESCRIPTION=Chemical Concepts
##NAMES=HP
##CAS NAME=N-[N-(Benzyloxycarbonyl)seryl]glycine ethylamide
##MOLFORM=C15H21N3O5
##CAS REGISTRY NO=322682-62-2
##MP= -300
##BP= -300
##MW= 323
##$RETENTION INDEX=0
##$CONDENSED SPECTRUM=NO
##NPOINTS= 136
##XYDATA=(XY..XY) 1 
    33          8
    38         20
    39         81
    40          9
    41         61
    42        147
    43         99
    44        228
    45         19
    46        141
    47          5
    49          8
    50         65
    51        117
    52         36
    53         30
    54         17
    55         76
    56        105
    57         44
    58         54
    59         16
    60         76
    61         11
    62         17
    63         37
    64         12
    65        115
    66          9
    67          3
    68          9
    69         14
    70         29
    71         33
    72         75
    73         25
    74         19
    75          9
    77        238
    78         49
    79        341
    80         35
    81          4
    82          4
    83         19
    84         17
    85         50
    86         87
    87        158
    88         10
    89         45
    90         57
    91        999
    92         90
    93          6
    95          2
    96          5
    97          9
    98         28
    99          9
   100          2
   101         36
   102         25
   103         49
   104         51
   105         31
   106         13
   107        197
   108        246
   109         20
   110          1
   111          3
   112         20
   113         18
   114         51
   115         22
   116          4
   117          7
   118          4
   120         18
   121          3
   123          1
   125          4
   126         34
   127          4
   128          1
   129        103
   130         13
   131          5
   132          9
   133          5
   135          1
   137          1
   139          3
   140          6
   141          8
   142          1
   143         16
   144         89
   145          8
   146          4
   148          1
   150         56
   151          9
   152          1
   157          1
   158         17
   159          3
   161          6
   162          2
   167          3
   171          9
   172          9
   173          1
   174          1
   177          7
   178          1
   179          1
   185         26
   186          4
   194         18
   195          2
   197          3
   214          3
   215          2
   216          7
   222          2
   223          1
   248          8
   252          7
   261          1
   292          1
   293         78
   294         14
   295          2
   323          4