##TITLE=Library Entry 99257
##JCAMP-DX=Revision 4.10 
##DATA TYPE=MASS SPECTRUM
##SAMPLE DESCRIPTION=A.A.Kutin, Moscow, Russia
##NAMES=HP
##CAS NAME=Benzoic acid, 2-methyl-, (2-isopropyl-5-methyl)phenyl ester
##MOLFORM=C18H20O2
##CAS REGISTRY NO=32276-66-7
##MP= -300
##BP= -300
##MW= 268
##$RETENTION INDEX=0
##$CONDENSED SPECTRUM=NO
##NPOINTS= 77
##XYDATA=(XY..XY) 1 
    34          0
    37          0
    38          3
    39         61
    40         20
    41         26
    42          1
    43          5
    44          5
    45          4
    46          0
    50         11
    51         27
    52         10
    53         12
    55          5
    56          0
    59          1
    61          2
    62          9
    63         44
    65        187
    66         11
    67          1
    68          0
    69          0
    73          0
    74          4
    75          4
    77         44
    78         13
    79         22
    80          2
    81          2
    82          0
    85          0
    86          0
    87          2
    89         58
    91        499
    92         35
    93          4
    94          0
   102          0
   103          9
   104          2
   105         22
   106         13
   107          4
   108          0
   109          4
   110          0
   115          5
   116          2
   119        999
   120         78
   121          8
   125          0
   126          0
   127          1
   128          0
   133          3
   134          5
   135          4
   136          7
   137          0
   145          0
   149          2
   150          0
   153          2
   163          0
   164          3
   165          1
   195          3
   254          0
   268         26
   269          5