##TITLE=Library Entry 99573
##JCAMP-DX=Revision 4.10 
##DATA TYPE=MASS SPECTRUM
##SAMPLE DESCRIPTION=V.Zaikin,Inst.Petrochem.Synth.,RAS,Moscow
##NAMES=HP
##CAS NAME=Benzoic acid,2-methyl, (2-methylpropyl)ester
##MOLFORM=C12H16O2
##CAS REGISTRY NO=32276-64-5
##MP= -300
##BP= -300
##MW= 192
##$RETENTION INDEX=0
##$CONDENSED SPECTRUM=NO
##NPOINTS= 83
##XYDATA=(XY..XY) 1 
    25          3
    26         15
    27         69
    28         22
    29        126
    30         10
    40         30
    41        187
    42         16
    43         46
    44          5
    50         35
    51         68
    52         25
    53         18
    54          3
    55         23
    56         87
    57        303
    58         16
    59         11
    61         10
    62         28
    63         80
    64         27
    65        218
    66         17
    67          2
    69          9
    70          3
    71          5
    73          7
    74         13
    75         11
    76         11
    77         47
    78         12
    79         33
    80          2
    81          2
    85          8
    86          5
    87          6
    88          5
    89         59
    90        136
    91        558
    92         71
    93         17
    95          3
    96          5
    97          2
    98          6
   101          2
   102         15
   103         11
   104          7
   105         30
   106          3
   107          4
   109          2
   115          2
   116          2
   117         13
   118        523
   119        999
   120        102
   121          6
   122          4
   128          3
   130          8
   131          3
   133          7
   134         10
   135         37
   136        555
   137        126
   138         15
   177          4
   191          4
   192         78
   193         14
   194          2