##TITLE=Library Entry 32967
##JCAMP-DX=Revision 4.10 
##DATA TYPE=MASS SPECTRUM
##SAMPLE DESCRIPTION=KONINKLIJKE SHELL LABORATORIUM AMSTERDAM
##NAMES=HP
##CAS NAME=Pentalene, octahydro-1-methyl-
##MOLFORM=C9H16
##CAS REGISTRY NO=32273-77-1
##MP= -300
##BP= -300
##MW= 124
##$RETENTION INDEX=1031
##$CONDENSED SPECTRUM=NO
##NPOINTS= 64
##XYDATA=(XY..XY) 1 
    32          4
    37          7
    38         27
    39         94
    40         62
    41        109
    42         47
    43         25
    44          2
    45          1
    46          2
    47          1
    49          1
    50         21
    51         56
    52         28
    53        141
    54        178
    55        195
    56         28
    57         14
    58          1
    61          1
    62          5
    63         15
    64          3
    65         43
    66        311
    67        999
    68        221
    69         40
    70          7
    71          3
    74          2
    75          2
    76          1
    77         47
    78         13
    79         69
    80         32
    81        315
    82        367
    83         86
    84          4
    85          2
    91         17
    92          2
    93          9
    94         17
    95        148
    96        205
    97         16
    98          0
   103          1
   105          1
   106          0
   107          2
   108          0
   109         40
   110          3
   123          3
   124        139
   125         13
   126          0