##TITLE=Library Entry 62464
##JCAMP-DX=Revision 4.10 
##DATA TYPE=MASS SPECTRUM
##SAMPLE DESCRIPTION=Chemical Concepts
##NAMES=HP
##CAS NAME=S-Benzyl-N2-(4-nitrobenzoyl)cysteine N'-(1-methylpropylidene)hydr
azone
##MOLFORM=C21H24N4O4S
##CAS REGISTRY NO=322756-55-8
##MP= -300
##BP= -300
##MW= 428
##$RETENTION INDEX=0
##$CONDENSED SPECTRUM=NO
##NPOINTS= 196
##XYDATA=(XY..XY) 1 
    33         11
    34          4
    37          6
    38         11
    39         65
    40         39
    41         77
    42        269
    43         54
    44         56
    45         80
    46          7
    47          6
    48          2
    50         49
    51         35
    52         12
    53         13
    54         19
    55         42
    56         36
    57         46
    58          8
    59          9
    60          3
    61          5
    62         11
    63         34
    64         32
    65        133
    66         10
    68         20
    69         36
    70         93
    71         47
    72        153
    73         11
    74         15
    75         41
    76        142
    77         45
    78         12
    79         11
    80          2
    81          2
    82          4
    83          8
    84         10
    85         30
    86        118
    87        402
    88         21
    89         23
    91        999
    92        211
    93         16
    94          2
    95          3
    96          2
    97          7
    98          2
    99          5
   100          1
   101          4
   102         16
   104        270
   105         27
   106          9
   107          4
   108          2
   109          3
   110          1
   111         23
   113        173
   114          9
   115          6
   116          2
   117          8
   118          6
   120        208
   121         39
   122         20
   123         16
   124         41
   125         20
   126          6
   127          1
   128          1
   129          2
   130          1
   131          4
   132          3
   133          4
   134         26
   135          8
   136          7
   137         18
   139        107
   140         12
   141         17
   142          2
   143          3
   144          1
   145          2
   146          4
   147          3
   148          6
   149         79
   150        457
   151         41
   152          7
   153          3
   154         11
   155          1
   156          7
   157          1
   158          1
   159          1
   160          2
   161          3
   162          2
   163          4
   164          5
   165          4
   166          6
   167          5
   171         72
   172          9
   173          6
   174          2
   175          8
   177         63
   178          9
   179          7
   188          2
   189          4
   190          1
   191          9
   192          8
   193         27
   194         11
   195          2
   196          2
   203          2
   204          1
   206          3
   207          2
   217          4
   218          2
   219         31
   220          7
   221          8
   222          2
   223          3
   224          1
   225          6
   233         21
   234          8
   235          5
   236         70
   237          9
   238          5
   247          2
   250          1
   251         35
   252          5
   253          3
   257          2
   261          2
   262          8
   263          5
   264          1
   275          6
   276          1
   277         12
   278          2
   289          2
   290          1
   291          5
   292          1
   303          2
   304          3
   305         20
   306         20
   307         11
   308          2
   319          2
   321          2
   334          1
   335          2
   337        214
   338         36
   339         15
   340          2
   343          1
   428          6