##TITLE=Library Entry 50832
##JCAMP-DX=Revision 4.10 
##DATA TYPE=MASS SPECTRUM
##SAMPLE DESCRIPTION=CARL DJERASSI DEPT OF CHEM STANFORD UNIV STANFORD CALIF
 94305
##NAMES=HP
##CAS NAME=1,3-Cyclohexanediol, (Z)-, 2TMS derivative
##MOLFORM=C12H28O2Si2
##CAS REGISTRY NO=32282-77-2
##MP= -300
##BP= -300
##MW= 260
##$RETENTION INDEX=0
##$CONDENSED SPECTRUM=NO
##NPOINTS= 103
##XYDATA=(XY..XY) 1 
    41         40
    42         10
    43         70
    44         20
    45         90
    46         10
    47         40
    48         10
    49         10
    50         10
    51         10
    52         10
    53         20
    54         20
    55         20
    56         10
    57         10
    58         10
    59         60
    60         10
    61         30
    62         10
    65         10
    66         20
    67         10
    68         10
    69         10
    70         10
    71         10
    72         10
    73        500
    74         50
    75        250
    76         10
    77         20
    78         10
    79         40
    80         30
    81        999
    82         60
    83         10
    85         10
    87         10
    88         10
    89         10
    91         10
    94         60
    95         10
    99         10
   101        140
   102         20
   103         10
   105         10
   111         10
   113         10
   114         10
   115         30
   116        320
   117         30
   118         10
   119         10
   127         10
   129        110
   130         20
   131         40
   132         10
   133         10
   134         40
   135         50
   136         10
   141         10
   142         20
   143         10
   144         10
   145         10
   147        610
   148         90
   149        160
   150         20
   151         10
   155        110
   156         10
   157         10
   165         30
   166         10
   167         10
   168         10
   169         80
   170        440
   171         70
   172         20
   175         10
   191         10
   203         10
   204         10
   217        230
   218         50
   219         20
   220         10
   245         30
   246         10
   247         10
   260         10