##TITLE=Library Entry 68507
##JCAMP-DX=Revision 4.10 
##DATA TYPE=MASS SPECTRUM
##SAMPLE DESCRIPTION=NIST Mass Spectrometry Data Center, 1990.
##NAMES=HP
##CAS NAME=1-Ethyl-2-methylcyclohexanol
##MOLFORM=C9H18O
##CAS REGISTRY NO=32296-45-0
##MP= -300
##BP= -300
##MW= 142
##$RETENTION INDEX=0
##$CONDENSED SPECTRUM=NO
##NPOINTS= 54
##XYDATA=(XY..XY) 1 
    14         12
    26         16
    27        158
    28         32
    29        193
    31         30
    39        204
    40         49
    41        361
    42         80
    43        540
    44         26
    45        129
    50         13
    51         49
    52         22
    53        138
    54         44
    55        292
    56         66
    57        433
    58         21
    59         21
    63         11
    65         53
    67        422
    68        136
    69        183
    70         31
    71         96
    72        264
    73         59
    77         67
    78         14
    79         82
    80         21
    81        144
    82         62
    83         52
    85        748
    86        120
    91         39
    93         42
    95        999
    96         90
    97         16
    99        213
   100         45
   105         13
   109         61
   113        858
   114         71
   124         90
   125         11