##TITLE=Library Entry 59792
##JCAMP-DX=Revision 4.10 
##DATA TYPE=MASS SPECTRUM
##SAMPLE DESCRIPTION=Div. of Experiment Therapeutics WRAIR, WRAMC, Washingto
n DC 20307
##NAMES=HP
##CAS NAME=Isoxazolidin-3-one-4-amine, N,N'-bis(benzyloxycarbonyl)-
##MOLFORM=C19H18N2O6
##CAS REGISTRY NO=32296-75-6
##MP= -300
##BP= -300
##MW= 370
##$RETENTION INDEX=0
##$CONDENSED SPECTRUM=NO
##NPOINTS= 67
##XYDATA=(XY..XY) 1 
    41         21
    42         16
    43         23
    44         31
    45          7
    46          5
    49          4
    50         19
    51         51
    52         14
    53          6
    55          4
    56          0
    58         13
    59          3
    60          5
    61          1
    62          3
    63         30
    65        107
    66          5
    69          1
    70          2
    72          1
    73          0
    74          7
    75          5
    77         71
    79         71
    80          4
    83          0
    84          1
    86          5
    87          0
    89         34
    91        999
    92         59
    93          2
   101          3
   103          0
   104          4
   105         16
   106          5
   107         74
   108         45
   109          3
   116          0
   117          4
   118          0
   119          0
   122          1
   132          6
   133          1
   147          8
   148          2
   151          5
   163          0
   164          0
   165          0
   178          3
   180          7
   181         10
   191          6
   196          3
   213          9
   222         13
   239          0