##TITLE=Library Entry 97119
##JCAMP-DX=Revision 4.10 
##DATA TYPE=MASS SPECTRUM
##SAMPLE DESCRIPTION=Chemical Concepts
##NAMES=HP
##CAS NAME=1,3,2-Diazaphospholidine, 1,2,3-trimethyl-
##MOLFORM=C5H13N2P
##CAS REGISTRY NO=32294-62-5
##MP= -300
##BP= -300
##MW= 132
##$RETENTION INDEX=0
##$CONDENSED SPECTRUM=NO
##NPOINTS= 89
##XYDATA=(XY..XY) 1 
    25          1
    26         15
    27         27
    28         44
    29          9
    30         25
    31          2
    33          7
    36          0
    37          1
    38          2
    39          6
    40          7
    41         21
    42        172
    43         26
    44         40
    45         42
    46         59
    47         63
    48          2
    49          2
    50          7
    51         10
    52         10
    53          1
    54          7
    55          5
    56         17
    57          7
    58         27
    59         38
    60        364
    61         16
    62          5
    63          2
    65          0
    66          4
    67          0
    68          0
    69          1
    70          3
    71          1
    72         10
    73          8
    74        619
    75         19
    76         26
    77         11
    78         41
    79          3
    81          0
    82          0
    83          3
    84          1
    85          1
    86          4
    87          2
    88         68
    89         27
    90         35
    91          3
    92          1
    93          0
    97          0
    98          0
    99          0
   100          7
   101         28
   102          3
   103          7
   104          0
   105          1
   106          0
   113          0
   114          0
   115        100
   116         12
   117        999
   118         66
   119          2
   120          0
   121          0
   128          0
   129          0
   131          1
   132         91
   133          7
   134          0