##TITLE=Library Entry 22014
##JCAMP-DX=Revision 4.10 
##DATA TYPE=MASS SPECTRUM
##SAMPLE DESCRIPTION=John Halket,Royal Holloway, University of London, UK
##NAMES=HP
##CAS NAME=1-Piperidinyloxy, 4-(hydroxyimino)-2,2,6,6-tetramethyl-
##MOLFORM=C9H17N2O2
##CAS REGISTRY NO=3229-75-2
##MP= -300
##BP= -300
##MW= 185
##$RETENTION INDEX=0
##$CONDENSED SPECTRUM=NO
##NPOINTS= 118
##XYDATA=(XY..XY) 1 
    14          1
    15         15
    19          1
    26          7
    27         94
    28         67
    29        138
    30         72
    31         20
    33          1
    37          3
    38         12
    39        195
    40         53
    41        417
    42        152
    43         59
    44         11
    45          7
    46          3
    49          1
    50          6
    51         17
    52         16
    53         80
    54         61
    55        286
    56        999
    57        108
    58         35
    59        217
    60         11
    61          2
    62          2
    63          4
    64          5
    65         18
    66         18
    67         48
    68         26
    69         24
    70         20
    71         14
    72          8
    73         17
    74         62
    75          3
    76          1
    77         16
    78          5
    79         31
    80         32
    81         71
    82        252
    83         37
    84         21
    85          2
    86         10
    87          1
    91          8
    92          3
    93          9
    94         27
    95         17
    96         67
    97         47
    98        110
    99         18
   100         22
   101          1
   103          1
   104          1
   105          3
   106          5
   107         11
   108         24
   109         12
   110          6
   111          7
   112         20
   113         37
   114          3
   115          1
   118          1
   119          2
   120          4
   121          5
   122         36
   123         21
   124         19
   125         12
   126          4
   127         64
   128          5
   129          2
   134          1
   135          4
   136         10
   137         11
   138         21
   139          9
   140        161
   141         15
   142          1
   143          1
   151          1
   152          3
   153          7
   154         11
   155         23
   156          2
   169          3
   170         14
   171         20
   172          2
   185         96
   186         16
   187          2