##TITLE=Library Entry 9916
##JCAMP-DX=Revision 4.10 
##DATA TYPE=MASS SPECTRUM
##SAMPLE DESCRIPTION=F.CHASTRETTE,LAB. CHIM. ORG. PHYS.,UNIV. LYON,VILLEURBA
NNE,FR.
##NAMES=HP
##CAS NAME=2-Acetyl-2-methyltetrahydrofuran
##MOLFORM=C7H12O2
##CAS REGISTRY NO=32318-87-9
##MP= -300
##BP= -300
##MW= 128
##$RETENTION INDEX=0
##$CONDENSED SPECTRUM=NO
##NPOINTS= 9
##XYDATA=(XY..XY) 1 
    43        999
    55         10
    69          3
    83          7
    85        430
    86         40
   100          3
   113          1
   128          7