##TITLE=Library Entry 38239
##JCAMP-DX=Revision 4.10 
##DATA TYPE=MASS SPECTRUM
##SAMPLE DESCRIPTION=Japan AIST/NIMC Database- Spectrum MS-NW-7488
##NAMES=HP
##CAS NAME=Diethyl 3-hydroxyglutarate
##MOLFORM=C9H16O5
##CAS REGISTRY NO=32328-03-3
##MP= -300
##BP= -300
##MW= 204
##$RETENTION INDEX=0
##$CONDENSED SPECTRUM=NO
##NPOINTS= 126
##XYDATA=(XY..XY) 1 
    12          3
    13          6
    14         44
    15         90
    16          4
    17          3
    18         12
    24          2
    25          5
    26         37
    27        262
    28         87
    29        849
    30         23
    31        160
    32          2
    33          1
    34          1
    37          1
    38          4
    39         46
    40         18
    41         68
    42        344
    43        864
    44        187
    45        292
    46         23
    47         58
    48          4
    49          1
    53          2
    54          2
    55         28
    56         62
    57         53
    58         42
    59         10
    60        495
    61        300
    62         10
    63          2
    65          1
    66          1
    67          2
    68         49
    69         42
    70        164
    71        999
    72         40
    73         34
    74          4
    75        134
    76          5
    77          1
    80          1
    82          1
    83          3
    84        137
    85        143
    86         80
    87         74
    88        524
    89        378
    90         15
    91          4
    94          1
    95         33
    96          3
    97          3
    98          2
    99         17
   100          4
   101          6
   102         39
   103         24
   104          2
   105          1
   106          1
   108          1
   109          1
   110          1
   111         51
   112         23
   113        552
   114         76
   115         56
   116         15
   117        663
   118         40
   119          6
   120          1
   125          1
   127          3
   128          3
   129         22
   130        496
   131         46
   132          8
   133          1
   139          1
   140         47
   141        847
   142         81
   143         10
   144          1
   145         14
   146          2
   156          3
   157         42
   158          8
   159         49
   160          4
   161          1
   169          1
   171          1
   175          1
   177          1
   184          2
   185          4
   186          2
   187          4
   188          3
   203          1
   204          1
   205          2