##TITLE=Library Entry 28810
##JCAMP-DX=Revision 4.10 
##DATA TYPE=MASS SPECTRUM
##SAMPLE DESCRIPTION=Chuck Anderson, Aldrich Chemical Co.
##NAMES=HP
##CAS NAME=4-Dimethylamino-2,2,6,6-tetramethylpiperidine
##MOLFORM=C11H24N2
##CAS REGISTRY NO=32327-90-5
##MP= -300
##BP= -300
##MW= 184
##$RETENTION INDEX=0
##$CONDENSED SPECTRUM=NO
##NPOINTS= 95
##XYDATA=(XY..XY) 1 
    15         18
    18         15
    26          2
    27         27
    28         35
    29         43
    30         29
    31          0
    32          1
    35          3
    36         20
    37          1
    38          8
    39         39
    40          9
    41        139
    42        328
    43         41
    44         42
    45          9
    46          6
    51          2
    52          2
    53         16
    54         12
    55         95
    56        149
    57        127
    58        999
    59         35
    63          1
    64          0
    65          7
    66          3
    67         23
    68         15
    69         10
    70        112
    71        202
    72        179
    73          8
    75          0
    76          1
    77          7
    79          9
    80          7
    81         13
    82         44
    83         16
    84         37
    85        221
    86         17
    91          3
    92          1
    93          3
    94         10
    95          6
    96         38
    97         12
    98        973
    99         71
   100          3
   105          0
   106          1
   107          5
   108          9
   109          3
   110         17
   111          5
   112        289
   113         41
   114          3
   121          0
   122          4
   123          1
   124         55
   125          7
   126         18
   127        240
   128         18
   135          1
   137          0
   138          1
   140         27
   141          5
   151          1
   152         18
   153          5
   167          7
   168          0
   169         49
   170          4
   182          1
   184         98
   185         10