##TITLE=Library Entry 56633
##JCAMP-DX=Revision 4.10 
##DATA TYPE=MASS SPECTRUM
##SAMPLE DESCRIPTION=Div. of Experiment Therapeutics WRAIR, WRAMC, Washingto
n DC 20307
##NAMES=HP
##CAS NAME=2,2'-Bis[N-[5-diethylaminopent-2-yl]carbamyl]diphenyl disulfide
##MOLFORM=C32H50N4O2S2
##CAS REGISTRY NO=32330-23-7
##MP= -300
##BP= -300
##MW= 586
##$RETENTION INDEX=0
##$CONDENSED SPECTRUM=NO
##NPOINTS= 135
##XYDATA=(XY..XY) 1 
    41        115
    42         79
    43         25
    44         58
    45         13
    46          2
    47          5
    48          3
    49         30
    50          7
    51         15
    52          1
    53          6
    54          9
    55         17
    56         73
    57         24
    58        145
    59          6
    60          1
    61          1
    62          1
    63          8
    64          5
    65         15
    66          2
    67         12
    68          7
    69         72
    70         32
    71         39
    72         70
    73         16
    74         13
    75          3
    76          6
    77          7
    78          2
    79          1
    80          2
    81          3
    82         16
    83         11
    84         88
    85          4
    86        999
    87         74
    88          4
    90          1
    91          3
    92          3
    93          2
    94          1
    95          6
    96         11
    97          3
    98         27
    99         50
   100          7
   101          2
   102          1
   103          1
   104          2
   105          6
   106          2
   107          1
   108         26
   109         24
   110         10
   111          6
   112        156
   113         17
   114          3
   115          1
   117          0
   121          2
   122          3
   123          3
   124         13
   125          3
   126          6
   127          1
   128          1
   131          1
   134          3
   135          1
   136         39
   137         30
   138          7
   139         34
   140          9
   141          1
   142         20
   143          2
   146          0
   148          1
   149          1
   150          2
   151         22
   152         33
   153          4
   154          4
   155          0
   157          1
   164          5
   165          0
   166          1
   171          0
   178         13
   179          1
   180          1
   192          1
   203          1
   204          3
   218          1
   219          1
   220         10
   221          2
   222          2
   234          1
   245          1
   263          5
   265          1
   277          3
   279          1
   292         14
   293          6
   294          5
   295          1
   307          3
   308          2
   571          9
   572          3
   586          0
   587          0