##TITLE=Library Entry 51051
##JCAMP-DX=Revision 4.10 
##DATA TYPE=MASS SPECTRUM
##SAMPLE DESCRIPTION=NIST Mass Spectrometry Data Center, 1990.
##NAMES=HP
##CAS NAME=1,1-Diethylpropargylamine
##MOLFORM=C7H13N
##CAS REGISTRY NO=3234-64-8
##MP= -300
##BP= -300
##MW= 111
##$RETENTION INDEX=0
##$CONDENSED SPECTRUM=NO
##NPOINTS= 46
##XYDATA=(XY..XY) 1 
    15          7
    16          1
    17          2
    18         10
    25          3
    26         18
    27         82
    28        108
    29         55
    30         47
    32          1
    37          4
    38         12
    39         79
    40         31
    41         47
    42        138
    43          7
    44          6
    49          2
    50         14
    51         27
    52         84
    53         59
    54         37
    55         86
    56         27
    57          2
    61          2
    62          7
    63         10
    64          4
    65         44
    66         14
    67         93
    68          7
    77         11
    79          7
    80         35
    82        999
    83         60
    84          2
    86          3
    91          2
    93          2
    94          2