##TITLE=Library Entry 2443
##JCAMP-DX=Revision 4.10 
##DATA TYPE=MASS SPECTRUM
##SAMPLE DESCRIPTION=NIST Mass Spectrometry Data Center
##NAMES=HP
##CAS NAME=Oxirane, dodecyl-
##MOLFORM=C14H28O
##CAS REGISTRY NO=3234-28-4
##MP= -300
##BP= -300
##MW= 212
##$RETENTION INDEX=0
##$CONDENSED SPECTRUM=NO
##NPOINTS= 82
##XYDATA=(XY..XY) 1 
    14          1
    15         22
    16          1
    18          4
    27        278
    28         77
    29        539
    30         16
    31         63
    32          1
    33          1
    39        220
    41        999
    42        231
    43        716
    44         56
    45         41
    46          1
    50          2
    51          8
    53         79
    54        185
    55        682
    56        263
    57        418
    58        248
    59         27
    60          1
    63          1
    65         17
    66         42
    67        353
    68        317
    69        363
    70        197
    71        569
    72         42
    73          2
    77          9
    79         38
    81        276
    82        365
    83        254
    84         85
    85        126
    86         10
    87          3
    91          4
    93         10
    95        180
    96        175
    97        133
    98         37
    99         13
   100          3
   101          1
   107          2
   109         71
   110         51
   111         44
   112         19
   113         15
   114          1
   123         30
   124         24
   125         13
   126         10
   127         10
   128          1
   137         15
   138         11
   139          2
   140          2
   141          3
   151          3
   152          5
   154          6
   155          3
   165          0
   166          2
   168          1
   169          2