##TITLE=Library Entry 43938
##JCAMP-DX=Revision 4.10 
##DATA TYPE=MASS SPECTRUM
##SAMPLE DESCRIPTION=Exported from NIST MS Search
##NAMES=HP
##CAS NAME=m-Coumaric acid, 2TMS derivative
##MOLFORM=C15H24O3Si2
##CAS REGISTRY NO=32342-01-1
##MP= -300
##BP= -300
##MW= 308
##$RETENTION INDEX=1886
##$CONDENSED SPECTRUM=NO
##NPOINTS= 50
##XYDATA=(XY..XY) 1 
    45        140
    50         20
    51         20
    52         20
    73        999
    74        130
    75        350
    76         50
    89         40
    91         40
   105         60
   107         30
   108         30
   132         20
   133         30
   135         30
   139        140
   140         30
   145         30
   146         30
   147         80
   149         30
   159         30
   161         50
   175         50
   177         20
   179         30
   190         20
   191         20
   192         30
   203        190
   204         50
   205         20
   219        280
   220         70
   221         30
   233         20
   235         20
   249        150
   250         30
   251         20
   293        460
   294        130
   295         50
   296         20
   307         30
   308        540
   309        180
   310         70
   311         20