##TITLE=Library Entry 23199
##JCAMP-DX=Revision 4.10 
##DATA TYPE=MASS SPECTRUM
##SAMPLE DESCRIPTION=NIST Mass Spectrometry Data Center, 1998.
##NAMES=HP
##CAS NAME=2-Butene-1,4-diol, 2,3-dibromo-
##MOLFORM=C4H6Br2O2
##CAS REGISTRY NO=3234-02-4
##MP= -300
##BP= -300
##MW= 244
##$RETENTION INDEX=0
##$CONDENSED SPECTRUM=NO
##NPOINTS= 142
##XYDATA=(XY..XY) 1 
    14          3
    15          6
    24          3
    25         15
    26         65
    27        150
    28          3
    29        719
    30         33
    31        365
    32          4
    33          1
    34          1
    36         13
    37         98
    38        181
    39        737
    40         78
    41         75
    42         63
    43         66
    44          4
    45          9
    47         15
    48          3
    49         27
    50         90
    51         78
    52         30
    53        107
    54         28
    55        308
    56         32
    57        999
    58         38
    59          3
    60          1
    65          4
    66         31
    67         45
    68        170
    69         32
    70          2
    71          6
    73          1
    74          1
    79         32
    80         25
    81         43
    82         27
    83         20
    84         13
    85        598
    86        270
    87         13
    88          1
    91          9
    92          4
    93         37
    94          5
    95         28
    96          1
   103          7
   104         32
   105        102
   106         36
   107        124
   108          6
   109         46
   110          1
   111         14
   115          3
   116         15
   117        111
   118         54
   119        573
   120         55
   121        470
   122         29
   123         14
   124         11
   125          5
   129          2
   130          2
   131         18
   132          3
   133         45
   134          3
   135         71
   136          5
   137         42
   138          2
   139          2
   145          1
   146         11
   147        324
   148         24
   149        309
   150         14
   151          1
   158          1
   160          2
   161          2
   162          2
   163          3
   164          3
   165         40
   166          4
   167         38
   168          2
   171          2
   173          4
   175          2
   182          4
   183          9
   184          9
   185         20
   186          5
   187         11
   189          2
   195          1
   196          2
   197          7
   198          5
   199         11
   200          6
   201          6
   202          3
   213          4
   215          8
   217          4
   226          9
   227          1
   228         20
   229          1
   230          9
   244         83
   245          3
   246        159
   247          7
   248         78
   249          3