##TITLE=Library Entry 82283
##JCAMP-DX=Revision 4.10 
##DATA TYPE=MASS SPECTRUM
##SAMPLE DESCRIPTION=Japan AIST/NIMC Database- Spectrum MS-IW-4469
##NAMES=HP
##CAS NAME=4',4'''-Bi-O-benzotoluidide
##MOLFORM=C28H24N2O2
##CAS REGISTRY NO=32357-88-3
##MP= -300
##BP= -300
##MW= 420
##$RETENTION INDEX=0
##$CONDENSED SPECTRUM=NO
##NPOINTS= 88
##XYDATA=(XY..XY) 1 
    27          1
    28          7
    39          1
    43          1
    50          3
    51         14
    52          2
    57          1
    63          1
    71          1
    75          1
    76          9
    77        303
    78         22
    79          1
    91          1
   103         12
   104          7
   105        999
   106         89
   107          5
   115          2
   127          1
   128          1
   139          1
   140          1
   141          1
   151          1
   152          2
   153          2
   154          1
   165          3
   166          2
   167          3
   168          1
   178          1
   180          4
   181          2
   182          3
   183          1
   185          1
   192          1
   193          2
   194          2
   195          4
   196          2
   197          1
   207          1
   208          1
   209          2
   210          9
   211          5
   212         19
   213          5
   214         20
   215          3
   269          1
   283          4
   284          1
   285          1
   288          1
   297          1
   298          4
   299          2
   300          1
   301          1
   313          1
   314          1
   315        111
   316         36
   317         86
   318         18
   319          2
   341          1
   342          1
   358          1
   384          1
   402          2
   403          2
   404          2
   405          2
   406          1
   418          1
   419          7
   420        718
   421        227
   422         36
   423          4