##TITLE=Library Entry 42536
##JCAMP-DX=Revision 4.10 
##DATA TYPE=MASS SPECTRUM
##SAMPLE DESCRIPTION=Exported from NIST MS Search
##NAMES=HP
##CAS NAME=Riboprine, 3TMS derivative
##MOLFORM=C24H45N5O4Si3
##CAS REGISTRY NO=32352-57-1
##MP= -300
##BP= -300
##MW= 551
##$RETENTION INDEX=0
##$CONDENSED SPECTRUM=NO
##NPOINTS= 109
##XYDATA=(XY..XY) 1 
    72         35
    73        999
    74         95
    75        374
    76         32
    77         30
    89         30
   101         42
   103        145
   104         17
   105         15
   108         40
   115         40
   116         37
   117         77
   119         40
   120         25
   129         77
   131         50
   132         15
   133         70
   134         17
   135        190
   136        155
   143         27
   145         45
   147        761
   148        163
   149         95
   157         25
   158         30
   159         17
   160        100
   161         20
   162         15
   164        213
   165         17
   169         37
   171         35
   173         20
   186         40
   187         20
   188         72
   189         27
   191         17
   192         30
   194         17
   202         95
   203        145
   204         85
   205         25
   206         20
   207         30
   208         30
   217        246
   218         75
   219         40
   220         15
   221         20
   230        273
   231         75
   232        266
   233         47
   234         45
   243         50
   244         15
   245         70
   246         32
   250         67
   258         20
   259         87
   260         35
   261         20
   262         27
   274         42
   275         15
   276         62
   277         17
   278         17
   302         20
   304         17
   318         45
   319         20
   320         12
   333         20
   348         45
   349         17
   396         25
   407         17
   411         17
   448         10
   449         10
   463         12
   464         40
   465         15
   468         30
   479        168
   480         65
   481         17
   483         17
   507         12
   508         17
   509          5
   536         57
   537         32
   538         17
   551        190
   552         87
   553         30