##TITLE=Library Entry 43506
##JCAMP-DX=Revision 4.10 
##DATA TYPE=MASS SPECTRUM
##SAMPLE DESCRIPTION=Exported from NIST MS Search
##NAMES=HP
##CAS NAME=N6-(3-Methyl-3-butenyl)adenosine, 3TMS derivative
##MOLFORM=C24H45N5O4Si3
##CAS REGISTRY NO=32352-58-2
##MP= -300
##BP= -300
##MW= 551
##$RETENTION INDEX=0
##$CONDENSED SPECTRUM=NO
##NPOINTS= 103
##XYDATA=(XY..XY) 1 
    73        999
    74         93
    75        248
    76         38
    77         27
    89         20
   102         17
   103        156
   115         48
   116         30
   117         65
   119         45
   120         20
   121         15
   128         75
   129         17
   130         38
   131         12
   132         75
   133         17
   134         65
   135         20
   147        298
   148        594
   149        116
   169         58
   170         12
   171         12
   187         25
   188         20
   189         45
   190         25
   191         32
   192         17
   202         86
   203        164
   204        167
   205         40
   206         27
   207         32
   217        405
   218        106
   219         55
   220        126
   221         40
   222         17
   229         17
   230        637
   231        169
   232        792
   233        103
   234         83
   235         25
   257         30
   258         43
   259        202
   260         91
   261         40
   262        162
   263         38
   264         15
   274         43
   275         45
   276        164
   277         35
   278         32
   302         17
   303         20
   316         10
   317         17
   318        230
   319         58
   320         38
   321         10
   330         20
   333         55
   334         30
   335         20
   348         81
   349         30
   350         20
   390         17
   406          5
   408         15
   409          7
   424         35
   448         15
   449         35
   450         15
   464         45
   465         22
   479        162
   480         55
   481         25
   496        111
   497         43
   498         15
   536        146
   537         65
   538         35
   551        544
   552        248
   553        101