##TITLE=Library Entry 82299
##JCAMP-DX=Revision 4.10 
##DATA TYPE=MASS SPECTRUM
##SAMPLE DESCRIPTION=Japan AIST/NIMC Database- Spectrum MS-IW-4470
##NAMES=HP
##CAS NAME=4',4'''-Bi-O-benzanisidide
##MOLFORM=C28H24N2O4
##CAS REGISTRY NO=32357-89-4
##MP= -300
##BP= -300
##MW= 452
##$RETENTION INDEX=0
##$CONDENSED SPECTRUM=NO
##NPOINTS= 130
##XYDATA=(XY..XY) 1 
    28          2
    39          1
    41          1
    43          3
    44          1
    45          1
    50          1
    51         11
    52          1
    55          2
    56          1
    57          4
    60          2
    67          1
    69          2
    70          1
    71          3
    75          1
    76          5
    77        261
    78         17
    79          1
    81          1
    83          2
    85          2
    91          1
    93          2
    95          1
    96          1
    97          2
    99          1
   102          1
   103          1
   104          3
   105        999
   106         84
   107          5
   109          1
   111          1
   113          1
   114          1
   115          3
   116          1
   125          1
   127          2
   128          1
   129          1
   130          1
   135          1
   139          2
   140          2
   141          1
   142          1
   143          1
   149          1
   152          1
   153          1
   154          3
   155          2
   156          2
   157          1
   166          2
   167          3
   168          4
   169          2
   170          1
   171          1
   181          3
   182          3
   183          4
   184          5
   185          3
   195          1
   196          1
   197          3
   198          2
   199          3
   200          1
   211          2
   212          3
   213          2
   214          4
   215          2
   216          1
   225          1
   226          1
   227          2
   228          1
   230          3
   241          1
   242          2
   243          3
   244          4
   245          1
   246          6
   247          1
   287          1
   301          1
   302          1
   304          1
   305          4
   306          1
   315          1
   316          1
   317          4
   318          4
   319          7
   320          2
   329          4
   330          2
   331          1
   333         18
   334          5
   346          3
   347         71
   348         24
   349         50
   350         10
   351          1
   420          2
   421         12
   422          4
   435          1
   437          1
   451          2
   452        705
   453        217
   454         38
   455          5
   456          1