##TITLE=Library Entry 97218
##JCAMP-DX=Revision 4.10 
##DATA TYPE=MASS SPECTRUM
##SAMPLE DESCRIPTION=HCACAV,61(8)2941(1978); M. JULLIARD ET AL
##NAMES=HP
##CAS NAME=Benzaldehyde, 4-methyl-, oxime
##MOLFORM=C8H9NO
##CAS REGISTRY NO=3235-02-7
##MP= -300
##BP= -300
##MW= 135
##$RETENTION INDEX=1234
##$CONDENSED SPECTRUM=NO
##NPOINTS= 11
##XYDATA=(XY..XY) 1 
    63        180
    65        290
    79        110
    89        370
    90        670
    91        660
    92        670
   116        660
   117        999
   118        440
   135        630