##TITLE=Library Entry 8972
##JCAMP-DX=Revision 4.10 
##DATA TYPE=MASS SPECTRUM
##SAMPLE DESCRIPTION=CARL DJERASSI DEPT OF CHEM STANFORD UNIV STANFORD CALIF
 94305
##NAMES=HP
##CAS NAME=Ether, hexyl pentyl
##MOLFORM=C11H24O
##CAS REGISTRY NO=32357-83-8
##MP= -300
##BP= -300
##MW= 172
##$RETENTION INDEX=0
##$CONDENSED SPECTRUM=NO
##NPOINTS= 20
##XYDATA=(XY..XY) 1 
    39         20
    41        140
    42        110
    43        999
    44         30
    45         20
    55        110
    56        190
    57        100
    69        120
    70        130
    71        580
    72         20
    83         70
    84         90
    85        290
    86         20
    87         10
    89         30
   101         20