##TITLE=Library Entry 38234
##JCAMP-DX=Revision 4.10 
##DATA TYPE=MASS SPECTRUM
##SAMPLE DESCRIPTION=Chemical Concepts
##NAMES=HP
##CAS NAME=Butyrylthioacetic acid, ethyl ester
##MOLFORM=C8H14O3S
##CAS REGISTRY NO=32357-35-0
##MP= -300
##BP= -300
##MW= 190
##$RETENTION INDEX=0
##$CONDENSED SPECTRUM=NO
##NPOINTS= 83
##XYDATA=(XY..XY) 1 
    26         13
    27        148
    28         11
    29        148
    30          6
    31         16
    33          2
    34          2
    38          4
    39         46
    40         10
    41        146
    42         70
    43        773
    44         43
    45         44
    46         50
    47         53
    48          8
    49          3
    53          3
    55         32
    56          3
    57          5
    58          6
    59         19
    60         16
    61         12
    63         11
    64          2
    65          2
    67          3
    69          7
    70         19
    71        999
    72         54
    73         10
    74         43
    75         12
    76          7
    77          5
    78          2
    79          3
    81          3
    87          7
    88         40
    89          6
    91         21
    92         10
    93          7
    94          3
    95          3
   101          2
   102          3
   103         17
   104          2
   105          4
   106          1
   107          2
   108          2
   109          2
   115          2
   116          2
   117         32
   118          3
   119         19
   120         12
   121          7
   122          2
   123          2
   129          2
   130          1
   133          2
   134          1
   143          1
   144          3
   145         75
   146         10
   147         12
   148          2
   190         29
   191          5
   192          3