##TITLE=Library Entry 37872
##JCAMP-DX=Revision 4.10 
##DATA TYPE=MASS SPECTRUM
##SAMPLE DESCRIPTION=Exported from NIST MS Search
##NAMES=HP
##CAS NAME=4(3H)-Pyrimidinone, 2-ethyl-3,6-dimethyl-
##MOLFORM=C8H12N2O
##CAS REGISTRY NO=32363-54-5
##MP= -300
##BP= -300
##MW= 152
##$RETENTION INDEX=0
##$CONDENSED SPECTRUM=NO
##NPOINTS= 27
##XYDATA=(XY..XY) 1 
    42        650
    43         30
    52         30
    53         30
    54        130
    55        110
    56        100
    67         80
    68        300
    69        710
    70        999
    71         50
    81         30
    82        130
    83         80
    95         30
    96         70
    97         30
   109        100
   110         30
   123        200
   124        280
   125         30
   137        180
   151        280
   152        980
   153        120