##TITLE=Library Entry 70758
##JCAMP-DX=Revision 4.10 
##DATA TYPE=MASS SPECTRUM
##SAMPLE DESCRIPTION=Chemical Concepts
##NAMES=HP
##CAS NAME=Cyclohexanone, 2-pentyl-
##MOLFORM=C11H20O
##CAS REGISTRY NO=32362-97-3
##MP= -300
##BP= -300
##MW= 168
##$RETENTION INDEX=0
##$CONDENSED SPECTRUM=NO
##NPOINTS= 67
##XYDATA=(XY..XY) 1 
    26          5
    27        113
    28         13
    29        133
    30          3
    31          2
    38          2
    39        120
    40         23
    41        363
    42         88
    43        111
    44          3
    50          2
    51         10
    52          6
    53         47
    54         65
    55        327
    56         80
    57         36
    58          3
    63          2
    64          1
    65         12
    66          7
    67         70
    68         35
    69        101
    70        213
    71         16
    77         14
    78          2
    79         26
    80         15
    81         34
    82         15
    83        230
    84         44
    85          5
    91          7
    92          1
    93         16
    94          4
    95         16
    96         11
    97        130
    98        999
    99         87
   100          5
   105          1
   107          4
   108          0
   109          3
   110          1
   111        132
   112         21
   113          1
   121          2
   124          1
   125         12
   126          1
   139          7
   140          0
   141          1
   168         23
   169          5