##TITLE=Library Entry 68019
##JCAMP-DX=Revision 4.10 
##DATA TYPE=MASS SPECTRUM
##SAMPLE DESCRIPTION=J. Little, T. Huret Eastman Chemical Co.
##NAMES=HP
##CAS NAME=1,4-Cyclohexanedimethanol, cis-
##MOLFORM=C8H16O2
##CAS REGISTRY NO=3236-47-3
##MP= -300
##BP= -300
##MW= 144
##$RETENTION INDEX=0
##$CONDENSED SPECTRUM=NO
##NPOINTS= 75
##XYDATA=(XY..XY) 1 
    15          2
    19          1
    26          3
    27         53
    28         10
    29         80
    30          5
    31        130
    33          2
    37          1
    38          4
    39        106
    40         16
    41        252
    42         22
    43         61
    44          8
    45         19
    46          1
    49          1
    50          6
    51         17
    52          9
    53         88
    54         85
    55        252
    56         19
    57         91
    58          8
    59          2
    61          1
    62          2
    63          4
    64          1
    65         35
    66         50
    67        506
    68         92
    69        123
    70         35
    71         15
    72          2
    74          1
    77         66
    78         29
    79        228
    80        126
    81        298
    82         60
    83         37
    84         13
    85          3
    89          1
    91         57
    93        479
    94        100
    95        999
    96        340
    97         43
    98         15
    99          1
   105          4
   106          1
   107         16
   108        169
   109         17
   110          1
   111         10
   112          7
   113          3
   114         53
   115          4
   125          2
   126         33
   127          3