##TITLE=Library Entry 22807
##JCAMP-DX=Revision 4.10 
##DATA TYPE=MASS SPECTRUM
##SAMPLE DESCRIPTION=Exported from NIST MS Search
##NAMES=HP
##CAS NAME=4(3H)-Pyrimidinone, 2,3,6-trimethyl-
##MOLFORM=C7H10N2O
##CAS REGISTRY NO=32363-51-2
##MP= -300
##BP= -300
##MW= 138
##$RETENTION INDEX=0
##$CONDENSED SPECTRUM=NO
##NPOINTS= 18
##XYDATA=(XY..XY) 1 
    42        200
    43         20
    54        120
    55        120
    56        999
    66         20
    67         40
    68         80
    69         60
    81         20
    82         30
    94         40
    95         60
   109        110
   110        150
   123         30
   138        460
   139         60