##TITLE=Library Entry 79711
##JCAMP-DX=Revision 4.10 
##DATA TYPE=MASS SPECTRUM
##SAMPLE DESCRIPTION=C. FENSELAU
##NAMES=HP
##CAS NAME=3-Buten-1-one, 1,4-diphenyl-
##MOLFORM=C16H14O
##CAS REGISTRY NO=32363-55-6
##MP= -300
##BP= -300
##MW= 222
##$RETENTION INDEX=0
##$CONDENSED SPECTRUM=NO
##NPOINTS= 21
##XYDATA=(XY..XY) 1 
    39         10
    50         10
    51         35
    63         10
    65         10
    76          5
    77        180
    78         20
    89          5
    91         30
   102          5
   105        999
   106         80
   107          5
   115         60
   116         20
   117         50
   118          5
   221         10
   222         90
   223         20