##TITLE=Library Entry 114979
##JCAMP-DX=Revision 4.10 
##DATA TYPE=MASS SPECTRUM
##SAMPLE DESCRIPTION=Chemical Concepts
##NAMES=HP
##CAS NAME=5-Hexenophenone, 6-phenyl-
##MOLFORM=C18H18O
##CAS REGISTRY NO=32363-56-7
##MP= -300
##BP= -300
##MW= 250
##$RETENTION INDEX=0
##$CONDENSED SPECTRUM=NO
##NPOINTS= 117
##XYDATA=(XY..XY) 1 
    26          1
    27         16
    28         13
    29          3
    31          0
    32          4
    38          1
    39         32
    40          2
    41         14
    42          3
    43          7
    44          0
    45          0
    50         11
    51         60
    52          8
    53          5
    54          0
    55         13
    56          1
    57          4
    58          0
    59          0
    62          1
    63         11
    64          3
    65         20
    66          2
    67          3
    68          2
    69          2
    70          2
    71          9
    72          3
    73          0
    74          2
    75          4
    76         10
    77        213
    78         41
    79          6
    80          0
    81          2
    82          1
    83          2
    85          1
    86          5
    87          1
    88          1
    89          9
    90          2
    91         72
    92          8
    93          1
    94          0
    95          1
    96          0
    97          1
    98          0
    99          1
   101          1
   102         14
   103         12
   104          9
   105        131
   106         11
   107          2
   108          0
   109          1
   110          0
   111          1
   113          2
   114          3
   115        146
   116         36
   117         61
   118          7
   119          1
   120         41
   121          4
   122          0
   123          0
   125          3
   126          1
   127         13
   128         50
   129        217
   130        999
   131        113
   132          6
   133          5
   134          0
   139          0
   141          2
   142          0
   143          2
   144          1
   145          1
   146          1
   149          1
   151          0
   152          1
   153          1
   159          1
   165          1
   167          0
   176          6
   177          1
   178          1
   179          0
   180          1
   191          0
   230          0
   250         46
   251          9
   252          2