##TITLE=Library Entry 59335
##JCAMP-DX=Revision 4.10 
##DATA TYPE=MASS SPECTRUM
##SAMPLE DESCRIPTION=Exported from NIST MS Search
##NAMES=HP
##CAS NAME=Benzene, (3-azido-3-methylbutyl)-
##MOLFORM=C11H15N3
##CAS REGISTRY NO=32366-28-2
##MP= -300
##BP= -300
##MW= 189
##$RETENTION INDEX=0
##$CONDENSED SPECTRUM=NO
##NPOINTS= 23
##XYDATA=(XY..XY) 1 
    39        180
    41        150
    42         90
    43         50
    50         60
    51        140
    56        350
    63         60
    65        150
    70         50
    77        140
    78         70
    79         70
    91        999
    92         80
   103         70
   104        290
   105        200
   106        120
   131        190
   146        110
   160         90
   161         30