##TITLE=Library Entry 100175
##JCAMP-DX=Revision 4.10 
##DATA TYPE=MASS SPECTRUM
##SAMPLE DESCRIPTION=Exported from NIST MS Search
##NAMES=HP
##CAS NAME=Benzene, (1-azido-1-methylethyl)-
##MOLFORM=C9H11N3
##CAS REGISTRY NO=32366-26-0
##MP= -300
##BP= -300
##MW= 161
##$RETENTION INDEX=0
##$CONDENSED SPECTRUM=NO
##NPOINTS= 29
##XYDATA=(XY..XY) 1 
    39        210
    41        210
    43        130
    50        160
    51        390
    52         70
    56         80
    58         70
    63         90
    65         90
    74         50
    75         50
    76         80
    77        669
    78        290
    79         90
    91        400
    92         60
   102         70
   103        400
   104         60
   115        140
   116         60
   117        450
   118        759
   119        999
   120        100
   133         30
   161          5