##TITLE=Library Entry 77560
##JCAMP-DX=Revision 4.10 
##DATA TYPE=MASS SPECTRUM
##SAMPLE DESCRIPTION=CONTINENTAL OIL CO., PONCA CITY, OKLA., USA
##NAMES=HP
##CAS NAME=Naphthalene, 2-ethyl-1,2,3,4-tetrahydro-
##MOLFORM=C12H16
##CAS REGISTRY NO=32367-54-7
##MP= -300
##BP= -300
##MW= 160
##$RETENTION INDEX=1313
##$CONDENSED SPECTRUM=NO
##NPOINTS= 109
##XYDATA=(XY..XY) 1 
    25          2
    26         14
    27        151
    28         37
    29        102
    30          1
    36          0
    37          1
    38         12
    39        130
    40         14
    41         62
    42          3
    43          8
    44          0
    49          0
    50         33
    51         98
    52         29
    53         46
    54          3
    55         12
    56          1
    57          4
    58          1
    61          2
    62         15
    63         66
    64         33
    65         65
    66          5
    67          8
    68         26
    69         30
    70          6
    71          4
    72          0
    73          0
    74         12
    75         18
    76         20
    77        103
    78         92
    79         21
    80          1
    81          1
    82          1
    83          0
    86          3
    87          6
    88          4
    89         30
    90          8
    91        332
    92         39
    93          1
    94          0
    97          0
    98          3
    99          1
   100          1
   101         10
   102         45
   103        112
   104        999
   105        203
   106         17
   107          4
   108          4
   112          0
   113          4
   114          8
   115        222
   116        108
   117        182
   118         47
   119          7
   120          0
   125          1
   126         11
   127         61
   128        148
   129        139
   130         82
   131        651
   132         95
   133          6
   138          0
   139          2
   140          0
   141         13
   142          3
   143          5
   144          1
   145         40
   146          5
   147          1
   151          0
   152          2
   153          1
   154          0
   155          0
   156          1
   157          0
   158          1
   159         12
   160        550
   161         71
   162          3