##TITLE=Library Entry 77292
##JCAMP-DX=Revision 4.10 
##DATA TYPE=MASS SPECTRUM
##SAMPLE DESCRIPTION=V.Zaikin,Topchiev Inst.Petrochem.Synth.,Moscow
##NAMES=HP
##CAS NAME=3-Chloropropionic acid, 2-phenylethyl ester
##MOLFORM=C11H13ClO2
##CAS REGISTRY NO=32364-84-4
##MP= -300
##BP= -300
##MW= 212
##$RETENTION INDEX=0
##$CONDENSED SPECTRUM=NO
##NPOINTS= 52
##XYDATA=(XY..XY) 1 
    26          5
    27         24
    28          2
    29          2
    30          2
    35          1
    36         10
    38          3
    39         13
    40          1
    41          4
    42          1
    43          1
    44          5
    45          2
    49          2
    50         11
    51         25
    52         10
    53          3
    55         22
    56          3
    61          2
    62          4
    63         92
    64          5
    65         40
    66          3
    72          2
    73          3
    74          4
    75          5
    76          5
    77         43
    78         33
    79         24
    80          2
    89         10
    90          5
    91        166
    92         19
    93         40
    94          2
   102          7
   103         52
   104        999
   105        176
   106         10
   109          1
   120          2
   121          6
   137          2