##TITLE=Library Entry 83513
##JCAMP-DX=Revision 4.10 
##DATA TYPE=MASS SPECTRUM
##SAMPLE DESCRIPTION=W H. DALY
##NAMES=HP
##CAS NAME=Carbamic acid, (p-tolylsulfonyl)-, .alpha.-methylbenzyl ester
##MOLFORM=C16H17NO4S
##CAS REGISTRY NO=32363-30-7
##MP= -300
##BP= -300
##MW= 319
##$RETENTION INDEX=0
##$CONDENSED SPECTRUM=NO
##NPOINTS= 22
##XYDATA=(XY..XY) 1 
    43        450
    44        142
    50        172
    51        374
    52        105
    54        124
    63        157
    65        180
    77        715
    78        435
    80        120
    91        705
   103        150
   104        255
   105        232
   107        999
   108        154
   121        112
   122        487
   155        412
   171        487
   197        314