##TITLE=Library Entry 60145
##JCAMP-DX=Revision 4.10 
##DATA TYPE=MASS SPECTRUM
##SAMPLE DESCRIPTION=Chemical Concepts
##NAMES=HP
##CAS NAME=1,2-Propanediol, 2-methyl-3-(phenylmethoxy)-
##MOLFORM=C11H16O3
##CAS REGISTRY NO=32378-82-8
##MP= -300
##BP= -300
##MW= 196
##$RETENTION INDEX=0
##$CONDENSED SPECTRUM=NO
##NPOINTS= 75
##XYDATA=(XY..XY) 1 
    26          2
    27         21
    28          0
    29         52
    30          2
    31         31
    38          4
    39         43
    40          4
    41         26
    42          3
    43         54
    44          3
    45          8
    50          9
    51         30
    52          9
    53          4
    54          2
    55          5
    56          3
    57        199
    58         31
    59          5
    60          1
    61          1
    62          4
    63         21
    64          8
    65         97
    66          6
    67          1
    69          3
    70          2
    71          4
    72         40
    73          4
    74         15
    75        480
    76         21
    77         37
    78          9
    79         38
    80          4
    81          1
    82          5
    83          1
    84          1
    85          2
    86          1
    87          4
    88          2
    89         24
    90         20
    91        999
    92        357
    93         25
   104          4
   105         36
   106          7
   107         91
   108         16
   109          2
   119          7
   120         11
   121         18
   122         34
   123          4
   135          2
   137          4
   141          3
   165         24
   166          3
   181          1
   196          7