##TITLE=Library Entry 72944
##JCAMP-DX=Revision 4.10 
##DATA TYPE=MASS SPECTRUM
##SAMPLE DESCRIPTION=M.MASUI FACULTY PHARM. SCI., OSAKA UNIV., OSAKA, JAPAN
##NAMES=HP
##CAS NAME=Formamide, N-[1-[(1-cyano-2-methylpropyl)hydroxyamino]-2-methylpr
opyl]-
##MOLFORM=C10H19N3O2
##CAS REGISTRY NO=32375-06-7
##MP= -300
##BP= -300
##MW= 213
##$RETENTION INDEX=0
##$CONDENSED SPECTRUM=NO
##NPOINTS= 121
##XYDATA=(XY..XY) 1 
    27        210
    28        283
    29        141
    30         78
    31         20
    33          7
    37          9
    38         17
    39        133
    40         38
    41        244
    42        112
    43        205
    44         64
    45        127
    46        137
    47          6
    48          3
    49          3
    50          7
    51         13
    52         20
    53         55
    54         98
    55        585
    56        229
    57        117
    58         59
    59         19
    60          8
    61         29
    62          4
    63          4
    64          8
    65          6
    66         29
    67         25
    68         71
    69         27
    70        146
    71         27
    72        302
    73         42
    74          5
    75          3
    76          3
    77          3
    78          4
    79          4
    80         25
    81         28
    82        244
    83         53
    84         41
    85          6
    86         66
    87         17
    88         41
    89         10
    90          3
    91          3
    92          4
    93         13
    94          9
    95          9
    96          9
    97         13
    98         27
    99         22
   100        999
   101         93
   102          9
   103          3
   104          3
   105          3
   106          3
   107         13
   108         23
   109        103
   110         27
   111         32
   112          6
   113          5
   114          5
   115          6
   116          4
   121          3
   122          3
   123          7
   124         14
   125        224
   126         34
   127          8
   128          3
   134          3
   135          6
   136          4
   137          5
   138          4
   139          3
   140          3
   141          4
   142         17
   143          5
   149          9
   150          5
   151         36
   152         15
   153         18
   154          6
   167          8
   168         17
   169         31
   170         42
   171          7
   180          3
   185          3
   186          4
   187          3
   195          4
   213          3