##TITLE=Library Entry 15412
##JCAMP-DX=Revision 4.10 
##DATA TYPE=MASS SPECTRUM
##SAMPLE DESCRIPTION=Japan AIST/NIMC Database- Spectrum MS-NW-9838
##NAMES=HP
##CAS NAME=2,4,6(1H,3H,5H)-Pyrimidinetrione, 5,5-dihydroxy-
##MOLFORM=C4H4N2O5
##CAS REGISTRY NO=3237-50-1
##MP= -300
##BP= -300
##MW= 160
##$RETENTION INDEX=0
##$CONDENSED SPECTRUM=NO
##NPOINTS= 79
##XYDATA=(XY..XY) 1 
    12          5
    13          3
    14          3
    15         10
    16         11
    17          8
    18         41
    24          1
    26          9
    27         44
    28        143
    29         48
    30         16
    31          1
    35          2
    36          1
    38          7
    39          4
    40          9
    41         11
    42         99
    43        976
    44        999
    45         32
    46         11
    52          2
    54         15
    55          6
    56         45
    57          6
    58         39
    60          4
    61          2
    62          1
    67          2
    68          5
    69          5
    70         90
    71        220
    72          8
    73          3
    74          3
    77          1
    81          2
    82          1
    83          3
    84          1
    85          3
    86        480
    87         25
    88          3
    89          8
    90          1
    91          1
    95          2
    96          1
    97          2
    98          1
    99          7
   100          3
   101         19
   102          1
   105          1
   109          1
   110          1
   111          2
   113          6
   114         76
   115         10
   116          1
   117          2
   125          1
   128          1
   129          1
   141          1
   142        590
   143         50
   144          9
   145          1