##TITLE=Library Entry 20659
##JCAMP-DX=Revision 4.10 
##DATA TYPE=MASS SPECTRUM
##SAMPLE DESCRIPTION=D.Brewster,Biomed.Mass Spectrom.,6,447(1979)
##NAMES=HP
##CAS NAME=Cyclohexanecarboxamide, N-carboxymethyl-
##MOLFORM=C9H15NO3
##CAS REGISTRY NO=32377-88-1
##MP= -300
##BP= -300
##MW= 185
##$RETENTION INDEX=0
##$CONDENSED SPECTRUM=NO
##NPOINTS= 31
##XYDATA=(XY..XY) 1 
    36         65
    39        384
    41        564
    42         97
    43        197
    44         55
    45         50
    53        172
    54        145
    55        999
    56        157
    57        172
    58        307
    67        227
    68        115
    69        142
    76        297
    81        184
    82        174
    83        713
    84        130
    94          2
   110        217
   111        160
   112        102
   117        137
   130        227
   167        110
   185        140
   186         27
   187          2