##TITLE=Library Entry 39754
##JCAMP-DX=Revision 4.10 
##DATA TYPE=MASS SPECTRUM
##SAMPLE DESCRIPTION=M.MASUI FACULTY PHARM. SCI., OSAKA UNIV., OSAKA, JAPAN
##NAMES=HP
##CAS NAME=Formamide, N-[1-[(1-cyano-2-methylpropyl)hydroxyamino]ethyl]-
##MOLFORM=C8H15N3O2
##CAS REGISTRY NO=32375-10-3
##MP= -300
##BP= -300
##MW= 185
##$RETENTION INDEX=0
##$CONDENSED SPECTRUM=NO
##NPOINTS= 76
##XYDATA=(XY..XY) 1 
    26         36
    27        184
    28        203
    29         89
    30         47
    31          9
    37          7
    38         17
    39         94
    40         34
    41        147
    42        172
    43        123
    44        448
    45        135
    46         29
    50          5
    51         11
    52         21
    53         55
    54        147
    55        197
    56         34
    57         12
    58         34
    59         32
    60         96
    61          8
    64          9
    65          6
    66         23
    67         12
    68         43
    69         18
    70         69
    71         43
    72        999
    73         74
    74          7
    79          5
    80         25
    81        221
    82        166
    83         27
    84          6
    86         10
    87         10
    88          6
    93          4
    94          4
    95          4
    96          8
    97         20
    98         45
    99          7
   100          7
   107          6
   108          4
   109          8
   113         65
   114         10
   123         20
   124         50
   125         90
   126         18
   139          7
   140         49
   141         40
   142          7
   149         17
   150          4
   152          4
   158          4
   167          4
   176          2
   185          4