##TITLE=Library Entry 72761
##JCAMP-DX=Revision 4.10 
##DATA TYPE=MASS SPECTRUM
##SAMPLE DESCRIPTION=M.MASUI FACULTY PHARM. SCI., OSAKA UNIV., OSAKA, JAPAN
##NAMES=HP
##CAS NAME=Formamide, N-[1-[(1-cyanopropyl)hydroxyamino]butyl]-
##MOLFORM=C9H17N3O2
##CAS REGISTRY NO=32375-08-9
##MP= -300
##BP= -300
##MW= 199
##$RETENTION INDEX=0
##$CONDENSED SPECTRUM=NO
##NPOINTS= 114
##XYDATA=(XY..XY) 1 
    26         59
    27        345
    28        442
    29        190
    30        425
    31         28
    32          4
    33          7
    36          3
    37         13
    38         24
    39        168
    40         54
    41        407
    42        137
    43        256
    44        124
    45        225
    46        225
    47          7
    50          8
    51         22
    52         40
    53         49
    54        155
    55        354
    56        195
    57         38
    58        319
    59         60
    60         10
    61         13
    64          9
    65          7
    66         40
    67         68
    68        261
    69         74
    70        102
    71        159
    72        212
    73        111
    74         21
    75          5
    76          2
    77          4
    78          4
    79         11
    80         28
    81         38
    82         93
    83         35
    84         40
    85         10
    86         52
    87          8
    88         16
    91          3
    92          5
    93         17
    94         11
    95         52
    96         24
    97         54
    98         33
    99         29
   100        999
   101         89
   102          9
   105          5
   106          4
   107         18
   108         17
   109        195
   110         85
   111        115
   112         17
   113         18
   114          5
   115          3
   119          2
   120          5
   121         10
   122          7
   123         15
   124          5
   125         46
   126         59
   127         13
   128         20
   129          5
   135          3
   136          6
   137        133
   138         26
   139         75
   140         12
   141          5
   142          2
   149         12
   150          2
   152          3
   153         10
   154         67
   155         57
   156         21
   157          3
   169          2
   172          4
   181          5
   182          2
   185          3
   186          2
   199          3