##TITLE=Library Entry 47921
##JCAMP-DX=Revision 4.10 
##DATA TYPE=MASS SPECTRUM
##SAMPLE DESCRIPTION=J.M. MILLER,BROCK UNIVERSITY,ONTARIO,CANADA
##NAMES=HP
##CAS NAME=Benzenamine, N-[[3-(1-methylethyl)phenyl]phenylmethylene]-
##MOLFORM=C22H21N
##CAS REGISTRY NO=32388-75-3
##MP= -300
##BP= -300
##MW= 299
##$RETENTION INDEX=0
##$CONDENSED SPECTRUM=NO
##NPOINTS= 122
##XYDATA=(XY..XY) 1 
    49          4
    50         54
    51        316
    52         39
    53          9
    54          4
    55          4
    61          6
    62         17
    63         47
    64         15
    65         32
    66         15
    67          4
    73          4
    74         28
    75         36
    76         62
    77        999
    78        159
    79         15
    86          7
    87         15
    88         11
    89         28
    90         11
    91         58
    92          1
    93          9
    98          7
    99          9
   100         13
   101         13
   102         34
   103         90
   104         73
   105         32
   106          6
   112          6
   113         13
   114          9
   115         39
   116         19
   117         13
   118          6
   119          9
   125          7
   126         17
   127         26
   128         21
   129         15
   130         24
   131         26
   139         17
   140         11
   141          6
   142         28
   147         13
   150         11
   151         22
   152         41
   153         24
   154         11
   162          6
   163         17
   164         11
   165         49
   166         13
   167          7
   176         11
   177          9
   178         49
   179         28
   180        484
   181         97
   182          7
   187          4
   188          6
   189         15
   190         17
   191         30
   192         28
   193         11
   194          7
   195          6
   200          4
   201          4
   202          7
   203          9
   204          9
   205         13
   206         75
   207        181
   208         41
   209         19
   210          6
   220         15
   221          4
   222        269
   223         60
   224         19
   225          2
   252          6
   253          9
   254         36
   255         22
   256        430
   257        114
   258         13
   280          7
   281          4
   282         32
   283         28
   284         54
   285         15
   296          7
   297         17
   298        202
   299        690
   300        157
   301         21
   302          4