##TITLE=Library Entry 41983
##JCAMP-DX=Revision 4.10 
##DATA TYPE=MASS SPECTRUM
##SAMPLE DESCRIPTION=Exported from NIST MS Search
##NAMES=HP
##CAS NAME=D-Threitol, 4TMS derivative
##MOLFORM=C16H42O4Si4
##CAS REGISTRY NO=32381-52-5
##MP= -300
##BP= -300
##MW= 410
##$RETENTION INDEX=1502
##$CONDENSED SPECTRUM=NO
##NPOINTS= 49
##XYDATA=(XY..XY) 1 
    41         10
    43         20
    44         20
    45         70
    59         50
    69         20
    72         20
    73        999
    74         90
    75         80
    89         20
   101         40
   103        390
   104         40
   105         20
   115         10
   116         90
   117        180
   118         20
   119         10
   129         60
   131         30
   133         70
   147        360
   148         60
   149         40
   189        120
   190         30
   191         90
   192         20
   203         20
   204        130
   205        380
   206         80
   207         40
   217        380
   218         70
   219         40
   221         10
   231         30
   277         20
   293         30
   305         20
   307        120
   308         40
   309         20
   320         10
   395          2
   396          1