##TITLE=Library Entry 48158
##JCAMP-DX=Revision 4.10 
##DATA TYPE=MASS SPECTRUM
##SAMPLE DESCRIPTION=Philip Morris R&D
##NAMES=HP
##CAS NAME=1-Propanone, 1-(2-pyridinyl)-
##MOLFORM=C8H9NO
##CAS REGISTRY NO=3238-55-9
##MP= -300
##BP= -300
##MW= 135
##$RETENTION INDEX=1137
##$CONDENSED SPECTRUM=NO
##NPOINTS= 58
##XYDATA=(XY..XY) 1 
    43         14
    44         16
    49          9
    50         59
    51        280
    52        205
    53         37
    54          5
    55         18
    56         34
    57        112
    58          6
    60          3
    61          5
    62          3
    63          7
    64          4
    65         11
    66          3
    67          5
    69          5
    70          4
    71          5
    73          2
    75          8
    76         19
    77         20
    78        999
    79        954
    80        169
    81         12
    82          3
    83          4
    84          3
    85          3
    89          7
    90          7
    91          5
    92          2
    93          8
    95          4
    96          2
    97          3
   104          3
   105          4
   106        317
   107        534
   108         44
   109          5
   116         17
   117         13
   118         17
   119          3
   120          7
   133          2
   134        142
   135        319
   136         32