##TITLE=Library Entry 40935
##JCAMP-DX=Revision 4.10 
##DATA TYPE=MASS SPECTRUM
##SAMPLE DESCRIPTION=R.ERRA BALSELLS,DEP. QUIM. ORG.,CITY UNIV. BUENOS AIRES
,ARGENT
##NAMES=HP
##CAS NAME=meso-2,5-Dimethyl-3,4-hexanediol
##MOLFORM=C8H18O2
##CAS REGISTRY NO=32388-93-5
##MP= -300
##BP= -300
##MW= 146
##$RETENTION INDEX=0
##$CONDENSED SPECTRUM=NO
##NPOINTS= 12
##XYDATA=(XY..XY) 1 
    27         70
    29         80
    41        130
    43        150
    55        310
    56         60
    57        110
    71         70
    72        260
    73        999
    85         90
   146         10