##TITLE=Library Entry 13901
##JCAMP-DX=Revision 4.10 
##DATA TYPE=MASS SPECTRUM
##SAMPLE DESCRIPTION=H.U.DAENIKER GIVAUDAN CPN., 125 DELAWANA AVE., N.J., US
A
##NAMES=HP
##CAS NAME=Ethanone, 1-(1,2,3,4,7,7a-hexahydro-1,4,4,5-tetramethyl-1,3a-etha
no-3aH-inden-6-yl)-
##MOLFORM=C17H26O
##CAS REGISTRY NO=32388-58-2
##MP= -300
##BP= -300
##MW= 246
##$RETENTION INDEX=0
##$CONDENSED SPECTRUM=NO
##NPOINTS= 94
##XYDATA=(XY..XY) 1 
    39        130
    40         20
    41        330
    42         30
    43        999
    44        100
    51         40
    52         10
    53        120
    54         10
    55        200
    56         10
    57         40
    65         70
    66         10
    67        100
    68         10
    69         80
    77        140
    78         40
    79        110
    80         40
    81        140
    82         50
    83         40
    91        180
    92         30
    93        120
    94         40
    95        210
    96         20
    97         30
   105        180
   106         30
   107        130
   108         20
   109        170
   110         20
   111         20
   113         40
   115         50
   116         20
   117         50
   118         10
   119        210
   120         30
   121        100
   122         20
   123        100
   128         40
   129         40
   130         20
   131         50
   132         20
   133        220
   134         30
   135         70
   136         30
   137        140
   138         30
   145         80
   146         20
   147        140
   148         20
   149         30
   157         20
   158         10
   159         70
   160         20
   161        100
   162         20
   163         60
   173         50
   174         10
   175         90
   176         20
   177         20
   178         20
   179         20
   185         20
   186         10
   187         50
   188         10
   189         70
   203        320
   204         60
   213         30
   217         20
   218         90
   219         10
   231        440
   232         70
   246        220
   247         40