##TITLE=Library Entry 43370
##JCAMP-DX=Revision 4.10 
##DATA TYPE=MASS SPECTRUM
##SAMPLE DESCRIPTION=Exported from NIST MS Search
##NAMES=HP
##CAS NAME=Xylonic acid, 2,3,4-tris-O-(trimethylsilyl)-, .delta.-lactone, D-
##MOLFORM=C14H32O5Si3
##CAS REGISTRY NO=32384-59-1
##MP= -300
##BP= -300
##MW= 364
##$RETENTION INDEX=1705
##$CONDENSED SPECTRUM=NO
##NPOINTS= 84
##XYDATA=(XY..XY) 1 
    31         10
    41         10
    43         30
    44         30
    45        110
    47         20
    55         10
    59         80
    61         10
    69         10
    73        999
    74         90
    75        140
    76         10
    89         10
   101         70
   102         70
   103         50
   116         20
   117         60
   119         10
   129         80
   130         80
   131         30
   133         80
   134         10
   143         40
   147        250
   148         40
   149         50
   169         10
   185         20
   189         80
   190         20
   191         20
   203         10
   204         50
   205         20
   215         20
   217        430
   218        110
   219         50
   220        120
   221         30
   222         10
   231         40
   232         10
   243          2
   244          2
   245          3
   246          5
   247          2
   248          1
   257          2
   259         18
   260          7
   261          6
   262          1
   265          2
   274          5
   275          1
   277          2
   291         10
   292          4
   293          2
   294          2
   305          6
   306          2
   307          1
   319          4
   320          2
   321          2
   322          1
   323          1
   331          2
   333          1
   349         73
   350         20
   351         10
   352          3
   364         24
   365          7
   366          6
   367          2