##TITLE=Library Entry 30260
##JCAMP-DX=Revision 4.10 
##DATA TYPE=MASS SPECTRUM
##SAMPLE DESCRIPTION=Chemical Concepts
##NAMES=HP
##CAS NAME=Silane, dimethyloctadecyl-
##MOLFORM=C20H44Si
##CAS REGISTRY NO=32395-58-7
##MP= -300
##BP= -300
##MW= 312
##$RETENTION INDEX=0
##$CONDENSED SPECTRUM=NO
##NPOINTS= 163
##XYDATA=(XY..XY) 1 
    26          1
    27         23
    28          1
    29         73
    30          0
    31         16
    39         14
    40         11
    41        144
    42         27
    43        226
    44          8
    45         52
    46          3
    47          1
    51          0
    53          6
    54         12
    55        111
    56         42
    57        161
    58         70
    59        999
    60         73
    61         34
    65          1
    66          1
    67         19
    68         10
    69         59
    70         29
    71         68
    72         27
    73        190
    74         14
    75         11
    76          0
    77          0
    79          2
    80          1
    81         11
    82         11
    83         50
    84         13
    85         75
    86         19
    87        508
    88         53
    89         20
    90          0
    91          1
    93          4
    94          0
    95          4
    96          9
    97         44
    98          8
    99        118
   100         16
   101         34
   102          3
   103          2
   105          0
   109          3
   110          4
   111         25
   112          5
   113        129
   114         19
   115         33
   116          3
   117          0
   119          1
   123          1
   124          2
   125         12
   126          4
   127        294
   128         40
   129         20
   130          1
   131          0
   133          4
   134          1
   137          0
   138          1
   139          7
   140          2
   141        156
   142         24
   143         26
   144          4
   149          1
   152          0
   153          3
   154          1
   155         11
   156          1
   157          7
   158          1
   166          1
   167          3
   168          1
   169          4
   170          0
   171         17
   172          3
   173          0
   177          0
   179          0
   181          2
   182          0
   183          4
   184          0
   185          3
   186          0
   195          2
   196          0
   197          5
   198          0
   199         12
   200          3
   208          1
   209          0
   211          3
   212          1
   213          4
   214          0
   224          1
   225          5
   226          1
   227         10
   228          2
   236          0
   239          5
   240          1
   241          3
   242          0
   251          1
   252          9
   253          6
   254          3
   255          9
   256          2
   267          6
   268          1
   269          6
   270          1
   281          1
   282         11
   283          9
   284          2
   285          0
   295         22
   296          7
   297         90
   298         24
   299          5
   300          1
   310         20
   311         25
   312          8
   313          2