##TITLE=Library Entry 78893
##JCAMP-DX=Revision 4.10 
##DATA TYPE=MASS SPECTRUM
##SAMPLE DESCRIPTION=NIST Mass Spectrometry Data Center, 1994
##NAMES=HP
##CAS NAME=DL-.alpha.-Methylbenzyl isothiocyanate
##MOLFORM=C9H9NS
##CAS REGISTRY NO=32393-32-1
##MP= -300
##BP= -300
##MW= 163
##$RETENTION INDEX=0
##$CONDENSED SPECTRUM=NO
##NPOINTS= 81
##XYDATA=(XY..XY) 1 
    14          1
    15         13
    26         14
    27         87
    28         15
    29          1
    32         21
    33          2
    34          1
    37          7
    38         23
    39         92
    40          9
    41          5
    42          2
    44         11
    45         18
    46          1
    50         84
    51        166
    52         40
    53         17
    54          1
    57          5
    58         36
    59         24
    60         13
    61          9
    62         23
    63         60
    64         14
    65         23
    66          3
    67          2
    69          4
    70          8
    71          4
    72          2
    73          2
    74         31
    75         22
    76         33
    77        272
    78         83
    79        230
    80         18
    81          4
    83          1
    84          7
    85          5
    86         16
    87          4
    88          1
    89         32
    90          8
    91          5
    94          1
    95          1
    96          1
    98          1
   101          3
   102         22
   103        139
   104          1
   105        999
   106         87
   107          3
   116         20
   117          2
   120          3
   121         29
   122          3
   128          4
   130          4
   131          3
   136          1
   148         21
   149          2
   163         46
   164          4
   165          1