##TITLE=Library Entry 98074
##JCAMP-DX=Revision 4.10 
##DATA TYPE=MASS SPECTRUM
##SAMPLE DESCRIPTION=Drug Lab
##NAMES=HP
##CAS NAME=Benzeneethanamine, N-(phenylmethylene)-
##MOLFORM=C15H15N
##CAS REGISTRY NO=3240-95-7
##MP= -300
##BP= -300
##MW= 209
##$RETENTION INDEX=2560
##$CONDENSED SPECTRUM=NO
##NPOINTS= 60
##XYDATA=(XY..XY) 1 
    38          2
    39         23
    40          2
    41         10
    42          1
    50         12
    51         38
    52          9
    53          3
    61          1
    62          5
    63         24
    64          9
    65         79
    66          5
    74          3
    75          5
    76          9
    77         78
    78         25
    79         24
    80          1
    86          1
    87          1
    88          1
    89         52
    90         42
    91        769
    92         55
    93          2
   101          1
   102          6
   103         33
   104         23
   105         24
   106          2
   115          1
   116          5
   117         49
   118        999
   119         82
   120          4
   128          1
   130          4
   131          2
   132         51
   133          5
   152          1
   165          5
   166          2
   178          3
   179          3
   180          4
   181          2
   193          1
   206          2
   207          1
   208         27
   209         21
   210          3