##TITLE=Library Entry 78318
##JCAMP-DX=Revision 4.10 
##DATA TYPE=MASS SPECTRUM
##SAMPLE DESCRIPTION=A.A.Kutin, Moscow, Russia
##NAMES=HP
##CAS NAME=2,5-Cyclohexadiene-1,4-dione, 3-bromo-2,6-dimethyl-, 1-oxime, o-b
enzoyl-
##MOLFORM=C15H12BrNO3
##CAS REGISTRY NO=324051-08-3
##MP= -300
##BP= -300
##MW= 333
##$RETENTION INDEX=0
##$CONDENSED SPECTRUM=NO
##NPOINTS= 95
##XYDATA=(XY..XY) 1 
    33          5
    34          0
    39         80
    40         13
    41          4
    42          2
    43          1
    44          2
    45          0
    50         31
    51         75
    52          9
    53          3
    54          1
    55          0
    56          0
    57          0
    61          1
    62          3
    63          8
    64         13
    65         21
    66         15
    67          7
    68          0
    74          6
    77        241
    78         13
    79          3
    80          2
    81          0
    82          2
    83          0
    84          0
    86          0
    87          0
    89          3
    91         25
    92          2
    93          6
    94         20
    95          4
    96          0
    97          0
   105        999
   106         61
   107          4
   108          0
   110          1
   111          0
   115          0
   116          0
   117          0
   118          0
   119          1
   120          0
   122          5
   123          0
   124          0
   128          0
   129          0
   130          0
   131          0
   132          1
   133          0
   134          2
   139          0
   141          0
   144          3
   145          0
   146          2
   150          0
   152          0
   155          0
   157          0
   169          0
   170          0
   171          0
   172          2
   174          1
   184          0
   185          1
   186          0
   187          1
   188          0
   190          0
   196          0
   213          0
   214          0
   215          0
   217          0
   333          2
   334          0
   335          1
   336          0