##TITLE=Library Entry 99670
##JCAMP-DX=Revision 4.10 
##DATA TYPE=MASS SPECTRUM
##SAMPLE DESCRIPTION=A.A.Kutin, Moscow, Russia
##NAMES=HP
##CAS NAME=Benzhydrazide, 4-methyl-N2-[1-methyl-2-(5-nitro-2-2H-tetrazolyl)e
thylideno-
##MOLFORM=C12H13N7O3
##CAS REGISTRY NO=324021-25-2
##MP= -300
##BP= -300
##MW= 303
##$RETENTION INDEX=0
##$CONDENSED SPECTRUM=NO
##NPOINTS= 129
##XYDATA=(XY..XY) 1 
    33          0
    34          0
    36          0
    37          1
    39         66
    40         20
    41         53
    42         45
    43          7
    44          4
    46         39
    47          0
    48          0
    50          9
    51         20
    52          6
    53          6
    54          7
    55          6
    56         11
    57          3
    59          1
    60          0
    61          1
    62          7
    63         29
    65        162
    66          7
    67          2
    69          2
    70          2
    71          1
    72          0
    73          0
    74          1
    75          2
    76          3
    77         17
    78          4
    79          2
    80          0
    81          1
    82          1
    83          1
    84          5
    85          0
    86          1
    87          2
    89         46
    91        404
    92         29
    93          1
    94          0
    95          1
    96          0
    97          0
    98          0
    99          0
   100          0
   101          0
   102          1
   103          1
   104          3
   105         26
   106          6
   107          1
   108          0
   109          0
   110          0
   111          0
   112          0
   113          0
   114          0
   115          1
   116          3
   119        999
   120         83
   121          5
   122          0
   123          0
   124          0
   126          0
   128          0
   129          0
   130          0
   131          0
   132          5
   133          2
   134          5
   135          3
   136          0
   137          0
   139          0
   141          0
   144          1
   145          0
   146          0
   147          0
   149          0
   150          0
   156          0
   157          0
   158          0
   159          0
   161          5
   162          0
   163          0
   164          0
   171          0
   172          0
   175        176
   176         19
   177          1
   178          0
   189          1
   190          0
   191          0
   199          0
   210          0
   214          0
   228          0
   229          0
   230          0
   232          0
   257          0
   300          0
   302          0
   303          2
   304          0