##TITLE=Library Entry 78671
##JCAMP-DX=Revision 4.10 
##DATA TYPE=MASS SPECTRUM
##SAMPLE DESCRIPTION=A.A.Kutin, Moscow, Russia
##NAMES=HP
##CAS NAME=2-Cyclohexene-1,4-dione, 5,6-dibromo-2,6-dimethyl-, 1-oxime, o-be
nzoyl-
##MOLFORM=C15H13Br2NO3
##CAS REGISTRY NO=324051-04-9
##MP= -300
##BP= -300
##MW= 413
##$RETENTION INDEX=0
##$CONDENSED SPECTRUM=NO
##NPOINTS= 103
##XYDATA=(XY..XY) 1 
    33          3
    34          0
    36          0
    39         35
    40          8
    41          5
    42          1
    43          2
    44          1
    45          1
    50         26
    51         68
    52         20
    53         32
    54          9
    55          2
    56          0
    57          0
    61          0
    62          1
    63          5
    64          4
    65         12
    66          5
    67          2
    68          1
    69          0
    70          0
    71          0
    74          4
    77        239
    78         13
    79          6
    80         15
    81          3
    82          4
    83          0
    86          0
    87          0
    88          0
    89          1
    91         23
    92          6
    93          1
    94          1
    95          0
    96          1
    97          0
   101          0
   105        999
   106         64
   107          7
   108          3
   109          0
   111          0
   112          0
   113          0
   115          0
   116          0
   117          0
   119          1
   120          1
   122          3
   123          0
   124          0
   130          0
   131          0
   132          1
   133          1
   134          1
   135          1
   136          0
   139          1
   141          0
   150          1
   151          0
   152          0
   155          0
   156          0
   157          0
   158          0
   160          0
   162          0
   171          2
   173          2
   174          0
   184          0
   185          0
   186          0
   187          0
   199          2
   201          2
   202          0
   210          0
   212          0
   213          0
   214          0
   215          0
   216          0
   255          0
   413          0
   415          0
   417          0