##TITLE=Library Entry 47388
##JCAMP-DX=Revision 4.10 
##DATA TYPE=MASS SPECTRUM
##SAMPLE DESCRIPTION=A.A.Kutin, Moscow, Russia
##NAMES=HP
##CAS NAME=2,5-Cyclohexadiene-1,4-dione, 3-chloro-5,6-dimethyl-, 1-oxime, o-
phenylsulfonyl-
##MOLFORM=C14H12ClNO4S
##CAS REGISTRY NO=324051-63-0
##MP= -300
##BP= -300
##MW= 325
##$RETENTION INDEX=0
##$CONDENSED SPECTRUM=NO
##NPOINTS= 102
##XYDATA=(XY..XY) 1 
    33         29
    34          1
    35          6
    36         17
    38         28
    39         81
    40         50
    41         15
    42          5
    43         12
    44         10
    45          2
    48          3
    50         69
    51        188
    53        115
    54         12
    55          4
    57          0
    60          3
    61          5
    62         10
    63         25
    64         20
    65         71
    66         16
    67          3
    69          3
    72          3
    74         20
    75         28
    77        999
    78         57
    79         10
    80          6
    81          3
    86         38
    87          8
    88         12
    89         22
    91        101
    92         12
    93         11
    94         13
    95          2
    97          5
    98          0
    99          4
   100          0
   101          2
   102          4
   103          0
   104         12
   105         10
   106         24
   107          5
   108          3
   111          2
   113          4
   114         34
   116         13
   118          3
   119         13
   120          1
   122          2
   123          0
   124          3
   125         19
   126         18
   128         14
   129          1
   130          2
   132          4
   141        670
   142         45
   143         29
   144          1
   150         23
   151          2
   152          3
   154         11
   155          4
   156          6
   157          0
   158          8
   165          1
   166          0
   167          2
   168          2
   169         10
   170          3
   171          7
   172          0
   181          1
   184         26
   185          4
   186          7
   323          0
   325         54
   326          9
   327         17
   328          2