##TITLE=Library Entry 4180
##JCAMP-DX=Revision 4.10 
##DATA TYPE=MASS SPECTRUM
##SAMPLE DESCRIPTION=A.A.Kutin, Moscow, Russia
##NAMES=HP
##CAS NAME=Hydrazine, N1-(2-bornylidene)-N2-(4-phenyl-4-thiazolin-2-ylidene)
-
##MOLFORM=C19H23N3S
##CAS REGISTRY NO=324039-76-1
##MP= -300
##BP= -300
##MW= 325
##$RETENTION INDEX=0
##$CONDENSED SPECTRUM=NO
##NPOINTS= 230
##XYDATA=(XY..XY) 1 
    33          1
    34          2
    35          4
    36         13
    37          5
    38         20
    39        316
    40         77
    41        999
    42        109
    43        525
    44         41
    45        140
    46          8
    47          7
    48          1
    50         49
    51        129
    52         59
    53        252
    54         68
    55        428
    56         46
    57         58
    58         12
    59          6
    60          3
    61          2
    62         13
    63         56
    64         20
    65        121
    66         62
    67        426
    68         85
    69        216
    70         39
    71         14
    72          4
    73         11
    74         15
    75         25
    76         68
    77        370
    78         72
    79        237
    80        172
    81        254
    82        155
    83         24
    84         10
    85          7
    86          6
    87          6
    88         11
    89        140
    90         68
    91        163
    92         36
    93        120
    94        154
    95         74
    96         42
    97          5
    98          3
    99          1
   100          2
   101          7
   102        102
   103         82
   104        147
   105         56
   106         61
   107        130
   108        203
   109        734
   110         68
   111          4
   112          1
   113          3
   114         10
   115         14
   116         23
   117         19
   118         13
   119         12
   120         41
   121        130
   122         72
   123         47
   124          5
   125          1
   126          2
   127          4
   128          5
   129         45
   130          8
   131         48
   132         21
   133         93
   134        935
   135        125
   136         62
   137          7
   138          1
   140          0
   141          4
   142          7
   143          2
   144          0
   146         28
   147         22
   148         93
   149         39
   150        101
   151         30
   152          4
   153          1
   154          0
   155          0
   157          0
   158          2
   159         15
   160          9
   161          7
   162         47
   163          5
   164          4
   165          1
   166          0
   167          1
   169          0
   171          1
   172          0
   173          3
   174         22
   175        119
   176        944
   177        128
   178         48
   179          6
   180          1
   181          0
   183          0
   186          1
   187          2
   188          4
   189         31
   190          4
   191          2
   194          0
   195          1
   196          0
   197          2
   198          0
   199          2
   200          2
   201          5
   202          5
   203          3
   205          0
   206          0
   207          1
   208          0
   209          1
   210          0
   212          3
   213          3
   214         12
   215          9
   216          7
   217          7
   218          0
   222          0
   223          3
   224          1
   225          1
   226          4
   227          2
   228          3
   229          4
   230          1
   231          1
   232          0
   238          1
   239          2
   240          3
   241          4
   242         10
   243          2
   244          1
   248          0
   250          0
   252          1
   253          1
   254          7
   255          2
   256          6
   257          2
   265          1
   266          1
   267          4
   268          9
   269          2
   270          1
   271          0
   279          0
   280          1
   282         58
   283         16
   284          9
   285          5
   286          0
   292          7
   293          2
   294          0
   296          2
   297         11
   298          2
   299          0
   309          1
   310         68
   311         13
   312          4
   313          0
   324         13
   325        110
   326         23
   327          7
   328          1