##TITLE=Library Entry 73570
##JCAMP-DX=Revision 4.10 
##DATA TYPE=MASS SPECTRUM
##SAMPLE DESCRIPTION=A.A.Kutin, Moscow, Russia
##NAMES=HP
##CAS NAME=Adamantane-1-carboxamide, 3-chloro-N,N-diethyl-
##MOLFORM=C15H24ClNO
##CAS REGISTRY NO=324036-69-3
##MP= -300
##BP= -300
##MW= 269
##$RETENTION INDEX=0
##$CONDENSED SPECTRUM=NO
##NPOINTS= 146
##XYDATA=(XY..XY) 1 
    33         17
    34          0
    35          1
    36          5
    37          0
    39        112
    41        187
    42         51
    44        140
    45         15
    46          1
    49          3
    50          4
    51         31
    53         77
    55        100
    56         41
    58         50
    59          1
    61          1
    62          1
    63         12
    65         67
    67         56
    69         24
    70          9
    72        243
    73         11
    74          6
    75          8
    77        156
    79        176
    81         39
    82          2
    84          8
    86         11
    87          2
    89          7
    91        225
    92         66
    93        109
    94          8
    95          6
    96          4
    98         10
   100        999
   101         39
   102          9
   103         12
   105        100
   106         13
   107         19
   108          3
   109          5
   110          4
   111          2
   113         69
   115         38
   116          6
   117         14
   119         31
   120          4
   121          2
   123          8
   125          6
   126          6
   127         38
   129         15
   131          9
   133        251
   134        104
   135         43
   136          4
   137          2
   138          1
   139          5
   141         14
   143          5
   144          0
   145          0
   146          0
   147          0
   148          1
   150          6
   151          4
   152          1
   153          0
   154          0
   155          0
   157          0
   159          0
   161         16
   162          3
   163          1
   164          1
   165          0
   166          0
   167          8
   169        531
   171        213
   172          9
   173          0
   176          1
   179        201
   180         17
   181          1
   184          0
   190          1
   191          1
   192          1
   197         13
   199          5
   200          0
   204          1
   206         24
   207          2
   212          0
   213          0
   214         23
   215          3
   216          8
   217          1
   218          0
   227          2
   229          0
   233          4
   234         54
   235         11
   236          1
   239          0
   240         70
   241         16
   242         22
   243          5
   244          0
   249          0
   253          0
   254         13
   255          2
   256          3
   257          0
   266          0
   267          0
   269        136
   271         62
   272          6