##TITLE=Library Entry 78719
##JCAMP-DX=Revision 4.10 
##DATA TYPE=MASS SPECTRUM
##SAMPLE DESCRIPTION=A.A.Kutin, Moscow, Russia
##NAMES=HP
##CAS NAME=2,5-Cyclohexadiene-1,4-dione, 5-chloro-2,3-dimethyl-, 1-oxime, o-
benzoyl-
##MOLFORM=C15H12ClNO3
##CAS REGISTRY NO=324051-60-7
##MP= -300
##BP= -300
##MW= 289
##$RETENTION INDEX=0
##$CONDENSED SPECTRUM=NO
##NPOINTS= 77
##XYDATA=(XY..XY) 1 
    33          3
    34          0
    35          0
    36          2
    38          8
    39         22
    40         10
    41          3
    42          1
    43          2
    44          2
    45          0
    51        108
    52         12
    53         20
    54          4
    55          0
    60          1
    61          1
    62          3
    63          8
    65         16
    66          2
    67          0
    72          0
    73          2
    74          5
    75          9
    77        257
    78         13
    79          1
    80          0
    86         13
    87          2
    88          4
    89          5
    91         20
    92          2
    93          1
    94          0
    97          0
    99          0
   100          0
   105        999
   106         60
   107          4
   108          0
   111          0
   112          0
   114          8
   115          0
   116          2
   117          0
   118          0
   119          1
   120          0
   122          4
   123          0
   125          1
   126          2
   127          0
   128          1
   130          0
   132          0
   139          2
   140          1
   141          2
   142          0
   143          0
   150          0
   154          0
   156          0
   169          0
   170          0
   171          1
   289          2
   291          0