##TITLE=Library Entry 79110
##JCAMP-DX=Revision 4.10 
##DATA TYPE=MASS SPECTRUM
##SAMPLE DESCRIPTION=A.A.Kutin, Moscow, Russia
##NAMES=HP
##CAS NAME=2-Cyclohexene-1,4-dione, 5,6-dichloro-2,3-dimethyl-, 1-oxime, o-b
enzoyl-
##MOLFORM=C15H13Cl2NO3
##CAS REGISTRY NO=324051-55-0
##MP= -300
##BP= -300
##MW= 325
##$RETENTION INDEX=0
##$CONDENSED SPECTRUM=NO
##NPOINTS= 83
##XYDATA=(XY..XY) 1 
    33          4
    34          0
    35          1
    36          6
    38          8
    39         20
    40          8
    41          3
    42          1
    43          2
    44          2
    45          0
    50         21
    51         56
    52         14
    53         25
    54          7
    55          1
    57          0
    61          2
    62          1
    63          4
    65         12
    66          4
    67          1
    68          0
    73          0
    74          3
    75          5
    77        201
    78         12
    80          7
    81          0
    82          0
    86          1
    87          1
    88          1
    89          3
    91         13
    92          2
    93          0
    94          0
    95          0
    96          1
    97          0
    98          0
    99          0
   100          0
   101          0
   105        999
   106         59
   107          4
   108          3
   111          0
   112          0
   113          0
   114          0
   115          0
   119          0
   120          0
   122          4
   123          0
   124          2
   125          0
   127          4
   128          0
   129          1
   134          1
   135          0
   139          0
   140          0
   141          0
   142          0
   150          1
   154          0
   155          0
   156          0
   157          0
   162          0
   169          0
   170          0
   171          0
   325          0