##TITLE=Library Entry 82611
##JCAMP-DX=Revision 4.10 
##DATA TYPE=MASS SPECTRUM
##SAMPLE DESCRIPTION=A.A.Kutin, Moscow, Russia
##NAMES=HP
##CAS NAME=Pyridine-3-carbohydrazide, N2-[1-methyl-2-(5-nitro-2H-tetrazol-2-
yl)ethylideno]-
##MOLFORM=C10H10N8O3
##CAS REGISTRY NO=324021-29-6
##MP= -300
##BP= -300
##MW= 290
##$RETENTION INDEX=0
##$CONDENSED SPECTRUM=NO
##NPOINTS= 103
##XYDATA=(XY..XY) 1 
    33          7
    34          2
    35          0
    36          3
    38         11
    39         65
    40         38
    41         85
    42        107
    43         16
    44          5
    46         44
    47          1
    49          3
    51        345
    52         39
    53         19
    54          8
    55          9
    56         12
    57         11
    58          2
    59          0
    60          0
    63          2
    64          2
    65          3
    66          4
    67          2
    68          0
    69          4
    70          5
    71          2
    73          0
    74          0
    75          8
    78        626
    79         43
    80          3
    81          1
    82          0
    83          3
    84          6
    89          0
    90          0
    91          2
    92          1
    93          2
    94          1
    98          0
   101          1
   103          1
   106        999
   107         56
   108          6
   109          0
   111          0
   112          0
   113          0
   115          0
   117          1
   118          0
   119          4
   120          7
   121          6
   122          1
   123          1
   125          1
   129          0
   131          0
   132          0
   133          1
   134          0
   135          1
   136          1
   143          0
   145          0
   147          1
   148          1
   149          0
   153          0
   154          0
   159          4
   160          8
   162        519
   163         45
   164          2
   171          2
   174          0
   175          0
   176          4
   177          0
   186          0
   188          0
   190          1
   195          1
   201          0
   202          1
   216          0
   256          0
   270          0
   290          3
   291          0