##TITLE=Library Entry 99226
##JCAMP-DX=Revision 4.10 
##DATA TYPE=MASS SPECTRUM
##SAMPLE DESCRIPTION=A.A.Kutin, Moscow, Russia
##NAMES=HP
##CAS NAME=4-Methyl-benzoic acid 2-(3-nitro-phenyl)-2-oxo-ethyl ester
##MOLFORM=C16H13NO5
##CAS REGISTRY NO=324067-92-7
##MP= -300
##BP= -300
##MW= 299
##$RETENTION INDEX=0
##$CONDENSED SPECTRUM=NO
##NPOINTS= 114
##XYDATA=(XY..XY) 1 
    33          0
    34          1
    37          0
    38          4
    39         31
    40         34
    41         11
    42          4
    43          6
    44         15
    45          2
    46          0
    48          0
    50         34
    51         22
    52          5
    53          3
    54          0
    55          2
    56          1
    57          2
    59          0
    60          0
    61          1
    62          6
    63         28
    64         14
    65        106
    66          4
    67          0
    68          0
    69          2
    70          0
    71          1
    73          1
    74          8
    75         18
    76         60
    77         30
    78          5
    79          2
    81          0
    82          0
    83          0
    84          0
    85          0
    86          0
    87          1
    89         40
    90         33
    91        240
    92         28
    93          1
    94          0
    95          1
    96          0
    97          0
   102          0
   104         47
   105         59
   106          7
   107          1
   108          0
   109          0
   111          0
   112          0
   113          0
   114          0
   115          1
   119        999
   120         92
   121          7
   122          3
   123          0
   124          0
   127          0
   128          0
   129          0
   131          1
   133          2
   134          6
   135          3
   136          5
   137          3
   138          0
   139          0
   144          0
   146          0
   147          0
   148          0
   149         10
   150         61
   151          4
   152          1
   157          0
   158          0
   163          1
   164          0
   165          1
   171          0
   175          0
   179          1
   181          0
   190          0
   224          1
   239          2
   255          1
   269         27
   270          4
   283          0
   298          1
   299         23
   300          5
   301          0