##TITLE=Library Entry 31595
##JCAMP-DX=Revision 4.10 
##DATA TYPE=MASS SPECTRUM
##SAMPLE DESCRIPTION=A.A.Kutin, Moscow, Russia
##NAMES=HP
##CAS NAME=Pyrimidine-4,6(3H,5H)-dione, 2-butylthio-
##MOLFORM=C8H12N2O2S
##CAS REGISTRY NO=324039-43-2
##MP= -300
##BP= -300
##MW= 200
##$RETENTION INDEX=0
##$CONDENSED SPECTRUM=NO
##NPOINTS= 101
##XYDATA=(XY..XY) 1 
    33         44
    34         64
    35         71
    37          3
    39         68
    41        203
    43        320
    45        406
    46        110
    47        119
    48         90
    50          8
    51          4
    53          9
    55         57
    56         87
    57         57
    61        287
    63        999
    65         52
    69        347
    71         11
    72          7
    73         10
    74          6
    75          6
    78        762
    80         39
    81          1
    82          3
    86        212
    88         16
    89         21
    90         16
    91          4
    92          1
    93          1
    95          0
    97         12
    98         23
    99          6
   100          2
   101          5
   103         83
   105          3
   106          0
   107          0
   108          0
   109          1
   111         59
   112         42
   113          7
   116         99
   118          4
   121          0
   124          0
   125          3
   126          4
   127          2
   128          6
   129          5
   130          9
   131          3
   132          0
   139         21
   140         26
   144        271
   145         70
   146         15
   147          4
   148          0
   149          0
   153        211
   154         11
   158        284
   159         17
   160         10
   161          0
   165          0
   167         14
   169          5
   171        122
   172          8
   173          3
   175          1
   176         15
   178          2
   183          0
   184          0
   185          1
   186          0
   189          1
   190          2
   195          0
   196          0
   197          1
   198          5
   200        146
   202         14
   203          1
   204          0