##TITLE=Library Entry 99074
##JCAMP-DX=Revision 4.10 
##DATA TYPE=MASS SPECTRUM
##SAMPLE DESCRIPTION=Chemical Concepts
##NAMES=HP
##CAS NAME=4-[5-(4-Bromobenzoyl)-2-methylbenzenesulfonamido]benzoic acid
##MOLFORM=C21H16BrNO5S
##CAS REGISTRY NO=324009-51-0
##MP= -300
##BP= -300
##MW= 473
##$RETENTION INDEX=0
##$CONDENSED SPECTRUM=NO
##NPOINTS= 132
##XYDATA=(XY..XY) 1 
    33         51
    34          8
    35        114
    36        105
    38        142
    39        174
    40         96
    41        102
    43        362
    44        227
    45         78
    46          5
    48         10
    50        173
    51        143
    52         95
    53         65
    54         29
    55         44
    56         81
    57         50
    58         19
    60         15
    62         75
    63        270
    64        144
    65        334
    66         35
    67         12
    69         22
    70         26
    71         20
    72         25
    74         73
    75        181
    76        172
    77         51
    79         67
    80         67
    81        113
    82         48
    83         44
    84         31
    85         21
    87        144
    89        188
    90        238
    91        386
    92         85
    93         28
    95          9
    96          3
    97          6
    99          4
   101          5
   103         10
   104         29
   105         10
   106          5
   108        187
   109         19
   111         13
   112          6
   113          9
   115         18
   117         43
   119        999
   120        264
   121         27
   123          6
   126          2
   127          6
   128          9
   129          3
   131          5
   134          1
   135         81
   137        287
   138         29
   139         16
   140          6
   146          6
   148          1
   149          6
   150         19
   152         29
   155        173
   157        139
   158          5
   160          6
   161          4
   162         14
   163         33
   165        132
   166        142
   167          5
   170          2
   171         12
   172          6
   173          1
   174          6
   176          2
   179         19
   180         19
   181         16
   183        237
   185        200
   186         11
   189          3
   193         50
   194        227
   195         25
   205          2
   217          3
   226          6
   245         10
   246          3
   247          6
   272         12
   273         66
   274         36
   275         73
   276         15
   317          1
   364          2
   366          3
   394          1
   432          2
   473         33
   474          9
   475         37
   476          1