##TITLE=Library Entry 82547
##JCAMP-DX=Revision 4.10 
##DATA TYPE=MASS SPECTRUM
##SAMPLE DESCRIPTION=Div. of Experiment Therapeutics WRAIR, WRAMC, Washingto
n DC 20307
##NAMES=HP
##CAS NAME=5-Nitrothiophene-2-carboxaldehyde isonicotinhydrazone
##MOLFORM=C11H8N4O3S
##CAS REGISTRY NO=324013-05-0
##MP= -300
##BP= -300
##MW= 276
##$RETENTION INDEX=0
##$CONDENSED SPECTRUM=NO
##NPOINTS= 31
##XYDATA=(XY..XY) 1 
    44         13
    45        239
    46         14
    50        224
    51        666
    52         88
    53         20
    57         28
    58          6
    62          6
    63         16
    64         27
    69        143
    70         50
    78        857
    79         85
    81         40
    82         42
    93         29
    95        182
    96         15
    97         37
   106        999
   107         57
   109          6
   122        451
   124         97
   230         13
   276         94
   277         11
   278          4