##TITLE=Library Entry 86057
##JCAMP-DX=Revision 4.10 
##DATA TYPE=MASS SPECTRUM
##SAMPLE DESCRIPTION=A.A.Kutin, Moscow, Russia
##NAMES=HP
##CAS NAME=1,2,5-Oxadiazole, 3-[2-(3,5-dimethyl-1H-pyrazol-1-yl)ethoxy]-4-me
thyl-
##MOLFORM=C10H14N4O2
##CAS REGISTRY NO=324021-80-9
##MP= -300
##BP= -300
##MW= 222
##$RETENTION INDEX=0
##$CONDENSED SPECTRUM=NO
##NPOINTS= 96
##XYDATA=(XY..XY) 1 
    34         37
    38         71
    39        530
    40         46
    41        547
    42        621
    43        103
    44        118
    45          7
    46         16
    49         16
    50         38
    51         64
    52        120
    53        162
    54        153
    55        131
    56        123
    57         62
    58         84
    59          8
    60          5
    61          6
    63         35
    64          7
    65        188
    66        146
    67        113
    68        134
    69         49
    70         38
    72         10
    74          9
    75          8
    77         19
    79         54
    80        402
    81        219
    82        196
    83         37
    84         22
    85          9
    86        126
    87          3
    89         16
    90          3
    91         34
    92         22
    93         18
    95        420
    96        703
    97         75
    98         18
   103          6
   105         54
   106         15
   107        201
   108        101
   109        999
   110        111
   111          2
   112         14
   113         10
   114          8
   119         48
   120         19
   121        125
   122        535
   123        562
   124         39
   125         11
   126         14
   127          8
   135          9
   138          7
   150         47
   151        703
   152         67
   164         12
   165         29
   166          7
   167          3
   178         49
   179         24
   180         13
   181        322
   182         26
   191         24
   192         50
   194          6
   195          4
   204         53
   205          9
   206          8
   222         64
   223          4