##TITLE=Library Entry 68809
##JCAMP-DX=Revision 4.10 
##DATA TYPE=MASS SPECTRUM
##SAMPLE DESCRIPTION=TNO Volatile Compounds in Food - Chemical Concepts
##NAMES=HP
##CAS NAME=10.alpha.-Eremophilane
##MOLFORM=C15H28
##CAS REGISTRY NO=3242-05-5
##MP= -300
##BP= -300
##MW= 208
##$RETENTION INDEX=0
##$CONDENSED SPECTRUM=NO
##NPOINTS= 64
##XYDATA=(XY..XY) 1 
    27         64
    29        118
    39         81
    40         11
    41        585
    42         39
    43        184
    53         78
    54         26
    55        572
    56         43
    57        107
    65         21
    66         11
    67        487
    68        108
    69        518
    70         54
    71         33
    73         16
    75          3
    77         54
    78          8
    79        109
    80         38
    81        840
    82        775
    83        331
    84         32
    91         42
    92          9
    93         71
    94         79
    95        999
    96        132
    97        102
    98         15
   105          8
   107         29
   108         33
   109        744
   110        124
   111         55
   112          8
   121          8
   123        189
   124         47
   125         29
   135          7
   137        186
   138        173
   139         15
   147          6
   149          4
   151         45
   152         23
   164         16
   165        983
   166        132
   193        118
   194         17
   202          1
   208        632
   209         95