##TITLE=Library Entry 6401
##JCAMP-DX=Revision 4.10 
##DATA TYPE=MASS SPECTRUM
##SAMPLE DESCRIPTION=R.M. Teeter, 203 Del Valle Circle, El Sobrante, CA 9480
3-3373, USA
##NAMES=HP
##CAS NAME=7-Octenethiol, acetate
##MOLFORM=C10H18OS
##CAS REGISTRY NO=32438-29-2
##MP= -300
##BP= -300
##MW= 186
##$RETENTION INDEX=0
##$CONDENSED SPECTRUM=NO
##NPOINTS= 114
##XYDATA=(XY..XY) 1 
    26          6
    27         73
    28         40
    29         70
    30          2
    32          3
    33          2
    34          4
    35          6
    36          1
    37          1
    38          3
    39         99
    40         16
    41        258
    42         25
    43        999
    44         38
    45         36
    46         15
    47         49
    48          3
    49          4
    50          3
    51          8
    52          6
    53         38
    54         63
    55        143
    56         13
    57          6
    58          7
    59         17
    60         20
    61         30
    62          2
    63          2
    64          1
    65          7
    66          7
    67        114
    68         46
    69         56
    70          5
    71         21
    72          9
    73          8
    74          5
    75          4
    76         18
    77         16
    78          3
    79         12
    80          5
    81         48
    82         25
    83         11
    84         11
    85          6
    86          6
    87        101
    88         11
    89         16
    90          3
    91          4
    92          1
    93          7
    94         12
    95         21
    96          2
    97         12
    98          6
    99          5
   100         15
   101         70
   102          8
   103          9
   104          1
   107          2
   108          3
   109         26
   110         11
   111         12
   112          2
   113         28
   114         15
   115         25
   116          3
   117          3
   118          2
   121          2
   125          3
   126          5
   127          6
   128         34
   129         10
   130          3
   131          2
   134          1
   135          4
   139          3
   140          2
   141          2
   142          4
   143        253
   144         28
   145         14
   146          2
   152          1
   153          9
   157          7
   168          3
   171          2
   186          7