##TITLE=Library Entry 40682
##JCAMP-DX=Revision 4.10 
##DATA TYPE=MASS SPECTRUM
##SAMPLE DESCRIPTION=Japan AIST/NIMC Database- Spectrum MS-IW-6764
##NAMES=HP
##CAS NAME=D-Glucuronic acid, .gamma.-lactone
##MOLFORM=C6H8O6
##CAS REGISTRY NO=32449-92-6
##MP= -300
##BP= -300
##MW= 176
##$RETENTION INDEX=0
##$CONDENSED SPECTRUM=NO
##NPOINTS= 111
##XYDATA=(XY..XY) 1 
    12          3
    13          3
    14         18
    15         62
    16          8
    17         10
    18         46
    19          2
    24          2
    25          7
    26         44
    27        103
    28        332
    29        297
    30         94
    31        175
    32         13
    34          1
    36          2
    37         10
    38         19
    39         83
    40         31
    41         24
    42        139
    43        235
    44        334
    45        109
    46          8
    47         41
    48          1
    49          4
    50          6
    51          7
    52          9
    53         14
    54         33
    55        120
    56         44
    57        169
    58        134
    59         15
    60        303
    61        193
    62          5
    63          1
    65          1
    66          2
    67          7
    68         37
    69         16
    70          7
    71        193
    72        102
    73        999
    74         42
    75          5
    76        119
    77          9
    78          3
    79          1
    80          8
    81          2
    82          3
    83         89
    84         69
    85         77
    86         59
    87          6
    88          4
    89         17
    90          6
    91         43
    92          4
    94          2
    95         39
    96         56
    97          9
    98          7
    99          8
   100         29
   101        331
   102         26
   103          8
   108          2
   110          1
   111          1
   112         14
   113          8
   114         11
   115          1
   116          1
   117          1
   118          8
   119        156
   120          8
   121          2
   124          2
   129          3
   130          7
   131          9
   140          2
   146          2
   147         27
   148          3
   149          1
   158          3
   159         14
   176         53
   177          5
   178          1