##TITLE=Library Entry 29968
##JCAMP-DX=Revision 4.10 
##DATA TYPE=MASS SPECTRUM
##SAMPLE DESCRIPTION=R.W.A.OLIVER UNIV. OF SALFORD, SALFORD, LANCASHIRE, UK
##NAMES=HP
##CAS NAME=Cochlioquinone A
##MOLFORM=C30H44O8
##CAS REGISTRY NO=32450-25-2
##MP= -300
##BP= -300
##MW= 532
##$RETENTION INDEX=0
##$CONDENSED SPECTRUM=NO
##NPOINTS= 118
##XYDATA=(XY..XY) 1 
    53        250
    55        620
    56         70
    57        980
    58         70
    59        999
    60         70
    65         70
    67        250
    69        420
    71        350
    72         50
    77        200
    78         50
    79        250
    80         50
    81        400
    82         50
    83        300
    85        370
    91        250
    93        350
    94         70
    95        250
    96         50
    97        120
    99         70
   105        250
   106         50
   107        300
   108        100
   109        170
   111         50
   115         50
   117         50
   119        170
   120         60
   121        400
   122         80
   123        100
   125        100
   127        100
   129        100
   131        100
   133        150
   135         80
   137         70
   143        170
   145        120
   147        240
   149         70
   150         70
   151        100
   152         70
   161        100
   163         70
   164         50
   165        370
   166        120
   173         50
   175         50
   177        120
   179        250
   180        150
   181        150
   189         50
   191        100
   193         70
   203        170
   204         70
   205         80
   215         50
   216        100
   217        120
   219         50
   223        120
   229         70
   231         70
   233         70
   235         50
   241         70
   243        120
   249         70
   251         70
   255         70
   269         50
   271         50
   273         50
   283         50
   297         90
   309         50
   311        100
   313        100
   325         80
   327        130
   328         50
   371        250
   372         50
   386        100
   387        100
   388        130
   395        220
   396         70
   441        250
   442         70
   454         70
   455         80
   456         70
   457         70
   472        120
   473        550
   474        250
   475         70
   499        120
   501         70
   513         70
   532        250
   533         70