##TITLE=Library Entry 87017
##JCAMP-DX=Revision 4.10 
##DATA TYPE=MASS SPECTRUM
##SAMPLE DESCRIPTION=MASS SPECTROMETRY CENTER, UNIV. OF UTAH ALDRICH T02798-
7
##NAMES=HP
##CAS NAME=4-Thiazolidinecarboxylic acid, 2-(2-thienyl)-
##MOLFORM=C8H9NO2S2
##CAS REGISTRY NO=32451-19-7
##MP= -300
##BP= -300
##MW= 215
##$RETENTION INDEX=0
##$CONDENSED SPECTRUM=NO
##NPOINTS= 107
##XYDATA=(XY..XY) 1 
    12         42
    15         21
    16          0
    25          9
    26         82
    27        281
    29         41
    30         30
    31         65
    33        125
    34        294
    35         26
    36         24
    37         52
    38        103
    39        333
    40          9
    41         48
    42         50
    43         57
    44        571
    45        504
    46         81
    47         69
    49         28
    50         90
    51        111
    52        118
    53         64
    54         83
    55         61
    57        121
    58        178
    59        217
    60         37
    61         51
    62         34
    63         53
    64         44
    65         39
    66         72
    67         28
    68         17
    69        196
    70        191
    71         65
    73         48
    74         35
    75         49
    76        116
    77         75
    78         41
    80         61
    81         28
    82         59
    83         57
    84        158
    85        119
    86        112
    87         46
    88         38
    92          9
    93         35
    95         97
    96        384
    97        235
    98         44
    99         25
   102         12
   104         45
   106         29
   109        137
   110        999
   111        215
   112        164
   113         73
   116         70
   122         42
   123        495
   124         73
   125         52
   127        234
   128         45
   129         45
   136        360
   137        418
   138         94
   139         39
   140         20
   141         33
   142         21
   143        435
   144         50
   145         55
   151        129
   152         26
   168        140
   169        117
   170        114
   173         35
   181         26
   182         66
   210          7
   214         52
   215        192
   216         32
   217         27