##TITLE=Library Entry 19615
##JCAMP-DX=Revision 4.10 
##DATA TYPE=MASS SPECTRUM
##SAMPLE DESCRIPTION=LAC, NIDDK, NIH, Bethesda, MD 20892
##NAMES=HP
##CAS NAME=Cholan-24-oic acid, 3,12-dihydroxy-, methyl ester, (3.alpha.,5.be
ta.,12.alpha.)-
##MOLFORM=C25H42O4
##CAS REGISTRY NO=3245-38-3
##MP= -300
##BP= -300
##MW= 406
##$RETENTION INDEX=0
##$CONDENSED SPECTRUM=NO
##NPOINTS= 172
##XYDATA=(XY..XY) 1 
    41        474
    43        640
    44         37
    45         83
    51          2
    53        122
    55        999
    57        297
    59        181
    60          5
    65         44
    67        358
    68         40
    69        167
    70         11
    71         66
    73        164
    74        249
    75          6
    77         98
    79        239
    81        467
    82         48
    83        223
    84         76
    85         37
    87         55
    88         11
    91        194
    93        346
    94        109
    95        272
    96         43
    97         52
    98         13
    99         19
   101         10
   103         14
   105        251
   106         71
   107        229
   108         67
   109        113
   110         13
   111         40
   112          7
   113          8
   115         72
   117         62
   119        122
   120         46
   121        129
   122         44
   123         55
   124         19
   125         15
   127         11
   128          9
   129         16
   131         75
   133        125
   134         42
   135         81
   136         10
   137         29
   139          3
   141         22
   142          3
   143         37
   145        119
   147        177
   148         28
   149         39
   150          2
   151         14
   153          2
   154        180
   155         31
   157         43
   159         72
   160          6
   161         73
   162         20
   163         29
   164          6
   165         15
   167          4
   169          7
   171         25
   173         61
   174         19
   175         33
   176          6
   177         19
   178          1
   179          2
   183          6
   185         27
   186          6
   187         38
   188          9
   189         15
   191          7
   193          5
   195         37
   196          5
   197          8
   199         30
   200          3
   201         40
   202          9
   203         28
   204          4
   206          2
   207          3
   208         35
   209         16
   211          8
   213         50
   214         21
   215         33
   216         19
   217         19
   219          2
   221          5
   225          4
   227         19
   228         28
   229         24
   230          2
   231         23
   232          4
   233         10
   241          7
   245          2
   246          8
   247          4
   249         10
   253          7
   254         10
   255        404
   256         88
   257         11
   260          4
   261          9
   262          8
   263          6
   271          4
   272         27
   273        323
   274         70
   275         13
   283         11
   284          2
   297          8
   314          2
   315          6
   316         14
   339          1
   355         34
   356          9
   357         35
   358          6
   359         15
   369          4
   370         91
   371         37
   372          3
   373         12
   387          2
   388         36
   389         10