##TITLE=Library Entry 11909
##JCAMP-DX=Revision 4.10 
##DATA TYPE=MASS SPECTRUM
##SAMPLE DESCRIPTION=Chemical Concepts
##NAMES=HP
##CAS NAME=.alpha.-d-Ribopyranoside, methyl, triacetate
##MOLFORM=C12H18O8
##CAS REGISTRY NO=32453-56-8
##MP= -300
##BP= -300
##MW= 290
##$RETENTION INDEX=0
##$CONDENSED SPECTRUM=NO
##NPOINTS= 121
##XYDATA=(XY..XY) 1 
    26          1
    27          7
    28          0
    29         15
    30          1
    31          9
    33          4
    38          0
    39          6
    40          3
    41         12
    42         13
    43        999
    44         23
    45         18
    50          0
    51          1
    52          0
    53          1
    54          1
    55          8
    56          1
    57         16
    58          5
    59          5
    60         12
    61         15
    62          0
    65          0
    67          0
    68         72
    69        195
    70         12
    71         11
    72          1
    73         29
    74         41
    75          4
    76          0
    77          5
    78          0
    81          1
    82          8
    83          5
    84          2
    85         50
    86         85
    87         49
    88          2
    89          1
    90          0
    91          0
    93          0
    94          1
    95          0
    96          2
    97         54
    98          6
    99         32
   100         21
   101          4
   102         71
   103         87
   104          4
   105          1
   110          2
   111         13
   112          1
   113          7
   114          3
   115        148
   116         19
   117          4
   118          0
   121          0
   126          1
   127         22
   128        293
   129         48
   130          4
   131          1
   132          0
   133          0
   138          0
   139         52
   140          5
   141          0
   142          6
   143          0
   144          8
   145         20
   146          1
   147          0
   149          9
   150          1
   155          0
   156          1
   157        105
   158         10
   159          1
   167          2
   168          0
   170        187
   171         49
   172          5
   173          0
   174          0
   177          0
   180         12
   181          2
   187          2
   188          1
   199          1
   200          0
   217          0
   230          5
   231          0
   259         14
   260          1
   279          1
   291          1