##TITLE=Library Entry 84104
##JCAMP-DX=Revision 4.10 
##DATA TYPE=MASS SPECTRUM
##SAMPLE DESCRIPTION=Japan AIST/NIMC Database- Spectrum MS-IW-6978
##NAMES=HP
##CAS NAME=4-Ethylphenyl acetate
##MOLFORM=C10H12O2
##CAS REGISTRY NO=3245-23-6
##MP= -300
##BP= -300
##MW= 164
##$RETENTION INDEX=1784
##$CONDENSED SPECTRUM=NO
##NPOINTS= 64
##XYDATA=(XY..XY) 1 
    14          1
    15         11
    18          1
    26          1
    27         10
    28          7
    29          1
    38          4
    39         29
    40          4
    41          9
    42          4
    43        109
    44          2
    45          1
    50          7
    51         19
    52         10
    53         10
    55          5
    60          1
    61          1
    62          4
    63         11
    64          4
    65         21
    66          4
    67          1
    74          1
    75          1
    76          1
    77         73
    78         20
    79         11
    80          1
    81          1
    89          4
    90          2
    91         28
    92          3
    93          8
    94          8
    95          1
   102          1
   103         12
   104          2
   105          7
   106          2
   107        999
   108         82
   109          5
   110          1
   119          4
   120          9
   121         40
   122        683
   123         61
   124          3
   135          1
   136          1
   150          1
   164        108
   165         11
   166          1