##TITLE=Library Entry 89042
##JCAMP-DX=Revision 4.10 
##DATA TYPE=MASS SPECTRUM
##SAMPLE DESCRIPTION=A.A.Kutin, Moscow, Russia
##NAMES=HP
##CAS NAME=Thiophene-2-carboxamide, N-[1-(4-methylpiperidyl)-2-oxo-2-phenyle
thyl]-
##MOLFORM=C19H22N2O2S
##CAS REGISTRY NO=324543-62-6
##MP= -300
##BP= -300
##MW= 342
##$RETENTION INDEX=0
##$CONDENSED SPECTRUM=NO
##NPOINTS= 193
##XYDATA=(XY..XY) 1 
    33          2
    34          1
    35          0
    36          1
    37          4
    39        197
    40         25
    41        106
    42         74
    43         33
    44         35
    45         17
    46          1
    47          0
    48          0
    50         22
    51         65
    52          8
    53         19
    54         19
    55         88
    56        104
    57         59
    58         14
    59          1
    60          1
    61          0
    62          1
    63          3
    64          1
    65          5
    66          3
    67          8
    68         10
    69         24
    70         14
    71          8
    72          1
    73          1
    74          3
    75          3
    77        237
    78         17
    79          6
    80          5
    81          9
    82         20
    83         82
    84         20
    85          6
    86          1
    87          0
    89          3
    90          2
    91         16
    92          2
    93          1
    94          3
    95          2
    96          5
    98         93
    99         15
   100          7
   102          2
   103          2
   105        133
   106         13
   107          2
   108          2
   111        999
   112         78
   113         52
   114          3
   115          2
   116          1
   117          3
   118          2
   119          1
   120          2
   121          0
   122          0
   123          1
   125         14
   126          5
   128        496
   129         36
   130          4
   131          1
   132          0
   133          1
   134          2
   135          0
   136          0
   137          0
   138          1
   139          0
   140          3
   141          1
   142          0
   143          0
   144          1
   145          2
   146          3
   147          1
   148          1
   149          1
   150          0
   151          0
   152          0
   153          7
   154          1
   155          0
   156          0
   157          0
   158          0
   159          0
   160          0
   161          0
   162          0
   163          0
   164          0
   165          0
   166          0
   167          0
   168          0
   169          0
   170          0
   171          2
   172          1
   173          0
   174          1
   175          0
   176          0
   178          0
   179          0
   180          0
   181          0
   182          0
   183          0
   184          0
   185          0
   186          0
   187          0
   188          0
   189          0
   190          0
   191          0
   192          0
   193          0
   194          0
   195          0
   196          0
   198          0
   199          0
   200          0
   201          0
   202          0
   203          1
   204          0
   207          0
   208          0
   209          0
   210          0
   211          0
   212          0
   213          0
   214          3
   215          3
   216         28
   217          5
   218          0
   219          0
   221          0
   223          0
   225          0
   227          0
   228          0
   229          0
   230          0
   231          1
   232          0
   235         10
   237        712
   238        100
   239         41
   240          5
   241          0
   243          1
   244          0
   245          2
   246          0
   247          0
   265          0