##TITLE=Library Entry 11910
##JCAMP-DX=Revision 4.10 
##DATA TYPE=MASS SPECTRUM
##SAMPLE DESCRIPTION=Chemical Concepts
##NAMES=HP
##CAS NAME=.beta.-d-Arabinopyranoside, methyl, triacetate
##MOLFORM=C12H18O8
##CAS REGISTRY NO=32453-59-1
##MP= -300
##BP= -300
##MW= 290
##$RETENTION INDEX=0
##$CONDENSED SPECTRUM=NO
##NPOINTS= 78
##XYDATA=(XY..XY) 1 
    26          0
    27          4
    28         10
    29         14
    31          6
    32          2
    33          3
    39          5
    40          1
    41         12
    42         11
    43        999
    44         26
    45         16
    51          0
    53          0
    55          6
    56          1
    57         10
    58          3
    59          4
    60         10
    61         13
    68         52
    69        145
    70          9
    71         11
    72          1
    73         18
    74         21
    75          1
    81          1
    82          5
    83          3
    84          1
    85         35
    86         51
    87         37
    88          1
    89          0
    96          1
    97         47
    98          6
    99         20
   100         11
   101          1
   102         42
   103         53
   104          2
   105          0
   110          1
   111          8
   112          0
   113          2
   114          1
   115         80
   116          8
   117          2
   127         13
   128        191
   129         30
   130          1
   131          0
   139         25
   140          2
   142          2
   144          5
   145         11
   146          0
   157         74
   158          7
   170         99
   171         32
   172          2
   187          1
   199          4
   259          7
   260          0