##TITLE=Library Entry 66035
##JCAMP-DX=Revision 4.10 
##DATA TYPE=MASS SPECTRUM
##SAMPLE DESCRIPTION=Chemical Concepts
##NAMES=HP
##CAS NAME=N-[(5-Methyl-2-pyridyl)aminomethyl]-4-nitrophthalimide
##MOLFORM=C15H12N4O4
##CAS REGISTRY NO=324580-28-1
##MP= -300
##BP= -300
##MW= 312
##$RETENTION INDEX=0
##$CONDENSED SPECTRUM=NO
##NPOINTS= 110
##XYDATA=(XY..XY) 1 
    34         45
    35         16
    36         93
    37        181
    38        269
    39        562
    40        736
    41        195
    42         77
    44        393
    45        126
    46        104
    48         14
    49         59
    50        171
    51        201
    52        214
    53        244
    54         76
    55         57
    56         34
    57         32
    58          8
    59         24
    61         93
    62        119
    63        176
    64        127
    65        472
    66        370
    67         91
    68         21
    69         17
    70         22
    71         16
    72         13
    73         94
    74        399
    75        737
    76         87
    77         37
    78         54
    80        288
    81        103
    82         11
    83         22
    84         22
    85         14
    86          7
    87         10
    88         12
    89         18
    90         27
    91         86
    92        342
    93        999
    94         47
    96          7
    97          6
    98          6
   100          8
   101         15
   103        566
   104         45
   105         20
   107        220
   108        456
   109         35
   110          5
   112          5
   117         12
   118         16
   119         84
   120        198
   121         50
   122          9
   129          5
   132          5
   133          7
   134         23
   135          9
   136         26
   137          4
   145          6
   146         34
   147         15
   148         60
   149        235
   150         26
   151          5
   159         46
   161         15
   162         31
   163          9
   166          5
   171          7
   175          4
   176          5
   177          4
   192        224
   193         41
   194          9
   205         22
   206          4
   207          7
   220         23
   283          5
   311          5
   312         30
   313         10