##TITLE=Library Entry 57416
##JCAMP-DX=Revision 4.10 
##DATA TYPE=MASS SPECTRUM
##SAMPLE DESCRIPTION=R A. AUERBACH
##NAMES=HP
##CAS NAME=2-Oxazolidinone, 5-tert-butyl-4-phenyl-, trans-
##MOLFORM=C13H17NO2
##CAS REGISTRY NO=32461-29-3
##MP= -300
##BP= -300
##MW= 219
##$RETENTION INDEX=0
##$CONDENSED SPECTRUM=NO
##NPOINTS= 38
##XYDATA=(XY..XY) 1 
    39        230
    41        470
    42         60
    43         90
    45         60
    50         60
    51        220
    52         70
    53         40
    55        120
    57        720
    63         60
    65        140
    69        130
    70         40
    77        400
    78        200
    79         80
    85         60
    87        999
    88         60
    89        100
    90         70
    91        890
    92         80
   103         40
   104        630
   105        580
   106        250
   118        240
   119        410
   120        440
   121         40
   132         50
   133        850
   134         90
   163         40
   219         60