##TITLE=Library Entry 49851
##JCAMP-DX=Revision 4.10 
##DATA TYPE=MASS SPECTRUM
##SAMPLE DESCRIPTION=NIST Mass Spectrometry Data Center, 2010
##NAMES=HP
##CAS NAME=(1R,2S,4R)-2,7,7-Trimethylbicyclo[2.2.1]heptan-2-ol
##MOLFORM=C10H18O
##CAS REGISTRY NO=3247-40-3
##MP= -300
##BP= -300
##MW= 154
##$RETENTION INDEX=0
##$CONDENSED SPECTRUM=NO
##NPOINTS= 52
##XYDATA=(XY..XY) 1 
    27         35
    29         43
    39        159
    41        322
    43        628
    45         20
    51         45
    52         32
    53        128
    55        256
    56         33
    57         24
    58        161
    59        261
    60          8
    63         22
    65         59
    66         32
    67        173
    68         57
    69        352
    70         61
    71        459
    72         32
    77        165
    79        300
    81        999
    82         96
    83         85
    84        252
    85         75
    91        117
    92         69
    93        429
    94        248
    95        139
    96        428
    97        130
    99        142
   105         43
   107        151
   108         53
   109         17
   111        167
   112         24
   113         32
   121        265
   122         28
   136        161
   137         18
   139         83
   154         18