##TITLE=Library Entry 23022
##JCAMP-DX=Revision 4.10 
##DATA TYPE=MASS SPECTRUM
##SAMPLE DESCRIPTION=A.A.Kutin, Moscow, Russia
##NAMES=HP
##CAS NAME=N-(1,5-Dimethyl-3-oxo-2-phenyl-2,3-dihydro-1H-pyrazol-4-yl)-3-phe
nyl-propionamide
##MOLFORM=C20H21N3O2
##CAS REGISTRY NO=324775-87-3
##MP= -300
##BP= -300
##MW= 335
##$RETENTION INDEX=0
##$CONDENSED SPECTRUM=NO
##NPOINTS= 205
##XYDATA=(XY..XY) 1 
    34          0
    38          2
    39         15
    40         11
    41          9
    42         65
    43          8
    44          4
    45          0
    50          6
    51         30
    52          8
    53          9
    54         15
    56        999
    57        219
    58          8
    59          0
    62          1
    63         10
    64         15
    65         45
    66          5
    67          7
    68          4
    69          5
    70          5
    71          1
    73          0
    74          1
    75          2
    76          5
    77        103
    78         26
    79         38
    80          3
    81          3
    82         13
    83        351
    84        709
    85         40
    86          1
    87          0
    89          6
    91        317
    92         38
    93         30
    94          7
    95          1
    96          1
    97          3
    98          2
    99          1
   100          0
   101          0
   102          5
   103         39
   104         37
   105        153
   106         19
   107          2
   108          1
   109         13
   110          5
   111          6
   112          1
   113          0
   114          0
   115          2
   116          1
   117          2
   118          8
   119         15
   120          7
   121          7
   122          1
   123          3
   124          7
   125         11
   126          1
   127          1
   128          1
   129          1
   130          3
   131         18
   132          8
   133         17
   134          2
   135          0
   136          0
   137          2
   138          1
   139          5
   140          0
   142          0
   143          1
   144          1
   145          3
   146          4
   147          6
   148          6
   149          0
   150          0
   151          0
   152          0
   153          2
   155          0
   156          0
   157          1
   158          2
   159          3
   160          1
   161          0
   162          0
   165          1
   166          0
   167          1
   168          0
   169          0
   171          2
   172          1
   173          2
   174          3
   175          1
   178          0
   180          0
   181          1
   182          0
   183          0
   184          1
   185          1
   186          1
   187          1
   188          3
   189          1
   193          0
   194          0
   196          2
   197          1
   198          1
   199          1
   200          5
   202        148
   203        501
   204         74
   205          6
   206          0
   207          0
   208          3
   209          0
   212          2
   213          6
   214          1
   215          2
   216         18
   217          2
   218          0
   223          0
   224          1
   225         10
   226          4
   227          1
   228          2
   229          3
   230         47
   231         10
   232          1
   234          0
   235          0
   237          0
   240          1
   241          0
   243          1
   244          1
   245          0
   253          0
   255          0
   258          0
   271          0
   274          0
   276          0
   277          0
   280          0
   283          1
   285          0
   288          0
   289          0
   290          2
   291          2
   292          0
   302          1
   304          1
   306          0
   313          0
   315          0
   316          5
   317          5
   318          8
   319          2
   320          0
   333          7
   335        723
   336        149
   337         19
   338          1