##TITLE=Library Entry 47023
##JCAMP-DX=Revision 4.10 
##DATA TYPE=MASS SPECTRUM
##SAMPLE DESCRIPTION=Chemical Concepts
##NAMES=HP
##CAS NAME=2-Methylbenzofuran-3-carboxaldehyde N-benzoyl-N-phenylhydrazone
##MOLFORM=C23H18N2O2
##CAS REGISTRY NO=324764-36-5
##MP= -300
##BP= -300
##MW= 354
##$RETENTION INDEX=0
##$CONDENSED SPECTRUM=NO
##NPOINTS= 110
##XYDATA=(XY..XY) 1 
    37         12
    38         32
    39         84
    40          8
    41          7
    43        115
    44          3
    50        166
    51        494
    52         38
    53         11
    54          2
    55          3
    61          9
    62         27
    63         78
    64         49
    65         79
    66          9
    74         63
    75         84
    77        999
    78         91
    79          5
    85          2
    86          6
    87         10
    88         15
    89         39
    90         19
    91         48
    92         46
    93         15
    94          2
    98          4
    99          3
   101         46
   102         74
   103         52
   105        862
   106         91
   107          6
   113          8
   115        267
   116         34
   117          8
   118         25
   119          9
   126          3
   127          5
   128         11
   129         10
   130         17
   131         20
   132          7
   139          5
   140          3
   143         12
   144         17
   145          5
   146         12
   150          2
   151          5
   152         11
   153          2
   156         58
   157         24
   158          9
   159          4
   164          2
   165          7
   166          6
   167          9
   168          2
   171          3
   176          5
   177          5
   178          9
   179          4
   180          4
   181          2
   189          4
   190          3
   191          4
   192          4
   193          4
   194          7
   197         31
   198          4
   202          3
   203          4
   204         16
   205         10
   206          6
   207          2
   218          2
   219          7
   220         12
   221         14
   222          8
   231          4
   232          7
   233          4
   234          7
   247          7
   248          8
   249         44
   250          6
   354         22
   355          8