##TITLE=Library Entry 99721
##JCAMP-DX=Revision 4.10 
##DATA TYPE=MASS SPECTRUM
##SAMPLE DESCRIPTION=Leung Pu, NIH, Bethesda, Maryland, U.S.
##NAMES=HP
##CAS NAME=4,4',4''-Trimethyltrityl alcohol
##MOLFORM=C22H22O
##CAS REGISTRY NO=3247-00-5
##MP= -300
##BP= -300
##MW= 302
##$RETENTION INDEX=0
##$CONDENSED SPECTRUM=NO
##NPOINTS= 169
##XYDATA=(XY..XY) 1 
    41         42
    42          2
    43          8
    44          2
    45          4
    47         11
    48          5
    49          0
    51         13
    52          9
    53         13
    55          6
    56          1
    57          3
    59          1
    60          1
    62          7
    63         38
    65        285
    66         13
    67          1
    69          3
    70          1
    71          1
    73          2
    74          2
    75          6
    76         10
    77         29
    78          5
    79          4
    80          0
    82          9
    83          4
    88         10
    89         68
    90         31
    91        744
    92         65
    93          8
    95          6
    97         10
    99          1
   100          1
   101          9
   102          4
   104         91
   105         61
   107          6
   108          3
   111          0
   113         14
   114          7
   115         17
   116          1
   119        999
   120         94
   121          8
   122          0
   123          0
   125          5
   126         31
   127          5
   128         10
   129          3
   131          7
   132          0
   133          6
   134         10
   135          1
   137          0
   138          0
   139          7
   141          8
   142          3
   143          2
   149          2
   150          3
   151         12
   152         23
   153          8
   154          1
   155          2
   163          3
   164          4
   165         47
   166         16
   167         18
   168         16
   169          2
   175          0
   176          7
   177          5
   178         40
   179         23
   181         21
   182        251
   183        214
   184         24
   185          1
   187          1
   188          0
   189          8
   190          3
   191          5
   192          3
   193         14
   195         44
   196          5
   197          0
   200          1
   201          0
   202          4
   203          1
   205          0
   207          0
   209         19
   210         56
   211        626
   212         99
   213          9
   215          5
   216          1
   224          0
   225          0
   226          4
   227          2
   228          2
   229          2
   230          0
   237          1
   239         10
   240          3
   241          1
   242          1
   243          2
   244          1
   245          0
   250          2
   251          0
   252          8
   253          7
   254          2
   255          5
   256          1
   257          0
   258          0
   263          2
   264          0
   265          2
   266          1
   267          1
   268          1
   269          9
   270          2
   271          2
   272          0
   282          0
   283          1
   284          3
   285         26
   286          7
   287         10
   288          2
   300          1
   301          7
   302        182
   303         41
   304          5