##TITLE=Library Entry 64624
##JCAMP-DX=Revision 4.10 
##DATA TYPE=MASS SPECTRUM
##SAMPLE DESCRIPTION=K. Kirk, LC, NIDDK, NIH, Bethesda, MD 20892
##NAMES=HP
##CAS NAME=Benzeneethanamine, 3,4-dibenzyloxy-.beta.-hydroxy-
##MOLFORM=C22H23NO3
##CAS REGISTRY NO=32485-62-4
##MP= -300
##BP= -300
##MW= 349
##$RETENTION INDEX=0
##$CONDENSED SPECTRUM=NO
##NPOINTS= 160
##XYDATA=(XY..XY) 1 
    41          7
    42          2
    43          4
    44          5
    45          0
    46          0
    47          2
    48          2
    49         10
    50          5
    51         16
    52          7
    53         13
    54          2
    55          4
    56          0
    57          0
    58          0
    59          0
    60          1
    61          0
    62          3
    63         13
    65        108
    66          8
    67          2
    68          0
    69          0
    70          0
    71          1
    73          0
    74          0
    75          1
    76          1
    77         10
    78          3
    79          7
    80          2
    81          7
    82          5
    83          0
    84          8
    85          0
    86          6
    87          0
    89         25
    91        999
    92        104
    93          3
    94          3
    95          1
    96          1
    97          0
   102          0
   103          1
   104          1
   105         11
   106          2
   107          5
   108          1
   109          3
   110          3
   111          3
   115          3
   116          0
   117          0
   118          0
   119          1
   120          3
   121          6
   122         21
   123          6
   124          0
   127          1
   128          2
   129          1
   131          0
   132          0
   133          0
   134          0
   135          1
   136          0
   137          1
   138         14
   139         26
   140          2
   141          2
   142          0
   143          0
   149          1
   150          1
   151          8
   152          3
   153          3
   154          0
   155          1
   157          0
   164          0
   165          6
   166          4
   167          3
   168          1
   169          1
   171          1
   178          1
   179          4
   180          2
   181        192
   182         30
   183          3
   184          0
   185          0
   193          0
   195          0
   197          0
   198          0
   199          4
   200          0
   201          0
   205          0
   209          0
   210          0
   211          1
   212          1
   213          0
   214          0
   222          0
   223          0
   224          0
   225          2
   226          1
   227         45
   228         16
   229        127
   230         20
   231          2
   240          1
   241          0
   242          1
   243          0
   245          0
   254          0
   256          0
   258         11
   259          2
   260          0
   271          0
   290          0
   316          1
   318         60
   319        462
   320        134
   321         20
   322          2
   332         10
   333          5
   334          0
   349         48
   350         14
   351          2