##TITLE=Library Entry 5146
##JCAMP-DX=Revision 4.10 
##DATA TYPE=MASS SPECTRUM
##SAMPLE DESCRIPTION=TNO Volatile Compounds in Food - Chemical Concepts
##NAMES=HP
##CAS NAME=2(3H)-Thiazolone, 4-methyl-
##MOLFORM=C4H5NOS
##CAS REGISTRY NO=32497-10-2
##MP= -300
##BP= -300
##MW= 115
##$RETENTION INDEX=0
##$CONDENSED SPECTRUM=NO
##NPOINTS= 49
##XYDATA=(XY..XY) 1 
    35          1
    36          4
    37         10
    38         19
    39         43
    40         65
    41         43
    42        999
    43         35
    44         25
    45        221
    46        304
    47         19
    48         14
    50          1
    51          6
    52         11
    53          2
    54         15
    55          3
    56          5
    57         13
    58         33
    59         10
    60          8
    61          2
    68          9
    69         31
    70         54
    71        133
    72         21
    73          7
    74          7
    76          1
    82          2
    83          1
    84          0
    85          1
    86          2
    87         85
    88          4
    89          4
    99          0
   113          2
   114          3
   115        864
   116         49
   117         39
   118          2