##TITLE=Library Entry 38236
##JCAMP-DX=Revision 4.10 
##DATA TYPE=MASS SPECTRUM
##SAMPLE DESCRIPTION=Japan AIST/NIMC Database- Spectrum MS-NW-9423
##NAMES=HP
##CAS NAME=Hexanoic acid, 3-oxo-, ethyl ester
##MOLFORM=C8H14O3
##CAS REGISTRY NO=3249-68-1
##MP= -300
##BP= -300
##MW= 158
##$RETENTION INDEX=0
##$CONDENSED SPECTRUM=NO
##NPOINTS= 74
##XYDATA=(XY..XY) 1 
    13          1
    14          6
    15         24
    16          1
    18          2
    25          1
    26         16
    27        198
    28         34
    29        439
    30         11
    31         65
    32          1
    37          2
    38          5
    39         61
    40         13
    41        173
    42        133
    43        976
    44         35
    45         52
    46          9
    47          4
    50          1
    51          2
    53          5
    54          1
    55         40
    56         21
    57          7
    58         29
    59          5
    60         55
    61         20
    62          1
    65          1
    66          1
    67          6
    68          3
    69        103
    70         66
    71        999
    72         44
    73         17
    74          1
    82          1
    83          1
    84         92
    85          8
    86          9
    87         83
    88         48
    89          5
    97         14
    98          1
    99          1
   101          7
   102         11
   103          1
   111          3
   112         13
   113         53
   114          4
   115        138
   116          8
   117          1
   130         54
   131          4
   141          1
   143         19
   144          1
   158         57
   159          6