##TITLE=Library Entry 16524
##JCAMP-DX=Revision 4.10 
##DATA TYPE=MASS SPECTRUM
##SAMPLE DESCRIPTION=Dr. Jiri Zamecnik, DCIEM, North York, Canada, GP Librar
y
##NAMES=HP
##CAS NAME=Propoxyphene, N-desmethyl
##MOLFORM=C21H27NO2
##CAS REGISTRY NO=32501-12-5
##MP= -300
##BP= -300
##MW= 325
##$RETENTION INDEX=0
##$CONDENSED SPECTRUM=NO
##NPOINTS= 48
##XYDATA=(XY..XY) 1 
    41         37
    42         96
    43         45
    44        999
    45        110
    51         24
    55         27
    57        422
    58         28
    65         25
    69         46
    73         61
    77         52
    88         30
    91        258
   100        618
   101         52
   103         29
   105         50
   115         67
   126         80
   127         47
   128         87
   129        208
   130         26
   143         33
   160         41
   165         35
   178         69
   179         35
   188         31
   189         35
   190         29
   191         80
   192         42
   202         33
   203         30
   204         44
   205        350
   206         83
   207         84
   216         52
   218         22
   219         64
   220        917
   221        202
   222         27
   307        101