##TITLE=Library Entry 40541
##JCAMP-DX=Revision 4.10 
##DATA TYPE=MASS SPECTRUM
##SAMPLE DESCRIPTION=H. LANGHALS, INST. ORG. CHEM. UNIV. MUNICH, MUNICH, W.
 GER.
##NAMES=HP
##CAS NAME=6-Undecanone oxime
##MOLFORM=C11H23NO
##CAS REGISTRY NO=32504-26-0
##MP= -300
##BP= -300
##MW= 185
##$RETENTION INDEX=0
##$CONDENSED SPECTRUM=NO
##NPOINTS= 25
##XYDATA=(XY..XY) 1 
    29        210
    32        150
    39         90
    41        310
    42        170
    43        200
    54        100
    55        230
    57        110
    69         70
    70         60
    71         30
    73        999
    86        210
    87        110
    96        120
    97        220
    98         40
   113         10
   114        130
   129        160
   142        150
   156         40
   168         20
   185         40