##TITLE=Library Entry 79125
##JCAMP-DX=Revision 4.10 
##DATA TYPE=MASS SPECTRUM
##SAMPLE DESCRIPTION=Japan AIST/NIMC Database- Spectrum MS-NW-2503
##NAMES=HP
##CAS NAME=Dibenzoyl-dl-lysine
##MOLFORM=C20H22N2O4
##CAS REGISTRY NO=32513-92-1
##MP= -300
##BP= -300
##MW= 354
##$RETENTION INDEX=0
##$CONDENSED SPECTRUM=NO
##NPOINTS= 157
##XYDATA=(XY..XY) 1 
    17          4
    18         17
    26          1
    27          9
    28          7
    29          4
    30          9
    38          2
    39          9
    40          1
    41          9
    42          3
    43          9
    44         18
    45          1
    50         14
    51         53
    52          7
    53          3
    54          4
    55          8
    56          9
    57          2
    63          2
    64          1
    65          2
    66          3
    67          3
    68          3
    69          2
    70          7
    71          2
    72          1
    73          1
    74          4
    75          5
    76         15
    77        287
    78         25
    79          7
    80          5
    81          1
    82         33
    83          9
    84         16
    85          1
    89          2
    90          2
    91          7
    92          1
    94          2
    95          1
    97          1
    98          2
    99          3
   100          4
   101          3
   102          1
   103         21
   104         24
   105        999
   106         81
   107          6
   110          4
   111          2
   112          1
   115          2
   116          3
   117          3
   118          2
   119          4
   120          1
   121          6
   122         33
   123          3
   127          9
   128         13
   129          2
   130          7
   131          4
   132          3
   133          2
   134         34
   135         22
   136          2
   139          2
   141          1
   143          2
   144          4
   145          7
   146          8
   147         16
   148         27
   149         10
   150          1
   153          1
   154          2
   155          1
   156          3
   157          1
   158         15
   159          5
   160          4
   161         16
   162         30
   163         30
   164          3
   167          2
   168          2
   169          3
   170          3
   171          8
   172          2
   173          1
   174         23
   175          7
   176         49
   177          7
   178          1
   179          7
   180          1
   181          2
   182          1
   183          1
   184          1
   185          6
   186          8
   187         30
   188         71
   189         12
   190          2
   192          1
   199          1
   200         12
   201          4
   202          2
   203         68
   204         11
   205          7
   206          2
   213         11
   214          4
   215          7
   216          1
   221          1
   231          7
   232         15
   233          6
   234          1
   249         23
   250          3
   292          1
   310          1
   334          3
   336         16
   337          4
   354          1