##TITLE=Library Entry 34658
##JCAMP-DX=Revision 4.10 
##DATA TYPE=MASS SPECTRUM
##SAMPLE DESCRIPTION=Japan AIST/NIMC Database- Spectrum MS-NW-8018
##NAMES=HP
##CAS NAME=2-Propenoic acid, 2-methyl-, (1-methylethylidene)di-4,1-phenylene
 ester
##MOLFORM=C23H24O4
##CAS REGISTRY NO=3253-39-2
##MP= -300
##BP= -300
##MW= 364
##$RETENTION INDEX=0
##$CONDENSED SPECTRUM=NO
##NPOINTS= 83
##XYDATA=(XY..XY) 1 
    15          2
    18          2
    27          3
    28          7
    38          1
    39         47
    40         14
    41        637
    42         19
    43          1
    51          3
    52          1
    53          2
    55          3
    63          3
    64          1
    65          6
    66          1
    67          1
    68          2
    69        999
    70         44
    71          3
    77          8
    78          2
    79          2
    89          2
    91          9
    92          1
    94          1
    95          1
   102          2
   103          2
   105          1
   107          4
   108          1
   115          6
   116          1
   119          4
   120          1
   127          3
   128          5
   129          3
   131          1
   135          1
   139          3
   140          1
   141          3
   151          1
   152          5
   153          4
   154          1
   155          2
   157          1
   165          5
   166          2
   167          1
   168          1
   169          4
   170          1
   181          2
   183          3
   184          1
   187          3
   197          1
   203         11
   204          2
   209          1
   212          1
   213          1
   279          2
   281          5
   282          1
   295          3
   296          1
   349        216
   350         53
   351          8
   352          1
   363          1
   364        107
   365         27
   366          4