##TITLE=Library Entry 20286
##JCAMP-DX=Revision 4.10 
##DATA TYPE=MASS SPECTRUM
##SAMPLE DESCRIPTION=D.HENNEBERG, MAX-PLANCK INSTITUTE, MULHEIM, WEST GERMAN
Y
##NAMES=HP
##CAS NAME=Oxacyclopentadecan-2-one, 15-methyl-
##MOLFORM=C15H28O2
##CAS REGISTRY NO=32539-85-8
##MP= -300
##BP= -300
##MW= 240
##$RETENTION INDEX=2304
##$CONDENSED SPECTRUM=NO
##NPOINTS= 196
##XYDATA=(XY..XY) 1 
    26         12
    27         47
    28        115
    29        198
    30          5
    31          7
    33          0
    36          0
    37          0
    38          0
    39         24
    40          9
    41        540
    42        229
    43        512
    44         19
    45         61
    46          1
    47          1
    48          0
    49          2
    50          2
    51          1
    52          1
    53         20
    54        128
    55        999
    56        438
    57        332
    58        321
    59        137
    60        110
    61         27
    62          2
    63          1
    64          0
    65          4
    66         14
    67        209
    68        253
    69        719
    70        363
    71        402
    72         42
    73        124
    74         11
    75          2
    76          1
    77          3
    78          6
    79         38
    80         56
    81        242
    82        323
    83        566
    84        426
    85        123
    86         19
    87         50
    88          9
    89          1
    90          1
    91         11
    92          6
    93         39
    94         74
    95        212
    96        377
    97        489
    98        496
    99         79
   100        102
   101         91
   102         24
   103          3
   104          2
   105          7
   106          5
   107         36
   108         64
   109        118
   110        183
   111        276
   112        146
   113         57
   114        164
   115         53
   116         21
   117          3
   118          4
   119         23
   120         11
   121         50
   122         56
   123        100
   124        119
   125        186
   126         71
   127        105
   128         46
   129         37
   130         13
   131          3
   132          2
   133         23
   134         35
   135         48
   136         57
   137         79
   138        208
   139         97
   140         43
   141         36
   142         13
   143         17
   144         20
   145          4
   146          2
   147         17
   148         25
   149         39
   150         13
   151         63
   152         66
   153         54
   154         20
   155         22
   156          8
   157         16
   158         14
   159          3
   160          1
   161         14
   162         12
   163         12
   164          6
   165         42
   166         24
   167         23
   168         17
   169         15
   170          5
   171          7
   172          8
   173          2
   174          1
   175         11
   176          4
   177          2
   178        139
   179         53
   180        121
   181         45
   182         25
   183         10
   184          4
   185          5
   186          1
   189          4
   190          2
   191          2
   193         22
   194         15
   195          3
   196        248
   197         53
   198         10
   199          2
   200          0
   201          0
   202          1
   203          1
   204         51
   205         12
   207          5
   208          2
   209          0
   210          1
   211         33
   212         13
   213          2
   217          0
   218          0
   220          2
   221          4
   222        350
   223         59
   224          6
   225         41
   226          6
   227          0
   238          3
   239          6
   240         47
   241         11
   242          1