##TITLE=Library Entry 61903
##JCAMP-DX=Revision 4.10 
##DATA TYPE=MASS SPECTRUM
##SAMPLE DESCRIPTION=Institute of Organic Chemistry, Novosibirsk, USSR 1988
##NAMES=HP
##CAS NAME=N-[1-(4-Chlorobenzyl)-4-(1,2,4-triazolio)]-4-toluenesulfonamidate
##MOLFORM=C16H15ClN4O2S
##CAS REGISTRY NO=32539-62-1
##MP= -300
##BP= -300
##MW= 362
##$RETENTION INDEX=0
##$CONDENSED SPECTRUM=NO
##NPOINTS= 87
##XYDATA=(XY..XY) 1 
    36         15
    37         13
    38         34
    39        152
    40         31
    41         34
    44         43
    50         93
    51         99
    52         18
    53          9
    61         31
    62         87
    63        221
    64         90
    65        227
    66         15
    73        119
    74        133
    75        355
    76        236
    77        557
    78         66
    79        189
    80         31
    81         43
    89        266
    91        999
    92        126
    99         49
   100         13
   101        104
   107        138
   108         80
   111         52
   112         12
   113         18
   122         65
   124         56
   125        756
   126        112
   127        261
   137        140
   138        186
   139        289
   140        495
   141         65
   142        130
   155        663
   156         74
   157         65
   158         27
   165        140
   166        401
   167         84
   168        121
   171        640
   172         56
   173         27
   192        327
   193        705
   194        177
   195        219
   196         23
   207         41
   208         70
   218          6
   238         13
   246         39
   247          6
   248          9
   275          3
   276          9
   277          3
   278         39
   279          5
   280          4
   314          7
   315         27
   316          6
   317         10
   329          7
   330          5
   331          6
   332          4
   348          5
   362         10