##TITLE=Library Entry 7346
##JCAMP-DX=Revision 4.10 
##DATA TYPE=MASS SPECTRUM
##SAMPLE DESCRIPTION=Div. of Experiment Therapeutics WRAIR, WRAMC, Washingto
n DC 20307
##NAMES=HP
##CAS NAME=Cholan-24-oic acid, 3-(acetyloxy)-, methyl ester, (3.alpha.,5.bet
a.)-
##MOLFORM=C27H44O4
##CAS REGISTRY NO=3253-69-8
##MP= -300
##BP= -300
##MW= 432
##$RETENTION INDEX=3179
##$CONDENSED SPECTRUM=NO
##NPOINTS= 144
##XYDATA=(XY..XY) 1 
    41        242
    43        999
    44         23
    45         16
    49          6
    51          2
    53         63
    55        496
    57         71
    59         99
    61         53
    65         22
    67        283
    68         80
    69        128
    70          7
    71         19
    73         81
    74         69
    77         71
    79        297
    81        402
    83        142
    85         41
    87         48
    88         12
    91        182
    93        303
    94         25
    95        307
    96         21
    97         46
    98          1
    99         24
   101         20
   103          4
   104          9
   105        204
   106        108
   107        230
   108        108
   109        124
   110         20
   111         20
   115         47
   117         40
   118          6
   119        127
   120         71
   121        124
   122         46
   123         52
   124          9
   125         12
   127          4
   128          7
   129         15
   131         53
   133        115
   134         57
   135        108
   136         23
   137         14
   141         14
   142          1
   143         20
   145         94
   147        139
   148         25
   149        124
   150         10
   151          7
   154         55
   155          8
   157         13
   158          2
   159         69
   160         34
   161         86
   162         79
   163         27
   165          2
   168          1
   171         10
   173         48
   174         32
   175         53
   176         38
   177         14
   185          7
   187         32
   188         28
   189         23
   195          2
   199         15
   201         61
   202         17
   203         34
   204          2
   205          1
   208         11
   209          6
   213         14
   215        349
   216        140
   217         64
   218         24
   227          2
   229         23
   230        127
   231         29
   243          4
   255          2
   256          6
   257        194
   258         38
   262         18
   263          7
   264          9
   275          1
   276          5
   285          8
   289          3
   290         11
   299          9
   315          2
   316          1
   317          8
   318         22
   323         15
   325         12
   330         10
   331          1
   341         18
   342          2
   357         60
   358         17
   371          7
   372        328
   373         93
   374         14
   431          1
   432         23
   433          7