##TITLE=Library Entry 73063
##JCAMP-DX=Revision 4.10 
##DATA TYPE=MASS SPECTRUM
##SAMPLE DESCRIPTION=Asinex Ltd, Moscow, Russia
##NAMES=HP
##CAS NAME=Propan-1-one, 1-(4-ethoxyphenyl)-3-morpholino-2-phenyl-
##MOLFORM=C21H25NO3
##CAS REGISTRY NO=32557-74-7
##MP= -300
##BP= -300
##MW= 339
##$RETENTION INDEX=0
##$CONDENSED SPECTRUM=NO
##NPOINTS= 144
##XYDATA=(XY..XY) 1 
    33          1
    34          3
    39         25
    41         18
    42         42
    43         17
    44         24
    45          5
    46          0
    50          6
    51         11
    52          3
    53          4
    54          6
    55         15
    56         97
    57         37
    58          5
    59          0
    60          0
    62          1
    63          8
    64          7
    65         48
    66          4
    67          1
    68          2
    69          4
    70         24
    71          5
    72         10
    73          0
    74          1
    75          3
    76          9
    77         26
    78         11
    79          3
    80          0
    81          0
    82          1
    83          2
    84          1
    86         10
    87         16
    88          1
    89          4
    90          6
    91         12
    92          7
    93         36
    94          3
    95          0
    96          0
    98         16
   100        999
   101         56
   102          9
   103         20
   104         23
   105          6
   106          0
   107          1
   108          0
   109          0
   110          0
   111          0
   112          1
   113          0
   114          0
   115          3
   116          0
   117          2
   118          2
   119          1
   121         83
   122          6
   123          0
   125          0
   126          0
   127          1
   128          2
   129          1
   130          7
   131          2
   132          0
   133          0
   135          1
   137          0
   138          0
   139          1
   140          0
   141          1
   142          0
   144          0
   145          0
   147          0
   149         94
   150         10
   151          1
   152          4
   153          4
   154          1
   155          1
   156          0
   157          0
   158          0
   163          0
   164          1
   165         11
   166          2
   167          1
   168          0
   169          0
   171          0
   176          0
   177          1
   178          1
   179          0
   181          3
   182          1
   183          6
   184          0
   188          0
   189          0
   190          2
   194          0
   195          1
   196          0
   197          3
   198          0
   207          0
   211          2
   212          0
   223          0
   224          1
   234          0
   248          0
   251          0
   252         16
   253          3
   254          0
   276          0
   339          1