##TITLE=Library Entry 28240
##JCAMP-DX=Revision 4.10 
##DATA TYPE=MASS SPECTRUM
##SAMPLE DESCRIPTION=R RYHAGE MS-LAB KAROLINSKA INSTITUTET STOCKHOLM SWEDEN
##NAMES=HP
##CAS NAME=1,4-Methano-2H-cyclopent[d]oxepin-2,5(4H)-dione, 6-[(dimethylamin
o)methyl]hexahydro-8a-hydroxy-5a-methyl-9-(1-methylethyl)-, [1R-(1.alpha.,4.
alpha.,5a.alpha.,6.beta.,8a.alpha.,9S*)]-
##MOLFORM=C17H27NO4
##CAS REGISTRY NO=32562-94-0
##MP= -300
##BP= -300
##MW= 309
##$RETENTION INDEX=0
##$CONDENSED SPECTRUM=NO
##NPOINTS= 40
##XYDATA=(XY..XY) 1 
    18         10
    27          5
    29          2
    30         10
    39          5
    41         16
    42         18
    43         15
    44         10
    45          3
    46          2
    53          3
    54          1
    55          9
    56          3
    57          8
    58        999
    59         42
    65          1
    67          3
    68          2
    69          3
    71          3
    77          2
    79          2
    81          3
    82          4
    83          2
    84         17
    91          2
    95          2
    96          2
    97          7
    98          4
   109          2
   111          2
   126          2
   308          1
   309         10
   310          2