##TITLE=Library Entry 71968
##JCAMP-DX=Revision 4.10 
##DATA TYPE=MASS SPECTRUM
##SAMPLE DESCRIPTION=Div. of Experiment Therapeutics WRAIR, WRAMC, Washingto
n DC 20307
##NAMES=HP
##CAS NAME=Octahydroazocine, 3-bromo-2-oxo-
##MOLFORM=C7H12BrNO
##CAS REGISTRY NO=32566-61-3
##MP= -300
##BP= -300
##MW= 205
##$RETENTION INDEX=0
##$CONDENSED SPECTRUM=NO
##NPOINTS= 83
##XYDATA=(XY..XY) 1 
    41        695
    42        186
    43        236
    44         53
    45          5
    46          4
    49          4
    50         14
    51         31
    52         23
    53        108
    54         72
    55        784
    56        436
    57         27
    58         14
    59          1
    62          3
    63          7
    65         22
    66         15
    67        108
    68         99
    69        190
    70         68
    71        600
    72         31
    73          7
    74          1
    77          9
    78          1
    79         48
    80         19
    81         77
    82         42
    83         94
    84         46
    85          9
    86         12
    91          2
    92          5
    93         10
    94          6
    95         13
    96         18
    97        111
    98        165
    99        999
   100         53
   101          1
   105         14
   106         29
   107         20
   108         41
   109         19
   110          4
   111          2
   119         21
   120         27
   121         23
   122         28
   123          4
   124          2
   126        213
   127         17
   132         24
   133         20
   134         27
   135         17
   136          5
   148          5
   149          1
   150          6
   151          1
   176         20
   177          8
   178         19
   179          7
   204          5
   205         45
   206          7
   207         45
   208          8