##TITLE=Library Entry 46342
##JCAMP-DX=Revision 4.10 
##DATA TYPE=MASS SPECTRUM
##SAMPLE DESCRIPTION=Dennis Rohrbaugh, CBDCOM/ERDEC, Edgewood, MD
##NAMES=HP
##CAS NAME=Vinyl ethyl sulfoxide
##MOLFORM=C4H8OS
##CAS REGISTRY NO=32568-51-7
##MP= -300
##BP= -300
##MW= 104
##$RETENTION INDEX=0
##$CONDENSED SPECTRUM=NO
##NPOINTS= 19
##XYDATA=(XY..XY) 1 
    45         99
    47        135
    48        112
    50         72
    58        193
    59        234
    60        136
    61         59
    63        143
    73         47
    75        158
    76        999
    77         63
    78         79
    88        102
    90          7
   104        583
   105         85
   106         35