##TITLE=Library Entry 21051
##JCAMP-DX=Revision 4.10 
##DATA TYPE=MASS SPECTRUM
##SAMPLE DESCRIPTION=Chemical Concepts
##NAMES=HP
##CAS NAME=1,3-Cyclohexanedione, 2-methyl-2-(2-propynyl)-
##MOLFORM=C10H12O2
##CAS REGISTRY NO=32561-55-0
##MP= -300
##BP= -300
##MW= 164
##$RETENTION INDEX=0
##$CONDENSED SPECTRUM=NO
##NPOINTS= 84
##XYDATA=(XY..XY) 1 
    26         52
    27        327
    29         59
    30          8
    31         10
    37         28
    38         84
    39        841
    40        268
    41        469
    42        558
    43        170
    44         33
    45          9
    49          8
    50         55
    51        107
    52         39
    53         96
    54         37
    55        999
    56         58
    57         78
    58          8
    61         11
    62         29
    63         80
    64         28
    65        327
    66        577
    67        137
    68         53
    69         84
    70        137
    71         51
    74         10
    75          8
    76          7
    77        105
    78         28
    79        269
    80         92
    81         66
    82         31
    83         46
    84         18
    85         27
    89         18
    90         52
    91        135
    92         29
    93        147
    94        254
    95         86
    96         29
    97        925
    98         66
    99         11
   103         14
   104          8
   105         19
   106         13
   107        223
   108        514
   109        103
   110         25
   111         17
   115         18
   117         19
   118         11
   119         19
   120          8
   121        333
   122         64
   123         17
   135         60
   136         90
   137         20
   149         36
   150         11
   163         10
   164        407
   165         48
   166          7