##TITLE=Library Entry 40176
##JCAMP-DX=Revision 4.10 
##DATA TYPE=MASS SPECTRUM
##SAMPLE DESCRIPTION=A.A.Kutin, Moscow, Russia
##NAMES=HP
##CAS NAME=Propan-2-ol, 1-(4-methoxyphenoxy)-3-propylamino-
##MOLFORM=C13H21NO3
##CAS REGISTRY NO=32569-49-6
##MP= -300
##BP= -300
##MW= 239
##$RETENTION INDEX=0
##$CONDENSED SPECTRUM=NO
##NPOINTS= 85
##XYDATA=(XY..XY) 1 
    33         11
    36         85
    38         37
    39         36
    41        128
    42         70
    43        194
    44         99
    45          2
    50          9
    51         13
    52         21
    53         16
    54         15
    56         42
    57         10
    58         17
    60         26
    61          0
    63         30
    64         25
    65         17
    66          5
    67          5
    68         11
    70         31
    72        999
    74         29
    75          2
    77         41
    79         13
    80         12
    81         23
    82          5
    83          0
    84          2
    86         23
    87          0
    92         33
    95         56
    97         17
    98         32
   100          4
   101          0
   102         61
   103          3
   105         10
   106          0
   107         18
   109         76
   110          4
   113          6
   114          4
   116         46
   117          2
   121          0
   123         91
   124        282
   125         17
   126          2
   127          2
   128          0
   135          3
   137         13
   138          2
   149          1
   150          1
   151          0
   155          3
   156          2
   163         10
   164          0
   165          2
   166          7
   195         59
   196          6
   210         10
   211          1
   220          0
   221          3
   222          1
   224          0
   239        212
   240         35
   241          4