##TITLE=Library Entry 78254
##JCAMP-DX=Revision 4.10 
##DATA TYPE=MASS SPECTRUM
##SAMPLE DESCRIPTION=Exported from NIST MS Search
##NAMES=HP
##CAS NAME=Uridine, 2',3'-O-(phenylmethylene)-
##MOLFORM=C16H16N2O6
##CAS REGISTRY NO=3257-71-4
##MP= -300
##BP= -300
##MW= 332
##$RETENTION INDEX=0
##$CONDENSED SPECTRUM=NO
##NPOINTS= 31
##XYDATA=(XY..XY) 1 
    51        190
    57        280
    68        470
    69        899
    77        310
    79        230
    91        180
    98        120
    99        150
   105        999
   106        290
   107        270
   112        280
   113        280
   114        230
   137         90
   141         50
   145        100
   167         40
   175         80
   179         40
   180         30
   192         20
   195         30
   219         30
   220         60
   221         90
   255         10
   301         10
   331         20
   332         30