##TITLE=Library Entry 4289
##JCAMP-DX=Revision 4.10 
##DATA TYPE=MASS SPECTRUM
##SAMPLE DESCRIPTION=A.A.Kutin, Moscow, Russia
##NAMES=HP
##CAS NAME=Benzhydrazide, 2-chloro-4-nitro-N2-cyclohexylideno-
##MOLFORM=C13H14ClN3O3
##CAS REGISTRY NO=325777-53-5
##MP= -300
##BP= -300
##MW= 295
##$RETENTION INDEX=0
##$CONDENSED SPECTRUM=NO
##NPOINTS= 209
##XYDATA=(XY..XY) 1 
    33          7
    35          6
    36         20
    37         19
    39        489
    41        999
    42        117
    43        130
    44         34
    46         30
    47          2
    50         94
    51         65
    52         67
    53        283
    54        255
    55        344
    56         56
    57         44
    58          6
    59          4
    60          4
    61         13
    62         38
    63         85
    64         24
    65         81
    67        627
    68         59
    69         59
    70         16
    71          8
    72         11
    73         48
    74        210
    75        372
    76         53
    77         93
    79        210
    81        393
    82         62
    83         67
    84        176
    85         32
    86         18
    87          8
    88          8
    89         15
    90         13
    91         10
    92         14
    94        192
    95         70
    96         56
    97         23
    98         95
    99         16
   100         11
   101         12
   102          8
   103         27
   104         13
   105          3
   106          2
   109         88
   110        312
   111        342
   112        130
   113         28
   114          4
   115          4
   116          3
   117          6
   118          5
   119         10
   120          3
   121          1
   123          3
   124         11
   126        166
   128         67
   129          5
   130          2
   131          1
   132          1
   133          1
   134          2
   138        545
   139         60
   140        141
   141         19
   142          3
   143          5
   144          1
   145          0
   146          1
   147          0
   149          3
   150          5
   151          2
   152          5
   154         72
   155         22
   156         21
   157          7
   158          1
   159          1
   160          0
   161          0
   163          2
   164          1
   165          2
   166          9
   167         26
   168        137
   169         30
   170         45
   171         10
   172          3
   173          1
   175          0
   177          0
   178          2
   179          3
   180          2
   181          3
   184        589
   185        129
   186        169
   187         36
   188          3
   189          1
   190          1
   191          0
   192          2
   193          7
   194          3
   195          3
   196          4
   197         10
   198          3
   199          3
   200          9
   201         47
   202          6
   203         14
   204          3
   206         29
   207          5
   208          8
   209          3
   210          1
   211          1
   213         11
   214          6
   215          4
   216          1
   218          4
   219          1
   220          4
   221          0
   222          3
   223          1
   224          2
   226          4
   227          7
   228          1
   229          2
   230          0
   232          8
   233          1
   234          0
   235          0
   236          7
   237          3
   239         79
   240         10
   241         21
   243          6
   244          0
   246          1
   248         11
   249          7
   252        736
   253        123
   254        197
   255         30
   256          3
   257          0
   260         23
   261          4
   262          0
   264          0
   266         50
   267          9
   268         13
   269          2
   277          1
   278         11
   280          9
   281          1
   282          0
   289          0
   292          2
   295        282
   296         47
   297         74
   298          9
   299          0