##TITLE=Library Entry 35734
##JCAMP-DX=Revision 4.10 
##DATA TYPE=MASS SPECTRUM
##SAMPLE DESCRIPTION=ASES Database, Dalian Institute, P.R. China
##NAMES=HP
##CAS NAME=3-Nitrophenyl trifluoromethanesulfonate
##MOLFORM=C7H4F3NO5S
##CAS REGISTRY NO=32578-25-9
##MP= -300
##BP= -300
##MW= 271
##$RETENTION INDEX=0
##$CONDENSED SPECTRUM=NO
##NPOINTS= 20
##XYDATA=(XY..XY) 1 
    38        188
    39         91
    50         78
    62         88
    63        478
    64        547
    65        168
    69        999
    75        140
    80         59
    83         59
    92        667
    93         49
    95        748
   111         49
   122         50
   149         59
   161        407
   225         89
   271        209