##TITLE=Library Entry 66918
##JCAMP-DX=Revision 4.10 
##DATA TYPE=MASS SPECTRUM
##SAMPLE DESCRIPTION=A.A.Kutin, Moscow, Russia
##NAMES=HP
##CAS NAME=Urea,1-(2-chlorophenylsulfonyl)-3-(2-pyridyl)-
##MOLFORM=C12H10ClN3O3S
##CAS REGISTRY NO=325766-51-6
##MP= -300
##BP= -300
##MW= 311
##$RETENTION INDEX=0
##$CONDENSED SPECTRUM=NO
##NPOINTS= 128
##XYDATA=(XY..XY) 1 
    33          4
    35          2
    39        358
    40         59
    41         48
    43         19
    44          8
    45          6
    46          3
    48         14
    50        133
    51        111
    52         32
    53          9
    54          5
    55          3
    56          3
    57          3
    58          0
    60          1
    61         12
    63         23
    64         49
    66        122
    67        295
    68         12
    69          7
    70          2
    71          4
    75        287
    76         38
    77         55
    78        101
    79         11
    80          5
    81          3
    82          2
    85         35
    87         13
    88          1
    90         11
    92         41
    94        999
    95         46
    96          3
    97          2
    99         20
   101          7
   102          1
   103          0
   105          1
   106          2
   108          9
   109          3
   111        315
   112         90
   113         95
   114         23
   115          6
   117          0
   118          0
   120        234
   121         60
   122          4
   124          1
   125          1
   127         67
   128         29
   129         20
   130          9
   131          6
   133          2
   135          3
   136          6
   139          0
   140          2
   141          1
   142          1
   143          0
   144          0
   149          0
   150          0
   151          0
   153          1
   155          0
   156          2
   157          2
   159          4
   161          1
   165          0
   169         62
   170          4
   171          0
   173          0
   175         82
   177         36
   179          3
   184          1
   185          0
   191         20
   193          8
   194          0
   200          0
   203         12
   204          2
   205          3
   206          0
   212         43
   213          5
   214          3
   215          0
   217         29
   219         13
   220          1
   221          0
   233          1
   246          0
   247          3
   248          0
   249          1
   276         12
   277          1
   278          1
   311         28
   312          4
   313         11
   314          1
   315          0