##TITLE=Library Entry 9260
##JCAMP-DX=Revision 4.10 
##DATA TYPE=MASS SPECTRUM
##SAMPLE DESCRIPTION=Chemical Concepts
##NAMES=HP
##CAS NAME=Hexanoic acid, 3-ethyl-, methyl ester
##MOLFORM=C9H18O2
##CAS REGISTRY NO=32579-81-0
##MP= -300
##BP= -300
##MW= 158
##$RETENTION INDEX=0
##$CONDENSED SPECTRUM=NO
##NPOINTS= 90
##XYDATA=(XY..XY) 1 
    21          0
    22          0
    23          0
    26         14
    27        286
    29         44
    30          7
    31         79
    33          4
    35          2
    36         15
    37          2
    38          6
    39        151
    40         22
    41        449
    42        104
    43        999
    44         28
    45         34
    46          0
    47          0
    49          0
    50          4
    51         10
    52          4
    53         32
    54         14
    55        266
    56        117
    57        239
    58          9
    59         76
    60         92
    61         23
    62          1
    63          1
    65          3
    66          1
    67         10
    68          6
    69        123
    70        108
    71        104
    72          5
    73         38
    74        976
    75        143
    76          7
    77          2
    78          0
    79          1
    80          0
    81          2
    82          2
    83         29
    84        134
    85        146
    86          9
    87         36
    88          4
    89          0
    91          0
    95          0
    96          0
    97         21
    98          4
    99          1
   100          2
   101         14
   102          1
   103          0
   109          0
   111          1
   112          0
   113          0
   114          4
   115         41
   116          3
   117          0
   125          1
   126          1
   127         37
   128          3
   129         33
   130          2
   131          0
   143          0
   158          0
   159          0