##TITLE=Library Entry 83501
##JCAMP-DX=Revision 4.10 
##DATA TYPE=MASS SPECTRUM
##SAMPLE DESCRIPTION=ASES Database, Dalian Institute, P.R. China
##NAMES=HP
##CAS NAME=3-Tolyl trifluoromethanesulfonate
##MOLFORM=C8H7F3O3S
##CAS REGISTRY NO=32578-31-7
##MP= -300
##BP= -300
##MW= 240
##$RETENTION INDEX=0
##$CONDENSED SPECTRUM=NO
##NPOINTS= 22
##XYDATA=(XY..XY) 1 
    38         70
    39        370
    50        109
    51        221
    52        139
    53        190
    63         90
    64         48
    65         60
    69        507
    77        848
    78        240
    79        827
    80         71
    90        149
    91        390
    92         48
   107        999
   108        199
   109        100
   175        261
   240        528