##TITLE=Library Entry 89924
##JCAMP-DX=Revision 4.10 
##DATA TYPE=MASS SPECTRUM
##SAMPLE DESCRIPTION=Chemical Concepts
##NAMES=HP
##CAS NAME=2,4-Hexanedione, 5-methyl-1-phenyl-
##MOLFORM=C13H16O2
##CAS REGISTRY NO=32588-40-2
##MP= -300
##BP= -300
##MW= 204
##$RETENTION INDEX=0
##$CONDENSED SPECTRUM=NO
##NPOINTS= 91
##XYDATA=(XY..XY) 1 
    26          2
    27         51
    29         28
    31          3
    38          4
    39         60
    40         10
    41         92
    42          8
    43        205
    44          4
    45          6
    50          4
    51         20
    52          4
    53          6
    55         19
    56          2
    57         59
    58          2
    59          0
    62          2
    63         14
    64          4
    65         68
    66          6
    67         27
    68          2
    69         60
    70          7
    71         97
    72          5
    74          1
    75          2
    76          1
    77         25
    78          5
    79          5
    81          0
    83          4
    84          1
    85         14
    86          1
    87          1
    88          0
    89         15
    90          7
    91        177
    92         57
    93          5
    95         19
    96          1
    97         12
    98          5
    99          3
   101          0
   102          1
   103          6
   104          1
   105         13
   106          0
   107          0
   111          1
   112          2
   113        999
   114         63
   115         25
   116          4
   117          3
   118         41
   119          6
   127          0
   128          1
   129          0
   131          7
   132          7
   133          7
   134          1
   141          0
   142          0
   143          9
   144          1
   147          2
   160          1
   161         79
   162          7
   163          1
   186          0
   204         75
   205          9
   206          0