##TITLE=Library Entry 35930
##JCAMP-DX=Revision 4.10 
##DATA TYPE=MASS SPECTRUM
##SAMPLE DESCRIPTION=CARL DJERASSI DEPT OF CHEM STANFORD UNIV STANFORD CALIF
 94305
##NAMES=HP
##CAS NAME=Carbamic acid, (.alpha.-methylbenzyl)-, 1-methyl-2-butenyl ester
##MOLFORM=C14H19NO2
##CAS REGISTRY NO=32589-39-2
##MP= -300
##BP= -300
##MW= 233
##$RETENTION INDEX=0
##$CONDENSED SPECTRUM=NO
##NPOINTS= 41
##XYDATA=(XY..XY) 1 
    41        790
    42        270
    43        120
    44        140
    45         10
    50         20
    51        110
    52         30
    53        100
    55         30
    62         20
    65         20
    66         10
    67        160
    68        210
    69        999
    70        150
    71        150
    77        230
    78         70
    79        150
    85        110
    86        630
    87         20
    91         20
   103         70
   104        160
   105        980
   106        570
   107         20
   119         20
   120        240
   121         20
   132        130
   147         40
   150        100
   164        730
   165        110
   166         20
   174         20
   233         70