##TITLE=Library Entry 40491
##JCAMP-DX=Revision 4.10 
##DATA TYPE=MASS SPECTRUM
##SAMPLE DESCRIPTION=L.Damasceno ET AL.J.Mass Spectrom.,35,1285(2000)
##NAMES=HP
##CAS NAME=Bambuterol, methyl boronate
##MOLFORM=C19H30BN3O5
##CAS REGISTRY NO=325837-05-6
##MP= -300
##BP= -300
##MW= 391
##$RETENTION INDEX=0
##$CONDENSED SPECTRUM=NO
##NPOINTS= 22
##XYDATA=(XY..XY) 1 
    54          5
    56         12
    57         13
    69          6
    70          5
    72        999
    73         35
    78          6
    81          5
    84          5
   104          5
   133          5
   263          6
   303          5
   304         14
   305          7
   334        215
   335         36
   336          5
   375        116
   376        523
   377         97