##TITLE=Library Entry 78063
##JCAMP-DX=Revision 4.10 
##DATA TYPE=MASS SPECTRUM
##SAMPLE DESCRIPTION=CARL DJERASSI DEPT OF CHEM STANFORD UNIV STANFORD CALIF
 94305
##NAMES=HP
##CAS NAME=Carbamic acid, (.alpha.-methylbenzyl)-, 1,1,2-trimethylpropyl est
er
##MOLFORM=C15H23NO2
##CAS REGISTRY NO=32589-46-1
##MP= -300
##BP= -300
##MW= 249
##$RETENTION INDEX=0
##$CONDENSED SPECTRUM=NO
##NPOINTS= 33
##XYDATA=(XY..XY) 1 
    41        227
    42         79
    43        485
    44         39
    45         69
    55         39
    56         49
    57        336
    69        108
    70          9
    77        128
    78         39
    79         79
    84         29
    85        217
    87         79
    88          9
   103         39
   104         99
   105        999
   106        405
   107          9
   120         79
   132        128
   147         39
   149         29
   150        346
   151          9
   164        306
   165        425
   166         39
   234         29
   249         29