##TITLE=Library Entry 82829
##JCAMP-DX=Revision 4.10 
##DATA TYPE=MASS SPECTRUM
##SAMPLE DESCRIPTION=CARL DJERASSI DEPT OF CHEM STANFORD UNIV STANFORD CALIF
 94305
##NAMES=HP
##CAS NAME=Carbamic acid, (.alpha.-methylbenzyl)-, propyl ester
##MOLFORM=C12H17NO2
##CAS REGISTRY NO=32589-32-5
##MP= -300
##BP= -300
##MW= 207
##$RETENTION INDEX=0
##$CONDENSED SPECTRUM=NO
##NPOINTS= 33
##XYDATA=(XY..XY) 1 
    41        257
    42        425
    43        613
    44        168
    50         39
    51        178
    52         39
    60         39
    61          9
    76          9
    77        415
    78        148
    79        287
    80          9
    91         19
   103        118
   104        287
   105        703
   106        999
   107         59
   119          9
   120        584
   121         19
   132        386
   147        138
   148         49
   150        148
   164        643
   165         49
   192        465
   193         29
   207        297
   208         19