##TITLE=Library Entry 78114
##JCAMP-DX=Revision 4.10 
##DATA TYPE=MASS SPECTRUM
##SAMPLE DESCRIPTION=CARL DJERASSI DEPT OF CHEM STANFORD UNIV STANFORD CALIF
 94305
##NAMES=HP
##CAS NAME=Carbamic acid, (.alpha.-methylbenzyl)-, 1-ethyl-1-methylhexyl est
er
##MOLFORM=C18H29NO2
##CAS REGISTRY NO=32589-48-3
##MP= -300
##BP= -300
##MW= 291
##$RETENTION INDEX=0
##$CONDENSED SPECTRUM=NO
##NPOINTS= 52
##XYDATA=(XY..XY) 1 
    41        445
    42        198
    43        544
    44        207
    45         59
    50          9
    51         89
    52         19
    53         59
    54          9
    55        782
    56         89
    57        376
    58         19
    59         19
    69        188
    70        772
    71        544
    72          9
    73        465
    74         19
    77        217
    78         69
    79        188
    83        138
    84         39
    85        178
    86          9
    96         29
    97        277
    98         39
   103         49
   104         99
   105        999
   106        623
   107         29
   115        178
   116         29
   120         59
   126        227
   127         39
   129         19
   132        188
   133         19
   150        277
   151         19
   164        128
   165        207
   166        326
   167         19
   177         19
   276          0