##TITLE=Library Entry 78161
##JCAMP-DX=Revision 4.10 
##DATA TYPE=MASS SPECTRUM
##SAMPLE DESCRIPTION=CARL DJERASSI DEPT OF CHEM STANFORD UNIV STANFORD CALIF
 94305
##NAMES=HP
##CAS NAME=Carbamic acid, (.alpha.-methylbenzyl)-, 1-ethyl-1-methylpentyl es
ter
##MOLFORM=C17H27NO2
##CAS REGISTRY NO=32589-47-2
##MP= -300
##BP= -300
##MW= 277
##$RETENTION INDEX=0
##$CONDENSED SPECTRUM=NO
##NPOINTS= 46
##XYDATA=(XY..XY) 1 
    41        356
    42        168
    43        237
    44        158
    45         39
    50         19
    51         59
    52          9
    53         29
    55        346
    56         49
    57        574
    58         19
    59          9
    62         19
    69         79
    70        396
    71        524
    72         19
    73        128
    77        188
    78         49
    79        148
    83        227
    84         39
    88         39
   101        108
   103         59
   104         89
   105        999
   106        445
   107         19
   112        227
   113         59
   115         29
   120         49
   132         89
   147          9
   150        396
   151         19
   164        138
   165        267
   166        346
   167         19
   262          1
   277          0