##TITLE=Library Entry 46551
##JCAMP-DX=Revision 4.10 
##DATA TYPE=MASS SPECTRUM
##SAMPLE DESCRIPTION=A.A.Kutin, Moscow, Russia
##NAMES=HP
##CAS NAME=Acetamide, 2-phenoxy-N-(5-chloro-2-methoxyphenyl)-
##MOLFORM=C15H14ClNO3
##CAS REGISTRY NO=325832-11-9
##MP= -300
##BP= -300
##MW= 291
##$RETENTION INDEX=0
##$CONDENSED SPECTRUM=NO
##NPOINTS= 147
##XYDATA=(XY..XY) 1 
    34          2
    35         13
    36         19
    37         54
    38        153
    39        514
    40         61
    41         33
    42        138
    43         40
    44         16
    45          3
    47          1
    48          2
    49         24
    50        266
    51        659
    52        125
    53         71
    55         15
    56          2
    57          2
    58          0
    59          2
    60          9
    61         30
    62         82
    63        245
    64         82
    65        412
    66         64
    68          7
    69          2
    70          3
    72          8
    73         35
    74         52
    75         78
    76        167
    77        999
    78        265
    79        184
    80         13
    81          5
    82          3
    84          3
    85         15
    86         20
    87         18
    88         14
    89         16
    90        104
    91         40
    92         49
    93        173
    94         44
    95          3
    96          0
    97          7
    99        141
   101         56
   102          9
   103          3
   104         13
   105         31
   106         24
   107        189
   108         57
   109          6
   111         23
   112         22
   113         47
   114         39
   115         16
   116         14
   117          5
   118          2
   119          4
   120         10
   121          6
   122          1
   123          0
   124          6
   125         15
   126         71
   127         30
   128         44
   129         15
   130          7
   131          4
   132          2
   133          3
   134          6
   135          5
   136          0
   137          0
   138          6
   140         23
   141          7
   142         29
   144         10
   146          1
   148          7
   150          0
   151          1
   152          2
   154         93
   155         64
   156         48
   157         40
   158          9
   159          4
   160          0
   161          0
   163         15
   164          1
   165          0
   166          7
   167          7
   168         17
   169         41
   170        108
   171         23
   172         32
   173          2
   177          0
   181          0
   183         13
   184         15
   185          4
   186          6
   193          0
   195          0
   196          1
   197          0
   198          3
   200          0
   228          0
   260          0
   286          1
   288          2
   289          3
   290         10
   291         26
   292          4
   293          8
   294          1