##TITLE=Library Entry 81429
##JCAMP-DX=Revision 4.10 
##DATA TYPE=MASS SPECTRUM
##SAMPLE DESCRIPTION=A M. DUFFIELD
##NAMES=HP
##CAS NAME=Carbamic acid, (.alpha.-methylbenzyl)-, 1-pentylallyl ester
##MOLFORM=C17H25NO2
##CAS REGISTRY NO=32589-38-1
##MP= -300
##BP= -300
##MW= 275
##$RETENTION INDEX=0
##$CONDENSED SPECTRUM=NO
##NPOINTS= 56
##XYDATA=(XY..XY) 1 
    41        270
    42        130
    43        180
    44         70
    50         10
    51         50
    52         20
    53         40
    54        150
    55        310
    56         40
    57        390
    58         30
    65         10
    66         10
    67         90
    68         70
    69        440
    70         40
    71         30
    72        140
    73         10
    77        140
    78         40
    79        100
    81         70
    82         20
    83         10
    85         50
    86         30
    88         10
    91         20
    95         20
    99         50
   103         40
   104        110
   105        999
   106        310
   107         20
   110         30
   111         20
   119         20
   120        190
   128        320
   129         20
   132        130
   133         10
   147         50
   150         80
   164        490
   165         70
   166         10
   216         40
   246         20
   260         10
   275         20