##TITLE=Library Entry 58004
##JCAMP-DX=Revision 4.10 
##DATA TYPE=MASS SPECTRUM
##SAMPLE DESCRIPTION=Exported from NIST MS Search
##NAMES=HP
##CAS NAME=Glucitol, O-2,3,4,6-tetra-O-methyl-.beta.-D-glucopyranosyl-(1.fwd
arw.6)-O-2,3,4-tri-O-methyl-.beta.-D-glucopyranosyl-(1.fwdarw.6)-1,2,3,4,5-p
enta-O-methyl-, D-
##MOLFORM=C30H58O16
##CAS REGISTRY NO=32581-12-7
##MP= -300
##BP= -300
##MW= 674
##$RETENTION INDEX=0
##$CONDENSED SPECTRUM=NO
##NPOINTS= 32
##XYDATA=(XY..XY) 1 
    45        290
    71        340
    75        250
    88        999
    89        260
   101        509
   103         80
   111        180
   115        130
   133         80
   143         30
   145        140
   155        100
   159         20
   171        100
   175         10
   177         40
   187        340
   201         10
   203         30
   219         50
   235        210
   295         50
   305          4
   351          2
   359          2
   375         12
   391          4
   407         30
   439          8
   499         24
   541          5