##TITLE=Library Entry 75643
##JCAMP-DX=Revision 4.10 
##DATA TYPE=MASS SPECTRUM
##SAMPLE DESCRIPTION=Exported from NIST MS Search
##NAMES=HP
##CAS NAME=Glucitol, O-2,3,4,6-tetra-O-methyl-.beta.-D-glucopyranosyl-(1.fwd
arw.2)-3,4,6-tri-O-methyl-.beta.-D-glucopyranosyl-(1.fwdarw.2)-1,3,4,5,6-pen
ta-O-methyl-, D-
##MOLFORM=C30H58O16
##CAS REGISTRY NO=32581-24-1
##MP= -300
##BP= -300
##MW= 674
##$RETENTION INDEX=0
##$CONDENSED SPECTRUM=NO
##NPOINTS= 35
##XYDATA=(XY..XY) 1 
    45        869
    71        709
    75        460
    88        879
    89        609
   101        999
   103         80
   111        569
   115        300
   133        160
   143         80
   145        270
   155        220
   159         30
   171        180
   175         10
   177         20
   187        969
   201         70
   203         20
   219        100
   235        929
   295         10
   305          8
   319          2
   359          7
   365          3
   375          2
   391        290
   407         14
   423         33
   439         18
   499         13
   541          1
   585         19