##TITLE=Library Entry 58201
##JCAMP-DX=Revision 4.10 
##DATA TYPE=MASS SPECTRUM
##SAMPLE DESCRIPTION=Exported from NIST MS Search
##NAMES=HP
##CAS NAME=Glucitol, O-2,3,4,6-tetra-O-methyl-.beta.-D-glucopyranosyl-(1.fwd
arw.4)-O-2,3,6-tri-O-methyl-.beta.-D-glucopyranosyl-(1.fwdarw.3)-1,2,4,5,6-p
enta-O-methyl-, D-
##MOLFORM=C30H58O16
##CAS REGISTRY NO=32581-20-7
##MP= -300
##BP= -300
##MW= 674
##$RETENTION INDEX=0
##$CONDENSED SPECTRUM=NO
##NPOINTS= 34
##XYDATA=(XY..XY) 1 
    45        430
    71        260
    75        280
    88        999
    89        320
   101        499
   103         20
   111        330
   115        340
   133         50
   143         40
   145         60
   155         90
   159         20
   171        160
   175         10
   187        609
   201         10
   203         20
   219         70
   235        290
   295         60
   305          7
   319          6
   335          5
   359          3
   363          2
   375          2
   391          3
   407         10
   423          4
   439         10
   499          2
   585          2