##TITLE=Library Entry 46650
##JCAMP-DX=Revision 4.10 
##DATA TYPE=MASS SPECTRUM
##SAMPLE DESCRIPTION=Chemical Concepts
##NAMES=HP
##CAS NAME=3-(Trifluoromethyl)benzophenone (2,4-dinitrophenyl)hydrazone
##MOLFORM=C20H13F3N4O4
##CAS REGISTRY NO=325989-88-6
##MP= -300
##BP= -300
##MW= 430
##$RETENTION INDEX=0
##$CONDENSED SPECTRUM=NO
##NPOINTS= 169
##XYDATA=(XY..XY) 1 
    33          8
    37         18
    38         90
    39        155
    40         50
    41         71
    42         32
    43         49
    44         24
    45          9
    46         20
    50        154
    51        413
    52         83
    53         26
    54         32
    55         25
    57         42
    60          9
    62        129
    63        202
    64         69
    65         25
    66         13
    67         14
    69         74
    70         11
    71         16
    74        126
    75        271
    77        999
    78        160
    79        116
    80         16
    81         20
    82         14
    83         16
    86          9
    87         21
    88         27
    89         31
    90         22
    91         22
    92         36
    93         16
    94         20
    95         54
    96          9
    97          9
    98          9
    99         12
   100          9
   101         10
   102         19
   103         35
   104         79
   105         90
   106         22
   107         28
   113         15
   114         13
   115         33
   116         11
   119         15
   120          9
   121         12
   122         31
   125         45
   126         43
   127         17
   128         15
   129          9
   133         14
   135         42
   137          9
   138         14
   139         54
   140         24
   143          9
   145        179
   146         17
   149         17
   150         10
   151         22
   152         88
   153         26
   154         14
   157         10
   158         18
   159         24
   162         12
   163         60
   164         90
   165        342
   166        133
   167         31
   168          9
   171          9
   172         29
   173         82
   174         10
   177          9
   178          9
   179         11
   180         45
   181         30
   182         44
   183         57
   184          9
   188         18
   191          9
   192         15
   193         12
   194          9
   195          8
   205         53
   206         10
   207          9
   208         15
   211         10
   212         23
   213         12
   214         21
   215          9
   226          9
   228         18
   231          9
   232         25
   233         54
   234         19
   237         11
   238         13
   239         85
   240         29
   241         30
   243          9
   246          9
   248        215
   249         37
   250         14
   251         35
   266          9
   267         13
   268         15
   288          9
   307         16
   308         17
   309         22
   310          9
   314          8
   322          9
   323          9
   335         25
   336         38
   337         29
   338         14
   339         15
   343         14
   349         19
   382         13
   383         15
   395         48
   396         16
   425         10
   426         10
   427         24
   429         80
   430        216
   431         44