##TITLE=Library Entry 38590
##JCAMP-DX=Revision 4.10 
##DATA TYPE=MASS SPECTRUM
##SAMPLE DESCRIPTION=Chemical Concepts
##NAMES=HP
##CAS NAME=2-Propoxy-succinic acid, dimethyl ester
##MOLFORM=C9H16O5
##CAS REGISTRY NO=325984-06-3
##MP= -300
##BP= -300
##MW= 204
##$RETENTION INDEX=0
##$CONDENSED SPECTRUM=NO
##NPOINTS= 57
##XYDATA=(XY..XY) 1 
    26         42
    27        210
    29        288
    30         26
    31        118
    33        173
    39         20
    41         82
    42        143
    43        944
    44        240
    45         81
    47         26
    53         16
    54          7
    55         88
    56          2
    57         20
    58         14
    59        195
    60         16
    61        414
    62          7
    69         13
    70          2
    71        999
    72         36
    73         11
    74         76
    75         34
    82          3
    83          4
    84          4
    85         27
    86         29
    87          9
    88         16
    89        103
    91         11
    99         38
   101          6
   102         30
   103        941
   104         59
   105          7
   113         36
   114          7
   116         22
   117        193
   118          7
   127         24
   129          3
   130         10
   131         22
   141         12
   144          7
   145         22