##TITLE=Library Entry 27347
##JCAMP-DX=Revision 4.10 
##DATA TYPE=MASS SPECTRUM
##SAMPLE DESCRIPTION=Zaikin V.G., TIPS RAS, Moscow, Russia
##NAMES=HP
##CAS NAME=Propanamide, 2,2-dimethyl-N-(3-nitrophenyl)-
##MOLFORM=C11H14N2O3
##CAS REGISTRY NO=32597-30-1
##MP= -300
##BP= -300
##MW= 222
##$RETENTION INDEX=1867
##$CONDENSED SPECTRUM=NO
##NPOINTS= 65
##XYDATA=(XY..XY) 1 
    26          3
    27         17
    28         34
    29         87
    30          9
    36          3
    38          8
    39         47
    40          8
    41        169
    42         18
    43          3
    44          4
    50         13
    51          9
    52         12
    53          7
    54          6
    55         16
    56         11
    57        999
    58         44
    62          4
    63         25
    64         32
    65         40
    66          5
    69         11
    70          4
    74          3
    75         13
    76         28
    77          5
    78          4
    79          7
    80         16
    83          3
    85        194
    86         11
    90         13
    91         28
    92         83
    93         11
   106          4
   108         18
   111          3
   117          3
   118          4
   119          4
   122          5
   133          8
   134          3
   137         15
   138        169
   139         13
   163          3
   164          3
   165         15
   179         34
   180          4
   192          9
   207          9
   222        208
   223         32
   224          3