##TITLE=Library Entry 84447
##JCAMP-DX=Revision 4.10 
##DATA TYPE=MASS SPECTRUM
##SAMPLE DESCRIPTION=Chemical Concepts
##NAMES=HP
##CAS NAME=2'-Methylsuccinanilic acid N'-(4-fluorobenzylidene)hydrazide
##MOLFORM=C18H18FN3O2
##CAS REGISTRY NO=325998-55-8
##MP= -300
##BP= -300
##MW= 327
##$RETENTION INDEX=0
##$CONDENSED SPECTRUM=NO
##NPOINTS= 152
##XYDATA=(XY..XY) 1 
    33          1
    37          4
    38          9
    39         45
    40          1
    41         15
    42         16
    43         18
    44         69
    45          6
    46          2
    49          3
    50         25
    51         42
    52         26
    53         19
    54         23
    55        284
    56         38
    57         43
    58          3
    59          5
    60          2
    61          6
    62         13
    63         30
    64         14
    65         70
    66          9
    67          5
    68          7
    69         11
    70         12
    71          7
    72         33
    73          5
    74          9
    75         45
    76         13
    77         96
    78         44
    79         45
    80         14
    81         12
    82         28
    83         46
    84          7
    85          2
    86          1
    87          3
    88          4
    89         23
    90         29
    91        220
    92         22
    93         19
    94         29
    95        156
    96         21
    97          7
    98          6
    99         11
   100         87
   101          6
   102          6
   103          5
   104         29
   105         22
   106        264
   107        999
   108        160
   109         28
   110         22
   111          9
   112          2
   113          1
   115          4
   116          6
   117         16
   118         16
   119         14
   120         20
   121         73
   122        203
   123         31
   124          9
   125          5
   127          1
   128          3
   129          2
   130         33
   131          6
   132         15
   133         15
   134         95
   135         11
   136          7
   137         27
   138         66
   139         11
   140          1
   141          1
   142          2
   143          5
   144         31
   145         12
   146         11
   147          4
   148          5
   149          6
   150          4
   151          2
   155          1
   157          1
   158          2
   159          5
   160          6
   161          5
   162         38
   163          6
   164          3
   165          8
   170          1
   171          6
   172          5
   173          6
   174          2
   175          1
   179          6
   180          1
   183          1
   185          3
   186          1
   187          4
   188         21
   189         42
   190        532
   191         64
   192          8
   193         15
   194          3
   203          1
   206          1
   214          1
   219          5
   220          6
   221         89
   222         10
   223          1
   309          3
   327         29
   328          7