##TITLE=Library Entry 36395
##JCAMP-DX=Revision 4.10 
##DATA TYPE=MASS SPECTRUM
##SAMPLE DESCRIPTION=Japan AIST/NIMC Database- Spectrum MS-IW-3459
##NAMES=HP
##CAS NAME=1,3-Butanedione, 4,4,4-trifluoro-1-phenyl-
##MOLFORM=C10H7F3O2
##CAS REGISTRY NO=326-06-7
##MP= -300
##BP= -300
##MW= 216
##$RETENTION INDEX=0
##$CONDENSED SPECTRUM=NO
##NPOINTS= 92
##XYDATA=(XY..XY) 1 
    20          1
    26          2
    27         15
    28          5
    29          4
    31          3
    32          1
    33          1
    37          6
    38         13
    39         47
    40          3
    41         13
    42          9
    43          3
    44          2
    45         10
    46          2
    47          1
    49          6
    50         97
    51        242
    52         29
    53         11
    55          1
    58          1
    59         32
    60          2
    61          7
    62         17
    63         42
    64         10
    65         60
    66          7
    67          1
    69        999
    70         39
    71          7
    73         96
    74         52
    75         39
    76         35
    77        505
    78         77
    79         16
    80          1
    83          2
    84          1
    85          2
    86          3
    87          3
    88          1
    89         35
    90         24
    91         57
    92          5
    93          1
    95          1
    97          1
    98          3
    99          2
   101         11
   102         15
   103         36
   104          5
   105        438
   106         33
   107          2
   108          2
   109         14
   110          1
   117          1
   118         13
   119         17
   120          6
   121          2
   129          4
   139         28
   140          1
   145          1
   146          2
   147        907
   148         90
   149          9
   151          1
   159          2
   167          2
   169          1
   215         69
   216        663
   217         74
   218          6