##TITLE=Library Entry 36421
##JCAMP-DX=Revision 4.10 
##DATA TYPE=MASS SPECTRUM
##SAMPLE DESCRIPTION=NIST Mass Spectrometry Data Center, 2010
##NAMES=HP
##CAS NAME=1,3-Butanedione, 4,4,4-trifluoro-1-(2-thienyl)-
##MOLFORM=C8H5F3O2S
##CAS REGISTRY NO=326-91-0
##MP= -300
##BP= -300
##MW= 222
##$RETENTION INDEX=0
##$CONDENSED SPECTRUM=NO
##NPOINTS= 77
##XYDATA=(XY..XY) 1 
    27          3
    31          3
    33          2
    36          1
    37         12
    38         24
    39        140
    41         19
    42         11
    45         92
    46          3
    47          8
    49          8
    50         23
    51         23
    52          7
    53         59
    54          5
    56          4
    57         50
    58         46
    59          6
    60          5
    61          9
    62         23
    63         33
    64          5
    65         30
    66          6
    69        999
    70         44
    71         22
    72          3
    73          6
    74          8
    75          9
    80          6
    81         40
    82         37
    83         72
    84         25
    85         65
    87          5
    90          1
    91         17
    93          6
    94          3
    95         17
    96         25
    97         41
    98          5
    99          3
   101          4
   106          3
   107          2
   108         22
   109         33
   111        485
   112         33
   113         24
   114          3
   115         12
   119          8
   120          2
   123          2
   124          7
   135          3
   139          8
   153        581
   154         52
   155         31
   165          3
   189         13
   222        474
   223         49
   224         29
   225          2