##TITLE=Library Entry 35740
##JCAMP-DX=Revision 4.10 
##DATA TYPE=MASS SPECTRUM
##SAMPLE DESCRIPTION=NIST Mass Spectrometry Data Center
##NAMES=HP
##CAS NAME=1-(2-Furyl)-4,4,4-trifluoro-1,3-butanedione
##MOLFORM=C8H5F3O3
##CAS REGISTRY NO=326-90-9
##MP= -300
##BP= -300
##MW= 206
##$RETENTION INDEX=0
##$CONDENSED SPECTRUM=NO
##NPOINTS= 72
##XYDATA=(XY..XY) 1 
    12          5
    13          2
    14         16
    16          1
    17          5
    18          4
    25          7
    26         24
    27         85
    28          2
    29         87
    31         27
    37         70
    38        145
    39        321
    40         29
    41         70
    42         65
    43          5
    44          1
    45         12
    47          5
    49         15
    50         55
    51         90
    52         40
    53        174
    54         20
    55         38
    56          6
    57          4
    61         14
    62         21
    63         50
    64         19
    65         66
    66         17
    67         61
    69        999
    70         48
    71         14
    73          5
    74          6
    75         11
    77          5
    78          4
    79         17
    80         16
    81         34
    82          4
    83          6
    89          5
    91         22
    92         17
    93         12
    95        906
    96         48
    97          8
    99          6
   101          9
   108         15
   109          8
   119         11
   121          4
   137        731
   138         67
   139         16
   149          8
   178         16
   206        339
   207         38
   208          4