##TITLE=Library Entry 48113
##JCAMP-DX=Revision 4.10 
##DATA TYPE=MASS SPECTRUM
##SAMPLE DESCRIPTION=D. Rasala, Inst. Chem., Pedagogical Univ., Kielce, Pola
nd
##NAMES=HP
##CAS NAME=3-Pyridinamine, N-methyl-2-nitro-
##MOLFORM=C6H7N3O2
##CAS REGISTRY NO=32605-06-4
##MP= -300
##BP= -300
##MW= 153
##$RETENTION INDEX=0
##$CONDENSED SPECTRUM=NO
##NPOINTS= 33
##XYDATA=(XY..XY) 1 
    50        280
    51        530
    52        540
    53        430
    54        100
    55         50
    63        100
    64        360
    65        380
    66        350
    67        170
    68        110
    75        100
    76        140
    77         70
    78        999
    79        270
    80        380
    81         80
    91         80
    92        450
    93         60
    95         70
   105        200
   106         60
   107        480
   108        100
   123         40
   136          2
   152          2
   153        100
   154          6
   155          0