##TITLE=Library Entry 58207
##JCAMP-DX=Revision 4.10 
##DATA TYPE=MASS SPECTRUM
##SAMPLE DESCRIPTION=V.A.Korolev, Moscow, Russia
##NAMES=HP
##CAS NAME=4-Oxo-3H-phthalazine-1-carboxylic acid
##MOLFORM=C9H6N2O3
##CAS REGISTRY NO=3260-44-4
##MP= -300
##BP= -300
##MW= 190
##$RETENTION INDEX=0
##$CONDENSED SPECTRUM=NO
##NPOINTS= 72
##XYDATA=(XY..XY) 1 
    36         44
    37        176
    38        268
    39        411
    40         31
    41         25
    42         22
    43        110
    44        165
    45        690
    46          5
    48          8
    49        106
    50        473
    51        445
    52        112
    53         78
    54         10
    55          5
    57          2
    58         40
    59          6
    60         19
    61        215
    62        523
    63        447
    64        120
    65         36
    66         19
    67          9
    73         49
    74        178
    75        298
    76        377
    77        394
    78         78
    79         13
    84         10
    85         73
    86        149
    87        211
    88        999
    89        299
    90        317
    91        214
    92         13
    96          1
    98          2
    99         16
   100          7
   101         22
   102        237
   103        151
   104        192
   105        393
   106         29
   107          2
   116         13
   117         68
   118         85
   130        420
   131         30
   132         10
   133         19
   134         45
   141          2
   144        935
   145        141
   146         31
   190        994
   191         94
   192          4