##TITLE=Library Entry 18268
##JCAMP-DX=Revision 4.10 
##DATA TYPE=MASS SPECTRUM
##SAMPLE DESCRIPTION=A.A.Kutin, Moscow, Russia
##NAMES=HP
##CAS NAME=5-Ethyl-2-(furfurylidenehydrazino)-2-thiazolin-4-one
##MOLFORM=C10H11N3O2S
##CAS REGISTRY NO=326095-41-4
##MP= -300
##BP= -300
##MW= 237
##$RETENTION INDEX=0
##$CONDENSED SPECTRUM=NO
##NPOINTS= 38
##XYDATA=(XY..XY) 1 
    37         39
    38        188
    39        897
    40        319
    41        581
    42        139
    43         55
    44         72
    45        367
    46         31
    47         15
    50        246
    51        356
    52        999
    53         64
    55        336
    58          7
    59         51
    60         13
    66          9
    68          9
    69         67
    70         22
    71         11
    73         60
    74        289
    75          3
    79         42
    80        316
    81         15
    94        166
    95        317
    96        132
   108         22
   136          5
   237         49
   238          2
   239          1