##TITLE=Library Entry 27982
##JCAMP-DX=Revision 4.10 
##DATA TYPE=MASS SPECTRUM
##SAMPLE DESCRIPTION=A.A.Kutin, Moscow, Russia
##NAMES=HP
##CAS NAME=Butan-1-one, 4-chloro-1-(1,2,3,4,4a,9b-hexahydro-2,8-dimethylpyri
do[4,3-b]indol-5-yl)-
##MOLFORM=C17H23ClN2O
##CAS REGISTRY NO=326033-07-2
##MP= -300
##BP= -300
##MW= 306
##$RETENTION INDEX=0
##$CONDENSED SPECTRUM=NO
##NPOINTS= 86
##XYDATA=(XY..XY) 1 
    33         50
    35         13
    36         94
    38         37
    40         60
    41        138
    43        749
    47          0
    49          6
    51          6
    52          2
    53          2
    55          8
    56         11
    58        999
    61          0
    63          2
    65          4
    71        548
    75          2
    77         30
    78          4
    79          5
    82          5
    89          4
    91          9
    93          0
    94          4
    95          3
    96          1
   101          1
   102          4
   103          8
   105         12
   106          0
   107          2
   114          0
   115          9
   116          7
   117          9
   118          1
   127          2
   128          9
   130         44
   131         42
   132         20
   133          4
   141          3
   142          8
   143         23
   144         20
   145          5
   146          3
   154          1
   156          9
   157         17
   158         44
   159          5
   160          1
   168          1
   169          0
   170          2
   171          4
   172          2
   173          0
   174          0
   183          0
   184          1
   185          3
   186          5
   187          1
   199          6
   200          5
   201         41
   202          5
   203          0
   229          2
   237          0
   263          1
   271          0
   289          0
   303          2
   304          1
   306         50
   308         19
   309          1