##TITLE=Library Entry 68152
##JCAMP-DX=Revision 4.10 
##DATA TYPE=MASS SPECTRUM
##SAMPLE DESCRIPTION=F.GAYMARD FACULTY OF SCIENCE, NICE UNIV., NICE, FRANCE
##NAMES=HP
##CAS NAME=Cycloheptane, 1,3-dichloro-, trans-
##MOLFORM=C7H12Cl2
##CAS REGISTRY NO=32616-84-5
##MP= -300
##BP= -300
##MW= 166
##$RETENTION INDEX=0
##$CONDENSED SPECTRUM=NO
##NPOINTS= 23
##XYDATA=(XY..XY) 1 
    43          5
    54        145
    55         60
    66         20
    67        120
    68        170
    69         10
    78          5
    79        305
    80         15
    81        220
    88         45
    89         10
    90         10
    91          5
    93         15
    94        305
    95        999
    96         70
   102        120
   104         40
   130         25
   132          8