##TITLE=Library Entry 99571
##JCAMP-DX=Revision 4.10 
##DATA TYPE=MASS SPECTRUM
##SAMPLE DESCRIPTION=Japan AIST/NIMC Database- Spectrum MS-NW-8640
##NAMES=HP
##CAS NAME=(+)-di-O-4-Toluoyl-D-tartaric acid
##MOLFORM=C20H18O8
##CAS REGISTRY NO=32634-68-7
##MP= -300
##BP= -300
##MW= 386
##$RETENTION INDEX=0
##$CONDENSED SPECTRUM=NO
##NPOINTS= 71
##XYDATA=(XY..XY) 1 
    14          1
    15          1
    17          3
    18         10
    26          1
    27          4
    28          2
    29          3
    30          1
    31          2
    37          2
    38          5
    39         36
    40          4
    41         12
    42          4
    43          5
    44          8
    45          7
    50         10
    51         16
    52          4
    53          5
    54          1
    55          1
    58          1
    59          6
    61          3
    62          9
    63         27
    64          8
    65         99
    66          6
    69          4
    70          2
    71          3
    74          3
    75          3
    76          3
    77          8
    78          1
    79          2
    85          1
    86          2
    87          2
    88          1
    89         28
    90         23
    91        358
    92         46
    93          3
   105          2
   107          7
   108          1
   118          9
   119        999
   120         87
   121          6
   135          5
   136        183
   137         17
   138          1
   161          1
   176          2
   233          3
   250          7
   251          1
   255          3
   368         16
   369          4
   386          1