##TITLE=Library Entry 16568
##JCAMP-DX=Revision 4.10 
##DATA TYPE=MASS SPECTRUM
##SAMPLE DESCRIPTION=Exported from NIST MS Search
##NAMES=HP
##CAS NAME=Azirino[2',3':3,4]pyrrolo[1,2-a]indole-4,7-dione, 6-amino-8-[[(am
inocarbonyl)oxy]methyl]-1,1a,2,8b-tetrahydro-1,5-dimethyl-
##MOLFORM=C15H16N4O4
##CAS REGISTRY NO=32633-56-0
##MP= -300
##BP= -300
##MW= 316
##$RETENTION INDEX=0
##$CONDENSED SPECTRUM=NO
##NPOINTS= 142
##XYDATA=(XY..XY) 1 
    41         98
    42        217
    43        302
    44        999
    45         41
    50         21
    51         63
    52         43
    53         41
    54         85
    55         87
    56         41
    57         98
    58         21
    59         21
    61         98
    62         10
    63         41
    65         47
    66         28
    67         47
    68         41
    69         24
    70         28
    71         13
    74         10
    75         21
    76         41
    77         65
    78         45
    79         41
    80         30
    81         19
    82         41
    83         10
    84         21
    85         21
    86         21
    87         21
    88         10
    89         24
    90         24
    91         41
    92         41
    93         24
    94         15
    95         10
    96         10
    99         26
   100         21
   101         10
   102         21
   103         39
   104         43
   105         26
   106         28
   107         13
   113         21
   114         26
   115         26
   116         26
   117         26
   118         32
   119         21
   120          6
   121          6
   122         21
   127         10
   128         43
   129         28
   130         28
   131         41
   132         41
   133         10
   137         26
   141         10
   142         32
   143         32
   144         26
   145         43
   146         26
   147         10
   153         43
   154         10
   155         21
   156         21
   157         41
   158         19
   159         21
   160          8
   169         21
   170         21
   171         30
   172         21
   174         10
   182         10
   183         21
   184         37
   185         32
   186         19
   187         13
   188         13
   189         13
   197         21
   198         21
   199         21
   200         24
   201         13
   202         41
   203         67
   204         45
   205         41
   206         28
   207         13
   209         10
   225         10
   226         63
   227         61
   228         58
   229         30
   240        272
   241        152
   242         63
   243         32
   244         63
   245          6
   254        104
   255        599
   256        348
   257        150
   258        302
   259         43
   271         19
   272        472
   273        302
   274         45
   275         10
   285         10
   287         10
   315         21
   316        520
   317         93