##TITLE=Library Entry 4516
##JCAMP-DX=Revision 4.10 
##DATA TYPE=MASS SPECTRUM
##SAMPLE DESCRIPTION=Chemical Concepts
##NAMES=HP
##CAS NAME=4-Methyl-1,3,2-dioxathiane 2-oxide
##MOLFORM=C4H8O3S
##CAS REGISTRY NO=32644-05-6
##MP= -300
##BP= -300
##MW= 136
##$RETENTION INDEX=0
##$CONDENSED SPECTRUM=NO
##NPOINTS= 54
##XYDATA=(XY..XY) 1 
    25          7
    26         74
    27        361
    28        641
    29        447
    30         33
    31        144
    34          7
    36          6
    37         11
    38         26
    39        189
    40         92
    41        525
    42        999
    43        998
    44        295
    45        210
    46          7
    48        100
    49         20
    50         44
    51          9
    52          6
    53         16
    54         47
    55        308
    56         15
    57        131
    58          8
    62          6
    63          7
    64         40
    65        139
    66          9
    67          8
    69          7
    71         55
    72        522
    73         24
    78         94
    79          6
    80          8
    90          8
    92         18
    93         21
    95          9
   106         13
   107          9
   108         36
   109          6
   121         22
   136         19
   137          6