##TITLE=Library Entry 83448
##JCAMP-DX=Revision 4.10 
##DATA TYPE=MASS SPECTRUM
##SAMPLE DESCRIPTION=Japan AIST/NIMC Database- Spectrum MS-IW-5123
##NAMES=HP
##CAS NAME=Nicotinaldehyde 4-propyl-3-thiosemicarbazone
##MOLFORM=C10H14N4S
##CAS REGISTRY NO=32646-37-0
##MP= -300
##BP= -300
##MW= 222
##$RETENTION INDEX=0
##$CONDENSED SPECTRUM=NO
##NPOINTS= 168
##XYDATA=(XY..XY) 1 
    14          1
    15          5
    16          2
    25          2
    26         28
    27        143
    28        148
    29         34
    30        265
    31          7
    32         34
    33         18
    34         49
    35          1
    36          4
    37         13
    38         39
    39        116
    40         26
    41        367
    42         96
    43        676
    44         55
    45         19
    46          6
    47         10
    48          6
    49          9
    50        102
    51        229
    52        102
    53         35
    54         27
    55        136
    56        106
    57         97
    58        814
    59         86
    60        258
    61         61
    62         37
    63         71
    64         74
    65         67
    66         39
    67         44
    68         11
    69          9
    70          8
    71          5
    72         65
    73         11
    74         40
    75         46
    76        114
    77        214
    78        336
    79        173
    80         57
    81          7
    82          3
    83         77
    84         37
    85         84
    86          8
    87          3
    88          5
    89         12
    90         48
    91         95
    92        102
    93         89
    94         72
    95          6
    96          2
    97          3
    98          1
    99          2
   100          9
   101        172
   102        105
   103         75
   104        355
   105        265
   106        207
   107        999
   108         86
   109          5
   110          2
   111         16
   112          2
   113          1
   114          1
   115          7
   116         68
   117        335
   118        114
   119         90
   120        343
   121        275
   122         31
   123         10
   124          5
   125          2
   127          1
   128          1
   129         18
   130          3
   131          3
   132          5
   133          9
   134          4
   135         10
   136          4
   137         11
   138          2
   139          4
   141          1
   142          2
   143          2
   144         31
   145          5
   146          7
   147         11
   148          2
   149          3
   150          4
   151          1
   152          2
   157          1
   158          6
   159          4
   160          1
   161          1
   162          3
   163        101
   164         32
   165         37
   166          4
   167          3
   171          5
   172          1
   173          1
   175          7
   176          2
   177          1
   178          9
   179         18
   180          3
   181          1
   185          1
   187          2
   188          5
   189          9
   190          2
   191          2
   192          1
   193          6
   194         15
   195          2
   196          1
   219          1
   220          6
   221          9
   222        727
   223        100
   224         37
   225          4