##TITLE=Library Entry 50236
##JCAMP-DX=Revision 4.10 
##DATA TYPE=MASS SPECTRUM
##SAMPLE DESCRIPTION=BAY 0263
##NAMES=HP
##CAS NAME=2(1H)-Pyrimidinone, 1-[2-deoxy-3-O-(trimethylsilyl)-.beta.-d-eryt
hro-pentofuranosyl]-4-(trimethylsiloxy)-, 5'-[bis(trimethylsilyl) phosphate]
##MOLFORM=C21H45N2O8PSi4
##CAS REGISTRY NO=32645-61-7
##MP= -300
##BP= -300
##MW= 596
##$RETENTION INDEX=0
##$CONDENSED SPECTRUM=NO
##NPOINTS= 153
##XYDATA=(XY..XY) 1 
    45         78
    47         23
    53         27
    54         17
    55         25
    58         10
    59         47
    61         15
    67         10
    68         11
    69         24
    70         12
    71         11
    72         30
    73        551
    74         72
    75        144
    76         12
    77         42
    79         11
    81        999
    82         78
    83         13
    85         11
    95         15
    96         18
    97         13
    98         12
    99         56
   100         42
   101         44
   103         14
   111         10
   112         17
   113         22
   115         16
   116         11
   117         17
   119         10
   121         10
   126         13
   127         20
   129         93
   131         18
   133         78
   135         32
   137         13
   142         19
   143         15
   147         95
   148         32
   149         19
   153         19
   155         43
   156         12
   157         11
   169         91
   170         75
   171         50
   172         10
   181         12
   183         18
   184         14
   185         46
   186         11
   191         13
   193         19
   195         29
   196         16
   197         28
   198         13
   207         36
   208         12
   209         14
   211        176
   212         33
   213         18
   221         15
   225         33
   226         13
   227        153
   228         25
   229         18
   237         21
   238         17
   239         28
   240         15
   241         53
   242         16
   243         90
   244         15
   245         11
   253         20
   254         11
   255         20
   256         21
   257         31
   258         10
   264         24
   265         64
   266         15
   267         11
   269         11
   281         13
   283         21
   285         32
   295         10
   298         12
   299        220
   300         52
   301         38
   307         15
   311         14
   312         21
   313         16
   314         19
   315        140
   316         38
   317         42
   318         10
   322         12
   323        215
   324         52
   325         26
   326         10
   341          6
   355         10
   356          7
   357          8
   369         11
   370          6
   371          7
   373         10
   383          8
   387         11
   388          5
   389          7
   397         16
   398          8
   413         15
   414          6
   415          6
   419          6
   429          8
   451          6
   491         13
   509          6
   581         12
   582          7
   583          5
   596         18
   597          8
   598          5