##TITLE=Library Entry 50230
##JCAMP-DX=Revision 4.10 
##DATA TYPE=MASS SPECTRUM
##SAMPLE DESCRIPTION=BAY 0262
##NAMES=HP
##CAS NAME=Thymidine, 3'-O-(trimethylsilyl)-, 5'-[bis(trimethylsilyl) phosph
ate]
##MOLFORM=C19H39N2O8PSi3
##CAS REGISTRY NO=32645-60-6
##MP= -300
##BP= -300
##MW= 538
##$RETENTION INDEX=0
##$CONDENSED SPECTRUM=NO
##NPOINTS= 69
##XYDATA=(XY..XY) 1 
    41         13
    43         18
    44         14
    45         40
    47         18
    53         16
    54         12
    55         25
    59         22
    68         14
    73        327
    74         31
    75        118
    77         45
    81        999
    82         63
    83         11
    93         17
   101         12
   103         11
   113         10
   117         14
   126         10
   129         35
   133         29
   135         13
   147         41
   155         23
   169         19
   170         34
   171         19
   183         12
   199         10
   205         21
   211         68
   212         11
   225         14
   227         66
   228         11
   243         30
   253         14
   299         74
   300         19
   301         11
   314         12
   315         21
   323         78
   324         18
   341          2
   355          3
   356          1
   357          2
   359          1
   369          3
   370          1
   371          2
   373          1
   397          5
   398          2
   399          1
   413          2
   425          1
   429          2
   433          3
   434          1
   469          1
   523          1
   538          4
   539          2