##TITLE=Library Entry 51390
##JCAMP-DX=Revision 4.10 
##DATA TYPE=MASS SPECTRUM
##SAMPLE DESCRIPTION=Exported from NIST MS Search
##NAMES=HP
##CAS NAME=Adenosine, 2'-deoxy-N-(trimethylsilyl)-3'-O-(trimethylsilyl)-, 5'
-[bis(trimethylsilyl) phosphate]
##MOLFORM=C22H46N5O6PSi4
##CAS REGISTRY NO=32645-70-8
##MP= -300
##BP= -300
##MW= 619
##$RETENTION INDEX=3092
##$CONDENSED SPECTRUM=NO
##NPOINTS= 75
##XYDATA=(XY..XY) 1 
    73        335
    74         35
    75         50
    82        999
    83         60
    85         10
   101         15
   129         25
   132         15
   134         10
   135         10
   142         35
   143         10
   147         30
   155         10
   165         15
   169         10
   170         35
   171         20
   191          5
   192        115
   193         25
   206         25
   207         80
   208         65
   209         15
   211         40
   218         20
   221         10
   225         15
   227         20
   235         10
   236         40
   243         15
   264         15
   279         10
   299         60
   300         15
   315        115
   316         30
   317         15
   323         85
   324         20
   349          5
   358          1
   359          1
   362          4
   364          3
   369          2
   371          3
   373          2
   377         14
   378         23
   379          7
   380          3
   387          4
   388          1
   389          1
   397         12
   398          4
   399          2
   413          1
   485          9
   486          4
   487          2
   514          2
   532          2
   604         38
   605         12
   606          7
   607          2
   619         10
   620          6
   621          3
   622          1