##TITLE=Library Entry 50232
##JCAMP-DX=Revision 4.10 
##DATA TYPE=MASS SPECTRUM
##SAMPLE DESCRIPTION=Exported from NIST MS Search
##NAMES=HP
##CAS NAME=9H-Purine, 9-[2-deoxy-3-O-(trimethylsilyl)-.beta.-D-erythro-pento
furanosyl]-6-(trimethylsiloxy)-2-[(trimethylsilyl)amino]-, 5'-[bis(trimethyl
silyl) phospate]
##MOLFORM=C25H54N5O7PSi5
##CAS REGISTRY NO=32645-71-9
##MP= -300
##BP= -300
##MW= 707
##$RETENTION INDEX=3224
##$CONDENSED SPECTRUM=NO
##NPOINTS= 122
##XYDATA=(XY..XY) 1 
    61         10
    63         10
    65         20
    72         10
    73        430
    74         50
    75         80
    76         10
    77         10
    81        999
    82         70
    83         10
    84         10
    89         10
    91         30
    93         40
    95         10
   100         10
   101         10
   103         20
   112         10
   118         10
   127         10
   129         30
   131         10
   133         30
   135         10
   143         10
   145         10
   146         10
   147         60
   148         10
   149         30
   155         10
   164         10
   165         10
   169         10
   170         10
   171         20
   172         10
   191         10
   193         10
   194         10
   195         10
   197         10
   206         10
   207         10
   208         20
   209         10
   211         50
   212         10
   221         10
   222         10
   223         70
   224         30
   225         30
   227         20
   229         70
   230         10
   231         10
   243         10
   249         10
   251         10
   253         10
   264         20
   265         10
   278         10
   279         10
   280        160
   281         50
   282         20
   283         10
   284         10
   285         20
   294         30
   295        160
   296         70
   297         30
   298         10
   299        100
   300         30
   301         20
   306         20
   307         10
   308         10
   314         10
   315         20
   316         10
   321         10
   322         10
   323        100
   324         50
   325         20
   326         10
   339         10
   352         20
   353         10
   366         10
   367         20
   368         10
   374         10
   376         20
   393         20
   394         10
   397         10
   423          6
   453          3
   465         11
   466          7
   485         13
   486          6
   602          2
   620          3
   635          3
   692         40
   693         16
   694         10
   695          4
   707         35
   708         15
   709          8
   710          3