##TITLE=Library Entry 43960
##JCAMP-DX=Revision 4.10 
##DATA TYPE=MASS SPECTRUM
##SAMPLE DESCRIPTION=Exported from NIST MS Search
##NAMES=HP
##CAS NAME=Phosphoric acid, 2-(trimethylsiloxy)-2-[2-(trimethylsiloxy)-1-[6-
[(trimethylsilyl)amino]-9H-purin-9-yl]ethoxy]propyl bis(trimethylsilyl) este
r
##MOLFORM=C25H56N5O7PSi5
##CAS REGISTRY NO=32645-63-9
##MP= -300
##BP= -300
##MW= 709
##$RETENTION INDEX=0
##$CONDENSED SPECTRUM=NO
##NPOINTS= 163
##XYDATA=(XY..XY) 1 
    72         30
    73        999
    74        160
    75        180
    76         20
    77         20
    81         20
    84         20
    85         30
    87         10
    89         30
    93         10
    99         30
   100         10
   101         50
   103        180
   104         20
   105         10
   106         10
   108         10
   111         10
   113         30
   115         50
   116         30
   117         50
   119         10
   129        350
   130         50
   131         70
   132         10
   133         70
   134         10
   135         50
   136         20
   137         10
   143         30
   145         20
   147        100
   148         30
   149         30
   151         10
   161         10
   164         30
   165         30
   171         20
   175         10
   176         10
   177         10
   188         30
   189         10
   191         20
   192        190
   193         40
   194         10
   195         10
   204         10
   205         20
   206         80
   207        100
   208         50
   209         10
   211        150
   212         20
   213         10
   217         10
   218         30
   219         10
   220         10
   221         10
   225         50
   226         10
   227         60
   228         10
   233         50
   234         60
   235         20
   236        200
   237         30
   238         10
   241         10
   243         90
   244         10
   245         10
   248         10
   249         20
   250         80
   251         20
   252         10
   253         10
   264         30
   265         10
   266         30
   267         10
   269         10
   278         50
   279         30
   280         30
   281         80
   282         20
   283         20
   285         30
   292         30
   299        270
   300         70
   301         50
   306         30
   307         10
   308         10
   313         10
   314         10
   315        450
   316        120
   317         70
   318         10
   321         10
   322        170
   323         70
   324         30
   338         70
   339         10
   340         10
   341         40
   342         10
   351         30
   352         10
   357         10
   364         40
   365         10
   371        230
   372         70
   373         50
   374         10
   387         10
   443         10
   445         10
   487         40
   488         10
   489         10
   502         10
   503        250
   504        100
   505         50
   506         10
   534         15
   535          5
   548          5
   564          5
   606          5
   622         60
   623         25
   624         15
   625          5
   637          5
   638          5
   694        125
   695         75
   696         40
   697         15
   698          5
   709         50
   710         25
   711         15
   712          5