##TITLE=Library Entry 42941
##JCAMP-DX=Revision 4.10 
##DATA TYPE=MASS SPECTRUM
##SAMPLE DESCRIPTION=Exported from NIST MS Search
##NAMES=HP
##CAS NAME=2(1H)-Pyrimidinone, 1-[2,3-bis-O-(trimethylsilyl)-.beta.-D-ribofu
ranosyl]-4-(trimethylsiloxy)-, 5'-[bis(trimethylsilyl) phosphate]
##MOLFORM=C24H53N2O9PSi5
##CAS REGISTRY NO=32645-59-3
##MP= -300
##BP= -300
##MW= 684
##$RETENTION INDEX=2896
##$CONDENSED SPECTRUM=NO
##NPOINTS= 145
##XYDATA=(XY..XY) 1 
    67         10
    68         20
    69         20
    70         10
    72         20
    73        999
    74         80
    75        190
    76         10
    77         20
    81         30
    82         10
    85         10
    93         30
    95         10
    96         10
    97         20
    99         40
   100         30
   101         30
   103         10
   113         30
   115         10
   116         10
   117         10
   124         10
   126         10
   127         10
   129        100
   130         20
   131         30
   133         60
   134         10
   135         20
   140         20
   141         20
   142         20
   143         30
   147        190
   148         40
   149         30
   153         10
   155         10
   157         10
   167         10
   168         20
   169        630
   170         80
   171         50
   183         20
   184         10
   185         20
   186         20
   191         20
   193         10
   195         10
   196         10
   197         10
   207         40
   208         10
   209         10
   211         80
   212         10
   213         10
   215         50
   216         10
   217         50
   218         10
   225         20
   226         10
   227         50
   228         10
   229         10
   230        130
   231         30
   232         10
   241         30
   243        100
   244         20
   245         10
   253         10
   255         10
   256         20
   257         30
   258         60
   259         30
   260         10
   265         20
   280         20
   281         30
   282         10
   283         20
   285         20
   299        280
   300         50
   301         30
   313         10
   314         30
   315        500
   316        120
   317         60
   318         10
   328         20
   342         10
   352         70
   353         20
   354         10
   355         10
   369         10
   370         30
   371         20
   372         10
   382          6
   383          8
   384          4
   385          2
   386          6
   387         20
   388          6
   389          6
   390          2
   395          6
   396          2
   409          2
   410          2
   411          6
   412          2
   413          4
   429          2
   443          2
   483          4
   484          2
   485         12
   486          4
   487          2
   501          6
   502          2
   579          4
   597         20
   598          8
   599          4
   600          2
   669          8
   670          6
   671          2