##TITLE=Library Entry 62384
##JCAMP-DX=Revision 4.10 
##DATA TYPE=MASS SPECTRUM
##SAMPLE DESCRIPTION=LAC, NIDDK, NIH, Bethesda, MD 20892
##NAMES=HP
##CAS NAME=N-[3,5-Dinitropyridin-2-yl]phenylalanine
##MOLFORM=C14H12N4O6
##CAS REGISTRY NO=3264-07-1
##MP= -300
##BP= -300
##MW= 332
##$RETENTION INDEX=0
##$CONDENSED SPECTRUM=NO
##NPOINTS= 141
##XYDATA=(XY..XY) 1 
    41         15
    42          4
    43          8
    44         31
    45         20
    46         20
    49          3
    50         21
    51         43
    52         27
    53         20
    54         10
    55          8
    56          2
    57          5
    59          1
    62          4
    63         23
    64         31
    65        112
    66         23
    67         11
    68          4
    69          4
    70          2
    71          1
    72          1
    73          3
    74          2
    75         10
    76         35
    77         81
    78         48
    79         40
    80         10
    81          4
    82          3
    84          8
    85          0
    86          0
    87          2
    88          2
    89         21
    90         19
    91        999
    92         82
    93         20
    94         18
    95          2
    96          2
    97          6
    98          1
   101          4
   102         13
   103         51
   104         22
   105         27
   106          7
   107         14
   108          5
   109          2
   110          0
   112          0
   113          1
   114          2
   115         10
   116          9
   117         11
   118         15
   119          7
   120          8
   121          7
   122          3
   123          3
   124         22
   125          1
   126          2
   127          5
   128          6
   129          2
   130          4
   131         14
   132          2
   133          1
   134          2
   135          7
   136          0
   138          4
   139         14
   140          7
   141          3
   142          2
   143          1
   144          0
   145          0
   147         53
   148        260
   149         36
   150          5
   151          4
   152          3
   153          3
   154          7
   155          2
   156          0
   162          1
   163          0
   164          4
   165          8
   166          8
   167         11
   168         11
   169          4
   170          0
   176          6
   177          1
   179          3
   180          4
   181          6
   182          1
   184          1
   185          2
   192          3
   193          9
   194          7
   195         12
   196          2
   197          5
   206          1
   207          3
   208          1
   224          0
   239          1
   240          2
   241          8
   242          0
   253          0
   269          0
   270          0
   287          2
   332          1