##TITLE=Library Entry 42938
##JCAMP-DX=Revision 4.10 
##DATA TYPE=MASS SPECTRUM
##SAMPLE DESCRIPTION=J.A.MCCLOSKEY,BAYLOR COL OF MEDICIN,HOUSTON,TEX.77025
##NAMES=HP
##CAS NAME=Adenosine, N-(trimethylsilyl)-2',3'-bis-O-(trimethylsilyl)-, 5'-[
bis(trimethylsilyl) phosphate]
##MOLFORM=C25H54N5O7PSi5
##CAS REGISTRY NO=32653-14-8
##MP= -300
##BP= -300
##MW= 707
##$RETENTION INDEX=3115
##$CONDENSED SPECTRUM=NO
##NPOINTS= 183
##XYDATA=(XY..XY) 1 
    43         34
    44         24
    45         97
    47         15
    53         15
    55         28
    59         65
    61         12
    67         10
    68         21
    69         20
    71         10
    72         35
    73        999
    74        183
    75        185
    76         16
    77         25
    81         82
    84         30
    85         28
    97         20
    99         30
   100         10
   101         39
   103         21
   111         20
   113         38
   115         38
   116         28
   117         21
   125         17
   127         21
   129        127
   130         20
   131         30
   133         90
   134         15
   135         40
   136         20
   137         15
   140         50
   141         30
   142         33
   143         50
   145         19
   147        290
   148         52
   149         48
   151         15
   153         20
   155         10
   157         13
   158         10
   164         20
   165         41
   169        820
   170        170
   171        101
   172         15
   176         10
   180         10
   186         10
   191         21
   192        262
   193         54
   194         18
   195         21
   197         13
   204         18
   205         18
   206         92
   207         87
   208        139
   209         34
   211        136
   212         24
   213         18
   215         25
   217         42
   218         18
   220         17
   221         18
   225         45
   226         12
   227         48
   229         16
   230        580
   231        130
   232         74
   233         15
   234         15
   235         10
   236        189
   237         40
   238         14
   243        223
   244         53
   245         31
   246         10
   250         10
   253         10
   257         30
   258        361
   259        112
   260         45
   261         14
   264         60
   265         20
   266         10
   278         50
   279         39
   280         92
   281         27
   282         12
   283         18
   285         30
   286         16
   299        251
   300         67
   301         40
   302         10
   306         62
   307         18
   308         15
   313         12
   314         30
   315        800
   316        253
   317        138
   318         30
   320         15
   321         20
   322         50
   323         20
   334         13
   337        100
   338         30
   339         21
   371         50
   372         16
   373         18
   374         13
   375         16
   376         28
   377         10
   378         20
   382        207
   383         72
   384         36
   385         10
   387         23
   392         12
   394         15
   410          3
   411         12
   412          4
   423          4
   429          3
   437          3
   450          5
   452          6
   454          3
   464          3
   465          6
   466         81
   467         32
   468         15
   469          4
   485          7
   486          3
   500          3
   501          4
   620          8
   692         95
   693         54
   694         33
   695         11
   696          4
   707         17
   708         13
   709          8
   710          4