##TITLE=Library Entry 46326
##JCAMP-DX=Revision 4.10 
##DATA TYPE=MASS SPECTRUM
##SAMPLE DESCRIPTION=Exported from NIST MS Search
##NAMES=HP
##CAS NAME=2H-Indol-2-one, 3-diazo-1,3-dihydro-
##MOLFORM=C8H5N3O
##CAS REGISTRY NO=3265-29-0
##MP= -300
##BP= -300
##MW= 159
##$RETENTION INDEX=0
##$CONDENSED SPECTRUM=NO
##NPOINTS= 28
##XYDATA=(XY..XY) 1 
    49         50
    50        340
    51        130
    52         90
    53         20
    61         30
    62         40
    63         50
    64         20
    65         20
    73         20
    74        100
    75        190
    76        999
    77        110
    78         20
    99         20
   102         40
   103        800
   104        130
   105         20
   130         20
   131        520
   132         50
   133         10
   159        560
   160         60
   161         20