##TITLE=Library Entry 36257
##JCAMP-DX=Revision 4.10 
##DATA TYPE=MASS SPECTRUM
##SAMPLE DESCRIPTION=Philip Morris R&D
##NAMES=HP
##CAS NAME=Ethyl geranate
##MOLFORM=C12H20O2
##CAS REGISTRY NO=32659-21-5
##MP= -300
##BP= -300
##MW= 196
##$RETENTION INDEX=1351
##$CONDENSED SPECTRUM=NO
##NPOINTS= 70
##XYDATA=(XY..XY) 1 
    39         70
    40         22
    41        293
    42         23
    43         73
    44         12
    45         13
    51         12
    52          7
    53         50
    54         22
    55         35
    56         12
    57         21
    58          7
    59         11
    65         11
    66          4
    67         48
    68         33
    69        999
    70         77
    71         12
    77         20
    79         24
    80          8
    81         37
    82        128
    83        117
    84         16
    85         30
    87          7
    91         19
    93         16
    94          8
    95         18
    96          4
    97          6
    99         11
   100        275
   101         16
   105         13
   107         45
   108         29
   109         21
   111         14
   112         12
   113         40
   114          3
   116          3
   121         17
   122        156
   123        336
   124         39
   125         13
   126          3
   128        452
   129         38
   135         13
   139         13
   140          7
   141         15
   150          9
   151        219
   152         38
   153         79
   154         14
   164          5
   169          4
   181         13