##TITLE=Library Entry 43966
##JCAMP-DX=Revision 4.10 
##DATA TYPE=MASS SPECTRUM
##SAMPLE DESCRIPTION=Exported from NIST MS Search
##NAMES=HP
##CAS NAME=3'-Adenylic acid, 5TMS derivative
##MOLFORM=C25H54N5O7PSi5
##CAS REGISTRY NO=32653-17-1
##MP= -300
##BP= -300
##MW= 707
##$RETENTION INDEX=0
##$CONDENSED SPECTRUM=NO
##NPOINTS= 130
##XYDATA=(XY..XY) 1 
    69         20
    72         20
    73        999
    74        120
    75        150
    76         10
    77         10
    81         10
    99         10
   101         20
   103        160
   104         10
   127         20
   129         30
   133         50
   135         30
   136         90
   137         10
   140         20
   141         10
   142         10
   143         10
   147        100
   148         20
   149         20
   155         10
   156         10
   164         20
   165         20
   169        110
   170         20
   171         10
   191         20
   192        100
   193         20
   206         30
   207         80
   208        130
   209         30
   211         70
   212         10
   217         50
   218         10
   219         10
   221         10
   225         40
   227         20
   230        260
   231         70
   232         30
   236         60
   237         10
   243         80
   244         20
   245         10
   257         10
   258         90
   259        120
   260         30
   261         10
   262         10
   264         20
   265         50
   266         20
   278         30
   279         50
   280         30
   281         10
   283         10
   285         20
   290         10
   299        200
   300         60
   301         30
   303         20
   304         10
   306         10
   313         10
   314         20
   315        330
   316        100
   317         50
   318         10
   321        150
   322         40
   323         10
   334         30
   335         10
   337         30
   362         10
   369         50
   370         10
   371         10
   375         20
   376         10
   378         10
   381         90
   382        190
   383         80
   384         40
   385         10
   387         20
   393         20
   394         10
   395         20
   397         60
   398         20
   399         10
   410         10
   411         10
   450         20
   451         10
   455         10
   466         30
   467         20
   474         10
   500         10
   501        100
   502         40
   503         20
   504         10
   545         10
   602         10
   620         30
   621         20
   622         10
   692         60
   693         40
   694         30
   695         10