##TITLE=Library Entry 42939
##JCAMP-DX=Revision 4.10 
##DATA TYPE=MASS SPECTRUM
##SAMPLE DESCRIPTION=BAY 0264
##NAMES=HP
##CAS NAME=9H-Purine, 9-[2,3-bis-O-(trimethylsilyl)-.beta.-D-ribofuranosyl]-
6-(trimethylsiloxy)-2-[(trimethylsilyl)amino]-, 5'-[bis(trimethylsilyl) phos
pate]
##MOLFORM=C28H62N5O8PSi6
##CAS REGISTRY NO=32653-15-9
##MP= -300
##BP= -300
##MW= 795
##$RETENTION INDEX=3179
##$CONDENSED SPECTRUM=NO
##NPOINTS= 166
##XYDATA=(XY..XY) 1 
    43         18
    44         12
    45         51
    47         10
    55         12
    59         27
    72         14
    73        999
    74         97
    75        132
    77         11
    81         23
    84         13
    97         11
    99         21
   100         11
   101         17
   103         10
   113         14
   115         23
   116         11
   117         12
   129         65
   130         11
   131         19
   133         42
   134         10
   135         12
   140         13
   141         15
   142         12
   143         20
   146         11
   147        174
   148         28
   149         23
   153         10
   166         13
   169        868
   170        130
   171         76
   172         10
   207         23
   208         35
   209         10
   211         60
   212         10
   217         20
   222         13
   223         22
   224         45
   225         28
   227         20
   230        132
   231         31
   232         14
   243        113
   244         25
   245         14
   252         18
   257         16
   258        207
   259         64
   260         25
   264         22
   280        111
   281         30
   282         13
   283         10
   285         17
   294         33
   295         52
   296         76
   297         22
   299        188
   300         46
   301         29
   308         11
   314         18
   315        285
   316         73
   317         39
   322         10
   323         10
   324         81
   325         22
   338         10
   352         28
   353         20
   354         10
   366         15
   367         20
   368         29
   369         14
   371         13
   382         60
   383         32
   384         13
   387         12
   392         29
   394         26
   410         13
   411         11
   425         17
   448          4
   449          2
   450          2
   451          1
   452          2
   453          1
   455          7
   456          3
   457          2
   462          3
   463          2
   464         10
   465          4
   466          9
   467          4
   468          2
   480          3
   481         10
   482          8
   483          3
   484          1
   485          4
   486          1
   487          1
   500          2
   501          2
   506          1
   522          1
   538          3
   539          2
   540          2
   552          1
   553          3
   554          4
   555          2
   556          1
   573          2
   574          1
   690          1
   692          2
   708         37
   709         20
   710         12
   711          5
   712          2
   723         37
   724         21
   725         12
   726          5
   727          2
   780         98
   781         61
   782         40
   783         17
   784          6
   785          2
   795         85
   796         55
   797         36
   798         15
   799          6
   800          2