##TITLE=Library Entry 36253
##JCAMP-DX=Revision 4.10 
##DATA TYPE=MASS SPECTRUM
##SAMPLE DESCRIPTION=Philip Morris R&D
##NAMES=HP
##CAS NAME=Ethyl nerate
##MOLFORM=C12H20O2
##CAS REGISTRY NO=32659-20-4
##MP= -300
##BP= -300
##MW= 196
##$RETENTION INDEX=1698
##$CONDENSED SPECTRUM=NO
##NPOINTS= 94
##XYDATA=(XY..XY) 1 
    38          3
    39         88
    40         25
    41        391
    42         27
    43         77
    44          7
    45         11
    50          2
    51         15
    52          8
    53         66
    54         30
    55         42
    56         14
    57         14
    58          4
    59         21
    60          3
    63          4
    65         18
    66          7
    67         72
    68         39
    69        999
    70         65
    71         15
    72          4
    73          2
    77         27
    78          6
    79         33
    80         14
    81         49
    82        192
    83        151
    84         22
    85         52
    86          3
    87          7
    91         39
    92          5
    93         24
    94          7
    95         35
    96         13
    97         17
    98          5
    99         15
   100        347
   101         21
   102          3
   103          2
   105         18
   106          5
   107         78
   108         52
   109         73
   110          9
   111         37
   112         38
   113         54
   114          5
   115          4
   116          4
   119          3
   121         31
   122        137
   123        279
   124         31
   125         15
   126          2
   127          2
   128        524
   129         42
   130          4
   133          5
   135         31
   136          4
   137          2
   139         27
   140         11
   141         17
   142          3
   150         87
   152        193
   153         29
   154         68
   155          2
   163          2
   168          3
   181          9
   196        144
   197         20