##TITLE=Library Entry 8266
##JCAMP-DX=Revision 4.10 
##DATA TYPE=MASS SPECTRUM
##SAMPLE DESCRIPTION=TNO Volatile Compounds in Food - Chemical Concepts
##NAMES=HP
##CAS NAME=Butanoic acid, 3-methyl-, 1-methylethyl ester
##MOLFORM=C8H16O2
##CAS REGISTRY NO=32665-23-9
##MP= -300
##BP= -300
##MW= 144
##$RETENTION INDEX=904
##$CONDENSED SPECTRUM=NO
##NPOINTS= 29
##XYDATA=(XY..XY) 1 
    26         20
    27        209
    28         42
    29        126
    31         19
    37         12
    38         19
    39        190
    40         46
    41        541
    42        188
    43        999
    44         35
    45         57
    55         32
    56         63
    57        603
    58         24
    59        221
    60        711
    61         84
    69         19
    85        709
    86         35
    87        145
   102        230
   103        238
   104         10
   129         20