##TITLE=Library Entry 34136
##JCAMP-DX=Revision 4.10 
##DATA TYPE=MASS SPECTRUM
##SAMPLE DESCRIPTION=R.ERRA BALSELLS,DEP. QUIM. ORG.,CITY UNIV. BUENOS AIRES
,ARGENT
##NAMES=HP
##CAS NAME=meso-5,6-Decanediol
##MOLFORM=C10H22O2
##CAS REGISTRY NO=3266-25-9
##MP= -300
##BP= -300
##MW= 174
##$RETENTION INDEX=0
##$CONDENSED SPECTRUM=NO
##NPOINTS= 14
##XYDATA=(XY..XY) 1 
    27        150
    29        150
    41        510
    42         70
    43        370
    55        350
    56         80
    57        250
    68        110
    69        999
    84         60
    85        170
    86        250
    87        350