##TITLE=Library Entry 6723
##JCAMP-DX=Revision 4.10 
##DATA TYPE=MASS SPECTRUM
##SAMPLE DESCRIPTION=Japan AIST/NIMC Database- Spectrum MS-NW-2959
##NAMES=HP
##CAS NAME=2,3-Epoxybutane
##MOLFORM=C4H8O
##CAS REGISTRY NO=3266-23-7
##MP= -300
##BP= -300
##MW= 72
##$RETENTION INDEX=526
##$CONDENSED SPECTRUM=NO
##NPOINTS= 40
##XYDATA=(XY..XY) 1 
    12          1
    13          3
    14         14
    15         72
    16          5
    17          6
    18         23
    19         15
    25          5
    26         97
    27        256
    28        175
    29        188
    30          3
    31          9
    32          1
    36          1
    37          4
    38          6
    39         32
    40          3
    41         70
    42         19
    43        999
    44        734
    45        461
    46         11
    47          1
    49          3
    50          7
    51          5
    52          2
    53          9
    54          7
    55          7
    56          5
    57         21
    71          7
    72         55
    73          2