##TITLE=Library Entry 84094
##JCAMP-DX=Revision 4.10 
##DATA TYPE=MASS SPECTRUM
##SAMPLE DESCRIPTION=TNO Volatile Compounds in Food - Chemical Concepts
##NAMES=HP
##CAS NAME=Cyclohexanone, 5-ethenyl-5-methyl-4-(1-methylethenyl)-2-(1-methyl
ethylidene)-, cis-
##MOLFORM=C15H22O
##CAS REGISTRY NO=32663-57-3
##MP= -300
##BP= -300
##MW= 218
##$RETENTION INDEX=1593
##$CONDENSED SPECTRUM=NO
##NPOINTS= 117
##XYDATA=(XY..XY) 1 
    26         11
    27        238
    29        127
    30          8
    33          4
    38          8
    39        350
    41        638
    42         59
    44          2
    45          4
    50         12
    51         69
    52         47
    53        264
    54         42
    55        150
    56         11
    57          4
    58          7
    60          5
    62          4
    63         25
    64         11
    65        117
    66         40
    67        489
    68        193
    69         92
    70         23
    71          8
    74          4
    75          6
    77        200
    78         53
    79        195
    80         65
    81         66
    82        152
    83         27
    84         10
    85          1
    89          7
    91        314
    92         49
    93        545
    94         74
    95        154
    96         50
    97         21
   102          4
   103         20
   104          8
   105        140
   106         42
   107        999
   108        207
   109         94
   110         31
   111          2
   115         18
   116          9
   117         36
   118         10
   119         80
   120         43
   121        923
   122        285
   123         47
   124          6
   125          4
   127          4
   128         12
   129         13
   130          5
   131         19
   132         31
   133         78
   134         33
   135        873
   136        193
   137         58
   138         11
   141          4
   142          6
   143          6
   145         23
   146          7
   147         59
   148         26
   149         91
   150        248
   151         55
   155          4
   157          9
   159          6
   160         12
   161         49
   162         28
   163         14
   164          4
   173          5
   174          4
   175         77
   176         34
   177          4
   185         10
   189         10
   190         14
   191          5
   200          5
   201          4
   203         54
   204          8
   218         72
   219         12
   220          1