##TITLE=Library Entry 81820
##JCAMP-DX=Revision 4.10 
##DATA TYPE=MASS SPECTRUM
##SAMPLE DESCRIPTION=A.Pleshkova, Nesmeyanov Inst.Org.Elem.Cpds, Moscow
##NAMES=HP
##CAS NAME=N-(2-Methylbenzyl)benzimidazole
##MOLFORM=C15H14N2
##CAS REGISTRY NO=326607-90-3
##MP= -300
##BP= -300
##MW= 222
##$RETENTION INDEX=0
##$CONDENSED SPECTRUM=NO
##NPOINTS= 34
##XYDATA=(XY..XY) 1 
    50         33
    51         69
    52         27
    53         23
    63         51
    64         33
    65         41
    66          5
    77        186
    78         52
    79        114
    89         19
    90         30
    91         74
    92          9
   102         18
   103         92
   104         91
   105        999
   106        118
   107         21
   108          4
   110         51
   111         10
   118         80
   119         14
   120          4
   169          6
   219         15
   220         14
   221         28
   222        325
   223         54
   224          4