##TITLE=Library Entry 63909
##JCAMP-DX=Revision 4.10 
##DATA TYPE=MASS SPECTRUM
##SAMPLE DESCRIPTION=A.A.Kutin, Moscow, Russia
##NAMES=HP
##CAS NAME=Benzo[g]phthalazine-1,4(2H,3H)-dione, 4a,5,6,7,8,9,10,10a-octahyd
ro-9,9-dimethyl-
##MOLFORM=C14H20N2O2
##CAS REGISTRY NO=326611-32-9
##MP= -300
##BP= -300
##MW= 248
##$RETENTION INDEX=0
##$CONDENSED SPECTRUM=NO
##NPOINTS= 181
##XYDATA=(XY..XY) 1 
    33         15
    34          3
    36          0
    37          2
    39        256
    40         86
    41        461
    42         40
    43        115
    44         33
    45         13
    46          1
    50         19
    51         90
    52         45
    53        141
    54         37
    55        217
    56         32
    57         38
    58         89
    59         87
    60          4
    61         24
    62          6
    63         37
    64         28
    65        136
    66         33
    67         93
    68         22
    69         79
    70         33
    71         11
    72          9
    73          7
    74          7
    75          9
    77        267
    78         89
    79        188
    80         30
    81         65
    82         32
    83         16
    84          9
    85         27
    86          9
    87         10
    88          8
    89         22
    91        999
    92        117
    93         96
    94         17
    95         31
    96          8
    97         18
    98          8
    99          3
   100          4
   101          4
   102         25
   103         84
   104        158
   105        536
   106         69
   107         44
   108         13
   109         30
   110          6
   111          5
   112          8
   113         53
   115        128
   116         89
   117        260
   118         64
   119        168
   120         30
   121         47
   122          9
   123          3
   124          2
   125          4
   126          8
   127         28
   128         70
   129         69
   130         55
   131        110
   132         57
   133         65
   134         17
   135          9
   136          4
   137          2
   139          5
   140          2
   141         10
   142         10
   143         40
   145        548
   146         92
   147        126
   148         23
   149          7
   150          2
   151          2
   152          1
   153          1
   154          1
   155          3
   156          3
   157          6
   158          8
   159         32
   160        110
   161        318
   162         50
   163          9
   164          4
   165          1
   166          0
   167          2
   168          0
   169          1
   170          8
   171          5
   172          6
   173         44
   174         25
   175         24
   176          7
   177          7
   178          2
   179          4
   180          2
   181          0
   182          1
   183          0
   184          0
   185          1
   186          3
   187         17
   188         43
   189         16
   190          5
   191          4
   192         11
   193          2
   198          2
   199          1
   201         13
   202          5
   203         31
   205        227
   206         29
   207          2
   213          0
   214          1
   215         23
   216         76
   217         17
   218         31
   219         11
   220          4
   221          0
   229          0
   231        103
   232        149
   233        911
   234        133
   235         13
   236          1
   244          0
   245          0
   248        407
   249         59
   250          6
   251          0