##TITLE=Library Entry 20502
##JCAMP-DX=Revision 4.10 
##DATA TYPE=MASS SPECTRUM
##SAMPLE DESCRIPTION=J.VOTH UNIV. OF CALIFORNIA, DAVIS, CALIFORNIA, 95616, U
SA
##NAMES=HP
##CAS NAME=Cyclohexane, cyclopropyl-
##MOLFORM=C9H16
##CAS REGISTRY NO=32669-86-6
##MP= -300
##BP= -300
##MW= 124
##$RETENTION INDEX=0
##$CONDENSED SPECTRUM=NO
##NPOINTS= 69
##XYDATA=(XY..XY) 1 
    12          2
    13          3
    14         18
    15        100
    16          2
    18          2
    25          2
    26         61
    27        572
    28        144
    29        275
    30          6
    37         14
    38         45
    39        644
    40        110
    41        928
    42         87
    43         49
    44          3
    45          2
    46          3
    49          3
    50         34
    51         82
    52         45
    53        244
    54        454
    55        999
    56         55
    57          8
    58          1
    61          2
    62          8
    63         20
    64          5
    65         54
    66         81
    67        807
    68        422
    69         69
    70         14
    71          2
    74          3
    75         44
    77         54
    78         18
    79         92
    80         45
    81        980
    82        588
    83        635
    84         41
    85          2
    89          1
    91         15
    92          3
    93         12
    94          6
    95        153
    96        594
    97         45
    98          2
   107          2
   109         17
   110          2
   123          2
   124         23
   125          2