##TITLE=Library Entry 51052
##JCAMP-DX=Revision 4.10 
##DATA TYPE=MASS SPECTRUM
##SAMPLE DESCRIPTION=Exported from NIST MS Search
##NAMES=HP
##CAS NAME=8-Azabicyclo[3.2.1]octan-3-ol, 8-methyl-, 8-oxide, (endo,syn)-
##MOLFORM=C8H15NO2
##CAS REGISTRY NO=32663-71-1
##MP= -300
##BP= -300
##MW= 157
##$RETENTION INDEX=0
##$CONDENSED SPECTRUM=NO
##NPOINTS= 35
##XYDATA=(XY..XY) 1 
    27        241
    28        640
    29        275
    30        133
    39        270
    41        386
    42        684
    43        275
    44        142
    53        103
    54        142
    55        288
    56        236
    57        337
    58         73
    77         69
    80        103
    81        162
    82        999
    83        603
    84        251
    94         83
    95        142
    96        625
    97        251
    98         71
    99        113
   102         73
   110        123
   112        113
   113        197
   124        241
   127         71
   141        197
   157        137