##TITLE=Library Entry 77891
##JCAMP-DX=Revision 4.10 
##DATA TYPE=MASS SPECTRUM
##SAMPLE DESCRIPTION=M.C. HAMMING CONTINENTAL OIL CO., PONCA CITY, OKLA., US
A
##NAMES=HP
##CAS NAME=1,2'-Binaphthalene, 1',2',3',4'-tetrahydro-
##MOLFORM=C20H18
##CAS REGISTRY NO=32675-22-2
##MP= -300
##BP= -300
##MW= 258
##$RETENTION INDEX=0
##$CONDENSED SPECTRUM=NO
##NPOINTS= 194
##XYDATA=(XY..XY) 1 
    13          2
    14          4
    15          9
    16          0
    26          4
    27         46
    28         29
    29         10
    30          0
    36          0
    37          1
    38          5
    39         69
    40         12
    41         14
    42          1
    43          9
    44          1
    48          0
    49          0
    50         21
    51         61
    52         19
    53         11
    54          1
    55          6
    56          2
    57          8
    58          2
    61          1
    62          9
    63         42
    64         10
    65         25
    66          2
    67          2
    69          4
    70          1
    71          1
    72          4
    73          0
    74         11
    75         22
    76         20
    77         69
    78        108
    79         11
    80          1
    81          2
    82          2
    83          3
    84          1
    85          2
    87          9
    88          9
    89         19
    90          4
    91         91
    92         10
    93          2
    94          3
    95          4
    96          1
    97          3
    98          8
    99          9
   100         13
   101         43
   102         53
   103        149
   104        999
   105        105
   106         14
   107          6
   108          7
   109          2
   110          2
   111          5
   112          8
   113         34
   114         27
   115        205
   116         44
   117         47
   118         11
   119          9
   120         13
   121          5
   122          2
   123          2
   124          3
   125         15
   126         54
   127         84
   128        335
   129        207
   130        467
   131         83
   132          8
   133          1
   134          1
   135          1
   136          1
   137          3
   138          3
   139         36
   140          9
   141        173
   142         44
   143          8
   144          5
   145          2
   146          9
   147          1
   149          3
   150         17
   151         51
   152        188
   153        428
   154        314
   155         44
   156          7
   157          1
   161          1
   162          2
   163         15
   164         11
   165         81
   166         41
   167         56
   168         11
   169         13
   170          3
   171          0
   173          0
   174          3
   175          3
   176         10
   177          4
   178          8
   179          5
   180          1
   181          1
   182          1
   183          1
   184          0
   185          0
   186          1
   187          6
   188          3
   189         13
   190          3
   191          2
   192          1
   193          1
   196          0
   198          1
   199          2
   200          8
   201          5
   202         21
   207          2
   208          0
   209          1
   211          2
   212          1
   213          9
   214          3
   215         30
   216         10
   223          1
   225          5
   226          6
   227         15
   228         42
   229         43
   230         15
   236          1
   237          4
   238          3
   239         30
   240          6
   241         18
   242         10
   243         40
   244          8
   253          1
   255          9
   256         12
   257         25
   258        725
   259        151
   260         15
   261          0