##TITLE=Library Entry 60542
##JCAMP-DX=Revision 4.10 
##DATA TYPE=MASS SPECTRUM
##SAMPLE DESCRIPTION=Japan AIST/NIMC Database- Spectrum MS-IW-3286
##NAMES=HP
##CAS NAME=1,2-Dichloro-4,4-bis(2,4,6-cycloheptatrienyl)-1-cyclopentene-3,5-
dione
##MOLFORM=C19H14Cl2O2
##CAS REGISTRY NO=3267-49-0
##MP= -300
##BP= -300
##MW= 344
##$RETENTION INDEX=0
##$CONDENSED SPECTRUM=NO
##NPOINTS= 137
##XYDATA=(XY..XY) 1 
    27          2
    28          1
    36          2
    37          1
    38          3
    39         22
    40          1
    41          4
    43          1
    45          2
    50          8
    51         19
    52          8
    53          5
    61          2
    62          6
    63         20
    64          4
    65         76
    66          5
    73          1
    74          5
    75          8
    76          7
    77         16
    78         13
    79          3
    80          1
    81          1
    82          1
    84          1
    85          1
    86          3
    87         23
    88          2
    89         21
    90          9
    91        999
    92         93
    93          4
    94          2
    95          1
    96          1
    97          2
    98          3
    99          4
   100          1
   101          4
   102          9
   103          8
   104          4
   105          2
   107          1
   108          1
   109          1
   111          1
   112          1
   113          3
   114          2
   115         13
   116          2
   117          2
   122          1
   123          1
   125          5
   126         14
   127          9
   128          4
   129          6
   130          1
   131          6
   132          1
   137          1
   138          1
   139          7
   140          1
   141          1
   149          6
   150          1
   151          3
   152          2
   153          1
   154          1
   155          3
   160          2
   161          9
   162          5
   163          5
   164          2
   165          4
   166          1
   167          2
   168          1
   173          1
   175          1
   176          1
   177          1
   178          2
   179          2
   180          1
   188          1
   189         11
   190          3
   191         10
   192          2
   193          2
   196          3
   197          1
   198          2
   202          2
   203          1
   215          2
   216          1
   217          7
   218          3
   219          3
   220          1
   225          1
   226          1
   227          1
   228          1
   231          1
   251         35
   252         41
   253         32
   254         31
   255         10
   256          8
   257          1
   265          2
   267          1
   277          1
   279          1
   344          7
   345          1
   346          5
   347          1