##TITLE=Library Entry 77551
##JCAMP-DX=Revision 4.10 
##DATA TYPE=MASS SPECTRUM
##SAMPLE DESCRIPTION=M.C. HAMMING CONTINENTAL OIL CO., PONCA CITY, OKLA., US
A
##NAMES=HP
##CAS NAME=1,2'-Binaphthalene, 1',2',3',4',5,6,7,8-octahydro-
##MOLFORM=C20H22
##CAS REGISTRY NO=32675-26-6
##MP= -300
##BP= -300
##MW= 262
##$RETENTION INDEX=0
##$CONDENSED SPECTRUM=NO
##NPOINTS= 205
##XYDATA=(XY..XY) 1 
    12          0
    13          1
    14          1
    15          4
    16          0
    25          0
    26          3
    27         45
    28          8
    29         16
    30          0
    37          1
    38          4
    39         77
    40          7
    41         40
    42          2
    43          5
    44          0
    49          0
    50         16
    51         61
    52         21
    53         33
    54          2
    55          9
    56          2
    57          5
    58          3
    60          0
    61          2
    62          7
    63         40
    64         13
    65         48
    66          5
    67          6
    68          1
    69          3
    70          3
    71          5
    72          0
    73          1
    74          7
    75         15
    76         24
    77        100
    78        144
    79         27
    80          2
    81          3
    82          5
    83          8
    84          2
    85          3
    86          2
    87          5
    88          9
    89         41
    90          9
    91        161
    92         16
    93          2
    94          3
    95          6
    96         10
    97          1
    98          2
    99          2
   100          4
   101         23
   102         49
   103        146
   104        999
   105        126
   106         12
   107          6
   108         10
   109          8
   110         11
   111          2
   112          1
   113         10
   114         14
   115        212
   116         75
   117         89
   118         19
   119          7
   120          3
   121          1
   122          1
   123          1
   124          1
   125          5
   126         13
   127         63
   128        170
   129        231
   130        996
   131        272
   132         61
   133         15
   134          3
   135          1
   137          1
   138          1
   139         14
   140          6
   141         49
   142         32
   143         58
   144        162
   145         76
   146         14
   147          1
   149          1
   150          4
   151          9
   152         24
   153         16
   154          8
   155         17
   156         14
   157        128
   158         48
   159          6
   161          0
   162          1
   163          5
   164          3
   165         24
   166          6
   167          4
   168          2
   169          7
   170         11
   171         12
   172          2
   174          1
   175          1
   176          6
   177          4
   178         20
   179         13
   180          8
   181          2
   182          0
   183          1
   186          0
   187          2
   188          2
   189         17
   190          8
   191         19
   192          7
   193          3
   194          1
   195          0
   198          0
   199          1
   200          3
   201          4
   202         27
   203         21
   204         13
   205         17
   206          5
   207          3
   208          7
   209          2
   213          4
   214          2
   215         21
   216          9
   217         10
   218          6
   219         11
   220          3
   221          2
   222          4
   223          1
   227          3
   228          5
   229          4
   230          2
   231          3
   232          4
   233         12
   234          8
   241          1
   243          0
   244          0
   245          1
   246          1
   247         21
   248          6
   257          0
   258          0
   259          1
   260          3
   261         10
   262        496
   263        104
   264          0