##TITLE=Library Entry 26407
##JCAMP-DX=Revision 4.10 
##DATA TYPE=MASS SPECTRUM
##SAMPLE DESCRIPTION=D.HENNEBERG, MAX-PLANCK INSTITUTE, MULHEIM, WEST GERMAN
Y
##NAMES=HP
##CAS NAME=Phosphine, bis(1,1-dimethylethyl)phenyl-
##MOLFORM=C14H23P
##CAS REGISTRY NO=32673-25-9
##MP= -300
##BP= -300
##MW= 222
##$RETENTION INDEX=0
##$CONDENSED SPECTRUM=NO
##NPOINTS= 92
##XYDATA=(XY..XY) 1 
    26         12
    27         12
    28         10
    29        132
    30          3
    37          0
    38          1
    39         25
    40         17
    41        185
    42          9
    43          4
    44          1
    45          4
    47          1
    49          0
    50          2
    51          3
    52          1
    53          3
    54          1
    55         14
    56         18
    57        999
    58         43
    59          5
    60          0
    61          7
    62          1
    63          0
    65         12
    66          1
    69          1
    71          2
    72          2
    73          3
    74          0
    77          6
    78          8
    79          9
    80          0
    81          1
    82          0
    83         15
    84          0
    86          0
    87          3
    88          1
    89          1
    91         14
    92          1
    95          1
   103          2
   104          0
   105          9
   106          2
   107         17
   108         50
   109        126
   110        472
   111         37
   112          1
   115          2
   116          1
   117          3
   118          1
   119          1
   121         17
   122          1
   123         23
   124          5
   125          1
   126          2
   133          2
   135          1
   137          0
   147          0
   149          2
   150          1
   151         11
   152          1
   164          0
   165          9
   166        127
   167         14
   168          0
   182          0
   200          0
   207          0
   222        118
   223         18
   224          1