##TITLE=Library Entry 18035
##JCAMP-DX=Revision 4.10 
##DATA TYPE=MASS SPECTRUM
##SAMPLE DESCRIPTION=NIST Mass Spectrometry Data Center
##NAMES=HP
##CAS NAME=Chloromethyl thiocyanate
##MOLFORM=C2H2ClNS
##CAS REGISTRY NO=3268-79-9
##MP= -300
##BP= -300
##MW= 107
##$RETENTION INDEX=0
##$CONDENSED SPECTRUM=NO
##NPOINTS= 40
##XYDATA=(XY..XY) 1 
    12         31
    13         26
    14         53
    24          1
    26         25
    32        122
    33         10
    34          7
    35         58
    36         12
    37         18
    38          7
    39          1
    40          3
    44         89
    45        245
    46        136
    47         79
    49        999
    50         28
    51        302
    52          3
    56          3
    58        127
    60          2
    61          1
    67          4
    70         26
    72        417
    73          4
    79         18
    80          6
    81         10
    82          3
    83          1
   107        346
   108         18
   109        137
   110          3
   111          5