##TITLE=Library Entry 37711
##JCAMP-DX=Revision 4.10 
##DATA TYPE=MASS SPECTRUM
##SAMPLE DESCRIPTION=Div. of Experiment Therapeutics WRAIR, WRAMC, Washingto
n DC 20307
##NAMES=HP
##CAS NAME=3-[1-Aziridyl]butyraldehyde azine
##MOLFORM=C12H22N4
##CAS REGISTRY NO=32689-67-1
##MP= -300
##BP= -300
##MW= 222
##$RETENTION INDEX=0
##$CONDENSED SPECTRUM=NO
##NPOINTS= 123
##XYDATA=(XY..XY) 1 
    41        163
    42        331
    43         70
    44         84
    45          5
    47          7
    48          3
    50          2
    51         15
    52          2
    53         10
    54         26
    55         41
    56        103
    57         23
    58         12
    59          2
    65          1
    66          2
    67          8
    68         60
    69         67
    70        999
    71         60
    72          7
    73          1
    77          1
    79          1
    80          4
    81          9
    82         26
    83         42
    84         60
    85         47
    86         23
    87          2
    88          7
    93          1
    94         10
    95         28
    96        109
    97         39
    98         15
    99          8
   100          2
   101          0
   107          1
   108          4
   109         21
   110         29
   111        395
   112         40
   113         32
   114          5
   115          1
   120          1
   121          3
   122          3
   123          8
   124         11
   125         15
   126          6
   127         23
   128          8
   129          3
   130          1
   134          1
   135          4
   136          5
   137         20
   138         10
   139         56
   140         11
   141          4
   142          2
   143          0
   148          1
   149          1
   150          4
   151          6
   152         28
   153         23
   154         19
   155          4
   156          2
   157          0
   163          3
   164          5
   165          5
   166         14
   167          5
   168          4
   169          2
   170          1
   174          0
   176          1
   177          0
   178          5
   179          5
   180         31
   181          8
   182          3
   183          2
   184          1
   191          2
   192          2
   193          4
   194          4
   195          6
   196          2
   197          3
   198          0
   199          1
   204          0
   205          0
   206          3
   207          5
   208          1
   220          2
   221         12
   222         19
   223          4
   224          0