##TITLE=Library Entry 100955
##JCAMP-DX=Revision 4.10 
##DATA TYPE=MASS SPECTRUM
##SAMPLE DESCRIPTION=A.A.Kutin, Moscow, Russia
##NAMES=HP
##CAS NAME=Benzenesulfonamide, 2,4,6-trimethyl-N-(4-fluorophenyl)-
##MOLFORM=C15H16FNO2S
##CAS REGISTRY NO=326899-41-6
##MP= -300
##BP= -300
##MW= 293
##$RETENTION INDEX=0
##$CONDENSED SPECTRUM=NO
##NPOINTS= 201
##XYDATA=(XY..XY) 1 
    33          2
    34          0
    36          0
    37          1
    38          7
    39         55
    40         12
    41         65
    42          3
    43          3
    45          9
    46          0
    47          0
    48          2
    49          0
    50         10
    51         37
    52         23
    53         29
    54          1
    55          4
    56          6
    57         71
    58          5
    59          4
    60          0
    61          2
    62          9
    63         39
    64         14
    65         52
    66          6
    67          5
    68          1
    69          3
    70          2
    71          1
    72          1
    74          4
    75          9
    76          8
    77        118
    78         46
    79         42
    80          4
    81         13
    82         21
    83        220
    84         20
    85          1
    86          0
    87          1
    88          1
    89         17
    90         11
    91        254
    92         24
    93         21
    94          3
    95          5
    96          2
    97          5
    98          1
    99          1
   101          2
   102         16
   103         70
   104         52
   105         26
   106         11
   107          2
   108          3
   109         15
   110        254
   111        173
   112          9
   113          1
   114          1
   115         71
   116         18
   117         85
   118         43
   119        999
   120        109
   121          8
   122          4
   123          1
   124          5
   125          1
   126          0
   127          0
   128          0
   129          0
   130          0
   131          0
   132          2
   133          3
   134         24
   135         10
   136          4
   137          2
   138          0
   139          6
   140          0
   141          2
   143          0
   144          0
   145          0
   146          0
   147          1
   148          1
   149          5
   150          1
   151          1
   152          1
   153          0
   154          0
   155          0
   156          0
   157          1
   158          1
   159          0
   161          0
   162          0
   163          0
   164          5
   165          7
   166          1
   167          2
   168          0
   169          0
   170          1
   171          1
   172          0
   173          0
   174          0
   175          0
   177          0
   178          0
   180          1
   181          0
   182          4
   183         77
   184          9
   185          5
   186          1
   187          0
   188          0
   191          0
   192          1
   193          1
   194          7
   195          1
   196          3
   197          7
   198          9
   199         13
   200          2
   201          0
   202          0
   206          0
   207          0
   208          7
   209         34
   210          8
   211          4
   212         27
   213         13
   214         36
   215          5
   216          0
   222          0
   224          0
   225          0
   226          8
   227          2
   228         27
   229         48
   230          7
   231          1
   232          0
   238          1
   242          0
   243          0
   244          0
   258          1
   259          0
   261          0
   273          0
   274          0
   275          1
   276          0
   283          0
   287          0
   290          0
   292          0
   293        328
   294         59
   295         20
   296          3
   297          0