##TITLE=Library Entry 64090
##JCAMP-DX=Revision 4.10 
##DATA TYPE=MASS SPECTRUM
##SAMPLE DESCRIPTION=Chemical Concepts
##NAMES=HP
##CAS NAME=8-Naphthol, 1-(benzyloxy)-
##MOLFORM=C17H14O2
##CAS REGISTRY NO=326875-68-7
##MP= -300
##BP= -300
##MW= 250
##$RETENTION INDEX=0
##$CONDENSED SPECTRUM=NO
##NPOINTS= 105
##XYDATA=(XY..XY) 1 
    26          1
    27          2
    29          0
    37          0
    38          2
    39         26
    41          9
    50          8
    51         22
    52          5
    53          2
    54          0
    55          0
    61          0
    62          5
    63         18
    64          4
    65        110
    66          6
    67          0
    74          2
    75          5
    76          9
    77         36
    78          2
    79          0
    80          0
    85          0
    86          1
    87          2
    88          2
    89         16
    90          6
    91        999
    92        122
    93          3
    99          0
   101          3
   102         13
   103         25
   104          2
   105          1
   107          0
   109          0
   113          2
   114          5
   115         12
   116          2
   117          0
   121          0
   127          0
   128          0
   129          0
   130          0
   131         47
   132          4
   133          0
   139          0
   141          0
   143          0
   144          0
   152          0
   153          0
   155          0
   159         18
   160          4
   161          0
   165          0
   171          0
   172          2
   173          0
   177          0
   178          1
   179          0
   181          0
   183          0
   184          0
   185          0
   189          1
   190          0
   191          1
   193          0
   198          0
   200          0
   201          0
   202          3
   203          2
   204          0
   205          0
   207          0
   215          0
   218          1
   219          1
   220          0
   221          1
   231          3
   232          1
   234          0
   247          1
   248          0
   249          2
   250        384
   251         64
   252          8
   253          0