##TITLE=Library Entry 99225
##JCAMP-DX=Revision 4.10 
##DATA TYPE=MASS SPECTRUM
##SAMPLE DESCRIPTION=A.A.Kutin, Moscow, Russia
##NAMES=HP
##CAS NAME=1-p-Tolyl-2-(4H-[1,2,4]triazol-3-ylsulfanyl)-ethanone
##MOLFORM=C11H11N3OS
##CAS REGISTRY NO=326888-02-2
##MP= -300
##BP= -300
##MW= 233
##$RETENTION INDEX=0
##$CONDENSED SPECTRUM=NO
##NPOINTS= 132
##XYDATA=(XY..XY) 1 
    33          1
    34          2
    36          0
    37          1
    38          8
    39         70
    40         41
    41         30
    42         36
    43         24
    44         27
    45         53
    46         14
    47          3
    48          1
    49          0
    50         19
    51         40
    52         11
    53         12
    54          1
    55         10
    56          2
    57          5
    58          9
    59          5
    60          4
    61          2
    62         13
    63         47
    64         15
    65        154
    66         10
    67          1
    68          0
    69          4
    70         21
    71         23
    72          3
    73          4
    74          7
    75          7
    76          7
    77         63
    78         20
    79         32
    80          2
    81          0
    82          0
    83          1
    84          0
    85          5
    86          3
    87          3
    88          1
    89         44
    90         30
    91        351
    92         34
    93          3
    95          0
    97          0
    98          0
   100          1
   101          6
   102          5
   103         25
   104         12
   105         77
   106          8
   107          0
   108          0
   111          2
   112          0
   113          1
   114          6
   115         10
   116          3
   117         13
   119        999
   120         89
   121          6
   122          0
   123          0
   127          0
   128          0
   129          0
   130          0
   131          3
   132         74
   133         79
   134         17
   135          4
   136          0
   137          0
   139          2
   141          1
   142          0
   143          0
   145          1
   146          3
   147          3
   148          1
   149          1
   150          0
   157          0
   159          0
   163          0
   164          0
   171          0
   172          0
   177          1
   182          4
   183          0
   190          1
   191         19
   192          2
   193          0
   200          3
   201          0
   204          0
   205         19
   206          2
   207          0
   215          3
   216          0
   217          0
   219          0
   232          3
   233         44
   234          5
   235          2