##TITLE=Library Entry 4191
##JCAMP-DX=Revision 4.10 
##DATA TYPE=MASS SPECTRUM
##SAMPLE DESCRIPTION=A.A.Kutin, Moscow, Russia
##NAMES=HP
##CAS NAME=Acetamide, N-[4-(1-allylbenzimidazol-2-yl)furazan-3-yl]-
##MOLFORM=C14H13N5O2
##CAS REGISTRY NO=326905-67-3
##MP= -300
##BP= -300
##MW= 283
##$RETENTION INDEX=0
##$CONDENSED SPECTRUM=NO
##NPOINTS= 155
##XYDATA=(XY..XY) 1 
    33          0
    34          0
    37          5
    39        188
    41        999
    43        380
    44          9
    50         27
    51         46
    52         20
    53          9
    54          5
    55          2
    56          1
    57          2
    58          0
    59          0
    60          0
    61          2
    62         10
    63         33
    64         30
    65         20
    66          4
    67          1
    68          1
    69          1
    70          0
    71          0
    72          0
    74          6
    75         20
    76         32
    77         58
    78         12
    79          2
    80          0
    81          0
    82          0
    83          0
    84          0
    87          1
    88          4
    89         10
    90         29
    91         15
    92         12
    93          1
    97          0
    98          0
    99          0
   100          1
   101          6
   102         31
   103         17
   104          8
   105          2
   106          0
   109          0
   112          0
   113          0
   114          3
   115          6
   116         15
   117          8
   118         15
   119          4
   120          0
   126          0
   127          1
   128          5
   129         17
   130          8
   131          6
   132          3
   133          0
   134          0
   139          0
   140          2
   141          2
   142          6
   143         31
   144         49
   145          5
   146          0
   152          0
   154          1
   155         13
   156         30
   157         17
   158          4
   159          0
   160          1
   162          0
   166          0
   167          2
   168         16
   169         34
   170          9
   171          2
   172          0
   174          0
   180          2
   181          7
   182         38
   183         37
   184        388
   185         47
   186          3
   187          0
   193          1
   194         21
   195          8
   196          8
   197          3
   198          1
   199          3
   200         43
   201          5
   202          0
   207          0
   209          8
   210          6
   211         82
   212         12
   213          0
   214          0
   215          0
   223          0
   224          0
   225          0
   226          0
   228          0
   237          0
   238          0
   239          0
   240          2
   241          4
   242          0
   251          0
   252          0
   253          7
   254          1
   264          0
   265          0
   266          2
   268         67
   269          9
   270          0
   280          0
   281          0
   283         49
   284          7
   285          0
   286          0