##TITLE=Library Entry 64788
##JCAMP-DX=Revision 4.10 
##DATA TYPE=MASS SPECTRUM
##SAMPLE DESCRIPTION=A.A.Kutin, Moscow, Russia
##NAMES=HP
##CAS NAME=Benzimidazole, 1-benzyl-2-methyl-5-(4-dimethylaminobenzylidenamin
o)-
##MOLFORM=C24H24N4
##CAS REGISTRY NO=326900-70-3
##MP= -300
##BP= -300
##MW= 368
##$RETENTION INDEX=0
##$CONDENSED SPECTRUM=NO
##NPOINTS= 216
##XYDATA=(XY..XY) 1 
    36          1
    37          6
    38         23
    39        108
    40         30
    41         50
    42         66
    43         18
    44         25
    45         10
    46          3
    49          2
    50         36
    51         77
    52         31
    53         10
    54          5
    55         11
    56          5
    57         19
    58          1
    59          2
    60          0
    61          7
    62         30
    63         90
    64         32
    65        216
    66         22
    67          5
    68          4
    69          6
    70          5
    71          6
    72          0
    73          1
    74          7
    75         16
    76         31
    77         78
    78         36
    79         24
    80          4
    81          2
    82          2
    83          4
    84          5
    85          3
    86          1
    87          3
    88          8
    89         66
    91        999
    92        176
    93         11
    94          1
    95          3
    96          3
    97          4
    98          1
    99          0
   100          0
   101          4
   102         16
   103         23
   104         29
   105         42
   106          6
   107          2
   108          1
   109          3
   110          2
   111          2
   112          2
   113          4
   114          4
   115         11
   116         12
   117         19
   118         25
   119         16
   120         21
   121          5
   122          2
   124          1
   125          1
   126          3
   127          5
   128          7
   129         16
   130         37
   131         29
   132         12
   133          1
   134          5
   135          0
   137          2
   138          7
   139         13
   140         10
   141          5
   142          4
   143         13
   144         11
   145         56
   146        150
   147         18
   148          3
   149          1
   150          2
   151          7
   152         12
   153         10
   154          4
   155          2
   156          7
   157          2
   158          9
   159          8
   160          1
   164          9
   165         10
   166         18
   167         10
   168          3
   169          1
   170          1
   171          4
   174          0
   175          0
   176          0
   177          2
   178          7
   179          9
   180         10
   181          2
   182          4
   183          4
   184         17
   185          0
   190          2
   191         12
   192         30
   193         19
   194          8
   195          2
   196          0
   203          0
   204          2
   205          8
   206          9
   207          5
   208          5
   209         14
   210          3
   217          0
   218          3
   219          9
   220         17
   221         18
   222          3
   230          1
   232         25
   233         47
   234         31
   235         12
   236         12
   237         92
   238         14
   239          0
   244          0
   245          1
   246          3
   247          4
   248          9
   249          3
   250          1
   251          0
   258          1
   259          8
   260         13
   261        193
   262         55
   263          6
   264          0
   271          4
   272          0
   273          2
   274          2
   275         21
   276         26
   277        151
   278         29
   279          2
   323          0
   324          4
   325         20
   326         12
   327          1
   339         15
   340          3
   349          0
   351          5
   353         87
   354         21
   355          1
   359          0
   362          0
   363          3
   364          7
   365          9
   367        164
   368        544
   369        148
   370         18
   371          0