##TITLE=Library Entry 61858
##JCAMP-DX=Revision 4.10 
##DATA TYPE=MASS SPECTRUM
##SAMPLE DESCRIPTION=A.A.Kutin, Moscow, Russia
##NAMES=HP
##CAS NAME=Piperazine, 1-benzyl-4-(2-fluorobenzoyl)-
##MOLFORM=C18H19FN2O
##CAS REGISTRY NO=326902-14-1
##MP= -300
##BP= -300
##MW= 298
##$RETENTION INDEX=0
##$CONDENSED SPECTRUM=NO
##NPOINTS= 111
##XYDATA=(XY..XY) 1 
    39         67
    41         29
    42        122
    43         11
    44          7
    50         22
    51         33
    52          8
    53          1
    54         22
    55         29
    56         36
    57          8
    58          3
    62          2
    63         20
    64          7
    65        143
    66          5
    68          9
    69         20
    70          5
    71          1
    72         16
    73          1
    74         19
    75        116
    76         17
    77         19
    78          4
    79          2
    81          1
    82          1
    83         15
    84          6
    89         29
    91        999
    92         77
    93          8
    94         22
    95        289
    96         17
    97          2
    99          1
   102          0
   103          3
   104         23
   105         25
   106          4
   109         16
   111          0
   116          1
   117         41
   118         34
   119          6
   120          6
   121          3
   122         16
   123        718
   124         54
   130          5
   131         14
   132        192
   133         30
   134        209
   135         24
   136          3
   137          0
   144          8
   146        451
   147         54
   148          2
   150          1
   151          1
   152         11
   157          1
   158         11
   159         45
   160         31
   161         17
   163          0
   164          8
   165          5
   166         51
   167          5
   173          7
   174          2
   175         48
   176          7
   177          0
   178         16
   179          0
   180         19
   181          6
   190          1
   191          0
   192          6
   193          0
   206          1
   207         36
   208          4
   221         14
   222          2
   269         13
   270          2
   283          2
   296          1
   297         19
   298         98
   299         15
   300          1