##TITLE=Library Entry 14183
##JCAMP-DX=Revision 4.10 
##DATA TYPE=MASS SPECTRUM
##SAMPLE DESCRIPTION=A.A.Kutin, Moscow, Russia
##NAMES=HP
##CAS NAME=Isoxazole-4-carboxamide, 3-(2-chlorophenyl)-5-methyl-N-(2-methoxy
ethyl)-
##MOLFORM=C14H15ClN2O3
##CAS REGISTRY NO=326902-65-2
##MP= -300
##BP= -300
##MW= 294
##$RETENTION INDEX=0
##$CONDENSED SPECTRUM=NO
##NPOINTS= 216
##XYDATA=(XY..XY) 1 
    33          6
    34          0
    36          7
    37          1
    38          6
    39         18
    40         11
    41         10
    43        999
    45        204
    46          3
    47          0
    50         23
    51         27
    52          6
    53          4
    54          5
    55          7
    56          5
    58        130
    59         88
    61          6
    62          7
    63         14
    64          6
    65          4
    66          3
    67          7
    68          6
    69          5
    70         14
    72          3
    73          8
    74         17
    75         73
    76         16
    77         19
    78          3
    79          1
    80          1
    81          1
    82          2
    83          4
    84          5
    85          9
    86          4
    87          9
    88         11
    89          8
    90          3
    91          4
    92          2
    93          0
    94          2
    95          0
    96          1
    97          3
    98          3
    99         11
   101         11
   102         21
   103          4
   104          3
   105          1
   106          0
   107          2
   108          0
   110          6
   111         46
   112          6
   113         17
   114         33
   115         11
   116          6
   117          2
   118          0
   119          1
   120          0
   121          0
   122          1
   123         28
   124          5
   125         20
   126          9
   127         15
   128          5
   129          5
   130          4
   131          4
   132          2
   133          0
   135          0
   136          1
   137         10
   138         13
   139         13
   140          5
   141          3
   142          1
   143          4
   144          7
   145          2
   146          1
   147          0
   149          5
   150         77
   151         14
   152         27
   153          5
   154          1
   155          2
   156          2
   157          2
   158          3
   159         14
   160          6
   161          1
   162          2
   163          4
   164          3
   165          1
   166          1
   167          0
   168          0
   169          0
   170          2
   171          2
   172          1
   173          4
   174          0
   175          1
   176          6
   177         38
   178        697
   179         82
   180        211
   181         22
   182          2
   183          1
   185          9
   186          4
   187          1
   189          0
   190          0
   191          0
   192          2
   193          0
   194          1
   195          0
   196          2
   197          2
   198          2
   199          2
   200         15
   201        106
   202         43
   203          5
   204          1
   205          0
   206          0
   207          0
   208          0
   210          0
   211          2
   212          0
   213          9
   214          4
   215          2
   216          0
   217          1
   220        305
   221         39
   222         99
   223         12
   224          2
   225          1
   227        190
   228         27
   229         14
   230          3
   231          0
   233          0
   234          0
   235          0
   236          0
   237          4
   238          1
   239          1
   240          0
   241          0
   243          1
   245          1
   249          8
   250          1
   251          3
   252          0
   255          1
   257          5
   258         22
   259        889
   260        146
   261         17
   262          4
   263          2
   264          1
   265          0
   273          1
   277          1
   279          1
   280          0
   281          0
   293          0
   294          3
   295          0
   296          1
   297          0