##TITLE=Library Entry 58005
##JCAMP-DX=Revision 4.10 
##DATA TYPE=MASS SPECTRUM
##SAMPLE DESCRIPTION=Exported from NIST MS Search
##NAMES=HP
##CAS NAME=D-Galactitol, O-2,3,4,6-tetra-O-methyl-.beta.-D-galactopyranosyl-
(1.fwdarw.6)-O-2,3,4-tri-O-methyl-.beta.-D-galactopyranosyl-(1.fwdarw.6)-1,2
,3,4,5-penta-O-methyl-
##MOLFORM=C30H58O16
##CAS REGISTRY NO=32694-79-4
##MP= -300
##BP= -300
##MW= 674
##$RETENTION INDEX=0
##$CONDENSED SPECTRUM=NO
##NPOINTS= 33
##XYDATA=(XY..XY) 1 
    45        460
    71        559
    75        370
    88        999
    89        320
   101        739
   103         70
   111        260
   115        320
   133        160
   143         70
   145        150
   155         80
   159         30
   171        180
   175         10
   177         20
   187        350
   201         10
   203         40
   219        130
   235        470
   295         20
   305          3
   319          3
   359          1
   391          2
   395          2
   407          2
   423          2
   439        140
   499          2
   541          5