##TITLE=Library Entry 82036
##JCAMP-DX=Revision 4.10 
##DATA TYPE=MASS SPECTRUM
##SAMPLE DESCRIPTION=Chemical Concepts
##NAMES=HP
##CAS NAME=Carbamic acid, (.alpha.-methylbenzyl)-, .alpha.-methylbenzyl este
r
##MOLFORM=C17H19NO2
##CAS REGISTRY NO=32692-88-9
##MP= -300
##BP= -300
##MW= 269
##$RETENTION INDEX=0
##$CONDENSED SPECTRUM=NO
##NPOINTS= 161
##XYDATA=(XY..XY) 1 
    26          0
    27         68
    28         12
    29         39
    30          7
    31          4
    38          0
    39         57
    40          9
    41        156
    42         46
    43         78
    44         20
    45          0
    50          7
    51         40
    52         15
    53         53
    54          8
    55         38
    56          6
    57          2
    58         17
    59          3
    62          0
    63          8
    64          2
    65         38
    66         18
    67         32
    68          7
    69         40
    70          4
    71          1
    72          1
    73          4
    75          2
    76          3
    77        201
    78         58
    79        239
    80         31
    81         46
    82         17
    83          5
    84          3
    85          6
    86          0
    89          3
    90          2
    91         98
    92         15
    93        101
    94         29
    95         10
    96         10
    97         30
    98          4
   102          4
   103         68
   104         76
   105        999
   106        125
   107         87
   108         21
   109         26
   110         28
   111          3
   115          3
   116          2
   117          6
   118          7
   119         40
   120        112
   121        127
   122        241
   123         49
   124         30
   125          2
   128          1
   129          5
   130          3
   131         10
   132          9
   133         25
   134         11
   135         41
   136         27
   137         10
   138          2
   139          0
   141          2
   142          2
   143          3
   144          2
   145          2
   146          8
   147         28
   148         33
   149         70
   150        116
   151         15
   152          2
   155          3
   156          2
   157          5
   158          8
   159          1
   162          2
   163          2
   164        111
   165        123
   166         14
   167          1
   168          2
   169          3
   170          4
   171          1
   172         10
   173          4
   174          4
   175          0
   178          3
   181          2
   182          0
   183          6
   184          3
   185          4
   186         13
   187         10
   188          2
   189          2
   196          0
   198          5
   199          1
   200         41
   201         19
   202          2
   209          1
   210         19
   211          4
   212          3
   213          3
   214          4
   224          3
   225          7
   226        183
   227         38
   228        100
   229         16
   230          0
   238          0
   240          6
   241          7
   242          0
   254         31
   255          5
   268          8
   269        245
   270         52
   271          6