##TITLE=Library Entry 89804
##JCAMP-DX=Revision 4.10 
##DATA TYPE=MASS SPECTRUM
##SAMPLE DESCRIPTION=NIST Mass Spectrometry Data Center
##NAMES=HP
##CAS NAME=1,4-Dibromo-2,5-difluorobenzene
##MOLFORM=C6H2Br2F2
##CAS REGISTRY NO=327-51-5
##MP= -300
##BP= -300
##MW= 270
##$RETENTION INDEX=0
##$CONDENSED SPECTRUM=NO
##NPOINTS= 112
##XYDATA=(XY..XY) 1 
    24          1
    25          3
    26          1
    31        105
    32          1
    36         18
    37         53
    38          9
    43          1
    44          5
    48          7
    49         24
    50         24
    51          4
    55         23
    56        104
    57         15
    60         25
    61        218
    62        298
    63         15
    67          6
    68         99
    69          7
    72          9
    73         33
    74         70
    75         12
    79         63
    80         65
    81        189
    82         10
    86         33
    87         12
    91         19
    92        131
    93         89
    94          5
    95         34
    96         32
    99          1
   100          1
   103          1
   104          5
   105          1
   106          5
   110         21
   111        131
   112        999
   113         64
   114          2
   115          3
   116          4
   117          4
   118          4
   119          1
   122          3
   123          1
   124          3
   125          1
   126          1
   127          1
   128          6
   129          2
   130          6
   131          1
   134          5
   135         63
   136         90
   137         60
   139          3
   140          8
   141         19
   142          9
   143         16
   144          1
   146          5
   147          2
   148          5
   149          1
   152          2
   153          1
   154          1
   155          1
   158          1
   159          7
   160          3
   161          7
   162          1
   166          1
   168          1
   170          1
   171          5
   172          6
   173          5
   174          5
   179          1
   181          1
   190         14
   191        230
   192         28
   193        219
   194         14
   239          1
   241          3
   243          1
   253          1
   270        335
   272        636
   273         44
   274        312
   275         19