##TITLE=Library Entry 7275
##JCAMP-DX=Revision 4.10 
##DATA TYPE=MASS SPECTRUM
##SAMPLE DESCRIPTION=NIST Mass Spectrometry Data Center
##NAMES=HP
##CAS NAME=Acetic acid, trifluoro-, 3-methylbutyl ester
##MOLFORM=C7H11F3O2
##CAS REGISTRY NO=327-69-5
##MP= -300
##BP= -300
##MW= 184
##$RETENTION INDEX=756
##$CONDENSED SPECTRUM=NO
##NPOINTS= 76
##XYDATA=(XY..XY) 1 
    14          1
    15         13
    20          1
    26         14
    27        193
    28        131
    29        191
    30          7
    31         10
    32          1
    33          6
    37          4
    38         12
    39        193
    40         30
    41        505
    42        332
    43        999
    44         45
    45         16
    46          1
    47         19
    48          1
    49          1
    50         33
    51         19
    52          5
    53         44
    54         42
    55        894
    56         51
    57         43
    58          2
    59          4
    61          1
    62          1
    63          1
    64          1
    65          2
    66          1
    67         10
    69        548
    70        507
    71        211
    72         11
    73          2
    77          1
    78         13
    80          1
    81          1
    86          1
    87          2
    89          1
    91          2
    93          1
    95          3
    97         40
    98          1
    99         55
   100          2
   112          1
   113          5
   115         16
   116          1
   125          2
   127          3
   139          1
   140          1
   141         71
   142        133
   143         14
   144          1
   153          1
   155          2
   157          1
   169          3