##TITLE=Library Entry 89203
##JCAMP-DX=Revision 4.10 
##DATA TYPE=MASS SPECTRUM
##SAMPLE DESCRIPTION=NIST Mass Spectrometry Data Center, 1998.
##NAMES=HP
##CAS NAME=Benzene, 1,5-difluoro-2,4-dinitro-
##MOLFORM=C6H2F2N2O4
##CAS REGISTRY NO=327-92-4
##MP= -300
##BP= -300
##MW= 204
##$RETENTION INDEX=0
##$CONDENSED SPECTRUM=NO
##NPOINTS= 104
##XYDATA=(XY..XY) 1 
    16          1
    26          1
    27          1
    28          7
    29          7
    30        735
    31         63
    32          2
    36          3
    37         17
    38          9
    39          2
    43          1
    44         10
    45          3
    46        111
    47          4
    48          3
    49         11
    50        129
    51         19
    52          3
    53         13
    55         12
    56         55
    57         18
    58          2
    60          7
    61        154
    62        522
    63         34
    64        120
    65          6
    66          1
    67          3
    68        146
    69         23
    70         10
    71          5
    72          6
    73         18
    74         66
    75         75
    76         40
    77          4
    78          1
    79         18
    80         49
    81        196
    82         22
    83          2
    84          1
    85          1
    86         23
    87         21
    88         27
    89          2
    91          8
    92         85
    93         52
    94         30
    95          5
    96          1
    97         16
    98          4
    99        155
   100        279
   101         23
   102          2
   105          6
   106          8
   107          2
   108          3
   109          3
   110         10
   111        178
   112        999
   113         88
   114         18
   115          5
   116          5
   122          1
   124          3
   125         75
   126         20
   127         10
   128         22
   129          3
   138          3
   141          9
   142         14
   143          3
   144          2
   157          2
   158          8
   159          1
   174         86
   175          6
   188         44
   189          4
   190          1
   204        703
   205         51
   206          7