##TITLE=Library Entry 19565
##JCAMP-DX=Revision 4.10 
##DATA TYPE=MASS SPECTRUM
##SAMPLE DESCRIPTION=NIST Mass Spectrometry Data Center
##NAMES=HP
##CAS NAME=1-Pentanol, trifluoroacetate
##MOLFORM=C7H11F3O2
##CAS REGISTRY NO=327-70-8
##MP= -300
##BP= -300
##MW= 184
##$RETENTION INDEX=776
##$CONDENSED SPECTRUM=NO
##NPOINTS= 77
##XYDATA=(XY..XY) 1 
    14          1
    15          6
    26         18
    27        182
    28         67
    29        291
    30         10
    31         12
    32          1
    33          7
    37          3
    38         11
    39        191
    40         43
    41        639
    42        949
    43        566
    44         28
    45          9
    46          1
    47         12
    49          1
    50         35
    51         16
    52          5
    53         39
    54         26
    55        999
    56         54
    57         62
    58          3
    59          9
    60          2
    61         10
    62          1
    63          2
    64          1
    65          4
    66          2
    67         19
    68         12
    69        697
    70        738
    71        246
    72         12
    73          1
    77          1
    78         20
    79          1
    80          6
    81          1
    83          1
    85          2
    87          2
    91          1
    95          5
    97         57
    98          2
    99         91
   100          3
   108          1
   112          2
   113          3
   115         26
   116          2
   119          1
   125          4
   126          1
   127          9
   128          1
   140          1
   141         18
   142          2
   153          1
   155         63
   156          4
   164          2