##TITLE=Library Entry 63345
##JCAMP-DX=Revision 4.10 
##DATA TYPE=MASS SPECTRUM
##SAMPLE DESCRIPTION=A.A.Kutin, Moscow, Russia
##NAMES=HP
##CAS NAME=3-[(3-Benzylcarbamoyl-propionyl)-hydrazono]-butyric acid ethyl es
ter
##MOLFORM=C17H23N3O4
##CAS REGISTRY NO=327069-18-1
##MP= -300
##BP= -300
##MW= 333
##$RETENTION INDEX=0
##$CONDENSED SPECTRUM=NO
##NPOINTS= 205
##XYDATA=(XY..XY) 1 
    33          0
    34          0
    36          0
    37          0
    38          1
    39         23
    40         15
    41         39
    42         27
    43         18
    44         14
    45         12
    46          2
    47          0
    50          3
    51         11
    52          4
    53          3
    54         10
    55         47
    56         21
    57         15
    58          5
    59          5
    60          3
    61          1
    62          1
    63          5
    64          3
    65         44
    66          3
    67          3
    68          5
    69          8
    70         15
    71         14
    72         11
    73          3
    74          1
    75          1
    76          2
    77         22
    78         11
    79         19
    80          2
    81          1
    82          6
    83          7
    84         12
    85          4
    86          2
    87          1
    88          2
    89         12
    91        999
    92         82
    93          4
    94          0
    95          1
    96          1
    97          7
    98         35
    99         53
   100         14
   101          1
   102          1
   103          2
   104         24
   105         14
   106        105
   107         18
   108          3
   109          1
   110          2
   111          7
   112          6
   113         13
   114          1
   115          2
   116          1
   117          5
   118          4
   119          2
   120          4
   121          2
   122          3
   124          3
   125          6
   126          1
   127          2
   128          2
   130         39
   131          3
   132          6
   133          3
   134          1
   135          0
   136          0
   137          0
   139         14
   140          1
   141          0
   142          0
   143          1
   144         12
   145         18
   146          2
   147          0
   148          2
   149          1
   150          0
   151          0
   152          2
   153         12
   154          2
   155          2
   156          1
   157          1
   158          0
   160         36
   161         17
   162          5
   163          3
   164          0
   165          1
   166          1
   167          0
   169          0
   170          0
   171          2
   172          0
   173          0
   174          0
   175          0
   176          0
   177          0
   178          0
   179          0
   180          1
   181         11
   182          1
   183          0
   184          0
   185          2
   186          0
   187          4
   188          7
   190        530
   191         61
   192          5
   193          0
   194          0
   195          0
   196          0
   199         14
   200          4
   201          0
   204          0
   205          0
   206          0
   207          0
   208          0
   209          0
   210          0
   211          0
   212          0
   213          0
   215          0
   218          0
   222          0
   223          0
   225          2
   226          2
   227         11
   228          2
   229          0
   235          0
   236          0
   238          0
   239          1
   240          3
   241          0
   242          0
   243          1
   244          2
   246        119
   247         18
   248          1
   249          0
   251          0
   256          0
   276          0
   283          0
   287          1
   288          6
   289          1
   301          0
   303          0
   317          1
   318          2
   319          0
   332         13
   333         46
   334          9
   335          1