##TITLE=Library Entry 96048
##JCAMP-DX=Revision 4.10 
##DATA TYPE=MASS SPECTRUM
##SAMPLE DESCRIPTION=A.A.Kutin, Moscow, Russia
##NAMES=HP
##CAS NAME=N-[4-(4-Fluoro-phenylsulfamoyl)-phenyl]-succinamic acid methyl es
ter
##MOLFORM=C17H17FN2O5S
##CAS REGISTRY NO=327070-71-3
##MP= -300
##BP= -300
##MW= 380
##$RETENTION INDEX=0
##$CONDENSED SPECTRUM=NO
##NPOINTS= 225
##XYDATA=(XY..XY) 1 
    33          2
    37          2
    38          8
    39         24
    40         19
    41         20
    42         14
    43         18
    44         11
    45         31
    46          2
    47          0
    48          6
    49          0
    50         15
    51         17
    52         16
    53         10
    55        288
    56         43
    57         82
    58          9
    59        175
    60          5
    61          6
    62         14
    63         57
    64         48
    65         65
    66          9
    67          2
    68          3
    69          9
    70          8
    71          6
    72          2
    73          3
    74          7
    75         16
    76         42
    77         24
    78         15
    79          7
    80          8
    81         21
    82         34
    83        305
    84         59
    85         11
    87        113
    88         11
    89         17
    90         39
    91        102
    92        104
    93         40
    94          7
    95         19
    96         11
    97          4
    98          1
    99          1
   101          4
   102          4
   103          9
   104         20
   105         18
   106         12
   107          8
   108         75
   109         55
   110        393
   111        328
   112         30
   113         11
   115        999
   116         66
   117         25
   118         44
   119         76
   120         31
   121          9
   122          8
   123          8
   124          9
   125          8
   126          3
   127          9
   128          9
   129          9
   130          6
   131         11
   132         24
   133         15
   134         13
   135         17
   136          7
   137         17
   138         14
   139         15
   140         50
   141         10
   142          5
   143         16
   144          6
   145         13
   146         91
   147         26
   148         25
   149         12
   150         43
   151          7
   152          4
   153          5
   154          8
   156        288
   157         31
   158         23
   159          5
   160          4
   161          7
   162          6
   163          3
   164          6
   165          4
   166          8
   167          4
   168          1
   169          4
   170          3
   171         11
   172         17
   173         10
   174         52
   175         47
   176         13
   177          2
   178          3
   179          3
   180          7
   181         10
   182         13
   183          5
   184         21
   185         27
   186          8
   187          4
   188          3
   189          3
   190          6
   191          3
   192          6
   193          9
   194         40
   195          5
   196          0
   199         28
   200         27
   201        218
   202         61
   203         10
   204          4
   206        259
   207         43
   208        123
   209         13
   210          6
   211          0
   212          4
   213          2
   214          1
   217          2
   222          3
   223          2
   224          1
   225         43
   226          6
   227          2
   228          2
   229          2
   230          2
   231          4
   238         17
   239          5
   240          1
   241          0
   242          0
   243          1
   244          0
   245          4
   250          1
   254          4
   255          2
   256          2
   266         63
   267         13
   268          8
   270        434
   271         58
   272         24
   273          2
   277          0
   279          1
   283          3
   284          3
   290          2
   292          3
   293          5
   301          0
   304          0
   315          1
   316         17
   317          2
   320          0
   322          1
   347          3
   348         20
   349         77
   350         16
   351          6
   379         12
   380        323
   381         61
   382         19
   383          3