##TITLE=Library Entry 63329
##JCAMP-DX=Revision 4.10 
##DATA TYPE=MASS SPECTRUM
##SAMPLE DESCRIPTION=A.A.Kutin, Moscow, Russia
##NAMES=HP
##CAS NAME=Butanedioic acid, monoamide, monohydrazide, N-benzyl-N2-(3-nitrob
enzylideno)-
##MOLFORM=C18H18N4O4
##CAS REGISTRY NO=327068-72-4
##MP= -300
##BP= -300
##MW= 354
##$RETENTION INDEX=0
##$CONDENSED SPECTRUM=NO
##NPOINTS= 123
##XYDATA=(XY..XY) 1 
    37          1
    38          3
    39         24
    40          6
    41          8
    42          5
    43          8
    44         22
    45          2
    46          1
    49          1
    50         16
    51         24
    52         10
    53          4
    54          8
    55         43
    56         13
    57         12
    58          1
    59          1
    61          1
    62          6
    63         30
    64         12
    65         65
    66          5
    67          1
    68          1
    69          1
    70          2
    71          2
    72          9
    73          4
    74          5
    75         11
    76         29
    77         32
    78         15
    79         25
    80          4
    81          1
    82          5
    83          2
    84          8
    85          1
    86          1
    87          1
    88          3
    89         41
    91        999
    92         79
    93          4
    97          1
    98          2
    99          6
   100         48
   101          3
   102          5
   103         19
   104         36
   105         22
   106        148
   107         22
   108          3
   112          2
   115          2
   116          3
   117         11
   118         25
   119          6
   120          3
   121          1
   122          3
   127          1
   130          3
   131          2
   132          9
   133          5
   134          2
   135          4
   136          1
   144          1
   145          1
   146          2
   147          3
   148          3
   149         14
   150          2
   151          4
   152          1
   160         58
   161         47
   162          7
   163          3
   164          1
   165          2
   166          2
   171          1
   174          2
   175          1
   176          1
   177          1
   178          3
   179          1
   187          1
   188          5
   189         26
   190        231
   191         27
   192          3
   202          1
   203          1
   204          7
   205          1
   206          1
   220          4
   221          1
   232          2
   248          5
   249          1
   354          2
   355          1