##TITLE=Library Entry 79244
##JCAMP-DX=Revision 4.10 
##DATA TYPE=MASS SPECTRUM
##SAMPLE DESCRIPTION=Chemical Concepts
##NAMES=HP
##CAS NAME=N-[2,2,2-Trifluoro-1-(4-hydroxyanilino)-1-(trifluoromethyl)ethyl]
benzamide
##MOLFORM=C16H12F6N2O2
##CAS REGISTRY NO=327099-39-8
##MP= -300
##BP= -300
##MW= 378
##$RETENTION INDEX=0
##$CONDENSED SPECTRUM=NO
##NPOINTS= 172
##XYDATA=(XY..XY) 1 
    33          1
    34          1
    37          7
    38         15
    39         61
    40         16
    41         11
    42          6
    43         11
    44         31
    45          2
    47          4
    48          1
    49          4
    50         59
    51        151
    52         44
    53         56
    54         12
    55         21
    56          7
    57         14
    58          1
    59          1
    60          2
    61          3
    62          8
    63         20
    64         21
    65        107
    66          9
    67          4
    68          6
    69         33
    70          8
    71          9
    72          1
    73          4
    74         15
    75         17
    77        627
    78         49
    79         60
    80         43
    81         48
    82          8
    83          7
    84          4
    85          2
    86          1
    87          2
    88          2
    89          2
    90          3
    91          6
    92         12
    93        121
    94          9
    95          5
    96          7
    97          5
    98          2
    99          1
   100          2
   101          2
   102          3
   103         18
   105        999
   106         72
   107         12
   108         74
   109         86
   110          8
   111          3
   112          6
   113          4
   114          2
   115          2
   116          1
   119          7
   121         56
   122        521
   123         39
   124          3
   125          1
   126          1
   127          1
   128          1
   129          2
   130          1
   132          1
   133          3
   134          4
   135         12
   136          2
   138          1
   139          1
   140          1
   142          3
   143          6
   145          2
   146          1
   147          1
   149          1
   150          1
   151          1
   152          2
   154          1
   155          1
   157          1
   158          2
   159          2
   160          1
   164          1
   167          1
   168          1
   169          2
   171          9
   172          1
   177          1
   178          1
   182          1
   183          2
   184          2
   188        301
   189         27
   190          3
   192          1
   199          1
   201          2
   202          2
   203         10
   204          4
   205          1
   206          2
   207          1
   208          2
   211          1
   212          1
   213          1
   215          1
   217          2
   218          3
   219          1
   222          1
   227          1
   228          3
   229          1
   230          1
   231          2
   232          1
   233          1
   235          1
   238          5
   239          1
   241          1
   250          1
   254          2
   255          6
   256         23
   257        398
   258         41
   259          3
   270          4
   271          1
   275          1
   283          2
   309          5
   310          1
   378         80
   379         12
   380          1