##TITLE=Library Entry 22124
##JCAMP-DX=Revision 4.10 
##DATA TYPE=MASS SPECTRUM
##SAMPLE DESCRIPTION=A.A.Kutin, Moscow, Russia
##NAMES=HP
##CAS NAME=Carbamic acid, N-(4-pyridyl)-, 2-(2-oxazolidinone-3-yl)ethyl este
r
##MOLFORM=C11H13N3O4
##CAS REGISTRY NO=327042-41-1
##MP= -300
##BP= -300
##MW= 251
##$RETENTION INDEX=0
##$CONDENSED SPECTRUM=NO
##NPOINTS= 94
##XYDATA=(XY..XY) 1 
    35          4
    36          7
    37         55
    38        158
    39        423
    40        258
    41        411
    42        674
    43        155
    44        126
    45        103
    46          8
    47          1
    49          2
    50        129
    51        312
    52        130
    53         65
    54        372
    55        163
    56        999
    57        112
    58         42
    59          3
    60          4
    62          8
    63         18
    64         43
    65         84
    66        116
    67         62
    68        154
    69        498
    70        186
    71         23
    72          2
    73         13
    74          7
    75          5
    76         22
    77         49
    78        287
    79         23
    80          8
    81          1
    82          2
    83          4
    84          8
    85          2
    86         18
    87         14
    88         15
    89          2
    91         20
    92         47
    93         43
    94         94
    95         43
    96          3
    97          4
    98          2
    99         12
   100        355
   101         85
   102          6
   103          4
   105         36
   106          8
   107          8
   111          1
   112         22
   113        234
   114         57
   115          5
   116          1
   118          3
   119         19
   120        134
   121        314
   122         23
   123          2
   124          5
   130          8
   132         15
   133          3
   139        243
   140          9
   152          6
   165          1
   171          8
   193         12
   207         93
   208          7
   251          3