##TITLE=Library Entry 37520
##JCAMP-DX=Revision 4.10 
##DATA TYPE=MASS SPECTRUM
##SAMPLE DESCRIPTION=Exported from NIST MS Search
##NAMES=HP
##CAS NAME=Pyrimido[5,4-e]-1,2,4-triazin-7-amine, N,N-dimethyl-5-(trifluorom
ethyl)-
##MOLFORM=C8H7F3N6
##CAS REGISTRY NO=32709-26-5
##MP= -300
##BP= -300
##MW= 244
##$RETENTION INDEX=0
##$CONDENSED SPECTRUM=NO
##NPOINTS= 29
##XYDATA=(XY..XY) 1 
    40         31
    41         48
    42        161
    43         68
    44        106
    45         78
    51         31
    52         34
    53         42
    55         85
    56         68
    57         31
    60         38
    69        270
    70        999
    71         59
    77         36
    94         42
   100         55
   105         42
   108         34
   165         53
   188         38
   189         72
   201        106
   216        185
   217         29
   244        270
   245         42