##TITLE=Library Entry 16440
##JCAMP-DX=Revision 4.10 
##DATA TYPE=MASS SPECTRUM
##SAMPLE DESCRIPTION=Asinex Ltd, Moscow, Russia
##NAMES=HP
##CAS NAME=Acetic acid, 2-[3-(4-bromophenyl)-3-oxopropyl](methyl)amino-
##MOLFORM=C12H14BrNO3
##CAS REGISTRY NO=327098-01-1
##MP= -300
##BP= -300
##MW= 299
##$RETENTION INDEX=0
##$CONDENSED SPECTRUM=NO
##NPOINTS= 94
##XYDATA=(XY..XY) 1 
    39         35
    40         34
    41         62
    42        483
    43        221
    44        999
    45         65
    49         14
    50        285
    51         77
    52         11
    53         29
    54          7
    55        157
    56         20
    57         77
    58        119
    59          1
    60         14
    61         13
    62         13
    63         10
    69         20
    70         27
    71         29
    72          4
    73         39
    74        224
    75        266
    76        253
    77         64
    79          6
    80          0
    81         12
    82          4
    84         13
    86          7
    87          5
    88          6
    89         92
    90          8
    91          5
    92          2
    93          1
    98         16
    99          1
   101         46
   102        179
   103         37
   104         42
   107          0
   109          0
   110          0
   111          4
   112          0
   113          0
   115          2
   116         13
   118          8
   123          2
   128          0
   129         15
   130          3
   131        160
   132         34
   134          6
   154          5
   155        270
   156         25
   157        283
   158         20
   169          2
   171          1
   175          0
   182         35
   183        710
   184         95
   185        658
   186         48
   210        198
   211         51
   212        183
   213         45
   214          0
   237          0
   238          0
   239          2
   240          0
   242          0
   243          0
   254         85
   255          9
   256         71
   257          4