##TITLE=Library Entry 83400
##JCAMP-DX=Revision 4.10 
##DATA TYPE=MASS SPECTRUM
##SAMPLE DESCRIPTION=A.A.Kutin, Moscow, Russia
##NAMES=HP
##CAS NAME=Acetic acid, (4-methoxyphenyl)(4-methyl-2,9-dioxo-2H-furo[2,3-H]-
1-benzopyran-8(9H)-ylidene)hydrazide
##MOLFORM=C21H16N2O6
##CAS REGISTRY NO=327043-31-2
##MP= -300
##BP= -300
##MW= 392
##$RETENTION INDEX=0
##$CONDENSED SPECTRUM=NO
##NPOINTS= 162
##XYDATA=(XY..XY) 1 
    33         18
    34          5
    36          2
    38          6
    39         29
    40         43
    41         51
    43        737
    44         26
    45         21
    50         24
    51         74
    52         38
    53         42
    54          3
    55         22
    56          7
    57         16
    58          3
    59          1
    60         11
    61          6
    62         14
    63         62
    64        112
    65         49
    66          7
    67          8
    68          5
    69          8
    70          6
    71          9
    74         15
    75         54
    77        586
    78         70
    79         26
    80         14
    81          4
    82          3
    83          8
    85          6
    86          1
    87          9
    88          5
    89          9
    90         28
    92        290
    93         39
    94          1
    95          1
    97          9
    99          7
   100          1
   101         46
   102         50
   103         35
   104          5
   107        999
   108         45
   109          6
   111          3
   113         12
   114         12
   115          9
   117          9
   118          2
   120          1
   121          9
   122          6
   123          8
   127          7
   129         25
   130         32
   131         20
   133          3
   135        361
   136         14
   139          4
   140          1
   141          2
   143          3
   144          3
   145          5
   146          3
   148          2
   149          4
   151          2
   152          7
   153          0
   156          1
   157         20
   158         37
   159        278
   160         29
   162          1
   163          1
   164          0
   165         26
   166          4
   167          2
   169          2
   171          1
   172          3
   173          3
   174          4
   176          4
   178          3
   179          4
   184          2
   185         21
   186        108
   187         17
   188          4
   189          1
   192          1
   193          5
   195          5
   196          0
   200          1
   202          6
   205          4
   206          2
   207          4
   213          2
   214          3
   215        136
   216         27
   218          2
   221          2
   222          1
   223          2
   224          3
   231          5
   235          1
   237          2
   243         12
   249          1
   251          5
   265          5
   273          3
   278          2
   284          1
   293         16
   294         32
   295          5
   303          8
   304          3
   307          1
   319          1
   320          2
   321          4
   322          2
   350        637
   351        121
   352         18
   353          1
   364          1
   391          1
   392        163
   393         34
   394          4