##TITLE=Library Entry 66222
##JCAMP-DX=Revision 4.10 
##DATA TYPE=MASS SPECTRUM
##SAMPLE DESCRIPTION=Chemical Concepts
##NAMES=HP
##CAS NAME=Hydrocinnamanilide
##MOLFORM=C15H15NO
##CAS REGISTRY NO=3271-81-6
##MP= -300
##BP= -300
##MW= 225
##$RETENTION INDEX=0
##$CONDENSED SPECTRUM=NO
##NPOINTS= 91
##XYDATA=(XY..XY) 1 
    26          1
    27         24
    29          0
    30          0
    36          0
    37          1
    38          6
    39         42
    41          8
    42          1
    43          1
    44          0
    49          0
    50         11
    51         43
    52         11
    53          4
    54          2
    55          8
    56          0
    61          0
    62          3
    63         19
    64         10
    65         95
    66         43
    67          3
    73          0
    74          2
    75          2
    76          4
    77        106
    78         26
    79         44
    80          2
    81          0
    82          0
    86          0
    87          0
    89          5
    90          2
    91        252
    92         37
    93        999
    94         68
    95          2
   101          0
   102          3
   103         28
   104         16
   105        103
   106         17
   107          1
   113          1
   115          0
   117          0
   118          2
   119          2
   120          3
   121          0
   128          0
   130          0
   131          7
   132          2
   133          4
   134          0
   146          0
   147          0
   148          1
   152          0
   153          0
   165          0
   166          0
   167          9
   168          1
   169          0
   170          0
   178          0
   179          0
   180          8
   181          2
   182          2
   183          0
   196          0
   206          0
   208          1
   223          0
   224          2
   225        156
   226         27
   227          2