##TITLE=Library Entry 63855
##JCAMP-DX=Revision 4.10 
##DATA TYPE=MASS SPECTRUM
##SAMPLE DESCRIPTION=A.A.Kutin, Moscow, Russia
##NAMES=HP
##CAS NAME=Thiourea, N-allyl-N'-(1,2-dihydro-1-benzyl-2-pyridylideno)-
##MOLFORM=C16H17N3S
##CAS REGISTRY NO=327169-47-1
##MP= -300
##BP= -300
##MW= 283
##$RETENTION INDEX=0
##$CONDENSED SPECTRUM=NO
##NPOINTS= 201
##XYDATA=(XY..XY) 1 
    33          1
    34          1
    35          0
    36          0
    37          2
    38         10
    39         91
    40         17
    41        111
    42          5
    43          3
    44          4
    45         33
    46          2
    47          3
    48          0
    49          0
    50          9
    51         51
    52         20
    53          6
    54          6
    55          4
    56         35
    57          3
    58          1
    59          3
    60          5
    61          1
    62          4
    63         22
    64         13
    65        113
    66          9
    67          6
    68          1
    69          2
    70          2
    71          3
    72          5
    73         34
    75          6
    76          4
    78        195
    79         25
    80          4
    81          2
    82          1
    83          3
    84          2
    85          0
    86          1
    87          1
    88          4
    89         28
    91        999
    92         75
    94         14
    95          4
    96          1
    97          1
    98          4
    99          3
   100          1
   101          0
   102          1
   103          1
   104          4
   105          7
   106          5
   107          3
   108          0
   109          1
   110          1
   111          1
   112          2
   113          1
   114          0
   115          3
   116          2
   117          2
   118          2
   119          7
   120         18
   121          8
   122          4
   123          4
   124          3
   125          4
   126          1
   127          2
   128          3
   129          2
   130          1
   131          3
   132          2
   133          3
   134          1
   137         85
   138          6
   139          5
   140          1
   141          1
   142          0
   143          0
   144          0
   145          0
   146          2
   147          0
   148          0
   149          0
   151          4
   152          1
   153          0
   154          2
   155          1
   156          1
   157          1
   158          2
   159          3
   160          5
   161          0
   162          0
   163          0
   164          0
   165          0
   166          3
   167         12
   168         27
   169          4
   170          1
   171          1
   172          0
   174          0
   175          0
   176          0
   177          2
   178          1
   179          0
   180          0
   181          5
   182          3
   183         14
   184          3
   185          0
   186          0
   188          0
   189          0
   190          0
   191          0
   192          7
   193          2
   194          2
   195         28
   196          4
   197          0
   198          0
   199          0
   200          0
   201          0
   206          0
   207          0
   208          2
   209          2
   210          4
   211          1
   212          0
   213          0
   215          0
   216          0
   220          0
   221          0
   222          0
   224          1
   225          3
   227        246
   228         37
   229         12
   230          1
   231          0
   233          0
   234          0
   236          0
   240          0
   242          1
   243          0
   248          0
   250         17
   251          3
   252          0
   262          0
   266          0
   268         26
   269          4
   270          1
   271          0
   280          0
   283        114
   284         20
   285          6
   286          0