##TITLE=Library Entry 82545
##JCAMP-DX=Revision 4.10 
##DATA TYPE=MASS SPECTRUM
##SAMPLE DESCRIPTION=Chemical Concepts
##NAMES=HP
##CAS NAME=Ethyl 3,3,3-trifluoro-2-hydroxy-2-nicotinamidopropionate
##MOLFORM=C11H11F3N2O4
##CAS REGISTRY NO=327100-40-3
##MP= -300
##BP= -300
##MW= 292
##$RETENTION INDEX=0
##$CONDENSED SPECTRUM=NO
##NPOINTS= 97
##XYDATA=(XY..XY) 1 
    33          9
    34          6
    36          2
    37          8
    38         11
    39         23
    40         46
    41         17
    42          8
    43         27
    44         71
    45         13
    47          7
    48          1
    49         12
    50        132
    51        269
    52         62
    53         18
    54          4
    55         13
    56          7
    57         15
    58          1
    60          2
    61          2
    62          1
    63          3
    65          5
    66          4
    67          7
    69        159
    70         12
    71         10
    73          8
    74          1
    75          9
    76         18
    78        587
    79         52
    80          3
    81          3
    82          2
    83          2
    85          5
    86          1
    87          2
    88          1
    90          1
    91          3
    92          1
    93          5
    94          9
    96          1
    97          9
    99         21
   100          1
   103          3
   104         11
   105         63
   106        999
   107         66
   108          6
   109          3
   110          2
   111          2
   112          4
   113          3
   114          3
   115          4
   119          3
   120          3
   122        128
   123         15
   124          2
   126          1
   129          1
   133          1
   135          1
   136          1
   139          1
   140          1
   149          6
   150          2
   151          2
   152          1
   165          2
   171          5
   177          1
   200          3
   202          1
   203          1
   205          1
   217          3
   219        241
   220         24
   221          1