##TITLE=Library Entry 50353
##JCAMP-DX=Revision 4.10 
##DATA TYPE=MASS SPECTRUM
##SAMPLE DESCRIPTION=NIST Mass Spectrometry Data Center, 1994
##NAMES=HP
##CAS NAME=2-Ethoxy-3-methylpyrazine
##MOLFORM=C7H10N2O
##CAS REGISTRY NO=32737-14-7
##MP= -300
##BP= -300
##MW= 138
##$RETENTION INDEX=1029
##$CONDENSED SPECTRUM=NO
##NPOINTS= 66
##XYDATA=(XY..XY) 1 
    12          4
    13          8
    14         33
    15        142
    16          4
    18          3
    24          2
    25         26
    26        352
    27        770
    28        418
    29        358
    30         18
    31          4
    36          2
    37         30
    38         62
    39        110
    40        725
    41        229
    42        545
    43         42
    44          8
    45          3
    47          2
    50          5
    51         54
    52        176
    53        127
    54        288
    55        195
    56         33
    63          6
    64         13
    65         24
    66         66
    67         69
    68        204
    69         29
    70          4
    77          3
    78          3
    79         10
    80          3
    81        999
    82        862
    83         44
    93        225
    94        254
    95        153
    96         11
   109        140
   110        653
   111         40
   112          2
   119         13
   120          2
   121          5
   122          2
   123        438
   124         29
   125          2
   135          1
   138        401
   139         33
   140          3