##TITLE=Library Entry 49791
##JCAMP-DX=Revision 4.10 
##DATA TYPE=MASS SPECTRUM
##SAMPLE DESCRIPTION=CARL DJERASSI DEPT OF CHEM STANFORD UNIV STANFORD CALIF
 94305
##NAMES=HP
##CAS NAME=Cyclohexene, 3-(2-methylpropoxy)-
##MOLFORM=C10H18O
##CAS REGISTRY NO=32730-40-8
##MP= -300
##BP= -300
##MW= 154
##$RETENTION INDEX=0
##$CONDENSED SPECTRUM=NO
##NPOINTS= 35
##XYDATA=(XY..XY) 1 
    40         40
    41        640
    42         70
    43        360
    44         20
    50         30
    51         80
    52         60
    53        230
    54        150
    55        110
    56         40
    57        350
    58         20
    63         10
    65         40
    66         30
    67        200
    68         30
    69         50
    70        520
    71         20
    72        180
    77         80
    78         20
    79        200
    80        110
    81        999
    82        150
    83        140
    97        100
    98        370
    99        210
   100         20
   126         10