##TITLE=Library Entry 27911
##JCAMP-DX=Revision 4.10 
##DATA TYPE=MASS SPECTRUM
##SAMPLE DESCRIPTION=NIST Mass Spectrometry Data Center, 1990.
##NAMES=HP
##CAS NAME=Pentanal, 2,3-dimethyl-
##MOLFORM=C7H14O
##CAS REGISTRY NO=32749-94-3
##MP= -300
##BP= -300
##MW= 114
##$RETENTION INDEX=1258
##$CONDENSED SPECTRUM=NO
##NPOINTS= 40
##XYDATA=(XY..XY) 1 
    14          7
    15         24
    18          6
    26         46
    27        331
    28         87
    29        487
    30         37
    31         12
    37          5
    38         26
    39        231
    40         53
    41        572
    42         71
    43        813
    44         29
    45          5
    50         18
    51         25
    52          9
    53         46
    54         14
    55        114
    56        121
    57        436
    58        999
    59         39
    65          7
    67         16
    69         17
    70         14
    71          5
    72          6
    79          4
    81          8
    83          4
    85         87
    86          7
   114         13