##TITLE=Library Entry 23177
##JCAMP-DX=Revision 4.10 
##DATA TYPE=MASS SPECTRUM
##SAMPLE DESCRIPTION=Chemical Concepts
##NAMES=HP
##CAS NAME=2H-Azepin-2-one, 5-(1,1-dimethylethyl)hexahydro-
##MOLFORM=C10H19NO
##CAS REGISTRY NO=32741-89-2
##MP= -300
##BP= -300
##MW= 169
##$RETENTION INDEX=0
##$CONDENSED SPECTRUM=NO
##NPOINTS= 90
##XYDATA=(XY..XY) 1 
    26         15
    27        277
    28        195
    29        397
    30        869
    31         13
    37          0
    38          4
    39        235
    40         47
    41        716
    42         86
    43        131
    44         34
    45          4
    46          1
    50          4
    51         18
    52         13
    53        109
    54        145
    55        381
    56        151
    57        999
    58         49
    59         16
    60         15
    63          7
    64          0
    65         20
    66         11
    67        112
    68         43
    69        105
    70         58
    71         58
    72        111
    73          5
    77         13
    78          2
    79         20
    80          9
    81         38
    82         31
    83        107
    84        167
    85        200
    86         14
    87          1
    91          4
    92          0
    93          4
    94          6
    95         20
    96         22
    97         15
    98        176
    99         13
   100          6
   105          0
   107          3
   108          0
   109         11
   110          7
   111          6
   112        103
   113        196
   114         32
   115          1
   119          0
   123          4
   124          4
   125         23
   126         73
   127          7
   128          0
   136          0
   137          3
   138          0
   139          0
   140          7
   141        271
   142         26
   143          0
   152         11
   153          0
   154         45
   155          4
   169         41
   170          4