##TITLE=Library Entry 54899
##JCAMP-DX=Revision 4.10 
##DATA TYPE=MASS SPECTRUM
##SAMPLE DESCRIPTION=ASES Database, Dalian Institute, P.R. China
##NAMES=HP
##CAS NAME=2-(1-Methylpropoxy)-tetrahydropyran
##MOLFORM=C9H18O2
##CAS REGISTRY NO=32767-69-4
##MP= -300
##BP= -300
##MW= 158
##$RETENTION INDEX=0
##$CONDENSED SPECTRUM=NO
##NPOINTS= 17
##XYDATA=(XY..XY) 1 
    29         79
    41        198
    42         11
    43         82
    44         34
    45         22
    55         79
    56        627
    57        267
    67         92
    83         22
    84         11
    85        999
    86         45
   101        232
   102         46
   129        184