##TITLE=Library Entry 109897
##JCAMP-DX=Revision 4.10 
##DATA TYPE=MASS SPECTRUM
##SAMPLE DESCRIPTION=Japan AIST/NIMC Database- Spectrum MS-NW-8530
##NAMES=HP
##CAS NAME=Benzene, 1,2-dichloro-3-methyl-
##MOLFORM=C7H6Cl2
##CAS REGISTRY NO=32768-54-0
##MP= -300
##BP= -300
##MW= 160
##$RETENTION INDEX=1166
##$CONDENSED SPECTRUM=NO
##NPOINTS= 77
##XYDATA=(XY..XY) 1 
    15          1
    26          3
    27          7
    28          1
    35          3
    36          9
    37         14
    38         19
    39         59
    40          4
    41          2
    43         29
    44         77
    45          1
    47          3
    48          2
    49         14
    50         32
    51         26
    52          3
    53          1
    60          8
    61         36
    62        116
    63        151
    64         18
    65          9
    71          1
    72          9
    73         56
    74         23
    75         33
    76          2
    77          2
    79          2
    80          9
    81          6
    82          1
    83          3
    84         14
    85         19
    86         21
    87         23
    88          9
    89        304
    90         43
    91          3
    96          5
    97         21
    98          4
    99         56
   100          3
   101         16
   102          1
   107          5
   108          2
   109          9
   110          2
   111          4
   121          1
   122          1
   123         37
   124         61
   125        999
   126         95
   127        315
   128         23
   133          9
   135          6
   137          1
   159         65
   160        416
   161         71
   162        264
   163         26
   164         42
   165          3