##TITLE=Library Entry 100311
##JCAMP-DX=Revision 4.10 
##DATA TYPE=MASS SPECTRUM
##SAMPLE DESCRIPTION=Japan AIST/NIMC Database- Spectrum MS-IW-4901
##NAMES=HP
##CAS NAME=Disiloxane, 1,1,3,3-tetramethyl-
##MOLFORM=C4H14OSi2
##CAS REGISTRY NO=3277-26-7
##MP= -300
##BP= -300
##MW= 134
##$RETENTION INDEX=0
##$CONDENSED SPECTRUM=NO
##NPOINTS= 64
##XYDATA=(XY..XY) 1 
    15          3
    27          1
    28          5
    29          9
    31         20
    36          2
    41          3
    42         10
    43         49
    44         21
    45         70
    46          4
    47          7
    51         27
    52         31
    53          5
    55          4
    56          3
    57          9
    58          9
    59        162
    60         13
    61          9
    66         21
    67          3
    68          1
    69          1
    71          1
    72         10
    73        212
    74         18
    75         27
    76          1
    77          1
    86          4
    87         19
    88          6
    89         19
    90          2
    91          3
    96          1
    97          1
   101          3
   102          3
   103         75
   104          9
   105         12
   106          1
   115          3
   116          1
   117         40
   118         11
   119        999
   120        137
   121         78
   122          6
   123          1
   131          9
   132         10
   133        747
   134        111
   135         81
   136          9
   137          3