##TITLE=Library Entry 71159
##JCAMP-DX=Revision 4.10 
##DATA TYPE=MASS SPECTRUM
##SAMPLE DESCRIPTION=James Little,Eastman Chem.Co.,Kingsport,TN
##NAMES=HP
##CAS NAME=Acetonitrile, isothiocyanato-
##MOLFORM=C3H2N2S
##CAS REGISTRY NO=32772-75-1
##MP= -300
##BP= -300
##MW= 98
##$RETENTION INDEX=0
##$CONDENSED SPECTRUM=NO
##NPOINTS= 27
##XYDATA=(XY..XY) 1 
    12          9
    18         19
    26         16
    27         27
    38         51
    39         48
    40        247
    44        116
    45         86
    48         28
    53         10
    54          5
    58         93
    59         24
    60          9
    66          7
    70        103
    71        417
    72        109
    73         23
    76         13
    81          3
    96         10
    97        284
    98        999
    99         64
   100         49