##TITLE=Library Entry 30076
##JCAMP-DX=Revision 4.10 
##DATA TYPE=MASS SPECTRUM
##SAMPLE DESCRIPTION=Chemical Concepts
##NAMES=HP
##CAS NAME=6-Hepten-2-ol, 2,6-dimethyl-
##MOLFORM=C9H18O
##CAS REGISTRY NO=32779-58-1
##MP= -300
##BP= -300
##MW= 142
##$RETENTION INDEX=996
##$CONDENSED SPECTRUM=NO
##NPOINTS= 82
##XYDATA=(XY..XY) 1 
    22          0
    26          3
    27         74
    29         63
    30          1
    31         84
    35         10
    36         57
    37          4
    38         20
    39         86
    40         18
    41        295
    42         21
    43        283
    44          4
    45         12
    49          2
    50          3
    51          8
    52          3
    53         36
    54          9
    55         73
    56        273
    57         30
    58         25
    59        999
    60         35
    61          2
    62          0
    63          4
    64          2
    65          6
    66          4
    67         58
    68         87
    69        343
    70         21
    71         48
    72          2
    73          2
    74          1
    75          1
    76          2
    77         12
    78          2
    79          6
    80          4
    81         33
    82          9
    83          3
    84         48
    85          6
    86          0
    89         10
    90          0
    91          5
    92          0
    93          3
    94          2
    95          9
    96          4
    97          1
    99          1
   101          1
   103          1
   104          1
   105          1
   106          0
   107          2
   108          1
   109        209
   110         19
   111          1
   114         10
   115          0
   124         40
   125         12
   126          1
   127         43
   128          4