##TITLE=Library Entry 54343
##JCAMP-DX=Revision 4.10 
##DATA TYPE=MASS SPECTRUM
##SAMPLE DESCRIPTION=R.O. MUMMA, PENN STATE UNIV, PA, USA
##NAMES=HP
##CAS NAME=L-Glutamic acid, N-[(2,4-dichlorophenoxy)acetyl]-
##MOLFORM=C13H13Cl2NO6
##CAS REGISTRY NO=32773-59-4
##MP= -300
##BP= -300
##MW= 349
##$RETENTION INDEX=0
##$CONDENSED SPECTRUM=NO
##NPOINTS= 64
##XYDATA=(XY..XY) 1 
    41        920
    42        990
    43        740
    44        440
    45        290
    63        830
    68        680
    70        230
    73        300
    74        260
    75        330
    82        470
    84        999
    85        720
    98        510
    99        220
   100        220
   102        240
   109        320
   110        260
   111        420
   126        210
   127         70
   128        160
   133        240
   134         50
   135        150
   145        350
   146         90
   147        290
   161        190
   162        999
   163        230
   164        940
   170        111
   175        400
   176         90
   177        260
   210        120
   211         20
   212        140
   220        120
   221         20
   222        100
   258         80
   259         20
   260         60
   268         60
   270         40
   297        300
   298         40
   299         90
   304         40
   305         10
   306         20
   314        999
   315        220
   316        440
   331         70
   332         20
   333         50
   349         70
   350         20
   351         40