##TITLE=Library Entry 54550
##JCAMP-DX=Revision 4.10 
##DATA TYPE=MASS SPECTRUM
##SAMPLE DESCRIPTION=NIST Mass Spectrometry Data Center, 1994
##NAMES=HP
##CAS NAME=(S)-(+)-2',3'-Dideoxyribonolactone
##MOLFORM=C5H8O3
##CAS REGISTRY NO=32780-06-6
##MP= -300
##BP= -300
##MW= 116
##$RETENTION INDEX=0
##$CONDENSED SPECTRUM=NO
##NPOINTS= 38
##XYDATA=(XY..XY) 1 
    12          3
    13          2
    14         16
    15         25
    16          1
    17          2
    25          6
    26         61
    27        171
    28         94
    29        761
    30         28
    31        250
    37          6
    38         14
    39         57
    40          8
    41         39
    42         76
    43         76
    44         54
    45          6
    50          4
    51          4
    53          6
    54          3
    55         36
    56         54
    57        169
    58         13
    60          4
    74          2
    85        999
    86        132
    87          9
    88          2
    98         14
   116          4