##TITLE=Library Entry 31466
##JCAMP-DX=Revision 4.10 
##DATA TYPE=MASS SPECTRUM
##SAMPLE DESCRIPTION=J.E. WILKINSON S-CUBED, SAN DIEGO, CA.
##NAMES=HP
##CAS NAME=Allyl 2,4,6-tribromophenyl ether
##MOLFORM=C9H7Br3O
##CAS REGISTRY NO=3278-89-5
##MP= -300
##BP= -300
##MW= 368
##$RETENTION INDEX=0
##$CONDENSED SPECTRUM=NO
##NPOINTS= 172
##XYDATA=(XY..XY) 1 
    47          1
    48          1
    49         57
    50         96
    51         88
    52         10
    53        120
    54          0
    55         14
    56          1
    57          0
    60         55
    61        521
    62        999
    63        145
    64          2
    65          4
    66          3
    69          3
    70          0
    71          0
    72          1
    73         76
    74        287
    75        106
    76         31
    77         82
    78          6
    79         15
    80          4
    81         14
    82          3
    84          4
    85          0
    86          4
    87          2
    88          1
    89          5
    90         25
    91         15
    92          0
    93          3
    98          1
    99          0
   100          1
   101         17
   102        100
   103        107
   104         14
   105          2
   106          2
   107          0
   110          0
   111          2
   112          0
   113          0
   115          5
   116         33
   117         24
   118         32
   119         12
   125          0
   128          3
   129          3
   130          9
   131        125
   132        103
   133          4
   139          1
   140         37
   141        450
   142         67
   143        441
   144         16
   145          0
   152          4
   153         42
   154         22
   155         50
   156         17
   157          2
   158          1
   167          0
   168          0
   169         10
   170          6
   171         16
   172          5
   173         10
   175          2
   180          3
   181          2
   182         13
   183          5
   184          4
   185          1
   195         26
   196         13
   197         65
   198         11
   199         24
   208          0
   209         75
   210        348
   211        111
   212        340
   213         21
   219          3
   220         44
   221         24
   222        105
   223         28
   224         41
   225          4
   232          6
   233          2
   234         22
   235          4
   236          8
   237          1
   247          0
   248         31
   249          3
   250         79
   251          4
   252         31
   253          1
   261          0
   262          0
   263          2
   264          2
   265          1
   266          0
   275          2
   276          0
   277          6
   278          0
   279          1
   287          2
   288          1
   289         88
   290         22
   291        155
   292         39
   293         62
   294          9
   299         59
   300          0
   301        209
   302          2
   303        205
   304          2
   305         51
   313          0
   315          0
   327         49
   328         26
   329        179
   330        110
   331        177
   332        107
   333         48
   334         22
   341          0
   343          0
   368         29
   369          0
   370        121
   371          3
   372        116
   373          2
   374         25