##TITLE=Library Entry 1274
##JCAMP-DX=Revision 4.10 
##DATA TYPE=MASS SPECTRUM
##SAMPLE DESCRIPTION=Chemical Concepts
##NAMES=HP
##CAS NAME=Benzamide, N-(2-phenylethyl)-
##MOLFORM=C15H15NO
##CAS REGISTRY NO=3278-14-6
##MP= -300
##BP= -300
##MW= 225
##$RETENTION INDEX=0
##$CONDENSED SPECTRUM=NO
##NPOINTS= 82
##XYDATA=(XY..XY) 1 
    26          1
    27         11
    28         20
    29          3
    30        999
    31         16
    32          0
    35         11
    36        111
    37          4
    38         36
    39         32
    40          3
    41         10
    42          8
    43          4
    44          4
    49          0
    50         16
    51         64
    52         10
    53          3
    54          1
    55          0
    56          0
    57          1
    58          0
    59          0
    60          1
    61          1
    62          4
    63         16
    64          4
    65         52
    66          4
    67          0
    73          4
    74          3
    75          4
    76         10
    77        209
    78         25
    79          6
    80          0
    86          0
    87          1
    89         10
    90          5
    91        112
    92         38
    93          4
   101          0
   102          3
   103         18
   104        230
   105        528
   106         42
   107          2
   116          0
   117          2
   118          4
   119          4
   120          5
   121         24
   122          4
   123          0
   132          0
   133          0
   134         75
   135          6
   136          0
   148          5
   149          0
   152          0
   160          0
   165          1
   210          1
   211          0
   224          0
   225         91
   226         15
   227          1