##TITLE=Library Entry 33152
##JCAMP-DX=Revision 4.10 
##DATA TYPE=MASS SPECTRUM
##SAMPLE DESCRIPTION=F. TURECEK,HEYROVSKY INST PHYS CHEM & ELECTROCHEM,PRAGU
E,CZECH
##NAMES=HP
##CAS NAME=6,7-Epoxy-trans-syn-tricyclo[7.3.0.0(2,6)]dodecane, (+-) (6S, 7R)
-
##MOLFORM=C12H18O
##CAS REGISTRY NO=32789-49-4
##MP= -300
##BP= -300
##MW= 178
##$RETENTION INDEX=0
##$CONDENSED SPECTRUM=NO
##NPOINTS= 85
##XYDATA=(XY..XY) 1 
    38         10
    39        390
    40         70
    41        630
    42         40
    43         80
    50         20
    51         80
    52         50
    53        170
    54         60
    55        320
    56         30
    57         30
    63         40
    64         20
    65        190
    66        240
    67        999
    68        140
    69         80
    70         30
    71         20
    77        310
    78        120
    79        950
    80        330
    81        470
    82        150
    83        160
    84        170
    85         20
    91        800
    92        410
    93        830
    94        320
    95        420
    96         90
    97        180
    98         20
   103         30
   104         80
   105        260
   106        270
   107        290
   108        130
   109        100
   110        150
   111         30
   115         60
   116         20
   117        330
   118         60
   119        450
   120         70
   121        220
   122        180
   123         80
   124         10
   128         20
   129         40
   130         10
   131        340
   132        190
   133        260
   134        990
   135        370
   136         80
   137        100
   138         10
   145         40
   146         10
   147         80
   148         20
   149        390
   150        980
   151        110
   159         40
   160        180
   161         40
   162         40
   163         60
   177        270
   178        290
   179         30