##TITLE=Library Entry 48383
##JCAMP-DX=Revision 4.10 
##DATA TYPE=MASS SPECTRUM
##SAMPLE DESCRIPTION=Chemical Concepts
##NAMES=HP
##CAS NAME=Phenol, 2-((4H-1,2,4-triazol-4-ylimino)methyl)-
##MOLFORM=C9H8N4O
##CAS REGISTRY NO=32787-84-1
##MP= -300
##BP= -300
##MW= 188
##$RETENTION INDEX=0
##$CONDENSED SPECTRUM=NO
##NPOINTS= 83
##XYDATA=(XY..XY) 1 
    33          1
    34          1
    36          9
    37         24
    38         33
    39        112
    40         73
    41        150
    42         82
    43         50
    44          7
    45          5
    46          1
    49         16
    50        570
    52        622
    53        204
    54         53
    55         34
    56          1
    57          1
    61         31
    62        146
    63        304
    64        173
    65        372
    66         69
    67         18
    69         32
    70        323
    71          9
    73         14
    74         59
    75         64
    76        106
    77        721
    78        999
    79        120
    80          9
    81          2
    84          3
    85          2
    86          9
    87         14
    88          8
    89         15
    91        513
    92        102
    93         77
    94         11
    95          1
    99          1
   102        136
   105        834
   106        169
   107          9
   108          5
   114          1
   115          2
   116          3
   117          7
   119        239
   120        322
   121         27
   122          6
   129          1
   131         17
   132        209
   133         77
   134         10
   135          2
   136          2
   145          2
   147          1
   159          5
   160          3
   161          1
   171          4
   172          1
   186          7
   188        888
   189        100
   190          7