##TITLE=Library Entry 12009
##JCAMP-DX=Revision 4.10 
##DATA TYPE=MASS SPECTRUM
##SAMPLE DESCRIPTION=Chemical Concepts
##NAMES=HP
##CAS NAME=Acetoxymalonic acid, dimethyl ester
##MOLFORM=C7H10O6
##CAS REGISTRY NO=32786-27-9
##MP= -300
##BP= -300
##MW= 190
##$RETENTION INDEX=0
##$CONDENSED SPECTRUM=NO
##NPOINTS= 138
##XYDATA=(XY..XY) 1 
    25          1
    26          7
    27         16
    28          1
    29        189
    30         27
    31        109
    33        162
    34          2
    35          0
    36          0
    37          0
    38          0
    39          3
    40          4
    41         60
    42        109
    43        999
    44        106
    45         57
    46          1
    47         37
    48          1
    49          1
    50          0
    51          1
    52          0
    53          1
    54          1
    55          5
    56          4
    57          6
    58          8
    59        188
    60         18
    61          6
    62          0
    63          0
    64          0
    65          0
    66          0
    67          1
    68          4
    69        119
    70         10
    71          8
    72          9
    73          6
    74          6
    75         56
    76          5
    77          2
    78          0
    79          1
    80          0
    81          1
    82          0
    83          1
    84          1
    85          1
    86          1
    87          4
    88          4
    89        118
    90         20
    91         11
    92          5
    93          1
    94          0
    95          1
    96          0
    97          1
    98          0
    99          0
   100         17
   101          3
   102         13
   103         33
   104        288
   105         17
   106          3
   107          1
   108          1
   109          1
   110          0
   111          0
   112          0
   113          1
   114          0
   115          2
   116          7
   117          2
   118          1
   119          0
   120          0
   121          0
   122          0
   123          0
   124          0
   125          0
   126          0
   127          1
   128          0
   129          1
   130          2
   131        528
   132         39
   133          8
   134          0
   135          0
   136          0
   137          0
   141          0
   142          0
   143          1
   144          0
   145          2
   146          0
   147          1
   148        412
   149         31
   150          6
   151          0
   152          0
   158          0
   159        187
   160         14
   161          3
   162          1
   173          1
   174          0
   175          0
   178          0
   188          0
   189          0
   190          3
   191          3
   192          0