##TITLE=Library Entry 49590
##JCAMP-DX=Revision 4.10 
##DATA TYPE=MASS SPECTRUM
##SAMPLE DESCRIPTION=F. TURECEK,HEYROVSKY INST PHYS CHEM & ELECTROCHEM,PRAGU
E,CZECH
##NAMES=HP
##CAS NAME=trans-syn-Tricyclo[7.3.0.0(2,6)]-8-dodecene
##MOLFORM=C12H18
##CAS REGISTRY NO=32789-54-1
##MP= -300
##BP= -300
##MW= 162
##$RETENTION INDEX=0
##$CONDENSED SPECTRUM=NO
##NPOINTS= 63
##XYDATA=(XY..XY) 1 
    38         20
    39        180
    40         30
    41        370
    42         20
    43         50
    50         20
    51         90
    52         40
    53        160
    54         20
    55        110
    56         20
    57         20
    63         30
    64         20
    65        170
    66        100
    67        290
    68         30
    69         60
    70         20
    71         40
    77        330
    78        130
    79        830
    80        999
    81        610
    82         50
    83         30
    89         20
    91        990
    92        340
    93        400
    94        330
    95        140
    96         40
    97         10
   103         70
   104         30
   105        330
   106        140
   107         50
   108         50
   109         30
   115         80
   116         20
   117         90
   118         50
   119        850
   120        410
   121        360
   122         40
   131         60
   133        810
   134        690
   135         80
   147         70
   148         10
   161        110
   162        830
   163         90
   164         10