##TITLE=Library Entry 55747
##JCAMP-DX=Revision 4.10 
##DATA TYPE=MASS SPECTRUM
##SAMPLE DESCRIPTION=Exported from NIST MS Search
##NAMES=HP
##CAS NAME=Propylamine, 3-chloro-2,2,3-trifluoro-N,N,1,1-tetramethyl-
##MOLFORM=C7H13ClF3N
##CAS REGISTRY NO=32786-66-6
##MP= -300
##BP= -300
##MW= 203
##$RETENTION INDEX=0
##$CONDENSED SPECTRUM=NO
##NPOINTS= 16
##XYDATA=(XY..XY) 1 
    14         80
    27         30
    28         70
    39         40
    41         40
    42        140
    43         40
    44        110
    56        110
    70         50
    71         30
    76         70
    86        999
   121         30
   188         30
   203          6