##TITLE=Library Entry 25624
##JCAMP-DX=Revision 4.10 
##DATA TYPE=MASS SPECTRUM
##SAMPLE DESCRIPTION=G. GATTOW, INST. ANORG. CHEM., UNIV. MAINZ, MAINZ, W. G
ER.
##NAMES=HP
##CAS NAME=tert-Butyl methyl carbonate
##MOLFORM=C6H12O3
##CAS REGISTRY NO=32793-05-8
##MP= -300
##BP= -300
##MW= 132
##$RETENTION INDEX=0
##$CONDENSED SPECTRUM=NO
##NPOINTS= 8
##XYDATA=(XY..XY) 1 
    43        123
    44        623
    56        345
    57        999
    59        150
    73        753
   117        247
   132        103