##TITLE=Library Entry 68740
##JCAMP-DX=Revision 4.10 
##DATA TYPE=MASS SPECTRUM
##SAMPLE DESCRIPTION=Chemical Concepts
##NAMES=HP
##CAS NAME=5-(2-Fluoroanilino)furazano[3,4-b][1,2,4]triazolo[4',3'-d]pyrazin
e
##MOLFORM=C11H6FN7O
##CAS REGISTRY NO=327983-20-0
##MP= -300
##BP= -300
##MW= 271
##$RETENTION INDEX=0
##$CONDENSED SPECTRUM=NO
##NPOINTS= 145
##XYDATA=(XY..XY) 1 
    36          6
    37          7
    38         71
    39        195
    40         12
    41         50
    42         44
    43         94
    44         63
    45         27
    46          9
    47          1
    49         10
    50        128
    51        110
    52         86
    53        162
    55         36
    57        286
    59          5
    60         14
    62         57
    63         83
    64         48
    65         26
    66         38
    67         37
    68         91
    69         94
    70         37
    71         14
    75        580
    76         59
    77         29
    78         31
    79          8
    80         12
    81         71
    83        268
    84         16
    85          6
    87         18
    88         17
    89         25
    90         57
    91         14
    93         97
    95        999
    96         54
    97          7
    98          4
   100         11
   101         11
   102         54
   103          3
   104          3
   107        121
   108         27
   109         33
   110         25
   111         19
   112          6
   113         10
   114         24
   115          9
   116         11
   117          2
   118          4
   120         75
   121         77
   122        134
   123         11
   124          2
   125          2
   126          2
   127          5
   128          2
   129          3
   132         19
   133         17
   134         24
   135         23
   136         26
   137          7
   138          1
   139          2
   140          2
   141          3
   142         13
   143          8
   144          6
   147        909
   148         46
   149          9
   154          1
   158          1
   159          3
   160         12
   161         34
   162         47
   163          5
   167          3
   168          2
   169          5
   170          4
   171          5
   172          3
   173          2
   174          5
   175          7
   185          4
   186          8
   187         13
   189         77
   190          6
   194          4
   195          7
   196          3
   199          2
   200          1
   203          7
   211          2
   214        268
   215         27
   221         28
   222          8
   223          1
   227         11
   228         11
   229          9
   230          1
   240          9
   241        180
   242         17
   243          2
   252        550
   253         57
   254          7
   255          2
   256          1
   269         14
   270        245
   271        496
   272         61
   273          5