##TITLE=Library Entry 39502
##JCAMP-DX=Revision 4.10 
##DATA TYPE=MASS SPECTRUM
##SAMPLE DESCRIPTION=A.A.Kutin, Moscow, Russia
##NAMES=HP
##CAS NAME=2-[N'-(3-Nitro-benzylidene)-hydrazino]-2-oxo-N-(tetrahydro-furan-
2-ylmethyl)-acetamide
##MOLFORM=C14H16N4O5
##CAS REGISTRY NO=327999-27-9
##MP= -300
##BP= -300
##MW= 320
##$RETENTION INDEX=0
##$CONDENSED SPECTRUM=NO
##NPOINTS= 215
##XYDATA=(XY..XY) 1 
    33          0
    34          0
    36          0
    37          0
    38          3
    39         31
    40          9
    41         79
    42         29
    43        180
    44         20
    45          3
    46          1
    48          0
    50         22
    51         15
    52          5
    53          9
    54          9
    55         42
    56         29
    57         25
    58         16
    59          4
    60          1
    61          1
    62          7
    63         36
    64         15
    65         20
    67         50
    68         11
    69         11
    71        999
    72         38
    74         10
    75         29
    76         70
    77         23
    78          7
    79          3
    80          4
    82         62
    83         25
    84        176
    85         25
    86          9
    87          3
    89         75
    90         29
    91         26
    92         26
    93          4
    94          1
    95          2
    96          1
    97          1
    98          5
    99          6
   100         18
   101         89
   102         20
   103         38
   104         17
   105          9
   106          3
   107          2
   108          2
   109          2
   110         13
   111          4
   112          1
   113          0
   114          0
   115          2
   116          2
   117         24
   118         53
   119         12
   120          5
   121          2
   122          9
   123          2
   124          0
   125          3
   126          2
   127          6
   128         36
   129          8
   130          2
   131          6
   132          8
   133          6
   134          4
   135          8
   136          4
   137          2
   138          1
   139          0
   140          0
   141          1
   142          0
   143          1
   144          2
   145          4
   146         31
   147         19
   148         11
   149         42
   150         11
   151         44
   152          4
   153          0
   154          0
   155          1
   156          0
   157          1
   158          1
   159          1
   160          3
   161          2
   162         10
   163          6
   164         13
   165          8
   166          6
   167          1
   168          0
   170         31
   171         39
   172          9
   173          2
   174          4
   175          8
   176         34
   177          5
   178          3
   179          1
   180          1
   181          1
   182          0
   183          0
   184          1
   185          0
   186          1
   187          5
   188          2
   189          1
   190         14
   192        280
   193         34
   194          5
   195          5
   196          0
   197          0
   198          0
   199          0
   200          0
   201          0
   202          0
   203          1
   204          1
   205          3
   206          3
   207          0
   208          0
   209          1
   210          0
   217          1
   218          2
   219          4
   220          0
   221          1
   222          0
   223          0
   225          1
   226          8
   227          5
   228          0
   232          1
   233         15
   234          3
   235          0
   237         27
   238          3
   239          0
   246          0
   247          0
   248          0
   250        231
   251         31
   252          3
   253          0
   255          0
   260          1
   261          0
   264          6
   265          0
   267          2
   268          0
   269          0
   272          0
   277          0
   278          0
   279          0
   283          0
   290          1
   291          0
   302          0
   303          0
   304          0
   320         47
   321          8
   322          1
   323          0