##TITLE=Library Entry 39654
##JCAMP-DX=Revision 4.10 
##DATA TYPE=MASS SPECTRUM
##SAMPLE DESCRIPTION=A.A.Kutin, Moscow, Russia
##NAMES=HP
##CAS NAME=Butanamide, 2-(1-methyltetrazol-5-ylthio)-3-oxo-N,N-dimethyl-
##MOLFORM=C8H13N5O2S
##CAS REGISTRY NO=327990-50-1
##MP= -300
##BP= -300
##MW= 243
##$RETENTION INDEX=0
##$CONDENSED SPECTRUM=NO
##NPOINTS= 118
##XYDATA=(XY..XY) 1 
    33         13
    34         10
    36          5
    38          8
    39         19
    40        109
    42        809
    43        574
    44        708
    45        194
    46        166
    47         27
    48         10
    49          1
    50          3
    51          6
    53         58
    55        134
    56        191
    57        603
    58        253
    59         28
    60         38
    61         10
    62          3
    63          3
    64          5
    65          4
    66          2
    67          3
    68          3
    69         10
    70         33
    72        999
    73         54
    74         15
    76         49
    77          4
    78          3
    79          2
    80          1
    81          1
    83         52
    85        473
    86        291
    87         25
    88          4
    90         13
    91          2
    92          0
    93          1
    94          0
    95          1
    96          0
    97          1
    98          3
    99          1
   100          3
   101         15
   103          2
   104          0
   105          1
   106          0
   107          0
   108          0
   109          0
   110          0
   111          0
   112          1
   114          3
   116         50
   117          8
   118         16
   119          2
   120          1
   121          1
   122          0
   123          0
   125          1
   126          1
   127          1
   128          4
   129          1
   130          2
   131          0
   132          0
   133          0
   135          1
   138          0
   139          0
   140          8
   141          0
   142          0
   143          0
   144          0
   145          0
   147          0
   148          1
   149          2
   150          1
   151          0
   152          0
   156          0
   157         11
   159          9
   160          0
   161          0
   167          0
   168          1
   169          0
   171          1
   183          0
   185          0
   198          1
   199          0
   201         20
   202          1
   203          1