##TITLE=Library Entry 40613
##JCAMP-DX=Revision 4.10 
##DATA TYPE=MASS SPECTRUM
##SAMPLE DESCRIPTION=Chemical Concepts
##NAMES=HP
##CAS NAME=Butanoic acid, 2-hydroxy-2-methyl-, methyl ester
##MOLFORM=C6H12O3
##CAS REGISTRY NO=32793-34-3
##MP= -300
##BP= -300
##MW= 132
##$RETENTION INDEX=923
##$CONDENSED SPECTRUM=NO
##NPOINTS= 48
##XYDATA=(XY..XY) 1 
    31        129
    33         32
    37          1
    38          4
    39         47
    40          6
    41         45
    42         31
    43        759
    44         39
    45        137
    46          3
    47          0
    49          0
    50          3
    51          4
    52          1
    53         14
    54          4
    55        456
    56         21
    57        132
    58          9
    59         37
    60          1
    61         10
    69          9
    70          0
    71          9
    72         25
    73        999
    74         43
    75         41
    76          1
    82          1
    83          4
    84          1
    85          1
    87          0
    88          0
    89          3
    99          1
   102          1
   103         57
   104          4
   105          0
   115          0
   117          4