##TITLE=Library Entry 29226
##JCAMP-DX=Revision 4.10 
##DATA TYPE=MASS SPECTRUM
##SAMPLE DESCRIPTION=A.A.Kutin, Moscow, Russia
##NAMES=HP
##CAS NAME=Thiazole, 2-(4-pyridylmethylenamino)-
##MOLFORM=C9H7N3S
##CAS REGISTRY NO=327991-24-2
##MP= -300
##BP= -300
##MW= 189
##$RETENTION INDEX=0
##$CONDENSED SPECTRUM=NO
##NPOINTS= 130
##XYDATA=(XY..XY) 1 
    33         61
    34         11
    35          4
    36         17
    37         53
    38        110
    39        105
    40        125
    41         36
    42         36
    43         48
    44         61
    45        255
    46         49
    47         20
    48          7
    49         19
    50        135
    51        216
    52         92
    53         51
    55         50
    56         20
    57        208
    58        999
    59        116
    60         77
    61         22
    62         44
    63        130
    64         69
    65         10
    66          5
    67          4
    68          2
    69          7
    70         23
    71         13
    72         11
    73         88
    74         11
    75         19
    76         29
    77         53
    78         70
    79         22
    80          7
    81          5
    82          6
    83         14
    84         32
    85         64
    86         11
    87          6
    88          5
    89          4
    90         16
    91         10
    92          3
    93          1
    94          5
    95          5
    96          3
    97          1
   100        129
   102         16
   103          9
   104         32
   105         37
   106          5
   107          4
   108          2
   109          3
   110          3
   111         22
   112          2
   113          1
   114          0
   115          1
   116          2
   117         12
   118         15
   119          1
   120          0
   121          1
   122          2
   123          0
   126          0
   127          0
   128          1
   129          5
   130          8
   131          3
   132          9
   133          1
   134          5
   135         20
   136         42
   137          4
   138          1
   139          0
   143          0
   144          5
   145          1
   146          0
   147          0
   149          2
   150          0
   154          0
   156          1
   157          0
   158          0
   161         55
   162         54
   163         15
   164          3
   165          0
   171          1
   172          1
   173          1
   174          0
   175          0
   176          0
   183          0
   184          1
   188        472
   189        188
   190         51
   191         10
   192          1