##TITLE=Library Entry 86208
##JCAMP-DX=Revision 4.10 
##DATA TYPE=MASS SPECTRUM
##SAMPLE DESCRIPTION=A.A.Kutin, Moscow, Russia
##NAMES=HP
##CAS NAME=Propene-3-sulfamide, 1, 1-dichloro-N-(2-chlorophenyl)-
##MOLFORM=C9H8Cl3NO2S
##CAS REGISTRY NO=327981-73-7
##MP= -300
##BP= -300
##MW= 299
##$RETENTION INDEX=0
##$CONDENSED SPECTRUM=NO
##NPOINTS= 120
##XYDATA=(XY..XY) 1 
    35         52
    36        175
    37        140
    38        303
    39        603
    40         73
    41         42
    43         12
    44         25
    45         40
    47         56
    48         73
    49        185
    50         50
    51        102
    52         99
    53         12
    54         10
    55         10
    57          4
    58          1
    60         14
    61         44
    63        420
    64        203
    65        153
    67          3
    69          7
    70          2
    73        401
    75        198
    76         20
    77         24
    78          9
    79          3
    83        160
    85        101
    87         25
    88         11
    90        139
    91         90
    92         51
    93          6
    94          0
    95          1
    97         13
    99        442
   101        175
   102         14
   103          3
   104          2
   105          2
   106          7
   109        999
   111        652
   113        115
   115          0
   116          1
   117         13
   118         12
   119          1
   121          1
   122          0
   123          2
   126        244
   127        177
   128         80
   129         52
   130         18
   131          1
   133          1
   134          0
   135          1
   136          1
   138         23
   140         32
   142          7
   143          3
   145          4
   146          0
   147          0
   152         15
   153          6
   154          6
   155          1
   162          6
   164        118
   165         35
   166         48
   167         10
   168          1
   174          6
   175          0
   176          1
   180          1
   198         21
   200        252
   202        169
   203         15
   204         20
   205          0
   216          6
   217          0
   218          1
   233          0
   234          8
   235         14
   236         10
   237         13
   238          2
   239          2
   253          0
   265          0
   267          0
   296          1
   299        104
   301         95
   303         34
   304          1
   305          1