##TITLE=Library Entry 78619
##JCAMP-DX=Revision 4.10 
##DATA TYPE=MASS SPECTRUM
##SAMPLE DESCRIPTION=ORMSBG,9(10)1022(1974); LANGE
##NAMES=HP
##CAS NAME=1,2,3-Butanetrione, 1-phenyl-, 2,3-dioxime
##MOLFORM=C10H10N2O3
##CAS REGISTRY NO=32796-72-8
##MP= -300
##BP= -300
##MW= 206
##$RETENTION INDEX=0
##$CONDENSED SPECTRUM=NO
##NPOINTS= 11
##XYDATA=(XY..XY) 1 
    51        160
    77        650
   105        999
   106         70
   122         12
   131         10
   132          3
   161         50
   162          5
   188         16
   206        100