##TITLE=Library Entry 23814
##JCAMP-DX=Revision 4.10 
##DATA TYPE=MASS SPECTRUM
##SAMPLE DESCRIPTION=A.A.Kutin, Moscow, Russia
##NAMES=HP
##CAS NAME=Oxazol-5(4H)-one, 4-(4-methoxybenzylideno)-2-(2,2-dimethylethyl)-
##MOLFORM=C15H17NO3
##CAS REGISTRY NO=327991-10-6
##MP= -300
##BP= -300
##MW= 259
##$RETENTION INDEX=0
##$CONDENSED SPECTRUM=NO
##NPOINTS= 76
##XYDATA=(XY..XY) 1 
    37          8
    39        269
    41        613
    42        140
    43         42
    44         14
    45          2
    46          0
    50         47
    51         57
    52         20
    53         31
    54          8
    55         54
    57        999
    58         36
    59          4
    61          7
    62         25
    63         44
    64         11
    65         31
    69         32
    70         42
    71          1
    75         27
    76         77
    77         59
    78         18
    79          4
    85         86
    86         10
    91         72
    92          7
    93          1
   102         18
   103         84
   104         17
   105          4
   106          1
   113          1
   114         11
   115         18
   116         15
   117         15
   118          3
   127          0
   128          2
   129          0
   131          7
   132         95
   133          8
   134          1
   135          0
   146        154
   147        365
   148         32
   149          3
   159          1
   160          1
   161          0
   170          0
   171          1
   172          0
   188          1
   189          0
   202          0
   203          0
   216          0
   217          0
   244          0
   245          0
   258          6
   259         59
   260          7
   261          0