##TITLE=Library Entry 85835
##JCAMP-DX=Revision 4.10 
##DATA TYPE=MASS SPECTRUM
##SAMPLE DESCRIPTION=Japan AIST/NIMC Database- Spectrum MS-NW-6516
##NAMES=HP
##CAS NAME=2(1H)-Pyridone, 6-methyl-
##MOLFORM=C6H7NO
##CAS REGISTRY NO=3279-76-3
##MP= -300
##BP= -300
##MW= 109
##$RETENTION INDEX=0
##$CONDENSED SPECTRUM=NO
##NPOINTS= 67
##XYDATA=(XY..XY) 1 
    13          1
    14          4
    15         19
    16          1
    17          4
    18         19
    25          3
    26         18
    27         50
    28         55
    29          9
    30          2
    31          3
    32          9
    33          7
    36          3
    37         33
    38         73
    39        271
    40         41
    41         39
    42        147
    43          7
    44         13
    45          3
    47          9
    48          1
    49          7
    50         24
    51         32
    52         36
    53         77
    54         22
    55         10
    56          1
    60          2
    61          9
    62         12
    63         26
    64         36
    65         32
    66        102
    67          9
    68         11
    69          1
    74          1
    75          3
    76          3
    77          3
    78          4
    79          9
    80        700
    81        306
    82         16
    83          1
    87          1
    90          1
    91         29
    92          5
    93          8
    94         32
    95          2
   107          1
   108          4
   109        999
   110         70
   111          5