##TITLE=Library Entry 14839
##JCAMP-DX=Revision 4.10 
##DATA TYPE=MASS SPECTRUM
##SAMPLE DESCRIPTION=A.A.Kutin, Moscow, Russia
##NAMES=HP
##CAS NAME=Fluorene-2,7-diacetyl, 9-(4-chlorobenzylideno)-
##MOLFORM=C24H17ClO2
##CAS REGISTRY NO=327988-81-8
##MP= -300
##BP= -300
##MW= 372
##$RETENTION INDEX=0
##$CONDENSED SPECTRUM=NO
##NPOINTS= 146
##XYDATA=(XY..XY) 1 
    34         14
    36         36
    38         17
    40        248
    41         31
    43        999
    44        131
    50         13
    51         12
    52          0
    53          1
    54          0
    55         13
    56          5
    57          9
    58          4
    60          1
    61          0
    62          5
    63         12
    65          0
    67          1
    69          5
    70          2
    71          2
    73         28
    74         13
    75         14
    76          2
    77          4
    81          1
    82          2
    83          8
    84          3
    85          2
    86          6
    87         10
    88          1
    89          0
    93          1
    94          0
    97          2
    98          7
    99         13
   100          6
   105          2
   106          3
   110          4
   111         35
   112         23
   118          9
   119         10
   122          1
   125        281
   130         14
   132         32
   133          2
   135          0
   136          0
   137          5
   138          8
   139         30
   140         22
   143         10
   146          1
   147          0
   149          3
   150          4
   151          0
   152          2
   160          0
   161          0
   163          4
   164          0
   165          0
   171         84
   172         33
   173          2
   174          3
   178          6
   179          4
   186          6
   187          2
   198          3
   199          2
   200          6
   201          0
   211          2
   221          1
   222          7
   223          9
   224         25
   225         12
   226          2
   235         10
   236          1
   237          2
   246          3
   247         11
   248         63
   249         69
   250        242
   251        125
   252         62
   253          8
   260          0
   261          8
   263         20
   264          9
   265          8
   266          2
   276          2
   279         33
   280          5
   284          2
   285          8
   286         49
   287         12
   288         12
   289          1
   293          3
   294         15
   295          2
   299          2
   300          2
   313          6
   314         71
   315         16
   316         21
   317          2
   329          1
   339          0
   353          1
   354         10
   357        454
   358        113
   359        147
   360         32
   361          1
   368          1
   370         12
   372        425
   373        108
   374        137
   375         31
   376          1