##TITLE=Library Entry 73855
##JCAMP-DX=Revision 4.10 
##DATA TYPE=MASS SPECTRUM
##SAMPLE DESCRIPTION=Chemical Concepts
##NAMES=HP
##CAS NAME=2-Oxopentanedioic acid
##MOLFORM=C5H6O5
##CAS REGISTRY NO=328-50-7
##MP= -300
##BP= -300
##MW= 146
##$RETENTION INDEX=0
##$CONDENSED SPECTRUM=NO
##NPOINTS= 42
##XYDATA=(XY..XY) 1 
    26        107
    27        431
    28        222
    29        604
    31         58
    35          3
    36         21
    37          6
    38          9
    39         16
    40          3
    41          9
    42         87
    43        141
    44        124
    45        698
    46         38
    47          9
    51          3
    53         20
    54         11
    55        548
    56         84
    57         18
    60         22
    71          3
    72          6
    73        419
    74        170
    75          8
    82          8
    83         22
    84         12
    85          4
   100          4
   101        999
   102         48
   103          8
   128          1
   129          9
   130          2
   131          1