##TITLE=Library Entry 6710
##JCAMP-DX=Revision 4.10 
##DATA TYPE=MASS SPECTRUM
##SAMPLE DESCRIPTION=Japan AIST/NIMC Database- Spectrum MS-IW-2629
##NAMES=HP
##CAS NAME=Oxalacetic acid
##MOLFORM=C4H4O5
##CAS REGISTRY NO=328-42-7
##MP= -300
##BP= -300
##MW= 132
##$RETENTION INDEX=0
##$CONDENSED SPECTRUM=NO
##NPOINTS= 71
##XYDATA=(XY..XY) 1 
    12          9
    13         14
    14         48
    15        198
    16         28
    17         31
    18        116
    24          5
    25         16
    26         34
    27         12
    28        136
    29         88
    30          4
    31         10
    32          1
    36          2
    37          2
    38          1
    39          5
    40         11
    41         57
    42        462
    43        999
    44        993
    45        299
    46         42
    47          5
    50          1
    51          1
    52          5
    53         18
    54          3
    55          4
    56         16
    57          4
    58          2
    59          2
    60         57
    61          1
    64          1
    67          2
    68          2
    69        100
    70         14
    71         10
    77          1
    79          3
    80          1
    81          1
    82          1
    83          3
    84          2
    85          2
    86          4
    87        181
    88        218
    89          9
    90          1
    91          1
    95          1
    96          1
    97          1
   100          1
   110          1
   111          1
   112          2
   113          3
   114          2
   115          1
   132         10