##TITLE=Library Entry 55837
##JCAMP-DX=Revision 4.10 
##DATA TYPE=MASS SPECTRUM
##SAMPLE DESCRIPTION=Japan AIST/NIMC Database- Spectrum MS-NW-1909
##NAMES=HP
##CAS NAME=D-Leucine
##MOLFORM=C6H13NO2
##CAS REGISTRY NO=328-38-1
##MP= -300
##BP= -300
##MW= 131
##$RETENTION INDEX=0
##$CONDENSED SPECTRUM=NO
##NPOINTS= 69
##XYDATA=(XY..XY) 1 
    14          2
    15         26
    16          1
    17          3
    18         10
    26          6
    27        105
    28        202
    29         73
    30        633
    31          9
    37          3
    38          8
    39         71
    40         11
    41        174
    42         85
    43        289
    44        653
    45         19
    46         41
    47          1
    50          3
    51          5
    52          3
    53         10
    54          9
    55         13
    56         20
    57         54
    58          2
    59          8
    60          2
    65          1
    66          2
    67          6
    68          9
    69         18
    70         43
    71          9
    72          2
    73          9
    74        312
    75         53
    76          3
    80          1
    81          3
    82          2
    83          3
    84          8
    85          4
    86        999
    87         59
    88          6
    89          3
    95          1
    96          2
    97          2
    98          2
    99          6
   100          1
   101          1
   110          1
   111          1
   112          1
   113          1
   114          5
   116          2
   131          1