##TITLE=Library Entry 11225
##JCAMP-DX=Revision 4.10 
##DATA TYPE=MASS SPECTRUM
##SAMPLE DESCRIPTION=NIST Mass Spectrometry Data Center
##NAMES=HP
##CAS NAME=2-Oxooctanoic acid
##MOLFORM=C8H14O3
##CAS REGISTRY NO=328-51-8
##MP= -300
##BP= -300
##MW= 158
##$RETENTION INDEX=0
##$CONDENSED SPECTRUM=NO
##NPOINTS= 87
##XYDATA=(XY..XY) 1 
    14          2
    15          8
    16          1
    17          2
    18          8
    19          1
    20          1
    25          1
    26         13
    27        161
    28         68
    29        168
    30          4
    31          5
    34          1
    35          1
    36          2
    37          2
    38          7
    39        121
    40         20
    41        325
    42         86
    43        999
    44         53
    45         96
    46          4
    47          2
    48          1
    50          4
    51          9
    52          3
    53         24
    54          8
    55        138
    56         28
    57        166
    58          8
    59          1
    60          5
    61          1
    62          1
    63          1
    65          3
    66          1
    67         11
    68          9
    69         35
    70         10
    71          8
    72          1
    73          6
    74          1
    75          4
    76          2
    77          3
    78          1
    79          3
    80          1
    81          4
    82          1
    83          9
    84          5
    85        218
    86         15
    87          2
    88          1
    89          7
    91          1
    93          3
    94          1
    95         38
    96          3
    97          2
    98          1
    99          1
   101          1
   102          2
   105          1
   111          2
   113        466
   114         38
   115          3
   122          1
   125          1
   127          1
   128          2