##TITLE=Library Entry 53732
##JCAMP-DX=Revision 4.10 
##DATA TYPE=MASS SPECTRUM
##SAMPLE DESCRIPTION=LAC, NIDDK, NIH, Bethesda, MD 20892
##NAMES=HP
##CAS NAME=Isoglutamine
##MOLFORM=C5H10N2O3
##CAS REGISTRY NO=328-48-3
##MP= -300
##BP= -300
##MW= 146
##$RETENTION INDEX=0
##$CONDENSED SPECTRUM=NO
##NPOINTS= 66
##XYDATA=(XY..XY) 1 
    41        234
    42         83
    43         76
    44        326
    45         91
    46          4
    50          2
    51          8
    52         27
    53         21
    54         73
    55        114
    56        254
    57         21
    58          2
    59          2
    60          3
    63          1
    65          4
    66         19
    67         13
    68         27
    69         19
    70          5
    71          3
    72         11
    73         15
    74          5
    77          2
    79          2
    80          4
    81          5
    82         13
    83         34
    84        999
    85         52
    86          5
    91          3
    94          2
    95          4
    96         30
    97         23
    98          9
    99         10
   100          7
   101          3
   102          2
   109          4
   110          4
   111          8
   112         35
   113         12
   114          3
   115          3
   121          2
   122          4
   123          3
   124          2
   125          3
   126          1
   128         18
   129         22
   134          4
   145          8
   146         12
   147          3