##TITLE=Library Entry 18425
##JCAMP-DX=Revision 4.10 
##DATA TYPE=MASS SPECTRUM
##SAMPLE DESCRIPTION=A.A.Kutin, Moscow, Russia
##NAMES=HP
##CAS NAME=Purine-2,6(1H,3H)-dione, 7-(3-chloro-2-butenyl)-3-methyl-8-(2-oxo
propylthio)-
##MOLFORM=C13H15ClN4O3S
##CAS REGISTRY NO=328069-88-1
##MP= -300
##BP= -300
##MW= 342
##$RETENTION INDEX=0
##$CONDENSED SPECTRUM=NO
##NPOINTS= 229
##XYDATA=(XY..XY) 1 
    33          3
    34          4
    35         15
    36         59
    37         12
    38         44
    39        121
    40         85
    41        136
    42        301
    43        776
    44         77
    45         86
    46         30
    47         12
    49         22
    50         36
    51        123
    52         89
    53        999
    54         98
    55         46
    56         27
    57         77
    58         49
    59         17
    60         11
    61         20
    62          9
    63         38
    64         31
    65         29
    66         52
    67        270
    68         69
    69         52
    70        124
    71         31
    72         79
    73        113
    74         20
    75         16
    76         24
    77         19
    78         38
    79         23
    80         36
    81         66
    82         34
    83         27
    84         28
    85         46
    86         19
    87         26
    89        767
    90         48
    91        234
    92         20
    93         19
    94         23
    95         18
    96         18
    97         20
    98         26
    99        331
   100         26
   101         21
   102          9
   103         14
   104          5
   105         13
   106         12
   107         20
   108         18
   109         22
   110         13
   111         22
   112         42
   113         43
   114         18
   115          7
   116          9
   117          4
   118          4
   119         20
   120         10
   121         17
   122          8
   123         13
   124         12
   125         17
   126         33
   127         34
   128         30
   129          5
   130          3
   131          3
   132          2
   133          3
   134          4
   135          7
   136         13
   137         10
   138         13
   139         21
   140         49
   141         15
   142          6
   143          3
   144          3
   145          1
   146          5
   147          8
   148          5
   149         11
   150          7
   151          8
   152         10
   153          9
   154         12
   155         17
   156          4
   157          3
   158          1
   160          5
   161          1
   162          2
   163          2
   164          3
   165          5
   166         20
   167         17
   168         45
   169         13
   170          8
   171         12
   172          2
   173          1
   174          5
   175          1
   176          4
   177          4
   178         16
   179        183
   180         29
   181         11
   182         14
   183         10
   184          3
   185          2
   189          1
   190          1
   192         12
   193          9
   194          3
   195          4
   196          5
   197         55
   198         18
   199          6
   200          1
   201          0
   203          5
   204          1
   205          2
   206         13
   207         17
   208          8
   209         20
   211        665
   212        234
   213         48
   214         13
   215          1
   216          1
   217          5
   218          5
   219          3
   221          4
   222          0
   223          4
   224          1
   225          3
   226          1
   227          0
   228          1
   230          2
   231          1
   235          5
   236          4
   237          5
   238          2
   239         12
   240          2
   241          1
   244          1
   249         35
   250         16
   251          7
   252          4
   253         19
   254        161
   255         23
   256         10
   263          0
   265          1
   267          4
   270          0
   283          2
   284          1
   285          7
   286          1
   287          2
   296          5
   297          1
   298          1
   299          3
   301          2
   307         33
   308          5
   309          1
   338          2
   339          1
   342         83
   343         13
   344         30
   345          4
   346          1
   353          1