##TITLE=Library Entry 97722
##JCAMP-DX=Revision 4.10 
##DATA TYPE=MASS SPECTRUM
##SAMPLE DESCRIPTION=A.A.Kutin, Moscow, Russia
##NAMES=HP
##CAS NAME=Benzamide, N-[[4-(1-methylethyl)phenyl]methyl]-3,5-dinitro-
##MOLFORM=C17H17N3O5
##CAS REGISTRY NO=328031-07-8
##MP= -300
##BP= -300
##MW= 343
##$RETENTION INDEX=0
##$CONDENSED SPECTRUM=NO
##NPOINTS= 200
##XYDATA=(XY..XY) 1 
    33          1
    34          3
    36          1
    37          1
    38          6
    39         45
    40         84
    41        134
    42         23
    43        135
    44         82
    45          6
    46          5
    48          1
    50         18
    51         30
    52         17
    53         20
    54          8
    55         84
    56         52
    57        120
    58         10
    59          5
    60          5
    61          2
    62          9
    63         52
    64         31
    65         40
    66          8
    67         15
    68         10
    69         46
    70         57
    71         80
    72          8
    73          8
    74         40
    75        389
    76         63
    77         97
    78         40
    79         93
    80         12
    81         10
    82         10
    83         41
    84         34
    85         11
    86          2
    87          4
    88          4
    89         28
    90         19
    91        263
    92         37
    93         17
    94          6
    95          7
    96          4
    97         19
    98         13
    99          4
   100          1
   101          8
   102         18
   103        145
   104         69
   105        172
   106         47
   107        189
   108         37
   109          7
   110          7
   111         16
   112         42
   113         19
   115        111
   116         43
   117        999
   118        161
   119         82
   120         21
   121         10
   122          3
   123          2
   124          4
   125         10
   126          6
   127          8
   128         11
   129         21
   130         24
   131         73
   132        224
   133        130
   134         23
   135         15
   136          9
   137          9
   138         14
   139          4
   140          3
   141          4
   142          3
   143          4
   144          5
   145          4
   146         11
   147          9
   148         94
   149        219
   150         31
   151          8
   152         20
   153          8
   154          3
   155          3
   156          3
   157          9
   158          3
   159          2
   160          4
   161          2
   163          4
   164          2
   165        111
   166         29
   167         10
   168          2
   169          1
   171         75
   172          8
   173          2
   174          1
   176          2
   177          4
   178          9
   179         29
   180         12
   181          5
   182          1
   183          1
   185          4
   189          7
   190          4
   191          4
   192          4
   193          4
   195        511
   196         43
   197          8
   198          1
   199          7
   200          1
   204          1
   206          3
   207          5
   208          5
   209          3
   210          2
   221          1
   222          3
   224          7
   225          2
   234          2
   236          1
   238          2
   250          1
   251          1
   254          6
   255          3
   267          2
   268          2
   270         12
   271          3
   278          1
   282          2
   283         13
   284         10
   296          3
   297          4
   298          4
   300        378
   301         61
   302          9
   312          4
   313         29
   314         10
   315          2
   326         15
   327         11
   328         50
   329         11
   330          2
   342          6
   343        215
   344         38
   345          5