##TITLE=Library Entry 74205
##JCAMP-DX=Revision 4.10 
##DATA TYPE=MASS SPECTRUM
##SAMPLE DESCRIPTION=Japan AIST/NIMC Database- Spectrum MS-NW-4200
##NAMES=HP
##CAS NAME=Butanoic acid, 4-chloro-3-oxo-, methyl ester
##MOLFORM=C5H7ClO3
##CAS REGISTRY NO=32807-28-6
##MP= -300
##BP= -300
##MW= 150
##$RETENTION INDEX=0
##$CONDENSED SPECTRUM=NO
##NPOINTS= 94
##XYDATA=(XY..XY) 1 
    12          2
    13          6
    14         33
    15        261
    16          3
    18          2
    25          5
    26         25
    27        108
    28         33
    29         86
    30          9
    31         41
    32         13
    33          9
    35          3
    36          8
    37          6
    38          9
    39         19
    40          3
    41         21
    42        223
    43        162
    44         21
    45         29
    47          4
    48          9
    49        147
    50          7
    51         48
    52          2
    53          5
    54          1
    55         33
    56          6
    57        136
    58          6
    59        459
    60         10
    61          5
    62          4
    63          4
    64          2
    65          1
    66          1
    67          2
    68          2
    69        164
    70          6
    71          2
    72          1
    73          5
    74         12
    75          1
    76         16
    77        235
    78         10
    79         79
    80          2
    83          9
    84          6
    85          2
    87          4
    89          2
    90          4
    91          2
    92          9
    93          1
    94          3
    96          1
   100          2
   101        999
   102         48
   103          8
   105          5
   107          1
   114          6
   115          4
   118         29
   119        147
   120         15
   121         49
   122          3
   123          7
   125          3
   132          4
   133          7
   134          1
   135          2
   150         76
   151          5
   152         26
   153          2