##TITLE=Library Entry 49357
##JCAMP-DX=Revision 4.10 
##DATA TYPE=MASS SPECTRUM
##SAMPLE DESCRIPTION=A.A.Kutin, Moscow, Russia
##NAMES=HP
##CAS NAME=Tetrazol-5-amine, 1-[5-(3-nitrophenyl)-2-furfurylidenamino)-
##MOLFORM=C12H9N7O3
##CAS REGISTRY NO=328075-81-6
##MP= -300
##BP= -300
##MW= 299
##$RETENTION INDEX=0
##$CONDENSED SPECTRUM=NO
##NPOINTS= 199
##XYDATA=(XY..XY) 1 
    33          3
    34          2
    35          1
    36          6
    37         13
    38         43
    39         64
    40         30
    41         57
    42        169
    43         90
    44         35
    45          6
    46         20
    47          0
    48          1
    50        255
    51        501
    52         34
    53         38
    54          9
    55         16
    56         33
    57         33
    59          6
    60          2
    61         13
    62         69
    63        205
    64         84
    65         22
    66          6
    67          3
    68          4
    69         13
    70          6
    71         13
    74         89
    75        134
    76        268
    77        121
    79        999
    80         52
    81          7
    82          3
    83          6
    84          8
    85         11
    86         31
    87         59
    88         71
    89         59
    90         16
    91         10
    92         26
    93          7
    94          2
    95          2
    96          2
    97          3
    98         10
    99         11
   100         15
   101         59
   102         40
   104        177
   105         15
   106          2
   107          1
   108          2
   109          3
   110          4
   111          5
   113         96
   114        172
   115        270
   116         34
   117         14
   118          7
   119          3
   120          4
   121         10
   122         11
   123          3
   124          3
   125         11
   126        101
   127        276
   128         46
   129         14
   130          9
   131          3
   132          0
   133          0
   134          2
   135          2
   136          1
   137          1
   138          2
   140         47
   141         11
   142          9
   143         11
   144          5
   145          2
   147         36
   148          5
   150        204
   151         17
   152          4
   154         97
   155        106
   156         35
   157          5
   158          2
   159          3
   160         35
   161          4
   163          1
   164          2
   165          1
   166          1
   167          4
   168         16
   169         24
   170         12
   171         10
   173        153
   174         17
   175          5
   176          0
   177          0
   178          0
   179          0
   180          1
   181          2
   184         38
   185         14
   186          3
   187          1
   188          1
   189          4
   190          1
   191          0
   193          0
   194          0
   195          4
   196          8
   197          2
   198          3
   199         10
   201        763
   202        105
   203         12
   204          1
   205          0
   206          0
   208          1
   209          0
   210          0
   211          0
   212          0
   214         35
   215         17
   216         16
   217          5
   218          1
   219          0
   220          0
   225          1
   226          1
   227          1
   229          9
   231         14
   232          1
   233          0
   241          7
   242          6
   243          2
   245          0
   253          0
   254          0
   256          1
   257          0
   258          0
   259          0
   260          0
   269          0
   271          2
   272          1
   273          7
   274          1
   283          0
   285          0
   296          0
   297          2
   299         97
   300         14
   301          1