##TITLE=Library Entry 100976
##JCAMP-DX=Revision 4.10 
##DATA TYPE=MASS SPECTRUM
##SAMPLE DESCRIPTION=A.A.Kutin, Moscow, Russia
##NAMES=HP
##CAS NAME=2-(2-Methyl-benzoylamino)-5,6-dihydro-4H-cyclopenta[b]thiophene-3
-carboxylic acid methyl ester
##MOLFORM=C17H17NO3S
##CAS REGISTRY NO=328023-50-3
##MP= -300
##BP= -300
##MW= 315
##$RETENTION INDEX=0
##$CONDENSED SPECTRUM=NO
##NPOINTS= 183
##XYDATA=(XY..XY) 1 
    33          0
    39          8
    40          2
    41          3
    42          0
    43          0
    44          1
    45          4
    46          0
    47          0
    50          1
    51          4
    52         10
    53          2
    54          0
    55          0
    56          0
    57          2
    58          6
    59          6
    60          1
    61          0
    63         12
    64         19
    65         71
    66          7
    67          1
    68          1
    69          4
    70          3
    71          9
    72          0
    73          0
    74          1
    75          3
    76          5
    77         13
    78         10
    79          3
    80          2
    81          2
    82          3
    83          2
    84          3
    85          2
    86          0
    87          2
    89         48
    91        406
    92         26
    94          6
    95          4
    96          6
    97          9
    98          1
    99          0
   100          0
   102          8
   104         24
   105          5
   106          6
   107          3
   108          8
   109         34
   110         13
   111          5
   112          0
   113          0
   114          0
   115          1
   116          4
   119        999
   120         69
   121          9
   122          3
   123          2
   124          1
   125          2
   126          1
   128          2
   130         10
   131          2
   132          4
   133          3
   134         12
   135         18
   136         71
   137         24
   138          7
   139          2
   140          1
   141          0
   142          0
   143          0
   144          2
   145          0
   146          1
   147          1
   148          1
   149          0
   150          0
   152          4
   153          1
   154          0
   156          0
   157          0
   160          0
   162          7
   163         10
   164         98
   165         90
   166         16
   167          6
   168          1
   169          0
   170          0
   171          0
   172          0
   176          0
   177          0
   178          0
   179          1
   180          1
   181          0
   182          0
   183          0
   184          0
   185          0
   189          0
   190          0
   192          3
   193          0
   194          2
   196        109
   197         38
   198          8
   199          2
   200          0
   209          0
   211          1
   212          0
   213          0
   214          0
   220          1
   221          1
   222          1
   223          1
   224          1
   225          0
   226          1
   227          0
   228          1
   238          0
   239          1
   240          2
   241          1
   242          0
   243          0
   252          0
   253          0
   254          2
   255          1
   256          1
   257          0
   258          0
   266          0
   267          0
   272          1
   273          0
   274          0
   280          0
   282          9
   283         16
   284         17
   285          3
   286          1
   300          1
   301          0
   315        550
   316         96
   317         34
   318          5
   319          0