##TITLE=Library Entry 70106
##JCAMP-DX=Revision 4.10 
##DATA TYPE=MASS SPECTRUM
##SAMPLE DESCRIPTION=A.A.Kutin, Moscow, Russia
##NAMES=HP
##CAS NAME=Acetic acid, 2-pyrimidyloxy-
##MOLFORM=C6H6N2O3
##CAS REGISTRY NO=328084-05-5
##MP= -300
##BP= -300
##MW= 154
##$RETENTION INDEX=0
##$CONDENSED SPECTRUM=NO
##NPOINTS= 103
##XYDATA=(XY..XY) 1 
    33          0
    34          0
    36          1
    37          6
    38         41
    39         92
    40         24
    41         89
    42        128
    43         16
    44         37
    45        161
    46          8
    47          0
    48          0
    50          5
    51         69
    52        233
    53        641
    54        113
    55         16
    56         26
    57          5
    58          1
    59         22
    60          1
    62          0
    63          0
    64          3
    66         45
    67         41
    68        124
    69         75
    71         10
    72          0
    74          0
    75          0
    76          3
    77         19
    79        816
    80        743
    81        176
    82        235
    83         14
    84          2
    85          0
    86          0
    87          0
    88          0
    89          0
    91          0
    92          0
    94          4
    95         45
    96         15
    97        999
    98         58
    99          4
   102          0
   103          0
   104          0
   105          0
   106          0
   108         31
   109        487
   110        320
   111         15
   112          4
   113          1
   114          0
   115          0
   116          1
   118          0
   119          0
   121          0
   122          0
   123          0
   124          2
   125          0
   126          0
   127          1
   128          1
   129          0
   130          0
   131          0
   136         24
   137          9
   138          0
   139          0
   141          0
   143          0
   145          1
   146          0
   149          1
   150          0
   152          0
   153          2
   154        199
   155         14
   156          1
   157          2
   158          0
   159          0