##TITLE=Library Entry 63328
##JCAMP-DX=Revision 4.10 
##DATA TYPE=MASS SPECTRUM
##SAMPLE DESCRIPTION=Chemical Concepts
##NAMES=HP
##CAS NAME=N-Benzylsuccinamic acid N'-(5-bromosalicylidene)hydrazide
##MOLFORM=C18H18BrN3O3
##CAS REGISTRY NO=328019-22-3
##MP= -300
##BP= -300
##MW= 403
##$RETENTION INDEX=0
##$CONDENSED SPECTRUM=NO
##NPOINTS= 152
##XYDATA=(XY..XY) 1 
    33          1
    37          3
    38          7
    39         24
    40          2
    41          9
    42          7
    43          9
    44         32
    45          4
    49          1
    50         20
    51         50
    52         16
    53         14
    54         10
    55         60
    56         15
    57         11
    58          1
    59          2
    60          1
    61          4
    62          9
    63         37
    64         14
    65         60
    66          6
    67          2
    68          1
    69          2
    70          4
    71          3
    72         14
    73          5
    74          7
    75          9
    76         12
    77         54
    78         33
    79         39
    80          9
    81          4
    82         11
    83          2
    84          6
    85          2
    86          1
    87          2
    88          4
    89         16
    91        999
    92         78
    93          4
    95          1
    97          1
    98          3
    99          6
   100         42
   101          4
   102          2
   103          6
   104         31
   105         29
   106        150
   107         27
   108          9
   109          1
   112          3
   115          2
   117          9
   118          8
   119          9
   120          3
   121          2
   125          1
   130          2
   131          2
   132          8
   133          5
   134         12
   135          4
   142          2
   143          8
   144          4
   145          9
   146          3
   147          1
   148          2
   149          2
   155          4
   156          3
   157          4
   158          3
   159          2
   160         29
   161         16
   162          5
   163          2
   169          7
   170          3
   171         12
   172          2
   173          6
   174          1
   178          1
   180          2
   181          1
   182          2
   183          3
   184          1
   185          8
   186          2
   187          6
   188          5
   189         23
   190        232
   191         28
   192          2
   196          2
   197         18
   198         13
   199         26
   200         17
   201          9
   202          6
   203          1
   210          1
   212          1
   213          3
   214         10
   215          4
   216          9
   217          2
   225          2
   227          1
   241          1
   243          1
   255          2
   257          2
   269          3
   271          3
   279          1
   281          1
   296          9
   297          3
   298          9
   299          2
   403         13
   404          3
   405         13
   406          3