##TITLE=Library Entry 89469
##JCAMP-DX=Revision 4.10 
##DATA TYPE=MASS SPECTRUM
##SAMPLE DESCRIPTION=Chemical Concepts
##NAMES=HP
##CAS NAME=3-(3-Bromo-2-hydroxy-5-nitrobenzylideneamino)-6-chloro-2-(2-furyl
)imidazo[1,2-a]pyridine
##MOLFORM=C18H10BrClN4O4
##CAS REGISTRY NO=328045-90-5
##MP= -300
##BP= -300
##MW= 460
##$RETENTION INDEX=0
##$CONDENSED SPECTRUM=NO
##NPOINTS= 164
##XYDATA=(XY..XY) 1 
    34         16
    35         43
    36         64
    37         67
    38        138
    39        180
    40        128
    41         44
    42         51
    43         96
    44         82
    46         12
    47          8
    48          6
    50        144
    51        128
    52         91
    53        128
    55         50
    56         19
    57         24
    59         16
    61         80
    62        101
    63        100
    64        110
    65         29
    66         41
    68         88
    69         20
    70         14
    71         20
    73         38
    75        324
    76        293
    77         91
    78         69
    79         34
    80         19
    82         44
    83         13
    84         39
    85         40
    87         26
    88         30
    90         50
    91         37
    93         45
    94         29
    95         30
    96          7
    97         11
    98          9
    99         15
   100         18
   101         28
   102         40
   103         38
   104         19
   106         33
   107          8
   108          9
   109          9
   110          9
   112        999
   113        225
   114        293
   115         61
   116         27
   117         20
   118          9
   119         12
   120         14
   121         23
   123         18
   124          9
   125         18
   126         12
   128         28
   129          9
   130         21
   131          8
   132          9
   133          4
   135          7
   136          9
   138         13
   139         42
   140         19
   141         25
   142         52
   143         18
   144          6
   147          9
   149         23
   151         30
   152         27
   153         25
   154         43
   155         12
   156          8
   157          5
   159          5
   162          4
   163          4
   164          5
   165          5
   167         12
   168         13
   169         27
   170         35
   171         28
   172         10
   177         63
   178         28
   179         19
   180         10
   181          7
   182          4
   183          4
   185          6
   187          9
   189         24
   190         20
   191         12
   192         10
   193          7
   194          7
   195          4
   197          4
   198          4
   202          6
   204        222
   205        237
   206         79
   207         74
   208         10
   209          8
   211          7
   216          8
   218        137
   220         60
   221          6
   223          8
   230          9
   231         11
   233        273
   234         38
   235         74
   236          9
   244         11
   246          5
   265          7
   267         10
   269          4
   278          5
   279          4
   295          9
   297         14
   299          8
   460         18
   462         34
   463          6
   464          5