##TITLE=Library Entry 7376
##JCAMP-DX=Revision 4.10 
##DATA TYPE=MASS SPECTRUM
##SAMPLE DESCRIPTION=DR. C. C. VAN DE SANDE, STATE UNIVERSITY OF GENT, BELGI
UM
##NAMES=HP
##CAS NAME=3,5-Hexadien-2-ol
##MOLFORM=C6H10O
##CAS REGISTRY NO=3280-51-1
##MP= -300
##BP= -300
##MW= 98
##$RETENTION INDEX=781
##$CONDENSED SPECTRUM=NO
##NPOINTS= 47
##XYDATA=(XY..XY) 1 
    37         21
    38         41
    39        215
    40         29
    41        165
    42         27
    43        999
    44         30
    45         70
    48          4
    49         14
    50         75
    51        110
    52         60
    53        165
    54         50
    55        390
    56         38
    57         23
    58         11
    61          6
    62          9
    63         17
    64          3
    65         40
    66         15
    67         14
    68          5
    69         35
    70          7
    71         36
    72          2
    74          9
    75          4
    77         65
    78         20
    79        170
    80         70
    81         45
    82         13
    83        295
    84         27
    95          2
    96          2
    97         15
    98        120
    99          9