##TITLE=Library Entry 1802
##JCAMP-DX=Revision 4.10 
##DATA TYPE=MASS SPECTRUM
##SAMPLE DESCRIPTION=James Little,Eastman Chem.Co.,Kingsport,TN
##NAMES=HP
##CAS NAME=Methyl 3-butynoate
##MOLFORM=C5H6O2
##CAS REGISTRY NO=32804-66-3
##MP= -300
##BP= -300
##MW= 98
##$RETENTION INDEX=0
##$CONDENSED SPECTRUM=NO
##NPOINTS= 22
##XYDATA=(XY..XY) 1 
    14         14
    15        296
    28         80
    29         65
    37        102
    38        185
    39        999
    40         62
    42         32
    43         23
    51         11
    52         12
    53        126
    55         10
    59        353
    66         35
    67        336
    68        521
    69        152
    70         11
    98        117
    99          8