##TITLE=Library Entry 72829
##JCAMP-DX=Revision 4.10 
##DATA TYPE=MASS SPECTRUM
##SAMPLE DESCRIPTION=A.A.Kutin, Moscow, Russia
##NAMES=HP
##CAS NAME=Morpholine, 4-[3-(4-fluoro-3-nitrophenylsulfonyl)propyl]-
##MOLFORM=C13H17FN2O5S
##CAS REGISTRY NO=328010-30-6
##MP= -300
##BP= -300
##MW= 332
##$RETENTION INDEX=0
##$CONDENSED SPECTRUM=NO
##NPOINTS= 102
##XYDATA=(XY..XY) 1 
    29         36
    30         24
    31          1
    32         11
    39          4
    40          2
    41        133
    42        202
    43         77
    44         18
    45          7
    53          0
    54         12
    55         44
    56        156
    57         51
    58         11
    59          1
    60          7
    61          0
    67         10
    68         79
    69        156
    70         64
    71         34
    72          8
    73         11
    74          1
    75          0
    76          0
    79          1
    80          1
    81         39
    82         26
    83         23
    84         36
    85         21
    86         11
    87          1
    91          0
    93         12
    94         30
    95         18
    96         12
    97         17
    98         66
    99         41
   100        999
   101         91
   102          3
   105          2
   107          4
   108          1
   109          7
   110          5
   111          6
   112          6
   113          2
   114          1
   115          0
   120          0
   121          8
   122          0
   123          8
   124          3
   125          3
   126         17
   127          1
   128          5
   129          6
   134          2
   135          5
   136         11
   137          9
   138          0
   139          0
   140         17
   141          5
   142          1
   147          0
   149         11
   150          0
   151          1
   153          0
   154          1
   164          0
   181          0
   188          1
   203          0
   204          8
   205          0
   209          0
   213          0
   236          0
   246          0
   255          0
   256          0
   267          0
   331          7
   332         84
   333         16
   334          0