##TITLE=Library Entry 109596
##JCAMP-DX=Revision 4.10 
##DATA TYPE=MASS SPECTRUM
##SAMPLE DESCRIPTION=A.A.Kutin, Moscow, Russia
##NAMES=HP
##CAS NAME=Propanedioic acid, mononitrile, monohydrazide, N2-[2-(4-chloroben
zyloxy)benzylideno]-
##MOLFORM=C17H14ClN3O2
##CAS REGISTRY NO=328030-86-0
##MP= -300
##BP= -300
##MW= 327
##$RETENTION INDEX=0
##$CONDENSED SPECTRUM=NO
##NPOINTS= 176
##XYDATA=(XY..XY) 1 
    33          1
    34          4
    35          1
    36          4
    37          2
    38          9
    39         35
    40         14
    41         24
    42          8
    43         25
    44         35
    45          4
    48          0
    49          2
    50         14
    51         48
    52         14
    53          7
    54          3
    55         22
    56          8
    57         30
    58          1
    59          0
    60          5
    61          3
    62          9
    63         47
    64         19
    65         15
    66          5
    67          8
    68         16
    69         12
    70         14
    71         18
    72          0
    73         18
    74          4
    75         13
    76          7
    77         45
    78         34
    79          8
    80          5
    81          5
    82          4
    83         11
    84          9
    85          5
    86          2
    87          4
    89        122
    90         47
    91         25
    92          5
    93          3
    94          1
    95          3
    96          2
    97          7
    99         42
   101         18
   102          4
   103          1
   104          2
   105         21
   106         16
   107          9
   108          2
   109          1
   110          0
   111          7
   112          9
   113          6
   114          1
   115          3
   116          1
   117          1
   118          2
   119          9
   120          7
   121         15
   122          2
   123          2
   125        999
   126         76
   127        309
   128         24
   129          5
   130          3
   131          1
   132          1
   133          3
   134          3
   135          4
   136          3
   137          1
   138          1
   139          4
   140          3
   141          2
   142          1
   143          1
   146          2
   147          0
   148          1
   149          2
   150          2
   151          4
   152          7
   153          2
   154          0
   155          0
   157          2
   161          0
   163          1
   164          1
   165          6
   166          4
   167          3
   168          1
   170          1
   171         20
   172          3
   173          2
   175          0
   176          0
   177          1
   178          2
   180          1
   181          0
   182          0
   183          0
   185          1
   189          1
   190          0
   191          0
   193          0
   194          2
   195          2
   196          0
   199          1
   201          7
   202          2
   203          2
   207          3
   208          2
   209          2
   210          0
   211          0
   215          1
   218          0
   228          5
   229         85
   230         14
   231         28
   232          4
   233          0
   241          0
   243          8
   244         39
   245         10
   246         12
   247          2
   252          0
   256          0
   270          0
   280          0
   281          0
   283          3
   297          0
   301          1
   326          0
   327          1