##TITLE=Library Entry 71209
##JCAMP-DX=Revision 4.10 
##DATA TYPE=MASS SPECTRUM
##SAMPLE DESCRIPTION=A.A.Kutin, Moscow, Russia
##NAMES=HP
##CAS NAME=Propanamide, N-(3-bromophenyl)-3-(1-piperidyl)-
##MOLFORM=C14H19BrN2O
##CAS REGISTRY NO=328006-10-6
##MP= -300
##BP= -300
##MW= 310
##$RETENTION INDEX=0
##$CONDENSED SPECTRUM=NO
##NPOINTS= 194
##XYDATA=(XY..XY) 1 
    29         28
    30         31
    32         42
    33          0
    34          0
    39         40
    40         12
    41        148
    42        196
    43         36
    44         36
    45          4
    46          6
    49          1
    50          9
    51          0
    52         11
    53          3
    54         29
    55        164
    56         62
    57         35
    58          6
    59          1
    60          0
    62          2
    63         20
    64         20
    65          8
    66          0
    67          3
    68          5
    69         24
    70         34
    71          3
    72          0
    73          4
    74          2
    75          6
    76         11
    77          5
    78          1
    79          2
    80          1
    81          2
    82         13
    83         34
    84        642
    85        105
    86          9
    87          0
    88          0
    90         18
    91         46
    92         20
    93         10
    94          5
    95          5
    96         94
    97        112
    98        999
    99        107
   100          2
   104          9
   105         15
   106          2
   107          0
   108          1
   109          1
   110          7
   111         12
   112         53
   113          6
   114          1
   115          4
   116         19
   117         17
   118          5
   119         23
   120          1
   121          0
   123          1
   125          0
   126          0
   127          3
   128          1
   129          5
   131          1
   132          7
   133         38
   134          3
   135          7
   136          2
   137         16
   138         23
   139         12
   140        118
   141          9
   142          0
   143         96
   144         13
   145        106
   146         46
   147         18
   148          3
   149         10
   150          4
   151          5
   153          9
   154          6
   155        143
   156         28
   157        121
   158         12
   162          2
   163          1
   164          2
   165          0
   166          0
   167          3
   168          2
   169          8
   170         54
   171        135
   172         44
   173        144
   174         16
   175          1
   176          0
   177          0
   178          0
   180          0
   181          1
   182          0
   183          0
   184         42
   185          0
   186         43
   187          1
   194          0
   195          0
   196          4
   197         28
   198         31
   199         25
   200         21
   201          0
   204          0
   205          0
   206          1
   207          0
   214          0
   216          0
   217          0
   218          0
   225          3
   226          2
   227          4
   228          1
   232          0
   233          0
   236          0
   237          0
   238          0
   241          0
   243          1
   247          0
   256          0
   257          2
   258          0
   259          0
   266          0
   267          6
   268          1
   269          0
   275          0
   276          0
   277          0
   278          0
   281          0
   283          0
   285          1
   286          0
   299          1
   305          0
   307          0
   308          1
   309         44
   310        104
   311         86
   312        106
   313         15
   314          2
   315          0