##TITLE=Library Entry 64410
##JCAMP-DX=Revision 4.10 
##DATA TYPE=MASS SPECTRUM
##SAMPLE DESCRIPTION=Chemical Concepts
##NAMES=HP
##CAS NAME=N'-(1-Benzyl-2-phenylethylidene)-3-nitrobenzhydrazide
##MOLFORM=C22H19N3O3
##CAS REGISTRY NO=328019-16-5
##MP= -300
##BP= -300
##MW= 373
##$RETENTION INDEX=0
##$CONDENSED SPECTRUM=NO
##NPOINTS= 151
##XYDATA=(XY..XY) 1 
    36          1
    37          5
    38         10
    39         49
    40         14
    41         18
    42          3
    43          6
    44         23
    45          2
    46          2
    48          3
    50        122
    51         63
    52         15
    53          8
    54          2
    55          4
    56          2
    57          4
    58          1
    62         14
    63         46
    64         39
    65        152
    66         10
    67          2
    69          2
    70          2
    71          3
    72          1
    73          4
    74         29
    75         78
    76        305
    77        100
    78         23
    79         18
    80          4
    81          1
    82          1
    83          2
    84          2
    86          1
    87          3
    89         49
    90         58
    91        999
    92        149
    93         11
    98          1
   101          2
   102         14
   103         45
   104        276
   105         29
   106         31
   107          9
   108          3
   109          1
   112          1
   113          2
   114          3
   115         79
   116         75
   117         31
   118         31
   119         16
   120         17
   121          4
   122         14
   123          1
   126          1
   127          3
   128          6
   129          4
   130         22
   131         12
   132         17
   133          4
   134         12
   135          5
   136          3
   139          2
   141          1
   144          2
   145          6
   146          1
   147          1
   148          5
   150        347
   151         32
   152          9
   153          3
   161          1
   163          2
   164          8
   165         17
   166         11
   167          5
   171          2
   176          3
   177          3
   178         21
   179         15
   180         11
   181         30
   182          4
   183          1
   187          1
   189          6
   190          3
   191         12
   192         25
   193         11
   194          4
   196          2
   203          1
   204          6
   205          6
   206         34
   207         12
   208          5
   209          3
   210          3
   219          1
   221          3
   222          1
   223          5
   224          4
   225          1
   231          3
   234          2
   235          7
   236         84
   237         13
   238          2
   251          2
   252         21
   253          3
   266          8
   267          1
   278          1
   280          6
   282        738
   283        116
   284         13
   372          1
   373         32
   374          9
   375          1