##TITLE=Library Entry 99751
##JCAMP-DX=Revision 4.10 
##DATA TYPE=MASS SPECTRUM
##SAMPLE DESCRIPTION=Asinex Ltd, Moscow, Russia
##NAMES=HP
##CAS NAME=3-Methyl-N-(5-pentyl-[1,3,4]thiadiazol-2-yl)-benzamide
##MOLFORM=C15H19N3OS
##CAS REGISTRY NO=328010-09-9
##MP= -300
##BP= -300
##MW= 289
##$RETENTION INDEX=0
##$CONDENSED SPECTRUM=NO
##NPOINTS= 239
##XYDATA=(XY..XY) 1 
    33          0
    34          1
    35          0
    36          0
    37          1
    38          3
    39         47
    40          9
    41         67
    42          9
    43         20
    44          9
    45         13
    46          3
    47          4
    48          0
    50          5
    51         13
    52          3
    53          6
    54          9
    55         26
    56          4
    57         10
    58         11
    59         10
    60          8
    61          3
    62          3
    63         18
    64          9
    65        130
    66          8
    67          3
    68          4
    69          8
    70          2
    71          9
    72          3
    73          8
    74          3
    75          3
    76          3
    77          8
    78          2
    79          3
    80          1
    81          8
    82          3
    83          1
    84          1
    85          2
    86          2
    87          2
    88          2
    89         31
    90         45
    91        417
    92         33
    93          1
    94          0
    95          1
    96          4
    97          2
    98          1
    99          1
   100          1
   101          1
   102          1
   103          1
   104          3
   105          5
   106          1
   107          0
   108          0
   109          1
   110          0
   111          0
   112          0
   113          1
   114          2
   115         12
   116          5
   117          5
   118         52
   119        999
   120        100
   121          7
   122          3
   123          1
   124          0
   125          0
   126          0
   127          0
   128          2
   129         19
   130          2
   131          1
   132          3
   133          5
   134          3
   135          1
   136          1
   137          0
   138          0
   139          0
   140          0
   141          0
   142          1
   143          0
   144          0
   145          0
   146          0
   147          0
   148          0
   149          3
   150          1
   151          0
   152          0
   153          0
   154          0
   155          0
   156          0
   157          0
   158          1
   159          2
   160          1
   161          1
   162          0
   163          0
   164          2
   165          0
   166          0
   167          0
   168          0
   169          0
   170          0
   171          1
   172          0
   173          0
   174          0
   175          0
   176          0
   177          0
   178          0
   179          0
   180          0
   181          0
   183          0
   184          0
   185          0
   186          0
   187          0
   188          0
   189          0
   190          0
   191          0
   192          2
   193          0
   194          0
   195          0
   196          0
   197          0
   198          1
   199          0
   200          1
   201          0
   202          0
   203          0
   204          0
   205          0
   206          0
   207          0
   208          0
   209          0
   210          0
   211          0
   212          0
   213          1
   214          0
   215          0
   216          0
   217          0
   218          0
   219          0
   220          0
   221          0
   222          0
   223          0
   225          0
   226          0
   227          0
   228          3
   229          1
   230          0
   231          1
   233        169
   234         23
   235          9
   236          1
   237          0
   239          0
   240          0
   242          0
   243          0
   244          0
   246         29
   247          7
   248          2
   249          0
   250          0
   254          0
   255          0
   256          7
   257          1
   258          0
   260         12
   261          9
   262          1
   263          0
   264          0
   265          0
   267          0
   269          0
   270          0
   272          1
   274         46
   275          7
   276          2
   277          0
   278          0
   281          0
   287          0
   288          4
   289         33
   290          6
   291          2
   292          0
   293          0