##TITLE=Library Entry 81605
##JCAMP-DX=Revision 4.10 
##DATA TYPE=MASS SPECTRUM
##SAMPLE DESCRIPTION=Chemical Concepts
##NAMES=HP
##CAS NAME=N-[4-(Diethylamino)-.alpha.-(veratrylidenecarbazoyl)styryl]benzam
ide
##MOLFORM=C29H32N4O4
##CAS REGISTRY NO=328018-30-0
##MP= -300
##BP= -300
##MW= 500
##$RETENTION INDEX=0
##$CONDENSED SPECTRUM=NO
##NPOINTS= 198
##XYDATA=(XY..XY) 1 
    37          6
    38         17
    39         44
    40         43
    41         28
    42         19
    43         51
    44         58
    45          6
    47          3
    49          4
    50         46
    51        114
    52         29
    53         31
    54         13
    55         24
    56         15
    57          9
    59          4
    60          4
    61          6
    62         21
    63         46
    64         28
    65         64
    66         27
    67         18
    68          9
    69          9
    70          8
    71          5
    72          5
    73          5
    74          9
    75         22
    76         52
    77        516
    78         65
    79         87
    80         22
    81         10
    82          6
    83          6
    84          5
    87          3
    88          9
    89         38
    90         39
    91         42
    92         77
    93         22
    94         31
    95         30
    96          4
    97          4
   101         14
   102         25
   103         41
   104         75
   105        999
   106         98
   107         45
   108         10
   109          9
   110          8
   111          3
   114         10
   115         38
   116         32
   117         40
   118         40
   119         25
   120         44
   121         41
   122         32
   123         10
   127          3
   128         12
   129         13
   130         27
   131         37
   132         18
   133         32
   134         34
   135         19
   136          9
   137         56
   138         23
   139          4
   142         16
   143        176
   144         84
   145         39
   146         15
   147         17
   148         41
   149         29
   150         17
   151          9
   152          8
   153          4
   154          3
   155          5
   156          6
   157         37
   158         38
   159         27
   160         28
   161         14
   162         48
   163         72
   164        111
   165         83
   166         20
   170          5
   171         15
   172         84
   173        100
   174         21
   175          6
   176          8
   177          4
   179         23
   180        141
   181         12
   185          9
   186         15
   187        594
   188        116
   189         56
   190         10
   191          5
   199          7
   200          7
   201          7
   202          4
   203          4
   204          7
   205          6
   206          4
   207          9
   214         10
   215         47
   216         15
   217          7
   218          4
   219          4
   230          3
   231          8
   232          3
   233          4
   238          6
   241         11
   246          6
   247         10
   248          3
   261          7
   266         51
   267          9
   274         22
   275         19
   276          8
   277         22
   278          5
   279          8
   288          4
   290          7
   291          8
   292          9
   293          8
   294         11
   302          6
   303          4
   304         92
   305         37
   306          8
   316          4
   318        120
   319         83
   320        240
   321        138
   322         30
   323          5
   335          4
   337         12
   352          9
   353          3
   364          4
   379          6
   482        118
   483         34
   484          6
   485          4
   499          3
   500         92
   501         29
   502          5