##TITLE=Library Entry 63988
##JCAMP-DX=Revision 4.10 
##DATA TYPE=MASS SPECTRUM
##SAMPLE DESCRIPTION=A.A.Kutin, Moscow, Russia
##NAMES=HP
##CAS NAME=N-(2-Benzyloxy-ethyl)-3,5-dinitro-benzamide
##MOLFORM=C16H15N3O6
##CAS REGISTRY NO=328031-28-3
##MP= -300
##BP= -300
##MW= 345
##$RETENTION INDEX=0
##$CONDENSED SPECTRUM=NO
##NPOINTS= 168
##XYDATA=(XY..XY) 1 
    34          0
    36          0
    37          0
    38          1
    39         18
    40          4
    41          8
    42          5
    43          4
    44         27
    45          2
    46          0
    50          8
    51         16
    52          6
    53          3
    54          0
    55          0
    56          1
    57          0
    58          0
    61          0
    62          6
    63         24
    64          8
    65         93
    66          5
    67          0
    68          0
    69          0
    70          1
    71          0
    72          2
    73          2
    74         25
    75        151
    76         17
    77         33
    78          8
    79         35
    80          3
    82          0
    84          0
    86          0
    87          0
    88          0
    89         23
    90         24
    91        999
    92        101
    93          4
    94          0
    95          0
    96          0
    99          0
   100          0
   101          1
   102          4
   103         42
   104         98
   105         38
   106         12
   107        225
   108         34
   109          2
   110          0
   111          1
   112          0
   113          0
   115          0
   116          4
   117          1
   118          4
   119          9
   120          6
   121          4
   122          3
   123          0
   126          0
   127          0
   128          3
   129          0
   130          1
   131          0
   132          1
   133          2
   134          4
   135          1
   136          0
   137          1
   138          0
   139          0
   141          0
   143          0
   144          0
   145          0
   146         16
   147          4
   148          7
   149         97
   150         10
   151          1
   152          1
   153          0
   154          0
   156          0
   158          0
   160          1
   161          0
   162          0
   163          2
   164          1
   165         14
   166          3
   167          1
   171          0
   174          0
   175          0
   176          0
   177          0
   179         26
   180          3
   181          0
   182          0
   186          2
   190          0
   191          3
   192         40
   193         10
   195        283
   196         24
   197          4
   204          0
   205          3
   206          1
   207          3
   208          3
   209          2
   210          0
   211          1
   212          2
   215          0
   220          0
   221          3
   222         82
   223         13
   224         48
   225          4
   226          0
   229          3
   230          0
   231          0
   235          0
   236          3
   238        215
   239        467
   240         61
   241          7
   242          0
   250          0
   254         25
   255          2
   256          0
   328          8
   329          1
   330          0
   345          4
   346          0