##TITLE=Library Entry 60022
##JCAMP-DX=Revision 4.10 
##DATA TYPE=MASS SPECTRUM
##SAMPLE DESCRIPTION=Chemical Concepts
##NAMES=HP
##CAS NAME=Benzyl 2-(3-aminopropionyloxy)acetate
##MOLFORM=C12H15NO4
##CAS REGISTRY NO=328018-40-2
##MP= -300
##BP= -300
##MW= 237
##$RETENTION INDEX=0
##$CONDENSED SPECTRUM=NO
##NPOINTS= 82
##XYDATA=(XY..XY) 1 
    33          6
    34          3
    35         50
    36        245
    37         16
    38         90
    39         81
    40         52
    41         42
    42        110
    43        197
    44         89
    45         36
    46          9
    48          2
    50         33
    51         76
    52         18
    53          6
    54          2
    55         16
    56          6
    57          6
    58          1
    59          5
    60          9
    61          3
    62         10
    63         40
    64         18
    65        182
    66          9
    67          2
    70        677
    71         30
    72         38
    73          9
    74          6
    75          7
    76          8
    77         85
    78         23
    79         27
    80          4
    83          2
    84          3
    85          2
    86          3
    88         96
    89         46
    91        999
    92         90
    93          5
    98          1
   100          2
   101          5
   102          1
   103         31
   104         28
   105         34
   106         18
   107         16
   108          9
   111          1
   112          1
   116          1
   118          5
   119          4
   120          9
   121          2
   128          2
   129          1
   131          1
   132          4
   133          1
   136          1
   146        116
   147          7
   148          4
   171          1
   237          6
   238          1