##TITLE=Library Entry 81608
##JCAMP-DX=Revision 4.10 
##DATA TYPE=MASS SPECTRUM
##SAMPLE DESCRIPTION=Chemical Concepts
##NAMES=HP
##CAS NAME=.alpha.-Benzamido-4-(diethylamino)-N'-(2-fluorobenzylidene)cinnam
ohydrazide
##MOLFORM=C27H27FN4O2
##CAS REGISTRY NO=328018-68-4
##MP= -300
##BP= -300
##MW= 458
##$RETENTION INDEX=0
##$CONDENSED SPECTRUM=NO
##NPOINTS= 198
##XYDATA=(XY..XY) 1 
    37         10
    38         13
    39         37
    41          8
    42         23
    43         34
    44         49
    45          4
    49          7
    50         47
    51        109
    52         21
    53          6
    54          9
    55          5
    56         17
    57         19
    58          3
    59          7
    61         11
    62         18
    63         39
    64         17
    65         14
    66          5
    67          4
    68         12
    69         20
    70         20
    71          5
    72          8
    73          8
    74         21
    75         76
    76         60
    77        493
    78         40
    79          8
    80          5
    81         11
    82          8
    83         20
    84          9
    85          4
    86          4
    87          5
    88         13
    89         58
    90         51
    91         48
    92         11
    93          8
    94         35
    95         75
    96         36
    97          5
   100          7
   101         14
   102         73
   103         45
   104        114
   105        999
   106         84
   107         38
   108         27
   109         10
   110         11
   111         23
   114         13
   115         42
   116         50
   117         56
   118        100
   119         21
   120          9
   121         69
   122        128
   123         38
   124         21
   128         15
   129         15
   130         34
   131         45
   132         23
   133         19
   134         21
   135          4
   136          6
   137         17
   138         83
   139         12
   141          5
   142         20
   143        179
   144        111
   145         50
   146         11
   147         11
   148          4
   149         14
   150          4
   152         19
   153         12
   154          4
   155          5
   156          7
   157         40
   158         40
   159         35
   160         34
   161         19
   162         54
   163          9
   165         20
   170          6
   171         16
   172         90
   173        166
   174         34
   175          9
   176         12
   178          4
   185          9
   187        714
   188        135
   189         74
   190         12
   198          4
   199         11
   200         11
   201          7
   202          8
   203          6
   204          4
   213          5
   214         20
   215         82
   216         30
   217          8
   219          4
   220          8
   221          3
   225          4
   230          6
   231         18
   232          5
   238         10
   239          4
   246          4
   247          5
   249          4
   252          4
   254          4
   261          4
   264          3
   265          6
   266         80
   267         17
   274         17
   275         12
   276          4
   277         31
   278          8
   279          8
   280          4
   283          3
   290          6
   291          9
   292         10
   293         12
   294          8
   302          6
   304         38
   305         32
   306          9
   310         11
   318         91
   319         51
   320        234
   321        159
   322         36
   323          6
   335          7
   336          8
   337         13
   338          3
   353          4
   438          5
   439          8
   440         74
   441         27
   442          6
   443         12
   444          4
   456          9
   457          7
   458        173
   459         51