##TITLE=Library Entry 81606
##JCAMP-DX=Revision 4.10 
##DATA TYPE=MASS SPECTRUM
##SAMPLE DESCRIPTION=Chemical Concepts
##NAMES=HP
##CAS NAME=.alpha.-Benzamido-N'-(3-bromobenzylidene)-4-(diethylamino)cinnamo
hydrazide
##MOLFORM=C27H27BrN4O2
##CAS REGISTRY NO=328018-57-1
##MP= -300
##BP= -300
##MW= 518
##$RETENTION INDEX=0
##$CONDENSED SPECTRUM=NO
##NPOINTS= 195
##XYDATA=(XY..XY) 1 
    34          5
    37         10
    38         17
    39         47
    41         14
    42         20
    43         39
    44         11
    45          6
    49          8
    50         81
    51        115
    52         21
    53          8
    54          5
    55          9
    56         17
    57          9
    59          9
    60          6
    61          8
    62         22
    63         52
    64         13
    65         32
    66          6
    69          6
    70         10
    71          7
    72         12
    73          9
    74         30
    75        100
    76        123
    77        494
    78         42
    79         15
    80         17
    81         10
    82         16
    85          5
    86          6
    87          9
    88         16
    89        146
    90         56
    91         46
    92         40
    93          9
    99          5
   101         24
   102         85
   103         80
   104        166
   105        999
   106         83
   107         14
   114         11
   115         53
   116         62
   117         68
   118         74
   119         38
   120          8
   121          9
   122          4
   128         18
   129         18
   130         44
   131         54
   132         30
   133         32
   134         23
   135          7
   137          5
   138          4
   141          7
   142         24
   143        209
   144        129
   145         73
   146         20
   147         25
   148         10
   149         18
   152         18
   153         13
   155         73
   156         17
   157        105
   158         61
   159         44
   160         44
   161         20
   162         51
   163         12
   165          4
   168          6
   169          7
   170          9
   171         40
   172        110
   173        219
   174         40
   175          8
   176         13
   177          5
   178          5
   181         32
   182         61
   183         50
   184         64
   185         28
   187        680
   188        146
   189         84
   190         16
   197          9
   198         39
   199         23
   200         49
   201         12
   202          9
   203          9
   204          8
   205          5
   213          4
   214         19
   215         97
   216         40
   217         13
   218          7
   219          6
   225          5
   227          5
   230          6
   231         26
   232          8
   233          6
   235          5
   238          9
   245          5
   246         10
   247         10
   248          6
   249          7
   250         11
   261         13
   264          4
   266         83
   267         16
   274         38
   275         27
   276          9
   277         32
   278          8
   279         16
   280          4
   288          7
   289          6
   290         13
   291         11
   292         11
   293         15
   294         18
   302          9
   303          5
   304         50
   305         32
   306          8
   316          6
   317         12
   318        204
   319         88
   320        234
   321        189
   322         38
   323          6
   335          8
   337         11
   370          8
   372          6
   485          7
   487          9
   500         85
   501         27
   502         76
   503         30
   504          6
   517          6
   518         90
   519         32
   520         94
   521         26
   522          5