##TITLE=Library Entry 79007
##JCAMP-DX=Revision 4.10 
##DATA TYPE=MASS SPECTRUM
##SAMPLE DESCRIPTION=A.A.Kutin, Moscow, Russia
##NAMES=HP
##CAS NAME=Benzoic acid, 4-(1,2-dioxo-2-phenylethyl)-, 4-cyanophenyl ester
##MOLFORM=C22H13NO4
##CAS REGISTRY NO=328045-64-3
##MP= -300
##BP= -300
##MW= 355
##$RETENTION INDEX=0
##$CONDENSED SPECTRUM=NO
##NPOINTS= 143
##XYDATA=(XY..XY) 1 
    34          2
    36          1
    37         12
    38         14
    39         26
    40         12
    41         20
    42         15
    43        125
    44         15
    45         13
    46          0
    48          0
    50         69
    51         89
    52         13
    53          5
    54          1
    55         11
    56          4
    57         17
    58          2
    59          0
    61         13
    62          7
    63         22
    64         26
    65          7
    66          2
    67          2
    68          1
    69          6
    70         14
    71         11
    72          0
    73          7
    74         15
    75         25
    76        149
    77        302
    78         21
    79          4
    80          0
    82          2
    83          5
    84          3
    85          6
    86          1
    87          2
    88          6
    89          4
    90         16
    91         22
    92          6
    93          1
    94          0
    95          2
    97          4
    98          2
    99          1
   102          2
   104        199
   105        999
   106         79
   107          9
   108          1
   110          1
   111          1
   112          5
   113          4
   114          0
   115          2
   117          1
   119         44
   120          4
   121          1
   122          1
   123          3
   124          1
   125          1
   126          0
   128          3
   129          1
   130          0
   131          0
   132         40
   133          6
   134          0
   135          0
   136          0
   138          0
   139          2
   140          1
   141          1
   142          0
   149          4
   150          2
   151          2
   152          4
   153          3
   155          1
   157          0
   161          0
   163          1
   164          1
   166          1
   169          1
   170          0
   171          5
   173          0
   177          3
   179          1
   181          2
   182          0
   185          0
   191          0
   193          1
   194          1
   196          0
   197          0
   203          0
   208          1
   209         29
   210          4
   215          0
   220          0
   221          1
   222          1
   223          1
   237         70
   238         13
   239          1
   247          0
   250         50
   251          8
   252          0
   253          0
   265          0
   282          0
   283          1
   287          0
   355          2
   356          0