##TITLE=Library Entry 40913
##JCAMP-DX=Revision 4.10 
##DATA TYPE=MASS SPECTRUM
##SAMPLE DESCRIPTION=NIST Mass Spectrometry Data Center, 1990.
##NAMES=HP
##CAS NAME=2-Methyl-5-hexen-3-ol
##MOLFORM=C7H14O
##CAS REGISTRY NO=32815-70-6
##MP= -300
##BP= -300
##MW= 114
##$RETENTION INDEX=0
##$CONDENSED SPECTRUM=NO
##NPOINTS= 26
##XYDATA=(XY..XY) 1 
    15         34
    26         21
    27        209
    28         81
    29        131
    31         90
    32         14
    38         30
    39        255
    40         39
    41        302
    42         87
    43        527
    44         38
    45        159
    51         21
    53         42
    55        663
    56         34
    57         72
    69         25
    70         32
    71        157
    73        999
    74         44
    81         19