##TITLE=Library Entry 46335
##JCAMP-DX=Revision 4.10 
##DATA TYPE=MASS SPECTRUM
##SAMPLE DESCRIPTION=A.A.Kutin, Moscow, Russia
##NAMES=HP
##CAS NAME=4-Amino-N-phthalimido-3-furazancarboxamide
##MOLFORM=C11H7N5O4
##CAS REGISTRY NO=328111-93-9
##MP= -300
##BP= -300
##MW= 273
##$RETENTION INDEX=0
##$CONDENSED SPECTRUM=NO
##NPOINTS= 115
##XYDATA=(XY..XY) 1 
    33          3
    34          5
    37         56
    38         84
    39        116
    40         76
    42        180
    43         88
    44         85
    45          7
    46          1
    50        607
    51        149
    53        316
    54        224
    55         95
    56          9
    58        100
    59          6
    60          6
    61         13
    62         24
    63         63
    64         49
    65         13
    66         17
    68         78
    70        218
    71         11
    74        205
    76        999
    77        201
    79          6
    80          5
    82         23
    83          7
    84         21
    85          7
    86          4
    87          6
    88         11
    90        220
    91         21
    92          7
    93          2
    94          2
    95          3
    96          2
    97          3
    98          1
    99          3
   100          1
   102         63
   104        868
   105        308
   106         20
   107          2
   109          1
   112        220
   114         14
   115          3
   117         44
   118          8
   119          3
   121          2
   125          3
   126          1
   128         15
   130         86
   132        119
   133        218
   134         18
   135          3
   142          3
   143          2
   145         57
   146         42
   147         48
   148        148
   149         38
   150          3
   158          4
   161        293
   162        122
   163         26
   164          3
   170          3
   172         21
   173         14
   174          8
   175          1
   185          2
   186          9
   189        461
   190         34
   198         45
   199          6
   200          8
   201          3
   212          1
   215         60
   216        117
   217         11
   218          1
   225          9
   226          1
   228          1
   229          3
   241          5
   243        116
   244         10
   245          1
   273        385
   274         42
   275          4