##TITLE=Library Entry 46593
##JCAMP-DX=Revision 4.10 
##DATA TYPE=MASS SPECTRUM
##SAMPLE DESCRIPTION=Chemical Concepts
##NAMES=HP
##CAS NAME=2-(2-Hydroxyphenoxy)-1-phenylethanol
##MOLFORM=C14H14O3
##CAS REGISTRY NO=328104-89-8
##MP= -300
##BP= -300
##MW= 230
##$RETENTION INDEX=0
##$CONDENSED SPECTRUM=NO
##NPOINTS= 71
##XYDATA=(XY..XY) 1 
    37         54
    38        121
    39        523
    40         35
    41         59
    43        280
    44         18
    45          3
    48          3
    50        383
    51        653
    52        339
    53        374
    54         43
    55         80
    56          4
    57          3
    59          2
    61         30
    62         85
    63        250
    64        112
    65        511
    66         54
    67         53
    68          6
    69          4
    74         78
    75         50
    77        999
    78        263
    79        607
    80         94
    81        255
    82         15
    83          1
    86          5
    87          4
    89         34
    91        182
    92         42
    93         50
    94         15
    95         96
    96          5
    97          2
    98          1
   101          3
   102         28
   103        114
   104         96
   105         77
   107        232
   108         21
   109         59
   110        206
   111         11
   112          1
   115          2
   118          1
   119          5
   120          9
   121         60
   122          7
   123          9
   124         14
   125          1
   212          9
   213          1
   230          6
   231          1