##TITLE=Library Entry 72857
##JCAMP-DX=Revision 4.10 
##DATA TYPE=MASS SPECTRUM
##SAMPLE DESCRIPTION=NIST Mass Spectrometry Data Center, 1994
##NAMES=HP
##CAS NAME=3-Morpholinopropyl isothiocyanate
##MOLFORM=C8H14N2OS
##CAS REGISTRY NO=32813-50-6
##MP= -300
##BP= -300
##MW= 186
##$RETENTION INDEX=0
##$CONDENSED SPECTRUM=NO
##NPOINTS= 86
##XYDATA=(XY..XY) 1 
    14          9
    15         89
    16          1
    18          5
    19          2
    26         30
    27        148
    28        328
    29        134
    30         77
    31         18
    32         12
    33          2
    34          2
    37          2
    38          6
    39         85
    40         34
    41        298
    42        383
    43        620
    44         66
    45         43
    46          5
    47          1
    51          2
    52          9
    54         67
    55         72
    56        249
    57         43
    58         28
    59         28
    60         22
    61          2
    64          5
    66          3
    67          9
    68         51
    69         40
    70        122
    71         71
    72        184
    73         12
    74          8
    78          9
    80          3
    82         17
    83         10
    84         48
    85         35
    86        137
    87         10
    88          4
    94          1
    95          4
    96         13
    97         44
    98         82
    99          1
   100        999
   101        165
   102         12
   103          5
   109          1
   111          1
   112          9
   113          4
   114          4
   124          2
   125          2
   126         11
   127         10
   128          3
   131          2
   141         14
   142         10
   143          4
   153          9
   155          6
   156         12
   157          2
   185          4
   186         43
   187          5
   188          2