##TITLE=Library Entry 18144
##JCAMP-DX=Revision 4.10 
##DATA TYPE=MASS SPECTRUM
##SAMPLE DESCRIPTION=Chemical Concepts
##NAMES=HP
##CAS NAME=N-(4,6-Dimethyl-2-pyrimidinyl)-4-(4-nitrobenzylideneamino)benzene
sulfonamide
##MOLFORM=C19H17N5O4S
##CAS REGISTRY NO=328111-25-7
##MP= -300
##BP= -300
##MW= 411
##$RETENTION INDEX=0
##$CONDENSED SPECTRUM=NO
##NPOINTS= 106
##XYDATA=(XY..XY) 1 
    34         46
    36         21
    37        137
    38        152
    39        204
    40        484
    41         86
    42         48
    43         99
    44        220
    45         86
    46        101
    48         25
    50        658
    51        999
    52         48
    53         35
    54         17
    55         63
    56         25
    57         51
    58          9
    60         23
    61         30
    62         80
    63         98
    64         78
    65        198
    66         27
    67         15
    68         25
    69         30
    71         36
    73         68
    74        233
    75        163
    76        279
    77        735
    78         52
    79         15
    80         10
    81         15
    82         15
    83         20
    84         12
    85         18
    86          9
    87         12
    88          4
    89          7
    90          7
    91         14
    92        142
    93         36
    94          9
    95          9
    96          5
    97          9
    98          6
    99          2
   101          7
   104        184
   105        185
   107         19
   108         10
   109          7
   110          6
   111          7
   112          9
   113          5
   115          3
   120         60
   121         20
   122          9
   123          9
   124          3
   125          5
   127          3
   128          5
   129          5
   131          4
   133          5
   134          5
   135         31
   136          8
   138          4
   143          2
   147          3
   149         32
   150        553
   151        586
   152         56
   153          9
   154          4
   156          6
   166          4
   167          5
   171          8
   180          7
   209          2
   210          5
   211          3
   212          4
   213         24
   214         29
   215          3