##TITLE=Library Entry 22859
##JCAMP-DX=Revision 4.10 
##DATA TYPE=MASS SPECTRUM
##SAMPLE DESCRIPTION=Asinex Ltd, Moscow, Russia
##NAMES=HP
##CAS NAME=Pyridine-3-carbonitrlile, 2-allylaminosulfonyl-5-chloro-4,6-dimet
hyl-
##MOLFORM=C11H12ClN3O2S
##CAS REGISTRY NO=328282-82-2
##MP= -300
##BP= -300
##MW= 285
##$RETENTION INDEX=0
##$CONDENSED SPECTRUM=NO
##NPOINTS= 189
##XYDATA=(XY..XY) 1 
    33          3
    34          3
    35          5
    36         19
    37         19
    38         53
    39        270
    40         67
    41        259
    42         40
    43         18
    44         11
    45          3
    46          2
    47          7
    48         29
    49         48
    50         38
    51        110
    52         53
    53         30
    54         79
    56        999
    57         40
    58          3
    59          2
    60          5
    61         19
    62         28
    63         52
    64         67
    65         64
    66         33
    67          8
    68          2
    69          3
    70          2
    72         10
    73         28
    74         16
    75         78
    76         94
    77         97
    78         43
    79         14
    80          4
    81          2
    82          2
    83          2
    84          3
    85          6
    86         10
    87         16
    88         28
    89         15
    90         22
    91         15
    92          7
    93          4
    94          1
    95          1
    96          1
    97          8
    98          7
    99         10
   100         17
   102        264
   103         65
   104         62
   105         12
   106          4
   107          1
   108          1
   109          2
   110          4
   111         16
   112         13
   113         10
   114          7
   115          8
   116          5
   117          6
   118          6
   119         11
   120          5
   121          0
   122          2
   123          3
   124          6
   125          5
   126          5
   127          8
   128         11
   129         58
   130         33
   131         85
   132         17
   133          7
   134          0
   136          2
   137         15
   138         89
   139         19
   140         37
   141         22
   142          7
   143         10
   144          6
   145          6
   146          5
   147          1
   148          0
   149          2
   150          2
   151          2
   152          4
   153         13
   154         12
   155          7
   156          7
   157          7
   158          5
   159          5
   160          2
   161          1
   163         15
   165        221
   166        462
   167        134
   168        149
   169         24
   170          6
   171          5
   172          0
   177          1
   178          4
   179         15
   180         24
   181         15
   182         15
   183          8
   184          9
   185          9
   186          7
   187          1
   188          0
   190          2
   191         12
   192         38
   193        113
   194        136
   195         47
   196         39
   197          6
   198          3
   199          0
   200          0
   203          6
   204          9
   205         26
   206         74
   207         15
   208         23
   209          2
   211          0
   213         11
   214          4
   215          4
   216          3
   217          8
   220        227
   221        106
   222         66
   223         31
   224          4
   225          0
   230          0
   231          2
   232          0
   233          0
   256          0
   257          1
   258         16
   260          8
   270          0
   284          6
   285          8
   286          2
   287          2