##TITLE=Library Entry 14006
##JCAMP-DX=Revision 4.10 
##DATA TYPE=MASS SPECTRUM
##SAMPLE DESCRIPTION=Chemical Concepts
##NAMES=HP
##CAS NAME=Ethyl 2-acetamido-2-(3-chloro-4-fluoroanilino)-3,3,3-trifluoropro
pionate
##MOLFORM=C13H13ClF4N2O3
##CAS REGISTRY NO=328270-21-9
##MP= -300
##BP= -300
##MW= 356
##$RETENTION INDEX=0
##$CONDENSED SPECTRUM=NO
##NPOINTS= 190
##XYDATA=(XY..XY) 1 
    33          6
    34          2
    35          2
    36          6
    37          3
    38          6
    39          7
    40         24
    41         12
    43        999
    44         81
    45          9
    46          2
    47          2
    48          1
    50         19
    51          6
    52          6
    53          1
    54          5
    55          4
    56          8
    57         19
    59         48
    60         16
    61          6
    62          9
    63         19
    64          4
    65          2
    66          2
    67          5
    68         16
    69         49
    70          3
    71          2
    73         13
    74         18
    75         12
    76          4
    77          4
    78          3
    79          2
    81         20
    82         14
    83         38
    84          7
    85          3
    86          2
    87          2
    88          2
    89          6
    90          8
    91          8
    93         45
    94         51
    95         10
    96         28
    97          3
    98          3
    99          3
   100          5
   101          2
   102          2
   103          3
   104          1
   105          2
   106          2
   108         16
   109         56
   110         21
   111         34
   112          3
   113          3
   114          5
   116          1
   117         22
   118         10
   119          9
   120         11
   121          3
   122          1
   123          3
   124          2
   125          4
   126          1
   127          1
   129        230
   130         16
   131         71
   132          5
   134          1
   135          2
   136          9
   137          3
   138          1
   139          1
   140          1
   142         25
   143          4
   144         21
   145        195
   146         28
   147         60
   148          9
   149          2
   150          1
   151          1
   152          1
   153          1
   155         15
   156         80
   157         10
   158         26
   159          3
   160          1
   163          1
   165          1
   166          1
   167          2
   168          1
   169          1
   170         23
   171         29
   172          4
   173          9
   174          2
   179          1
   181          1
   182          1
   184         20
   185          3
   186          9
   187          2
   188          1
   189          2
   194          1
   197          2
   199          1
   200          1
   201          1
   202          1
   203          1
   204          1
   205          4
   206          8
   207          2
   208          1
   211          1
   213          1
   215          1
   217          9
   219          7
   220          1
   221          2
   222          1
   224        181
   226         69
   227          5
   228          1
   234          1
   239         32
   241        379
   242         31
   243        111
   244          9
   245         15
   246          2
   247          5
   248          1
   251          1
   252          1
   253          1
   255          1
   267          3
   269          2
   275          1
   283        103
   284         10
   285         31
   286          3
   287          4
   289          1
   295          1
   297         67
   299         28
   300          2
   356         32
   358         10
   359          1