##TITLE=Library Entry 79098
##JCAMP-DX=Revision 4.10 
##DATA TYPE=MASS SPECTRUM
##SAMPLE DESCRIPTION=Chemical Concepts
##NAMES=HP
##CAS NAME=Ethyl 2-benzamido-2-(4-chloroanilino)-3,3,3-trifluoropropionate
##MOLFORM=C18H16ClF3N2O3
##CAS REGISTRY NO=328270-39-9
##MP= -300
##BP= -300
##MW= 400
##$RETENTION INDEX=0
##$CONDENSED SPECTRUM=NO
##NPOINTS= 144
##XYDATA=(XY..XY) 1 
    35          1
    36          3
    37          1
    38          4
    39          8
    40          3
    41          3
    42          1
    43          4
    44          6
    45          1
    46          1
    47          1
    50         19
    51         57
    52          6
    53          1
    54          1
    55          2
    56          1
    57          2
    61          1
    62          2
    63          7
    64          5
    65          9
    66          1
    67          1
    68          1
    69          6
    70          1
    71          2
    72          1
    73          5
    74          5
    75         23
    76         29
    77        305
    78         22
    79          2
    83          1
    84          1
    85          2
    87          1
    88          1
    90          5
    91          5
    92          6
    93          1
    96          4
    97          1
    98          1
    99          9
   100          4
   101          4
   102          4
   105        999
   106         72
   107          4
   109          1
   111         46
   112          5
   113         14
   114          1
   115          1
   117          1
   118          2
   120          1
   121          6
   122          3
   124          1
   125          2
   126          9
   127         40
   128          6
   129         11
   130          2
   132          1
   137          3
   138         19
   139          3
   140          7
   141          1
   151          1
   152          3
   153          8
   154          2
   155          3
   156          1
   165          1
   166          6
   167          1
   168          2
   171          2
   177          1
   179          1
   187          2
   200          2
   201          2
   202          1
   203          1
   204          1
   206         44
   207          7
   208         12
   209          2
   210          1
   212          1
   218          1
   220          1
   221         15
   222          3
   223          5
   224          1
   228          1
   229          1
   230          1
   231          1
   233          1
   254          1
   277          1
   279         46
   280          6
   281         12
   282          2
   291          1
   292          1
   309          1
   310          1
   324          1
   325          2
   327         70
   328         11
   329         20
   330          4
   331          5
   332          1
   333          2
   398          1
   399          2
   400         27
   401          6
   402          9
   403          2