##TITLE=Library Entry 80138
##JCAMP-DX=Revision 4.10 
##DATA TYPE=MASS SPECTRUM
##SAMPLE DESCRIPTION=Chemical Concepts
##NAMES=HP
##CAS NAME=Ethyl 2-benzamido-3,3,3-trifluoro-2-[3-(trifluoromethyl)anilino]p
ropionate
##MOLFORM=C19H16F6N2O3
##CAS REGISTRY NO=328270-43-5
##MP= -300
##BP= -300
##MW= 434
##$RETENTION INDEX=0
##$CONDENSED SPECTRUM=NO
##NPOINTS= 129
##XYDATA=(XY..XY) 1 
    37          1
    38          1
    39          5
    40          2
    41          3
    42          1
    43          4
    44          5
    45          1
    50         13
    51         44
    52          4
    53          1
    54          1
    55          2
    56          1
    57          4
    62          1
    63          3
    64          2
    65          3
    66          1
    69          6
    70          2
    71          2
    73          2
    74          3
    75          8
    76         17
    77        252
    78         20
    79          2
    81          1
    83          2
    84          1
    88          1
    90          1
    91          2
    92          1
    93          1
    94          1
    95          7
    96          5
    97          1
    99          1
   100          1
   101          1
   102          2
   103          7
   105        999
   106         74
   107          5
   111          3
   112          1
   113          3
   114          6
   115          1
   118          2
   119          1
   120          2
   121          5
   122          3
   123          1
   125          4
   126          3
   127          1
   132          1
   133          1
   134          1
   139          1
   140          3
   141          1
   142          3
   143          1
   145         41
   146          3
   152          1
   158          1
   160          6
   161         23
   162          2
   167          2
   168          1
   170          1
   171          2
   172         12
   173          1
   185          1
   186          1
   187          5
   188          1
   195          1
   200          5
   201          1
   203          1
   207          2
   208          1
   209          1
   213          1
   215          1
   221          2
   229          1
   235          8
   236          1
   237          1
   238          1
   240         22
   241          4
   254          1
   255          9
   256          2
   283          1
   293          1
   294          2
   313          8
   314          1
   343          1
   344          1
   357          1
   358          1
   359          3
   361         80
   362         10
   363          2
   365          3
   366          1
   415          3
   434         15
   435          3