##TITLE=Library Entry 37951
##JCAMP-DX=Revision 4.10 
##DATA TYPE=MASS SPECTRUM
##SAMPLE DESCRIPTION=A.A.Kutin, Moscow, Russia
##NAMES=HP
##CAS NAME=Acetamide, 2-(4-phenyl-1-piperazinyl)-N-(2-pyridyl)-
##MOLFORM=C17H20N4O
##CAS REGISTRY NO=328276-50-2
##MP= -300
##BP= -300
##MW= 296
##$RETENTION INDEX=0
##$CONDENSED SPECTRUM=NO
##NPOINTS= 157
##XYDATA=(XY..XY) 1 
    33         34
    34          5
    36          3
    37         18
    38         62
    39        251
    40         96
    41        198
    42        581
    43         91
    44         59
    45          8
    46          3
    47          0
    48          0
    49          3
    50         53
    51        281
    52         75
    53         27
    54         58
    55         44
    56        283
    57         27
    58         15
    59          2
    61          3
    62          5
    63         24
    64         31
    65         78
    66         63
    67         97
    68         25
    70        999
    71         77
    72          9
    73          2
    74          6
    75         10
    77        443
    78        375
    79         65
    80         17
    81          5
    82         13
    83          7
    84          3
    85          3
    86          1
    88         28
    89          8
    90         12
    91        139
    92         43
    93         27
    94        118
    95        103
    97         21
    98          5
    99          1
   100          1
   101          1
   102          2
   104        358
   105        248
   106         89
   107         80
   108          7
   109          0
   110          0
   111          0
   112          0
   113          1
   115          5
   116          5
   117         33
   118         39
   119         34
   120         67
   121         75
   122          7
   123          0
   124          0
   125          0
   126          0
   127          2
   128          2
   129          1
   130         15
   131         23
   132        307
   133         78
   134         61
   135         45
   136         43
   137          4
   138          0
   139          0
   141          0
   142          0
   143          3
   144         19
   145         76
   146         86
   147         25
   148          6
   149          2
   150          1
   151          4
   152          0
   157          3
   158          3
   159         12
   160         69
   161         52
   162         13
   164         78
   165          7
   166          0
   167          0
   169          0
   170          0
   171          2
   173         42
   175        679
   176         92
   177         20
   178         13
   179          1
   180          0
   185          0
   186          0
   187          0
   188          0
   190          5
   191          7
   192          0
   198          0
   200          1
   201          1
   202          5
   203          2
   204          0
   253          0
   254          0
   267          0
   279          0
   281          3
   282          0
   292          0
   293          4
   294          8
   296        114
   297         19
   298          1
   299          0