##TITLE=Library Entry 13623
##JCAMP-DX=Revision 4.10 
##DATA TYPE=MASS SPECTRUM
##SAMPLE DESCRIPTION=Chemical Concepts
##NAMES=HP
##CAS NAME=Ethyl 2-acetamido-3,3,3-trifluoro-2-(4-fluoroanilino)propionate
##MOLFORM=C13H14F4N2O3
##CAS REGISTRY NO=328270-12-8
##MP= -300
##BP= -300
##MW= 322
##$RETENTION INDEX=0
##$CONDENSED SPECTRUM=NO
##NPOINTS= 125
##XYDATA=(XY..XY) 1 
    33         18
    34          4
    37          2
    38          6
    39         18
    40         74
    41         23
    43        999
    44        106
    45         14
    46          4
    48          3
    50         25
    51         15
    52          9
    53          2
    54          6
    55          9
    56         10
    57         47
    58          6
    59         32
    60         10
    61          4
    62          7
    63         19
    64         15
    65          9
    66          2
    67          3
    68          9
    69         54
    70          9
    71          4
    72          3
    74         15
    75        112
    76         15
    77          8
    78          3
    79          2
    80          1
    81          9
    82         15
    83        100
    84         53
    85          7
    89          3
    90          5
    91          9
    92         13
    93          6
    94         31
    95        426
    96         61
    97          5
    98          3
   100          1
   101          1
   102          1
   107          1
   109         20
   110         80
   111        394
   112         71
   113          9
   114          6
   121         27
   122        175
   123         16
   124          7
   125          7
   135          6
   136         10
   137         92
   138         10
   139          2
   140          1
   142         26
   143          1
   145          2
   147          5
   148          1
   149          1
   150         34
   151          3
   152          2
   153          1
   163          2
   166          5
   167          3
   170         13
   171          7
   179          1
   181          1
   183         18
   184          4
   185          9
   186          1
   187          1
   188          1
   190        350
   191         32
   192          1
   194          4
   205         74
   207        871
   208         70
   209          5
   211         36
   212          3
   219          2
   221          2
   231          1
   233          5
   235          1
   241          3
   249        213
   250         21
   253          9
   254          1
   263        112
   264         11
   322         64
   323          9