##TITLE=Library Entry 50152
##JCAMP-DX=Revision 4.10 
##DATA TYPE=MASS SPECTRUM
##SAMPLE DESCRIPTION=S.A. Rang et al., IR & MS of Unsatd. Hydrocarbons, 1977
##NAMES=HP
##CAS NAME=Cyclohexene, 1-butyl-
##MOLFORM=C10H18
##CAS REGISTRY NO=3282-53-9
##MP= -300
##BP= -300
##MW= 138
##$RETENTION INDEX=1047
##$CONDENSED SPECTRUM=NO
##NPOINTS= 88
##XYDATA=(XY..XY) 1 
    15          4
    16          0
    25          1
    26         11
    27        178
    28         18
    29        128
    37          1
    38          5
    39        188
    40         36
    41        413
    42         31
    43         54
    45          1
    50          8
    51         36
    52         29
    53        163
    54        138
    55        291
    56         23
    57         13
    58          2
    59          0
    60          0
    62          1
    63          9
    64          3
    65         64
    66         54
    67        678
    68        212
    69         32
    70          6
    71          2
    72          0
    73          0
    74          0
    75          3
    76          1
    77        103
    78         25
    79        192
    80         84
    81        999
    82        282
    83         28
    84          4
    85          1
    86          0
    87          0
    89          2
    90          0
    91         50
    92          8
    93         43
    94         16
    95        247
    96        469
    97         49
    98          5
    99          1
   101          0
   102          0
   103          2
   104          1
   105          4
   106          0
   107          7
   108          4
   109        133
   110         27
   111          3
   112          2
   115          2
   116          0
   117          1
   121          2
   122          0
   123          9
   124          3
   125          1
   136          2
   137          2
   138        232
   139         25
   140          1