##TITLE=Library Entry 37097
##JCAMP-DX=Revision 4.10 
##DATA TYPE=MASS SPECTRUM
##SAMPLE DESCRIPTION=A.A.Kutin, Moscow, Russia
##NAMES=HP
##CAS NAME=3,3'-Bis(1,2,4-oxadiazolyl), 5,5'-bis(4-methyl-1-piperazin-1-yl)-
##MOLFORM=C14H22N8O2
##CAS REGISTRY NO=328274-84-6
##MP= -300
##BP= -300
##MW= 334
##$RETENTION INDEX=0
##$CONDENSED SPECTRUM=NO
##NPOINTS= 225
##XYDATA=(XY..XY) 1 
    33          1
    34          0
    35          1
    36          3
    37          1
    38          4
    39         11
    40         25
    42        589
    43        560
    44         94
    45         33
    46          3
    47          1
    48          2
    49          1
    50          1
    51          2
    52          6
    53         12
    54         47
    55         63
    56        333
    57         98
    58        261
    59         13
    60          0
    61          0
    62          0
    63          1
    64          1
    65          1
    66          5
    67          9
    68         30
    70        999
    71        188
    72         19
    73          1
    74          0
    75          0
    76          0
    77          1
    78          1
    79          2
    80          7
    81          9
    82         31
    83        176
    84         22
    85         22
    86          3
    87          1
    88          0
    89          0
    90          1
    91          0
    92          2
    93          3
    94          6
    95         11
    96         18
    97        111
    98        313
    99        150
   100         15
   101          5
   102          0
   104          0
   105          0
   106          1
   107          2
   108          3
   109          5
   110          7
   111          4
   112          4
   113          7
   114          0
   115          0
   116          0
   117          0
   118          0
   119          1
   120          1
   121          2
   122          4
   123          6
   124         40
   125          9
   126          6
   127         35
   128          2
   129          0
   131          0
   132          0
   133          0
   134          2
   135          3
   136          4
   137          4
   138          3
   139          2
   140          3
   141          3
   142          0
   143          0
   144          0
   145          0
   146          0
   147          1
   148          2
   149          4
   150          2
   151          4
   152          2
   153          2
   154          0
   159          0
   160          1
   161          0
   162          1
   163          2
   164          4
   165          7
   166          7
   167          5
   168          1
   169          1
   170          0
   171          0
   172          0
   174          1
   175          1
   176          2
   177          3
   178          2
   179          2
   180          2
   181          0
   182          0
   183          0
   184          0
   186          0
   188          0
   190          1
   191          3
   192          6
   193          4
   194          7
   195          1
   196          0
   197          2
   198          0
   203          0
   205          3
   206          5
   207          2
   208          1
   209          1
   210          1
   211         10
   212          1
   213          0
   215          0
   217          0
   218          0
   219          1
   220          2
   221          1
   222          0
   223          5
   224          5
   225          1
   226          0
   227          1
   228          0
   232          0
   233          0
   234          0
   235          3
   237         13
   238          2
   239          0
   247          0
   248          0
   249          9
   250          3
   251          0
   252          0
   253          0
   254          0
   260          0
   261          1
   262          0
   263          1
   264         16
   265          2
   266          1
   267          0
   268          3
   269          0
   273          0
   274          0
   277         58
   278          8
   279          1
   280          0
   292          0
   295          0
   297          0
   305          0
   317          0
   318          1
   319          0
   320          1
   322          0
   330          0
   331          0
   332          1
   334         35
   335          6
   336          1
   337          0
   338          0