##TITLE=Library Entry 16611
##JCAMP-DX=Revision 4.10 
##DATA TYPE=MASS SPECTRUM
##SAMPLE DESCRIPTION=A.A.Kutin, Moscow, Russia
##NAMES=HP
##CAS NAME=(4-Dimethylaminomethyl-5-hydroxy-benzofuran-3-yl)(2,4-dimethyl-ox
azol-5-yl)methanone
##MOLFORM=C17H18N2O4
##CAS REGISTRY NO=328276-47-7
##MP= -300
##BP= -300
##MW= 314
##$RETENTION INDEX=0
##$CONDENSED SPECTRUM=NO
##NPOINTS= 177
##XYDATA=(XY..XY) 1 
    30         17
    39          0
    40          1
    41          5
    42        185
    43        121
    44        999
    45        282
    46         27
    51          0
    52          0
    53          0
    54          0
    55         13
    56         10
    57         14
    58        150
    59          4
    60          1
    63          1
    65          4
    66          0
    67         10
    68        137
    69         17
    70          4
    71          6
    72         43
    73          2
    74          0
    76          0
    77          7
    78          0
    79          1
    81          3
    82          9
    83          2
    84          0
    85          1
    87          0
    89         19
    90          8
    91         35
    92          3
    93          0
    94          0
    95          2
    96         53
    97          6
    98          9
    99          1
   101          3
   102          7
   103          5
   104          1
   105          5
   108          0
   109          2
   110          3
   111          2
   112          0
   113          2
   114          3
   115         90
   116         29
   117         33
   118         34
   119         13
   120          1
   121          0
   123          2
   124         16
   125          1
   126          3
   127         49
   128         18
   129         16
   130         13
   131         25
   132          7
   133          3
   134          0
   139          0
   140          0
   141          0
   142          4
   143         19
   144         76
   145         76
   146         67
   147         39
   148         16
   153          0
   154          1
   155         22
   156          8
   157         11
   158         15
   159         17
   160         10
   161         13
   162          0
   167          0
   169          0
   170         15
   171         76
   172        149
   173         87
   174         55
   175         45
   176          3
   182          0
   183          6
   184         17
   185         25
   186        119
   187         71
   188         24
   189         14
   190          4
   196          0
   197          0
   198          5
   199         48
   200         79
   201        265
   202        441
   203         61
   204         12
   205          0
   210          7
   211         31
   212         46
   213         19
   214         13
   215         48
   216         18
   217          8
   218          0
   224          0
   225          3
   226         30
   227        136
   228        178
   229         29
   230         26
   231          1
   239          1
   240         14
   241          9
   242          7
   243          0
   252          0
   254          5
   255          3
   256          9
   257         25
   258         20
   259          0
   268          6
   269         17
   270          9
   271         13
   272          1
   283          0
   296          3
   297          6
   298         16
   299        645
   300        129
   301         12
   311          4
   312         15
   313         49
   314        809
   315        204
   316         27