##TITLE=Library Entry 23292
##JCAMP-DX=Revision 4.10 
##DATA TYPE=MASS SPECTRUM
##SAMPLE DESCRIPTION=Japan AIST/NIMC Database- Spectrum MS-NW-3197
##NAMES=HP
##CAS NAME=Pivalyl chloride
##MOLFORM=C5H9ClO
##CAS REGISTRY NO=3282-30-2
##MP= -300
##BP= -300
##MW= 120
##$RETENTION INDEX=0
##$CONDENSED SPECTRUM=NO
##NPOINTS= 44
##XYDATA=(XY..XY) 1 
    14          2
    15         14
    18          1
    25          1
    26          9
    27         59
    28          9
    29        261
    30          6
    35          3
    36          8
    37          9
    38         15
    39        118
    40         19
    41        431
    42         39
    43          5
    44          3
    45          2
    49          5
    50          8
    51          8
    52          2
    53          9
    54          2
    55         33
    56         27
    57        999
    58         46
    59          3
    61          1
    63         15
    65          5
    69          6
    70          6
    71          2
    77         41
    78          2
    79         12
    85         18
    86          1
    87          3
   105          1