##TITLE=Library Entry 70690
##JCAMP-DX=Revision 4.10 
##DATA TYPE=MASS SPECTRUM
##SAMPLE DESCRIPTION=A.A.Kutin, Moscow, Russia
##NAMES=HP
##CAS NAME=2-(1,3-Benzothiazol-2-yl)-4-([(2-thienylmethyl)amino]methylene)-5
-(trifluoromethyl)-2,4-dihydro-3H-pyrazol-3-one
##MOLFORM=C17H11F3N4OS2
##CAS REGISTRY NO=328280-06-4
##MP= -300
##BP= -300
##MW= 408
##$RETENTION INDEX=0
##$CONDENSED SPECTRUM=NO
##NPOINTS= 227
##XYDATA=(XY..XY) 1 
    35          0
    36          1
    37          5
    38         16
    39         43
    40         18
    41         30
    42          1
    45         94
    47         10
    48          0
    49          2
    50         13
    51         21
    52         19
    53         78
    54          3
    55          1
    56          3
    57         14
    58         15
    59          2
    60          0
    61          2
    62          7
    63         29
    64         10
    65          5
    66          1
    67          3
    69         59
    70         20
    71         16
    72          2
    73          1
    74          7
    75         13
    76          6
    77          7
    78         11
    79          2
    80          3
    81          7
    82         12
    83          4
    84          6
    85          3
    87          4
    88          2
    90         30
    91          6
    92          2
    93          7
    94          6
    95         18
    97        999
    98         59
    99         41
   100          4
   101          1
   102          4
   103          1
   104          3
   105          9
   106          4
   107         14
   108         29
   109         11
   110          6
   111          2
   112          4
   113          1
   114          1
   115          0
   116          2
   117          0
   118          0
   119          1
   120          8
   121         13
   122         13
   123          3
   124          1
   125          0
   127          0
   129          0
   130          0
   131          0
   132          1
   133          8
   134         37
   135         25
   136          7
   137          2
   138          0
   139          1
   140          0
   142          0
   143          0
   145          1
   146          2
   147          2
   148          5
   149         13
   150         27
   151          7
   152          1
   153          0
   157          0
   158          3
   159          2
   160          3
   161         10
   162          5
   163          4
   164          2
   165          0
   166          0
   170          0
   171          0
   173          2
   174          0
   175          1
   176          3
   177          6
   178          1
   179          0
   182          0
   183          0
   184          0
   185          2
   186          1
   187          1
   189         45
   190          5
   191          2
   192          0
   193          0
   196          0
   198          0
   199          1
   200          4
   201          7
   202          1
   203          1
   204          3
   205          1
   206          0
   208          8
   209          0
   211          0
   212          0
   214          0
   215          0
   216          0
   217          0
   218          0
   226          0
   228          6
   230          6
   231          9
   232          2
   233          0
   235          0
   240          0
   241          1
   243          1
   244          1
   245          5
   246          1
   247          0
   248          0
   250          0
   251          0
   253          0
   255         11
   256          2
   257          1
   258          2
   259          4
   260          1
   261          0
   263          0
   268          0
   269          1
   270          0
   274          2
   275          0
   279          1
   283          0
   285          0
   286          2
   296          1
   297          1
   298          5
   299          1
   300          0
   311          3
   312          1
   318          0
   320          0
   321          0
   322          0
   323          0
   325          0
   332          0
   336          0
   337          1
   339         29
   340          5
   341          2
   342          0
   347          0
   363          0
   368          0
   375          0
   378          0
   387          0
   388          0
   389          2
   390          0
   404          0
   406          2
   408        148
   409         18
   410         10
   411          1