##TITLE=Library Entry 28375
##JCAMP-DX=Revision 4.10 
##DATA TYPE=MASS SPECTRUM
##SAMPLE DESCRIPTION=A.A.Kutin, Moscow, Russia
##NAMES=HP
##CAS NAME=Butanoic acid, 4-(1,2,3,4,4a,9b-hexahydro-2,8-dimethyl-5H-pyrido[
4,3-b]indol-5-yl)-4-oxo-, methyl ester
##MOLFORM=C18H24N2O3
##CAS REGISTRY NO=328282-69-5
##MP= -300
##BP= -300
##MW= 316
##$RETENTION INDEX=0
##$CONDENSED SPECTRUM=NO
##NPOINTS= 146
##XYDATA=(XY..XY) 1 
    35          9
    36         50
    37         14
    38         21
    39         10
    42        414
    43        420
    44         44
    45         19
    50          7
    51         15
    53         23
    55        352
    56         68
    58        999
    59        223
    60          3
    62          2
    63         17
    64          7
    65         23
    66          4
    67          3
    68          9
    71        938
    72         23
    73          0
    75         12
    77         84
    78         25
    79          9
    80          5
    81          5
    82         16
    83         14
    84          3
    85          3
    87         97
    89         31
    90         11
    91         45
    92          7
    93          5
    94         15
    95          7
    96          7
    97          2
    99          4
   100          1
   101         16
   102         30
   103         49
   104         14
   105          9
   106          3
   107          1
   111          1
   112          3
   113          7
   115        285
   116         44
   117         36
   118         11
   119          3
   120          5
   121          1
   126          0
   127         28
   128         52
   129         58
   130        150
   131        133
   132         57
   133          9
   134          1
   139          1
   140          9
   141         23
   142         66
   143        144
   144        118
   145         24
   146         14
   147          2
   152          1
   153          4
   154         21
   156         83
   157         84
   158        218
   159         26
   160          6
   165          2
   166          0
   167          7
   168         16
   169          6
   170         16
   171         20
   172         18
   173          6
   174          2
   181          4
   182          5
   183          6
   184         12
   185         21
   186         23
   187          4
   194          0
   195          1
   196          3
   197          5
   198          6
   199         31
   200         31
   201        113
   202         24
   203          2
   212          3
   214         12
   215          1
   224          0
   225          2
   226          0
   227          0
   229         14
   230          2
   236          0
   241          1
   242          4
   246          0
   247          1
   257          1
   259          1
   269          1
   273          2
   283          2
   284          5
   285         48
   286         11
   313          2
   314          4
   316        164
   317         29
   318          2