##TITLE=Library Entry 22920
##JCAMP-DX=Revision 4.10 
##DATA TYPE=MASS SPECTRUM
##SAMPLE DESCRIPTION=A.A.Kutin, Moscow, Russia
##NAMES=HP
##CAS NAME=Pyrazol-3(2H)-one, 4-benzylsulfonylamino-1,5-dimethyl-2-phenyl-
##MOLFORM=C18H19N3O3S
##CAS REGISTRY NO=328281-54-5
##MP= -300
##BP= -300
##MW= 357
##$RETENTION INDEX=0
##$CONDENSED SPECTRUM=NO
##NPOINTS= 195
##XYDATA=(XY..XY) 1 
    33          1
    34          2
    35          3
    36         17
    37          3
    38         14
    39         42
    40         14
    41         24
    42         22
    43         13
    44          7
    45          4
    48          9
    50         10
    51         27
    52         12
    53          9
    54         22
    56        999
    57         47
    58          2
    60          4
    61          2
    62          5
    63         22
    64         45
    65         72
    66          7
    67          6
    68          3
    69          4
    70          2
    71          2
    72          0
    73          2
    74          2
    75          3
    76          5
    77         35
    78          4
    79          2
    80          1
    81          2
    83         64
    84         17
    85          2
    86          2
    87          1
    88          2
    89         13
    91        207
    92         25
    93          7
    94          1
    95          1
    96          1
    97          2
    98          1
    99          0
   100          0
   101          1
   102          0
   103          2
   104          4
   105          4
   106          2
   107          0
   109          5
   110          0
   111          1
   112          1
   113          1
   114          0
   115          1
   116          1
   117          1
   118          5
   119         19
   120         12
   121          2
   122          0
   123          6
   124          0
   125          0
   126          0
   128          1
   129          1
   130          2
   131          2
   132          2
   133          0
   134          0
   135          0
   137          0
   138          0
   139          0
   140          0
   141          0
   142          1
   143          2
   144          1
   145          2
   146          2
   147          2
   148          0
   149          1
   150          0
   151          0
   152          0
   153          0
   155          1
   156          0
   157          2
   158          4
   159          2
   160          1
   161          0
   162          0
   163          0
   164          0
   165          0
   166          0
   167          3
   168          0
   169          0
   170          0
   171          2
   172          3
   173          6
   174          2
   175          0
   176          0
   177          0
   179          0
   180          0
   181          0
   182          1
   183          4
   184          0
   185          4
   186          0
   187          0
   188          0
   189          0
   190          0
   192          1
   194          0
   196          0
   199         10
   200         13
   202        757
   203         99
   204          8
   205          0
   206          0
   208          0
   209          0
   210          0
   213          0
   216          5
   217          0
   218          0
   220          0
   222          0
   224          0
   226          0
   227          0
   228          0
   230          0
   237          0
   249          0
   250          0
   251          0
   252          0
   254          0
   256          0
   257          0
   261          0
   266          0
   283          0
   284          0
   290          0
   291          0
   292          2
   293         32
   294          6
   295          0
   353          0
   354          0
   355          0
   357         36
   358          7
   359          2
   360          0