##TITLE=Library Entry 14160
##JCAMP-DX=Revision 4.10 
##DATA TYPE=MASS SPECTRUM
##SAMPLE DESCRIPTION=Chemical Concepts
##NAMES=HP
##CAS NAME=Ethyl 2-acetamido-3,3,3-trifluoro-2-[3-(trifluoromethyl)anilino]p
ropionate
##MOLFORM=C14H14F6N2O3
##CAS REGISTRY NO=328270-17-3
##MP= -300
##BP= -300
##MW= 372
##$RETENTION INDEX=0
##$CONDENSED SPECTRUM=NO
##NPOINTS= 159
##XYDATA=(XY..XY) 1 
    33          2
    36          1
    37          1
    38          6
    39         13
    40         33
    41         26
    43        999
    44         53
    45          9
    46          2
    48          1
    50         11
    51          9
    52          4
    53          3
    54          4
    55         14
    57         31
    58          6
    59          9
    60         15
    62          2
    63         13
    64          8
    65         11
    66          3
    67          4
    68          3
    69         36
    70          9
    71         11
    72          2
    73          6
    75         24
    76          8
    77          9
    78          1
    79          2
    81          6
    82          5
    83         14
    84          7
    85          5
    87          3
    88          4
    89          1
    90          2
    91          7
    92          5
    93         12
    94          2
    95         34
    96         27
    97          6
    98          5
    99          3
   100          4
   101          3
   102          4
   105          1
   107          3
   109          4
   110          2
   111         14
   112          9
   113         13
   114         30
   115          8
   116          2
   118          8
   119          3
   120          6
   121          6
   123          5
   125         21
   126         19
   127          5
   129          3
   132          3
   133          5
   134          2
   138          2
   139          4
   140         15
   141          7
   142         45
   143          9
   145        171
   146         14
   149          5
   152          6
   153          2
   157          1
   159          7
   160         23
   161        180
   162         26
   163          3
   166          1
   167          9
   168          6
   170         26
   171         12
   172         57
   173          8
   174          2
   184          2
   185          2
   186          6
   187         35
   188          6
   189          4
   195          2
   197          3
   200         16
   201          2
   202          1
   210          1
   213          5
   215          4
   217         12
   221          5
   222          2
   231          1
   233         11
   234          2
   235         25
   236          8
   237         25
   238          9
   240        110
   241         14
   242          3
   255         52
   257        839
   258         83
   259          5
   261         25
   262          4
   269          2
   270          1
   283          6
   291          9
   292          2
   294         14
   296          5
   297          2
   299        244
   300         29
   301          5
   303          6
   311          2
   313         20
   314          5
   327          2
   353          9
   372         54
   373          8