##TITLE=Library Entry 51289
##JCAMP-DX=Revision 4.10 
##DATA TYPE=MASS SPECTRUM
##SAMPLE DESCRIPTION=S.A. Rang et al., IR & MS of Unsatd. Hydrocarbons, 1977
##NAMES=HP
##CAS NAME=Cyclohexene,1-cyclohexyl-
##MOLFORM=C12H20
##CAS REGISTRY NO=3282-54-0
##MP= -300
##BP= -300
##MW= 164
##$RETENTION INDEX=0
##$CONDENSED SPECTRUM=NO
##NPOINTS= 99
##XYDATA=(XY..XY) 1 
    25          1
    26         12
    27        133
    28         17
    29        138
    37          1
    38          3
    39        195
    40         30
    41        559
    42         27
    43         38
    45          2
    50          8
    51         36
    52         32
    53        164
    54        138
    55        542
    56         27
    57          6
    58          2
    59          2
    60          1
    61          0
    62          1
    63         10
    64          4
    65         87
    66         49
    67        796
    68        169
    69         46
    70          4
    73          2
    74          0
    75         21
    76          3
    77        195
    78         64
    79        559
    80        277
    81        661
    82        999
    83        508
    84         26
    85          0
    89          2
    90          1
    91        179
    92         34
    93        251
    94        123
    95        133
    96        123
    97         97
    98         10
    99          0
   100          1
   101          0
   102          2
   103         11
   104          8
   105         34
   106         12
   107        133
   108         87
   109         68
   110          9
   115          9
   116          3
   117          8
   118          2
   119         10
   120          5
   121        149
   122        102
   123         23
   124          2
   128          2
   129          2
   130          2
   131          2
   132          0
   133          4
   134          2
   135         92
   136         23
   137          2
   147          1
   149         26
   150          3
   151          0
   158          1
   160          1
   162          5
   164        508
   165         48
   166          6