##TITLE=Library Entry 63381
##JCAMP-DX=Revision 4.10 
##DATA TYPE=MASS SPECTRUM
##SAMPLE DESCRIPTION=A.A.Kutin, Moscow, Russia
##NAMES=HP
##CAS NAME=Ethanone, 2-benzylamino-1-(dibenzo[b,f][1H]-azepin-5-yl-
##MOLFORM=C23H20N2O
##CAS REGISTRY NO=328274-97-1
##MP= -300
##BP= -300
##MW= 340
##$RETENTION INDEX=0
##$CONDENSED SPECTRUM=NO
##NPOINTS= 222
##XYDATA=(XY..XY) 1 
    38         32
    39         37
    40         25
    41         18
    42         19
    43         15
    44          9
    45         21
    46          2
    48          0
    49          0
    50          9
    51         24
    52          7
    53          3
    54          1
    55          3
    56          1
    57          4
    58          0
    59          2
    60          3
    61          1
    62          7
    63         29
    64          9
    65         96
    66          7
    67          1
    68          0
    69          2
    70          2
    71          2
    73          1
    74          4
    75          9
    76          8
    77         20
    78          8
    79          7
    80          1
    81          2
    82          2
    83          4
    84          2
    85          1
    86          2
    87          6
    88          5
    89         39
    90         20
    91        999
    92         77
    93          4
    94          0
    95          3
    96          3
    97          1
    98          1
    99          2
   100          2
   101          5
   102          6
   103          3
   104          7
   105          5
   106        440
   107         44
   108          3
   109          0
   110          1
   111          2
   112          3
   113         10
   114          5
   115         14
   116          5
   117         11
   118         43
   119         10
   120        372
   121         33
   122          1
   123          0
   124          0
   125          1
   126          7
   127          4
   128          7
   129          2
   130          1
   131          0
   132          0
   133          1
   134          9
   135          2
   136          0
   137          5
   138          6
   139         30
   140         24
   141          4
   142          0
   143          1
   144          0
   145          0
   146          1
   147          0
   148          0
   149          3
   150          6
   151          9
   152         16
   153          6
   154          1
   155          0
   158          0
   159          0
   160          0
   161          1
   162          5
   163         45
   164         49
   165        149
   166         39
   167         30
   168          3
   169          0
   170          2
   171          4
   172          0
   173          0
   174          0
   175          2
   176          9
   177         24
   178         14
   179          7
   180          6
   181          1
   185          0
   186          0
   187          0
   188          8
   189         19
   190        135
   191        213
   192        262
   193        703
   194        122
   195         14
   196          1
   201          0
   202          1
   203          2
   204         10
   205          6
   206         21
   207         11
   208          2
   209          1
   210          0
   214          0
   215          0
   216          1
   217          3
   218          9
   219          4
   220         13
   221          8
   222          2
   224          0
   226          0
   227          1
   229          0
   230          0
   231          1
   232          2
   233         23
   234        318
   235        326
   236         59
   237          7
   238          0
   239          0
   243          0
   248          0
   249          0
   250          0
   251          1
   252          0
   253          0
   254          0
   263          1
   264          0
   265          0
   266          0
   267          1
   268          0
   269          1
   270          0
   271          0
   272          0
   273          0
   275          0
   278          0
   280          0
   281          1
   282          1
   283          1
   284          0
   294          0
   301          0
   311          0
   312          0
   313          0
   315          0
   338          0
   339          1
   340         21
   341          6
   342          0