##TITLE=Library Entry 46415
##JCAMP-DX=Revision 4.10 
##DATA TYPE=MASS SPECTRUM
##SAMPLE DESCRIPTION=A.A.Kutin, Moscow, Russia
##NAMES=HP
##CAS NAME=Benzamide, 3-diethylaminosulfonyl-N-(2-thiazolyl)-
##MOLFORM=C14H17N3O3S2
##CAS REGISTRY NO=328272-27-1
##MP= -300
##BP= -300
##MW= 339
##$RETENTION INDEX=0
##$CONDENSED SPECTRUM=NO
##NPOINTS= 168
##XYDATA=(XY..XY) 1 
    33         20
    34          1
    36          1
    37          0
    39         21
    40         32
    42        268
    44        284
    45         91
    47          9
    48          3
    50        180
    51         49
    53         20
    55        125
    56        129
    58        213
    59         10
    60          3
    62          2
    64         58
    65         28
    67          2
    68          2
    70         42
    72        611
    76        999
    77        173
    78         15
    79          4
    80          6
    81          4
    82          3
    84         12
    85          4
    86          4
    88          3
    89          7
    90         18
    91         25
    92         26
    93         17
    95         17
    96         19
    97          5
    99         14
   100         29
   102         12
   104        472
   105        623
   106         37
   108         21
   109          5
   110          5
   111          4
   113          5
   114          1
   115          2
   116          9
   117         14
   118         19
   121        253
   123         29
   124         24
   125          5
   127         86
   128          6
   129          6
   130          8
   131          9
   133         27
   134         14
   136         11
   137          8
   138          0
   140         22
   141         18
   142          5
   144         27
   145          5
   146          5
   148         52
   150          1
   152         31
   153          5
   154          1
   155          1
   158          2
   159          2
   160         19
   162         45
   164         67
   165          6
   166          3
   169        562
   170         55
   171         65
   172          6
   174         12
   176        132
   177         10
   178          5
   179          0
   183          0
   184          1
   186          9
   187          0
   190          1
   191          7
   192         27
   193          2
   194          2
   196         91
   197         66
   198          8
   199          3
   200          2
   202         18
   204        827
   205         86
   206         37
   207          2
   209          1
   210          5
   211          2
   212          5
   213          0
   214          2
   217          1
   218          6
   219         20
   220          2
   229          0
   232          0
   236          3
   238         18
   240        981
   241        111
   242         51
   243          4
   244          0
   251          3
   252          1
   260          3
   266          2
   267         35
   268         14
   269          6
   270          1
   271          0
   274          0
   286          0
   294          2
   295          0
   296          1
   310          0
   311          1
   322          1
   324        138
   326         29
   327          1
   328          0
   336          1
   338         42
   339        131
   340         25
   341         13
   342          2