##TITLE=Library Entry 16808
##JCAMP-DX=Revision 4.10 
##DATA TYPE=MASS SPECTRUM
##SAMPLE DESCRIPTION=A.A.Kutin, Moscow, Russia
##NAMES=HP
##CAS NAME=d-Arabinosamine, N-(3-carboxyphenyl)-
##MOLFORM=C12H15NO6
##CAS REGISTRY NO=328241-63-0
##MP= -300
##BP= -300
##MW= 269
##$RETENTION INDEX=0
##$CONDENSED SPECTRUM=NO
##NPOINTS= 53
##XYDATA=(XY..XY) 1 
    37         72
    38        259
    39        744
    40        191
    41        312
    42        369
    43        828
    44        311
    45        999
    46         15
    50        224
    51        224
    52        161
    53        105
    54         34
    55         75
    56         13
    57        159
    58         23
    60         18
    61         72
    62         43
    63        173
    64         95
    65        556
    66         53
    68        154
    69         22
    73         16
    74         15
    75         63
    76         56
    77         70
    78         26
    80         14
    81         12
    87         21
    90         16
    91         51
    92        255
    93         25
   104         14
   105         17
   106         11
   120        160
   121         41
   122          3
   137        405
   138          7
   148        126
   149          9
   165        100
   166         10