##TITLE=Library Entry 5692
##JCAMP-DX=Revision 4.10 
##DATA TYPE=MASS SPECTRUM
##SAMPLE DESCRIPTION=Chemical Concepts
##NAMES=HP
##CAS NAME=Ethyl 2-acetamido-3,3,3-trifluoro-2-(o-toluidino)propionate
##MOLFORM=C14H17F3N2O3
##CAS REGISTRY NO=328270-11-7
##MP= -300
##BP= -300
##MW= 318
##$RETENTION INDEX=0
##$CONDENSED SPECTRUM=NO
##NPOINTS= 95
##XYDATA=(XY..XY) 1 
    33        145
    34         57
    36         11
    37          9
    38         30
    39         91
    40        901
    41        121
    43        999
    44        566
    45         34
    48          8
    50         26
    51         72
    52         35
    53         30
    54         26
    55         72
    56         32
    57         53
    58          8
    59         35
    60         16
    62          9
    63         46
    65        205
    66         31
    67         23
    69         82
    70         27
    71         27
    72         11
    73          9
    77        170
    78         56
    79         60
    80         17
    81         16
    82         16
    83         37
    84          9
    85         17
    87          5
    89         69
    91        515
    92         38
    93         52
    94         10
    95         16
    96         22
    97          8
    98          5
   104         31
   105         22
   106        285
   107        388
   108         88
   109          5
   112          8
   117        177
   118        174
   119         24
   120          5
   131          5
   133        120
   134         16
   135         14
   142         19
   146         15
   147          5
   149          9
   151          5
   166         79
   167         17
   170         11
   171          7
   172         10
   179         16
   185          8
   186        294
   187         64
   189         41
   190          4
   201         19
   202          6
   203        837
   204         85
   205          4
   207         40
   245        144
   246         10
   259        100
   260          5
   318         99
   319         11