##TITLE=Library Entry 72756
##JCAMP-DX=Revision 4.10 
##DATA TYPE=MASS SPECTRUM
##SAMPLE DESCRIPTION=A.A.Kutin, Moscow, Russia
##NAMES=HP
##CAS NAME=1H-Indole-3-carboxylic acid, 6-bromo-5-methoxy-1-methyl-2-[(4-met
hylpiperazin-1-yl)methyl]-, ethyl ester
##MOLFORM=C19H26BrN3O3
##CAS REGISTRY NO=328278-39-3
##MP= -300
##BP= -300
##MW= 423
##$RETENTION INDEX=0
##$CONDENSED SPECTRUM=NO
##NPOINTS= 316
##XYDATA=(XY..XY) 1 
    29        113
    30         36
    31         22
    32         14
    36          0
    39          1
    40          1
    41         18
    42        256
    43        254
    44        280
    45         13
    46          0
    47          0
    51          0
    52          0
    53          1
    54         14
    55         50
    56        661
    57        118
    58        152
    59        107
    60          8
    62          0
    63          1
    65          1
    66          5
    67          3
    68          6
    69         16
    70        241
    71        110
    72        151
    73         11
    74          2
    75          1
    76          2
    77         10
    78          1
    79          0
    80          0
    81          6
    82          9
    83         17
    84         29
    85         89
    86          8
    87          6
    88          3
    89          8
    90          1
    91          3
    92          0
    93          0
    94          0
    95          4
    96         14
    97        278
    98        130
    99        999
   100         66
   101          9
   102         10
   103          8
   104          2
   105          2
   106          0
   107          0
   108          0
   109          1
   110          1
   111         58
   112         27
   113         29
   114          7
   115         19
   116         12
   117          9
   118          5
   119          0
   121          0
   125          0
   126          1
   127          8
   128         22
   129         26
   130         34
   131          9
   132          2
   133          0
   135          0
   137          0
   138          0
   139          0
   140          2
   141          7
   142         19
   143         11
   144         13
   145          5
   146         10
   147          2
   148          0
   154          0
   155          1
   156          6
   157         11
   158         16
   159          3
   160          0
   161          9
   162          0
   165          0
   166          0
   167          2
   168          2
   169          6
   170          6
   171          8
   172          9
   173          3
   174          9
   175          1
   178          0
   180          0
   181          1
   182          1
   183          1
   184          1
   185          4
   186         16
   187         20
   188         16
   189         12
   190          1
   193          0
   194          0
   195          0
   196          3
   197          6
   198          4
   199          3
   200          2
   201          0
   202          6
   205          0
   207          1
   208         10
   209         13
   210          8
   211         12
   212          5
   213          0
   214          1
   215          3
   216         14
   217          4
   218          1
   222          1
   223          1
   224          1
   225          2
   226          3
   227          2
   228          0
   229          0
   230          0
   232          0
   233          0
   235          1
   236          8
   237         10
   238          9
   239         10
   240          2
   241          0
   242          0
   243          0
   244          2
   245          0
   246          3
   247          0
   248          0
   249          0
   250          7
   251         10
   252         26
   253         65
   254         27
   255         57
   256          8
   257          1
   260          0
   261          0
   262          0
   263          4
   264          7
   265         16
   266         13
   267         13
   268          6
   269          2
   270          0
   272          1
   273          0
   276          2
   277          3
   278          7
   279         24
   280         46
   281         59
   282         46
   283         36
   284          7
   285          0
   286          1
   290          5
   291         39
   292         17
   293         57
   294         50
   295         26
   296        259
   297         50
   298        231
   299         30
   300          1
   303          0
   304          1
   305         28
   306        232
   307         72
   308        222
   309         47
   310         12
   311          4
   312          7
   313          1
   314          0
   315          0
   317          4
   318          9
   319         14
   320         22
   321         17
   322         39
   323         57
   324        250
   325        133
   326        239
   327         96
   328         14
   331          0
   332          0
   333          1
   334          3
   335         21
   336         18
   337         32
   338         21
   339         14
   340          2
   341          2
   343          0
   347          3
   348         16
   349         19
   350        109
   351         38
   352        185
   353         55
   354         99
   355         23
   356          3
   358          0
   359          0
   360          0
   361          0
   362          4
   363         15
   364        247
   365         71
   366        315
   367         78
   368         71
   369         17
   370          0
   376          0
   377         34
   378         47
   379         46
   380         49
   381         11
   382         11
   383          3
   393          3
   394         21
   395         16
   396         29
   397         10
   408          9
   409          0
   410          5
   411          0
   418          0
   419          3
   420          5
   421         12
   422         42
   423        785
   424        241
   425        766
   426        222
   427         31
   428          2