##TITLE=Library Entry 3026
##JCAMP-DX=Revision 4.10 
##DATA TYPE=MASS SPECTRUM
##SAMPLE DESCRIPTION=Chemical Concepts
##NAMES=HP
##CAS NAME=Nickel, bis(.eta.3-2-propenyl)bis[.mu.-(trifluoroacetato-O:O')]di
-
##MOLFORM=C10H10F6Ni2O4
##CAS REGISTRY NO=32823-77-1
##MP= -300
##BP= -300
##MW= 424
##$RETENTION INDEX=0
##$CONDENSED SPECTRUM=NO
##NPOINTS= 208
##XYDATA=(XY..XY) 1 
    27        588
    28        272
    29        283
    30        148
    31        267
    33          1
    34          0
    36         11
    37         73
    38        109
    39        870
    40         87
    41        999
    42        342
    43        208
    44        216
    45         25
    46          0
    47          0
    49          1
    50         43
    51          8
    53         43
    55         52
    56        167
    57        884
    58          3
    59         11
    60         38
    61          0
    62          4
    65          2
    67        102
    69          3
    71          2
    72         13
    73          5
    74          0
    75          0
    76          0
    79         96
    80          4
    81        102
    82          6
    84         24
    85          0
    86         14
    87          1
    88          2
    89          4
    90          1
    93          1
    97         73
    98         89
    99        824
   100         89
   101        311
   102         35
   103         34
   108         50
   112          9
   113          4
   114         18
   115          0
   116          6
   118         26
   120          5
   125          0
   126          2
   127          1
   130          1
   132          1
   135         17
   136          2
   137         13
   138          9
   139          5
   140        645
   141         43
   142        237
   143         33
   144         34
   145          4
   146          8
   147          1
   149         14
   150          0
   151          4
   152          1
   153          1
   154         11
   155          1
   156          9
   157          1
   158          4
   159          3
   160          1
   161          0
   163          0
   165          0
   166          0
   167          0
   169          4
   171          2
   173          0
   174          2
   175          2
   176          9
   177          3
   178          6
   179          2
   180          3
   181          1
   182          1
   183          0
   185          1
   187          0
   191          0
   195         24
   196          1
   197         19
   198          6
   199          7
   200          4
   201          1
   202          1
   204          2
   206          1
   208          0
   212         55
   213          3
   214         23
   215          2
   216          3
   217          1
   218          0
   219          1
   221          0
   229          8
   231          5
   232          0
   233          2
   235          0
   239          0
   241          0
   244          0
   248          8
   250          7
   252          1
   254          1
   255          0
   256          1
   257          0
   268          1
   269          6
   270         11
   271          4
   272          8
   273          2
   274          2
   275          0
   276          0
   279          0
   283          1
   285          1
   289         52
   290          2
   291         40
   292          4
   293         14
   294          1
   295          4
   296          0
   297          1
   307          0
   310          0
   311         16
   312          2
   313         12
   314          1
   315          3
   316          0
   317          1
   322          0
   323          0
   335          0
   342          2
   344          1
   352          0
   363          1
   365          0
   383         15
   384          0
   385         11
   386          1
   387          3
   389          0
   400          4
   401          1
   424         78
   425          9
   426         64
   427         10
   428         20
   429          2
   430          4
   431          0
   432          1