##TITLE=Library Entry 46523
##JCAMP-DX=Revision 4.10 
##DATA TYPE=MASS SPECTRUM
##SAMPLE DESCRIPTION=Chemical Concepts
##NAMES=HP
##CAS NAME=Ethyl 2-chloro-2-(2-chloroacetamido)-3,3,3-trifluoropropionate
##MOLFORM=C7H8Cl2F3NO3
##CAS REGISTRY NO=328270-32-2
##MP= -300
##BP= -300
##MW= 281
##$RETENTION INDEX=0
##$CONDENSED SPECTRUM=NO
##NPOINTS= 183
##XYDATA=(XY..XY) 1 
    33          4
    34          2
    35         20
    36         89
    37          7
    38         30
    39         10
    40         29
    41         45
    42        361
    43         96
    44        282
    45        115
    46         11
    47         19
    48         39
    49        480
    50         49
    51        179
    52          8
    53          4
    54         18
    55         25
    56         13
    57         35
    58          9
    59          4
    60          4
    61          5
    62         57
    63          8
    64         21
    65          7
    66          3
    67          9
    69        165
    70         15
    71         11
    72          4
    73          7
    74          5
    76        162
    77        999
    78         89
    79        305
    80          9
    81          5
    82          5
    83         13
    84          6
    85         18
    87          9
    88          1
    89          2
    90          5
    91          4
    93         52
    94          6
    95         44
    96        117
    97         25
    98         14
    99          3
   100          1
   101          2
   102          1
   103          2
   104          2
   105          2
   106          3
   107          2
   108         10
   109          5
   110          7
   111          5
   112         30
   113        198
   114         52
   115         92
   116          9
   117          3
   118          4
   119          3
   120          5
   121          2
   122          4
   123         12
   124          8
   125         31
   126          7
   127          5
   129          8
   130          4
   131         11
   132        266
   133         12
   134         90
   135          5
   136          9
   137         11
   138          5
   139          2
   140          6
   142         51
   143          5
   144          9
   145         11
   146          5
   147          5
   148          1
   149          9
   151          9
   152          3
   154        188
   155         13
   156         67
   157         82
   158         39
   159         27
   160         26
   161          5
   162          7
   163          2
   165          1
   166          3
   167          1
   168         15
   169          9
   170        126
   171         11
   173         44
   174         40
   175         16
   176         32
   177          3
   178          7
   181          3
   182          4
   183          2
   184          1
   186          9
   189        155
   190         31
   191        100
   192         12
   193         18
   194          3
   195          1
   196         16
   197          2
   198          2
   199          1
   200          1
   201          8
   202          3
   203          4
   204         34
   205          3
   206         11
   207          9
   208         48
   209         67
   210         31
   211         39
   212          8
   213          7
   214          2
   217         11
   218          9
   219          5
   220          4
   232          2
   233          1
   234          3
   236         33
   238         22
   239          2
   240          4
   246          1
   248          1
   281          1
   282          1
   283          1