##TITLE=Library Entry 80266
##JCAMP-DX=Revision 4.10 
##DATA TYPE=MASS SPECTRUM
##SAMPLE DESCRIPTION=Chemical Concepts
##NAMES=HP
##CAS NAME=Ethyl 2-benzamido-3,3,3-trifluoro-2-piperidinopropionate
##MOLFORM=C17H21F3N2O3
##CAS REGISTRY NO=328270-49-1
##MP= -300
##BP= -300
##MW= 358
##$RETENTION INDEX=0
##$CONDENSED SPECTRUM=NO
##NPOINTS= 158
##XYDATA=(XY..XY) 1 
    34          1
    37          1
    39         17
    40          9
    41         60
    42         28
    43         15
    44         16
    45          5
    46          1
    47          1
    50         16
    51         51
    52          6
    53          5
    54          9
    55         33
    56         28
    57         14
    58          1
    59          1
    60          2
    61          1
    62          1
    63          1
    64          1
    65          2
    66          1
    67          9
    68          6
    69         28
    70          7
    71          3
    72          1
    73          3
    74          4
    75          7
    76         25
    77        279
    78         22
    79          2
    80          2
    81          2
    82          8
    83         15
    84        425
    85         31
    86          2
    88          1
    89          1
    90          1
    91          2
    92          1
    93          1
    94          1
    96         12
    97          2
    98          1
   101          1
   102          2
   103         12
   105        999
   106         65
   107          5
   108          2
   109          2
   110          2
   111          4
   112          9
   113          3
   114          2
   115          2
   116          1
   117          1
   118          1
   121          7
   122          4
   123          1
   124          2
   125          3
   126          2
   128          1
   129          1
   130          1
   131          1
   132          2
   133          2
   134          1
   135          1
   136          2
   137          2
   138          1
   139          1
   140          1
   142          2
   143          1
   144          3
   146          2
   147          1
   149          1
   150          2
   151          7
   152          2
   154          1
   155          1
   159          1
   161          1
   162          2
   163          1
   164          4
   165         10
   166          3
   170          1
   171          3
   172          1
   177          1
   178          1
   179          7
   180          2
   181          3
   182         82
   183          7
   186          2
   187          1
   188          3
   189          3
   190          7
   191          2
   192          1
   201          1
   202          1
   203          3
   207          9
   208         39
   209          9
   210          4
   215          2
   217          2
   218          2
   219          1
   228          1
   229          7
   230          1
   236          3
   237         24
   238          9
   239          1
   243          1
   253          1
   275          3
   281          1
   282          1
   283          2
   285         67
   286          9
   287          1
   289          3
   358          1