##TITLE=Library Entry 13624
##JCAMP-DX=Revision 4.10 
##DATA TYPE=MASS SPECTRUM
##SAMPLE DESCRIPTION=Chemical Concepts
##NAMES=HP
##CAS NAME=Ethyl 2-acetamido-3,3,3-trifluoro-2-(2-fluoroanilino)propionate
##MOLFORM=C13H14F4N2O3
##CAS REGISTRY NO=328270-14-0
##MP= -300
##BP= -300
##MW= 322
##$RETENTION INDEX=0
##$CONDENSED SPECTRUM=NO
##NPOINTS= 143
##XYDATA=(XY..XY) 1 
    33         12
    36          1
    37          4
    38          9
    40         27
    41         18
    43        999
    44         63
    45         11
    46          4
    47          3
    48          2
    50         22
    51         18
    52         11
    53          2
    54          4
    55          3
    56          9
    57         37
    59         39
    60          9
    61          4
    62          8
    63         20
    64         27
    65         22
    66          6
    67          2
    68         10
    69         89
    70          9
    71          1
    72          3
    73          5
    74         12
    75         96
    76         14
    77         14
    78          4
    79          1
    81         11
    83        114
    84         45
    85          8
    88          1
    89          6
    90         31
    91         25
    92         26
    93         12
    94         31
    95        259
    96         47
    97          5
    98          3
    99          2
   100          2
   102         22
   103          3
   104          2
   106          1
   107          2
   108          5
   109         12
   110         41
   111        658
   112         85
   113          7
   114          6
   116          2
   117          9
   118          5
   119          4
   120          5
   121         22
   122        158
   123         14
   124          7
   125          4
   128          1
   132          1
   134          1
   135          8
   136          9
   137         65
   138          7
   139          1
   140         10
   142         27
   143          1
   145          1
   147          5
   148          2
   149          3
   150         36
   151          3
   152          2
   153          1
   160          2
   163          5
   165          2
   166          5
   167         11
   168          3
   170         17
   171          8
   172          3
   181          1
   183         15
   184          2
   185          5
   187         83
   188          7
   190        333
   191         31
   192          2
   193          1
   194          3
   198          1
   205         17
   207        905
   208         69
   209          3
   211         34
   212          4
   219          4
   231          1
   232          1
   233          5
   234          1
   235          1
   236          1
   241          4
   249        201
   250         21
   251          1
   253          6
   261          1
   263         66
   264          9
   322         67
   323          9