##TITLE=Library Entry 73000
##JCAMP-DX=Revision 4.10 
##DATA TYPE=MASS SPECTRUM
##SAMPLE DESCRIPTION=A.A.Kutin, Moscow, Russia
##NAMES=HP
##CAS NAME=Benzamide, 2,5-dichloro-N-[2-(4-morpholyl)ethyl]-
##MOLFORM=C13H16Cl2N2O2
##CAS REGISTRY NO=328283-65-4
##MP= -300
##BP= -300
##MW= 302
##$RETENTION INDEX=0
##$CONDENSED SPECTRUM=NO
##NPOINTS= 118
##XYDATA=(XY..XY) 1 
    33          0
    35          0
    36          1
    38          1
    39          1
    42        112
    43         16
    44         16
    45          4
    50          4
    51          3
    52          1
    56        156
    57          8
    58          4
    59          0
    60          0
    61          0
    62          0
    63          1
    64          0
    65          0
    67          0
    68          2
    70         50
    72         26
    74          8
    75         22
    77          2
    78          0
    79          0
    83         10
    84          6
    85          5
    86          6
    88          5
    89          0
    90          0
    91          0
    95          0
    96          0
    98         16
   100        999
   101         42
   103          0
   104          0
   105          0
   107          1
   109         21
   110          8
   111         11
   113         71
   114          4
   116          0
   117          0
   118          0
   119          0
   121          0
   123          0
   124          0
   125          1
   126          0
   128          1
   132          0
   136          1
   138          3
   139          4
   140          0
   141          0
   142          0
   143          0
   145         40
   147         28
   149          5
   150          0
   151          0
   152          0
   153          0
   154          0
   155          0
   157          0
   159          0
   161          0
   162          0
   164          0
   168          0
   170          0
   171          0
   173         54
   175         34
   177          7
   178          0
   179          0
   180          0
   182          1
   184          0
   189          0
   190          1
   192          0
   202          0
   204          0
   214          0
   216          4
   218          3
   219          0
   220          0
   245          0
   259          2
   260          0
   261          1
   263          0
   284          0
   286          0
   301          0
   302          2
   303          0
   304          1
   305          0