##TITLE=Library Entry 67771
##JCAMP-DX=Revision 4.10 
##DATA TYPE=MASS SPECTRUM
##SAMPLE DESCRIPTION=A.A.Kutin, Moscow, Russia
##NAMES=HP
##CAS NAME=Furazan-3-amine, 4-(1,2,4-triazol-3-yl)-
##MOLFORM=C4H4N6O
##CAS REGISTRY NO=328275-11-2
##MP= -300
##BP= -300
##MW= 152
##$RETENTION INDEX=0
##$CONDENSED SPECTRUM=NO
##NPOINTS= 66
##XYDATA=(XY..XY) 1 
    33          2
    34          2
    35          0
    36          6
    38        143
    39        157
    40        206
    41        205
    42        445
    43        184
    44         16
    45          3
    48          0
    50         15
    51         47
    52         51
    53        197
    54         61
    55          9
    56          4
    57          4
    58         29
    59          1
    62          1
    64         11
    65         24
    66         43
    67         42
    68        178
    69        210
    70          8
    71          8
    72          7
    73          0
    76          7
    77         31
    79          7
    81        133
    83         11
    84          3
    85          0
    90          0
    92          9
    93         10
    95        999
    96         54
    97          2
   104          0
   105          0
   106          1
   108         33
   109         10
   110          4
   111          4
   112          0
   121          0
   122          1
   123          0
   133          0
   134          0
   135          6
   136          0
   149          1
   150          3
   152        142
   153          8