##TITLE=Library Entry 31591
##JCAMP-DX=Revision 4.10 
##DATA TYPE=MASS SPECTRUM
##SAMPLE DESCRIPTION=Chemical Concepts
##NAMES=HP
##CAS NAME=2,4-Di(4-bromoanilino)-5-chloro-6-methylpyrimidine
##MOLFORM=C17H13Br2ClN4
##CAS REGISTRY NO=328275-30-5
##MP= -300
##BP= -300
##MW= 466
##$RETENTION INDEX=0
##$CONDENSED SPECTRUM=NO
##NPOINTS= 169
##XYDATA=(XY..XY) 1 
    35         11
    36         47
    37        106
    38        336
    39        592
    40        105
    41        418
    42        414
    43         47
    47         27
    50        758
    51        376
    52        270
    53        101
    54        159
    55         24
    57         10
    61        102
    62        293
    63        999
    64        664
    65        543
    66        136
    67        112
    68         26
    73        147
    74        286
    75        758
    76        764
    77        589
    78        105
    79         88
    80         45
    81         37
    82         29
    85         14
    86         26
    87         47
    88        107
    90        657
    91        534
    92        159
    93         26
    95         13
    98         10
    99         25
   100         70
   101         57
   102        194
   103         84
   104         37
   105         53
   106         14
   107         12
   114        116
   115         66
   116        168
   117        176
   118        102
   119         79
   122         60
   123         33
   125         38
   127        450
   128        618
   129         84
   130         42
   131         44
   132         21
   133         45
   135         14
   136         70
   137         49
   139         19
   140         39
   141         47
   142         60
   143        248
   144         50
   145        157
   146         16
   149         13
   150         21
   151         30
   152         18
   153         52
   155        645
   156        179
   157        409
   158         51
   164         14
   165         17
   166         15
   167         29
   168         31
   169         45
   170         94
   171         71
   172         50
   173         36
   175         15
   176         41
   177         17
   178         20
   179         14
   180         22
   181         58
   182         82
   183         31
   184         25
   189         11
   190         30
   191         50
   192         51
   193         59
   194         81
   195         82
   196         81
   197         60
   198         51
   203         14
   204         14
   205         25
   206         13
   207         14
   208         13
   209         11
   216         20
   217         38
   218         20
   219         20
   220         19
   221         12
   222         18
   229         11
   230         20
   231         22
   232         19
   233         16
   234         20
   235         22
   236         21
   237         14
   243         26
   245         10
   254         12
   256         13
   270         17
   271        178
   272         50
   273        218
   274         81
   307         14
   308         10
   351         14
   352         22
   353         17
   354         21
   387         22
   388         13
   389         20
   390         12
   465         20
   466         45
   467         40
   468        100
   469         34
   470         66
   471         16