##TITLE=Library Entry 23134
##JCAMP-DX=Revision 4.10 
##DATA TYPE=MASS SPECTRUM
##SAMPLE DESCRIPTION=Chuck Anderson, Aldrich Chemical Co.
##NAMES=HP
##CAS NAME=1-Chloro-3-pentanone
##MOLFORM=C5H9ClO
##CAS REGISTRY NO=32830-97-0
##MP= -300
##BP= -300
##MW= 120
##$RETENTION INDEX=0
##$CONDENSED SPECTRUM=NO
##NPOINTS= 59
##XYDATA=(XY..XY) 1 
    14          5
    15          7
    17          0
    18          0
    25          4
    26         64
    27        341
    28         99
    29        471
    30         11
    31          4
    32          0
    35          1
    36          1
    37          4
    38          6
    39         23
    40          3
    41         19
    42         30
    43         24
    44          2
    45          0
    47          0
    48          1
    49         15
    50          5
    51          8
    52          1
    53         15
    54          2
    55        172
    56         30
    57        999
    58         30
    59          2
    60          2
    61         12
    62          8
    63        373
    64         10
    65        127
    66          3
    67          1
    71          2
    77          0
    83          7
    84         18
    85        141
    86          7
    89          2
    90          0
    91        276
    92          6
    93         91
    94          2
   120         46
   121          2
   122         16