##TITLE=Library Entry 61161
##JCAMP-DX=Revision 4.10 
##DATA TYPE=MASS SPECTRUM
##SAMPLE DESCRIPTION=A.A.Kutin, Moscow, Russia
##NAMES=HP
##CAS NAME=Acetohydrazide, 2-(4-tolyloxy)-N2-(2-nitrobenzylideno)-
##MOLFORM=C16H15N3O4
##CAS REGISTRY NO=328541-22-6
##MP= -300
##BP= -300
##MW= 313
##$RETENTION INDEX=0
##$CONDENSED SPECTRUM=NO
##NPOINTS= 175
##XYDATA=(XY..XY) 1 
    33          1
    34          1
    36          1
    37          8
    38         30
    39        220
    40         39
    41         72
    42         30
    43         90
    44         21
    45         20
    46          2
    47          0
    50        103
    51        249
    52        113
    53         58
    54          7
    55         21
    56          7
    57         13
    58         10
    59          4
    60          5
    61          8
    62         39
    63        155
    64        107
    65        489
    66         38
    67          6
    68          2
    69          5
    70          5
    71         10
    73          6
    74         14
    75         31
    76         86
    77        297
    78        151
    79        130
    80         53
    81          8
    82          2
    83          4
    84          3
    85          2
    86          4
    87          6
    88          8
    89         89
    90        122
    91        999
    92        187
    93        274
    94         26
    95          3
    96          1
    97          1
    98          1
    99          0
   100          0
   101          1
   102         26
   103         41
   104         50
   105         53
   106         52
   107        632
   108        477
   109         45
   110          3
   111          1
   112          3
   113          1
   114          0
   115          2
   116          3
   117          8
   118         25
   119         61
   120         59
   121        488
   122         61
   123         38
   124          3
   125          0
   126          0
   127          1
   128          1
   129          2
   130          2
   131         23
   132         38
   133         26
   134         80
   135         39
   136         24
   137          4
   138          0
   139          0
   140          0
   141          1
   142          0
   143          0
   144          0
   145          1
   146          5
   147         14
   148         28
   149         34
   150         12
   151          7
   152          3
   153          1
   154          1
   155          0
   156          0
   157          0
   158          0
   159          1
   160         19
   161          5
   162          4
   163          7
   164          7
   165        176
   166         20
   167          2
   168          0
   169          0
   171          6
   172          0
   174          0
   175          0
   176          1
   178         76
   179          7
   180          2
   181          1
   182          1
   183          0
   184          0
   185          0
   188          0
   189          0
   191          0
   192          4
   193          0
   194          0
   195          1
   196          0
   197          0
   198          0
   199          0
   204          0
   206        149
   207         17
   208          1
   209          0
   210          0
   211          1
   212          0
   222          0
   225          0
   238          0
   283          3
   284          0
   296          2
   297          0
   313         77
   314         14
   315          2