##TITLE=Library Entry 22653
##JCAMP-DX=Revision 4.10 
##DATA TYPE=MASS SPECTRUM
##SAMPLE DESCRIPTION=Chemical Concepts
##NAMES=HP
##CAS NAME=2,4-Dichloro-3'-hydroxy-5-(morpholinosulfonyl)benzanilide
##MOLFORM=C17H16Cl2N2O5S
##CAS REGISTRY NO=328549-02-6
##MP= -300
##BP= -300
##MW= 430
##$RETENTION INDEX=0
##$CONDENSED SPECTRUM=NO
##NPOINTS= 227
##XYDATA=(XY..XY) 1 
    33          8
    35          8
    36         43
    38         31
    39         73
    41        101
    42        135
    43         32
    44         29
    45         10
    48         15
    50         16
    51         21
    52         66
    53         69
    54         72
    56        999
    57         87
    58          7
    59          4
    60          4
    61          3
    62         11
    63         29
    64         30
    65         47
    66          5
    68         24
    69          8
    70          8
    72         60
    74         54
    75         19
    76          9
    77          7
    78         10
    79         12
    80         24
    81         49
    84        336
    86        504
    88          6
    89          4
    90          9
    92          3
    93         18
    94          5
    95          2
    97          6
    98          3
    99          4
   100          4
   101          5
   103          3
   104          4
   105          2
   106          4
   109        141
   110         26
   111         20
   112          6
   113          5
   114          2
   116          2
   117          1
   118          1
   119          1
   120          1
   121          1
   122          3
   123          3
   124          2
   125          4
   126          6
   127          5
   129         13
   130          3
   131          6
   132          4
   133          3
   134          7
   135          9
   136         11
   137         24
   138         21
   139         10
   140          9
   141          4
   142          7
   144        133
   145         46
   146         60
   147         21
   148          9
   149          5
   150          2
   151          5
   152          5
   153          9
   154         13
   155          3
   156          3
   157          1
   158          1
   159          4
   160          6
   162          5
   163          3
   164          5
   165          3
   167          2
   168          1
   169          6
   172        146
   173         48
   174         58
   175         18
   176         12
   177          4
   178          1
   180          3
   182          8
   183          2
   185          1
   186          3
   187          8
   188         12
   189         21
   190          9
   191         11
   192          7
   193          5
   194          4
   195          1
   197          1
   199          2
   200          3
   202          4
   203         12
   204          2
   205          5
   207          1
   208          1
   209          1
   210          1
   213          2
   214          1
   215          5
   216          9
   217         15
   218          6
   219          5
   220          7
   221          3
   222          3
   223          1
   224          2
   225          1
   227          1
   228          3
   230          2
   232          1
   233          1
   234          3
   235          7
   237         34
   238          9
   239         18
   240          3
   241          6
   242          1
   243          3
   244          6
   245          8
   246          4
   247          3
   248          1
   250          2
   251          6
   252          7
   253          6
   254         10
   255          3
   256          6
   257          1
   258          2
   261          1
   262          2
   263          3
   264          9
   266          9
   267          1
   268          1
   277          2
   278          4
   280         24
   281         44
   282         13
   283         25
   284          6
   285          4
   286          1
   294          3
   295          5
   297          4
   316          1
   318          3
   319          9
   322         98
   324         58
   325          6
   326          7
   337          1
   373          1
   375          1
   392          1
   395         26
   396          4
   397          7
   398          1
   425          1
   428          1
   429          1
   430         29
   432         16
   433          3
   434          2