##TITLE=Library Entry 77495
##JCAMP-DX=Revision 4.10 
##DATA TYPE=MASS SPECTRUM
##SAMPLE DESCRIPTION=K.JANKOWSKI UNIV. OF MONCTON, NEW BRUNSWICK, CANADA
##NAMES=HP
##CAS NAME=1,4-Oxathian-2-one, 6-phenyl-
##MOLFORM=C10H10O2S
##CAS REGISTRY NO=32863-50-6
##MP= -300
##BP= -300
##MW= 194
##$RETENTION INDEX=0
##$CONDENSED SPECTRUM=NO
##NPOINTS= 45
##XYDATA=(XY..XY) 1 
    39         50
    42         40
    43         40
    44         80
    45         60
    46         70
    50         40
    51        100
    52         30
    60        240
    63         30
    65         30
    76         30
    77        230
    78        190
    79         80
    88        100
    89        130
    90         40
    91         70
   102         40
   103        200
   104        999
   105        380
   106         60
   107        450
   120         40
   121         30
   135         30
   136        120
   137         40
   141         30
   142         30
   148        100
   149         80
   150        220
   151         40
   152         30
   161         30
   166        110
   167         30
   168         30
   194        225
   195         31
   196         14