##TITLE=Library Entry 22257
##JCAMP-DX=Revision 4.10 
##DATA TYPE=MASS SPECTRUM
##SAMPLE DESCRIPTION=LAC, NIDDK, NIH, Bethesda, MD 20892
##NAMES=HP
##CAS NAME=1-Amino-4-[7-chloro-4-quinolylamino]piperazine
##MOLFORM=C13H16ClN5
##CAS REGISTRY NO=32863-67-5
##MP= -300
##BP= -300
##MW= 277
##$RETENTION INDEX=0
##$CONDENSED SPECTRUM=NO
##NPOINTS= 113
##XYDATA=(XY..XY) 1 
    41         13
    42        513
    43        303
    44        907
    45         80
    49          6
    50         25
    51         19
    52         56
    54         93
    55         21
    56        999
    57        254
    58        138
    59         29
    60          7
    61         11
    62         28
    63         61
    64         20
    65         10
    67          8
    68         18
    69         17
    71        335
    73        103
    74         26
    75         43
    76         13
    77          9
    78          6
    81         19
    83        141
    85        139
    86         29
    87         22
    88         27
    89         41
    90         11
    95          6
    97         15
    99         99
   100        503
   101         35
   102          9
   109         10
   111         15
   112          9
   114         64
   115         34
   116         40
   117          7
   123         95
   124         21
   125         32
   126         21
   127         15
   128          9
   135         32
   136         15
   137         13
   138          9
   139          5
   140          6
   141         11
   142         28
   143         24
   150        260
   151         49
   152         88
   153         14
   154          6
   155          9
   156          6
   162         33
   163         27
   164         10
   165          6
   169          7
   170         17
   177         88
   178        356
   179        165
   180        118
   181         48
   189         18
   191         44
   192         15
   193         21
   194          7
   203         11
   204         62
   205         41
   206         66
   207         12
   208          9
   216         11
   217         12
   218         51
   220         37
   232          9
   233          5
   260          5
   261         51
   262         58
   263         82
   264         24
   265         27
   266          6
   277        475
   278        106
   279        163
   280         35