##TITLE=Library Entry 52207
##JCAMP-DX=Revision 4.10 
##DATA TYPE=MASS SPECTRUM
##SAMPLE DESCRIPTION=D.HENNEBERG, MAX-PLANCK INSTITUTE, MULHEIM, WEST GERMAN
Y
##NAMES=HP
##CAS NAME=Cyclohexanecarboxylic acid, ethyl ester
##MOLFORM=C9H16O2
##CAS REGISTRY NO=3289-28-9
##MP= -300
##BP= -300
##MW= 156
##$RETENTION INDEX=1136
##$CONDENSED SPECTRUM=NO
##NPOINTS= 115
##XYDATA=(XY..XY) 1 
    26         51
    27        320
    28         80
    29        475
    30         13
    31         13
    32          1
    36          0
    37          2
    38          9
    39        217
    40         36
    41        528
    42         57
    43         64
    44         10
    45         49
    46          1
    47         11
    49          1
    50         16
    51         39
    52         16
    53         92
    54        106
    55        912
    56         94
    57         19
    58          4
    59          3
    60         38
    61         38
    62          3
    63          3
    64          0
    65         14
    66         14
    67        169
    68        179
    69         87
    70         33
    71          7
    72          2
    73        239
    74         16
    75          9
    76          3
    77         55
    78         11
    79         42
    80         15
    81        226
    82        163
    83        999
    84         66
    85         17
    86         24
    87         20
    88        209
    89         17
    90          1
    91          2
    92          2
    93          2
    94          2
    95          4
    96          2
    97          3
    98          1
    99         66
   100         13
   101        492
   102         29
   103          3
   104          1
   105         78
   106          8
   107          1
   108          3
   109         23
   110        159
   111        257
   112         20
   113         14
   114         24
   115         86
   116          5
   117          0
   119          1
   122         20
   123          1
   124          0
   125          1
   126          2
   127         40
   128        141
   129         28
   130          2
   131          0
   132          0
   135          0
   136          0
   138          0
   139          0
   140          2
   141         34
   142          3
   149          1
   150         12
   151          1
   154          0
   155          4
   156        295
   157         29
   158          2