##TITLE=Library Entry 11281
##JCAMP-DX=Revision 4.10 
##DATA TYPE=MASS SPECTRUM
##SAMPLE DESCRIPTION=A.A.Kutin, Moscow, Russia
##NAMES=HP
##CAS NAME=Ethyl 2-(acetylamino)-3,3,3-trifluoro-2-hydroxypropanoate
##MOLFORM=C7H10F3NO4
##CAS REGISTRY NO=328918-07-6
##MP= -300
##BP= -300
##MW= 229
##$RETENTION INDEX=0
##$CONDENSED SPECTRUM=NO
##NPOINTS= 76
##XYDATA=(XY..XY) 1 
    33          4
    35          1
    38          2
    39          4
    41         16
    42         83
    43        999
    44        186
    45         24
    46          4
    47         11
    48          1
    49          1
    50         22
    51         18
    54          1
    55          2
    56          4
    57          6
    58          3
    59         90
    60          4
    61          1
    62          3
    63          1
    64          1
    66          1
    67          3
    69        193
    70          5
    71          2
    72          1
    73          8
    74          1
    77          1
    78          8
    79          1
    81          1
    83          4
    84          1
    85          3
    86          1
    87          4
    88          1
    90         12
    91          1
    92          1
    94         21
    95         25
    96          7
    97         13
    98          1
    99         20
   100          1
   112          1
   113          2
   114        210
   115          8
   116          1
   118         11
   119          1
   120          2
   123          1
   125          2
   126          1
   127          3
   136          1
   137          3
   140          2
   141          1
   142          1
   143          4
   148          1
   156        123
   157          7
   158          1