##TITLE=Library Entry 1920
##JCAMP-DX=Revision 4.10 
##DATA TYPE=MASS SPECTRUM
##SAMPLE DESCRIPTION=A.A.Kutin, Moscow, Russia
##NAMES=HP
##CAS NAME=1-Methyl-3-nitro-1H-pyridin-2-one
##MOLFORM=C6H6N2O3
##CAS REGISTRY NO=32896-91-6
##MP= -300
##BP= -300
##MW= 154
##$RETENTION INDEX=0
##$CONDENSED SPECTRUM=NO
##NPOINTS= 85
##XYDATA=(XY..XY) 1 
    33          6
    34          4
    36         15
    37         96
    38        213
    39        999
    40        113
    41        171
    42        440
    43         23
    44         20
    45          6
    46         48
    48          7
    49         40
    50        141
    51        181
    52        217
    53        532
    54        127
    55        191
    56         15
    57          7
    58          3
    59          0
    60          2
    61          3
    62          7
    63         19
    64         57
    65         30
    66         58
    67         35
    68         53
    69         11
    70          3
    71          1
    73          0
    74          1
    75          6
    76          8
    77         17
    78         61
    79        156
    80        187
    81         27
    82          7
    83          3
    84          2
    85          0
    91          3
    92          7
    93         57
    94         11
    96        324
    97         19
    98          1
   101          0
   104          0
   105          3
   106         15
   107         22
   108         30
   109         45
   110          4
   111          0
   112          0
   120          0
   121          0
   123          2
   124         32
   125          4
   126          0
   128          0
   134          0
   136          2
   137         90
   138         31
   139          3
   140          0
   148          0
   149          3
   154        561
   155         37
   156          4