##TITLE=Library Entry 93749
##JCAMP-DX=Revision 4.10 
##DATA TYPE=MASS SPECTRUM
##SAMPLE DESCRIPTION=A.A.Kutin, Moscow, Russia
##NAMES=HP
##CAS NAME=Pyrazole, 3,5-dimethyl-1-(2-phenylcyclopropionyl)-
##MOLFORM=C15H16N2O
##CAS REGISTRY NO=328945-09-1
##MP= -300
##BP= -300
##MW= 240
##$RETENTION INDEX=0
##$CONDENSED SPECTRUM=NO
##NPOINTS= 164
##XYDATA=(XY..XY) 1 
    33          1
    34          1
    36          4
    37         13
    38         57
    39        404
    40         89
    41        153
    42        101
    43         31
    44         23
    45         33
    47          2
    50         91
    51        188
    52         68
    53         35
    54         56
    55         79
    56         36
    57         33
    58         40
    59          9
    60          3
    61         13
    62         53
    63        147
    64         44
    65        184
    66         46
    67         23
    68         24
    69         10
    70          3
    71          8
    72          3
    74         30
    75         29
    76         32
    77        121
    78         66
    79         41
    80         19
    81         37
    82         23
    83         12
    84          7
    85          8
    86         10
    87         14
    88         15
    89        126
    90         55
    91        461
    92         34
    93         13
    94         24
    95        135
    96        125
    97        146
    98         12
   100          2
   101          7
   102         43
   103         62
   104         73
   105         39
   106         27
   107        112
   108         91
   109        194
   110         29
   111          3
   113         18
   115        999
   116        630
   117        704
   118        100
   119         10
   120         15
   121         29
   122         18
   123         38
   124          3
   125          5
   127        175
   128         26
   129         12
   130         67
   131        150
   132         17
   133         19
   135        252
   136         39
   137          4
   138          1
   139          1
   140          1
   141          3
   144        590
   145        106
   146          8
   147          4
   149         35
   150          3
   151          0
   152          0
   153          1
   154          3
   155          3
   156          3
   157          3
   158          2
   159          1
   160          3
   162        190
   163         29
   164          2
   165          0
   166          0
   167          1
   168          3
   169          4
   170         12
   171          6
   172          5
   173          3
   174          0
   175          1
   176         25
   177          3
   178          0
   179          0
   180          1
   181          1
   182          4
   183         14
   184         23
   185        182
   186         25
   187          1
   190          3
   191          0
   194          1
   195          2
   197         53
   198          8
   199          1
   207          0
   208          1
   209          6
   211        178
   212        136
   213         20
   214          1
   223          1
   224          1
   225          3
   226          0
   236          0
   237          6
   240        332
   241         49
   242          4