##TITLE=Library Entry 68616
##JCAMP-DX=Revision 4.10 
##DATA TYPE=MASS SPECTRUM
##SAMPLE DESCRIPTION=Asinex Ltd, Moscow, Russia
##NAMES=HP
##CAS NAME=Pyrimidine, 4-amino-2-methoxy-
##MOLFORM=C5H7N3O
##CAS REGISTRY NO=3289-47-2
##MP= -300
##BP= -300
##MW= 125
##$RETENTION INDEX=0
##$CONDENSED SPECTRUM=NO
##NPOINTS= 66
##XYDATA=(XY..XY) 1 
    34          2
    35          2
    36          1
    37          3
    38         29
    39         74
    40        262
    41        239
    42        121
    43        172
    44         67
    45          3
    46          0
    47          3
    48          1
    49          1
    50          3
    51         20
    52         80
    53         92
    54         77
    55         87
    56         46
    57         10
    58         81
    59          2
    60          0
    62          5
    64          3
    65         16
    66         72
    67        205
    68        462
    69        132
    70          7
    71          1
    73          0
    76          1
    77          8
    78         60
    79         50
    80          6
    81         18
    82         35
    83         29
    84          1
    85          8
    87          1
    91          1
    92          3
    93          5
    94        107
    95        999
    96        137
    97         17
    98          2
   108          9
   109         22
   110         11
   111          1
   112          0
   122          1
   124        489
   125        881
   126         61
   127          4