##TITLE=Library Entry 20486
##JCAMP-DX=Revision 4.10 
##DATA TYPE=MASS SPECTRUM
##SAMPLE DESCRIPTION=A.A.Kutin, Moscow, Russia
##NAMES=HP
##CAS NAME=Bicyclo[4.1.0]heptane-7-carboxamide, N-(2-chlorophenyl)-
##MOLFORM=C14H16ClNO
##CAS REGISTRY NO=328938-19-8
##MP= -300
##BP= -300
##MW= 249
##$RETENTION INDEX=0
##$CONDENSED SPECTRUM=NO
##NPOINTS= 112
##XYDATA=(XY..XY) 1 
    44          4
    45         82
    46         74
    47          4
    48          7
    49         16
    50         62
    51        188
    52        140
    53        537
    54        191
    55        999
    56        279
    57        105
    59          9
    61         14
    62         32
    63        181
    64        147
    65        397
    66        318
    67        547
    68        286
    69         76
    70          5
    71         13
    72          7
    73         88
    74         16
    75        104
    76         32
    77        366
    78        551
    79        142
    80        753
    81         90
    82         17
    84         10
    85          7
    86          7
    89         19
    90        153
    91        241
    92        106
    93        357
    94        136
    95        631
    96        184
    99        168
   100         27
   101         70
   102         25
   103         27
   105         71
   106          8
   107         21
   110         54
   112         20
   116          4
   117         15
   119         10
   120          6
   121         36
   122         51
   123        676
   124        227
   125         14
   126         90
   127        594
   128        113
   129        349
   130         74
   131         12
   132         12
   133         22
   134         10
   135          8
   137          4
   138         18
   140         15
   143         17
   144          8
   151          8
   152          6
   153         27
   156          9
   164          3
   165          7
   166          5
   168          8
   169         95
   171         21
   172         13
   180          5
   182          3
   184         16
   185          2
   186          7
   197          5
   206         59
   207          5
   208         21
   209          5
   210          6
   214        419
   215         70
   216         10
   221         11
   248          5
   249        196
   250         60
   251         71