##TITLE=Library Entry 2275
##JCAMP-DX=Revision 4.10 
##DATA TYPE=MASS SPECTRUM
##SAMPLE DESCRIPTION=Chemical Concepts
##NAMES=HP
##CAS NAME=1-Allyl-3-[4-(trifluoromethyl)phenyl]-2-thiourea
##MOLFORM=C11H11F3N2S
##CAS REGISTRY NO=329-22-6
##MP= -300
##BP= -300
##MW= 260
##$RETENTION INDEX=0
##$CONDENSED SPECTRUM=NO
##NPOINTS= 123
##XYDATA=(XY..XY) 1 
    33         36
    34         35
    36          4
    37         18
    39        424
    40        442
    41        999
    42         46
    43         44
    44        132
    45         69
    46          8
    47         12
    49          2
    50         49
    51         41
    52         20
    53         12
    54         40
    55         34
    56        434
    57        326
    58         20
    59         24
    60         57
    61          9
    62         20
    63         59
    64         28
    65         19
    66          7
    67         23
    69         88
    70         16
    71         28
    72         40
    73         50
    74         46
    75         83
    76         27
    77         22
    79          5
    81         21
    83         68
    84         12
    85          8
    86          3
    87          7
    88         26
    89          5
    90          9
    91         16
    93         15
    95        102
    96         16
    98         14
    99         37
   100         45
   101         13
   102          9
   107          5
   108         13
   109         11
   111         66
   113         58
   114         42
   115         10
   118         15
   119          9
   120         14
   121         14
   125         29
   126         37
   127          7
   130          3
   131          3
   132          9
   133         22
   134          3
   135          9
   136          5
   140         49
   141          9
   142        139
   143         10
   145        199
   146         14
   152         12
   153          7
   157         13
   158          3
   159         27
   160         28
   161        227
   162         18
   165          6
   167         16
   171         10
   172         28
   174          7
   177         28
   178          4
   184         21
   185          9
   186         21
   187         29
   191          2
   198         30
   199         38
   200          2
   203         29
   204         64
   205          6
   207          5
   219         12
   225          6
   226         34
   227         18
   245        359
   246         34
   247         15
   260        149
   261         14