##TITLE=Library Entry 16731
##JCAMP-DX=Revision 4.10 
##DATA TYPE=MASS SPECTRUM
##SAMPLE DESCRIPTION=Chemical Concepts
##NAMES=HP
##CAS NAME=2-Amino-6,7,8,9-tetrahydro-1(2H)-oxobenzo[4,5]thieno[3,2-d]pyrimi
dine-3-propionic acid
##MOLFORM=C13H15N3O3S
##CAS REGISTRY NO=329059-73-6
##MP= -300
##BP= -300
##MW= 293
##$RETENTION INDEX=0
##$CONDENSED SPECTRUM=NO
##NPOINTS= 170
##XYDATA=(XY..XY) 1 
    35          6
    39        879
    40        319
    41        466
    42        345
    43        435
    45        999
    46         33
    47         58
    51        396
    52        263
    54        752
    55        629
    56         81
    58        337
    59        191
    60         61
    61         36
    63        290
    64        234
    65        232
    66        102
    67        117
    69        443
    70        163
    71        187
    73        172
    74         33
    75         59
    77        408
    78        152
    79        150
    80         86
    82        219
    83         70
    84         82
    85         58
    87         94
    89        180
    90        129
    91        249
    92         78
    93        108
    94        117
    95        135
    96        100
    97         75
    98         24
    99         19
   100         19
   101         36
   102         62
   103         63
   104         74
   105         41
   106         38
   107         46
   108         81
   109         77
   110         47
   111         39
   112         12
   115        112
   116        109
   117         65
   118         42
   119         32
   120         49
   121        121
   122        121
   123        101
   124         49
   125         22
   126          6
   127         11
   128         16
   129         11
   130         18
   131         17
   133         94
   134         84
   135        115
   136         60
   138         72
   139          7
   140          9
   141          6
   142          8
   143         21
   144         23
   146         50
   147         32
   148         62
   149         68
   150         74
   151         82
   152         46
   153         14
   154          7
   155          6
   156          6
   158          9
   159         22
   160         23
   161        103
   162         57
   163         28
   164         40
   165         25
   166         16
   171          7
   172          9
   173          7
   174         20
   175         21
   176         78
   177         56
   178         85
   179         73
   180         37
   181          8
   184          7
   185          6
   186         18
   187         10
   188         33
   189         18
   190         46
   191         30
   192         59
   193         16
   194          6
   201          7
   202         19
   203         42
   204         88
   205         35
   206         19
   207         10
   214          6
   215          8
   217         75
   218        107
   219         48
   220         38
   221         11
   229         85
   231        454
   232        245
   233         64
   234         19
   246         59
   247        113
   248        141
   249         29
   250          7
   257         18
   258         33
   259         71
   260         22
   261          6
   265          9
   272          7
   275        360
   276         59
   277         83
   278         16
   293        219
   294         31
   295         12