##TITLE=Library Entry 34047
##JCAMP-DX=Revision 4.10 
##DATA TYPE=MASS SPECTRUM
##SAMPLE DESCRIPTION=P.A. Leclercq, Lab. Instrum. Anal., Eindhoven Univ. Tec
hnol., Netherlands
##NAMES=HP
##CAS NAME=2-Propenoic acid, 2-methyl-, 2-ethyl-2-[[(2-methyl-1-oxo-2-propen
yl)oxy]methyl]-1,3-propanediyl ester
##MOLFORM=C18H26O6
##CAS REGISTRY NO=3290-92-4
##MP= -300
##BP= -300
##MW= 338
##$RETENTION INDEX=0
##$CONDENSED SPECTRUM=NO
##NPOINTS= 121
##XYDATA=(XY..XY) 1 
    15         12
    16          0
    17          1
    18          3
    26          5
    27         30
    29         52
    30          2
    31         11
    34          0
    36          0
    37          2
    39        326
    41        881
    42         56
    43         39
    44          4
    45          6
    46          0
    50          0
    51          1
    53         27
    54          9
    55         29
    56          5
    57         11
    58          2
    59         10
    60          0
    63          0
    65          6
    67         67
    69        999
    70        120
    71         12
    72          0
    73          2
    74          0
    77          2
    79         17
    80         12
    81         52
    82         17
    83         15
    84          5
    85         12
    87         36
    88          1
    91          1
    93          7
    94          9
    95         11
    96         15
    97         32
    98         38
    99         18
   100          1
   105          0
   107          8
   108         28
   109         34
   110         15
   111          8
   112          2
   113          0
   119          0
   120          2
   121          7
   122          6
   123          7
   124          6
   125         32
   126         29
   127          6
   133          1
   136         36
   137         20
   138         23
   139          8
   140          0
   148          8
   149          1
   150          0
   151          5
   152          1
   153         12
   154         30
   155         28
   156          2
   159          1
   166         23
   167          7
   168          1
   171          1
   172          4
   176         20
   177          2
   183         47
   184          8
   185         41
   186          3
   194          8
   195          2
   224         18
   225          3
   239          2
   240          4
   241          1
   252         38
   253        155
   254         23
   255          3
   267          2
   292          0
   293          1
   294          0
   310         19
   311          2
   312          0
   320          0
   338          0