##TITLE=Library Entry 71945
##JCAMP-DX=Revision 4.10 
##DATA TYPE=MASS SPECTRUM
##SAMPLE DESCRIPTION=Div. of Experiment Therapeutics WRAIR, WRAMC, Washingto
n DC 20307
##NAMES=HP
##CAS NAME=Succinic dihydrazide, N,N'-bis[(5-nitro-2-thienyl)methylene]-
##MOLFORM=C14H12N6O6S2
##CAS REGISTRY NO=329059-16-7
##MP= -300
##BP= -300
##MW= 424
##$RETENTION INDEX=0
##$CONDENSED SPECTRUM=NO
##NPOINTS= 71
##XYDATA=(XY..XY) 1 
    41         29
    42        311
    43        469
    45        970
    46         39
    47         61
    49         97
    50        131
    51        226
    52         85
    53         69
    54        110
    55        725
    56        469
    57        495
    58         47
    59         29
    60         19
    61         19
    62         43
    63         19
    64         69
    65         18
    67         22
    69        377
    70        238
    71        171
    72         50
    73         18
    76          8
    77         31
    78         11
    79         84
    81        338
    82        124
    83         59
    84         61
    85         41
    86         62
    91         36
    93         85
    95        395
    96         78
    97         28
    98         98
    99        999
   100         71
   106         22
   108         63
   109         74
   110          9
   113         42
   122          8
   124         90
   125         36
   136         12
   138         61
   141         84
   152         36
   154         67
   155        144
   157         11
   171        479
   172         59
   173         10
   195         73
   198         26
   206          7
   207         62
   253         59
   254         97