##TITLE=Library Entry 64315
##JCAMP-DX=Revision 4.10 
##DATA TYPE=MASS SPECTRUM
##SAMPLE DESCRIPTION=Asinex Ltd, Moscow, Russia
##NAMES=HP
##CAS NAME=Benzimidazole, 1-benzyl-2-(4,6-dimethyl-2-pyrimidylthiomethyl)-
##MOLFORM=C21H20N4S
##CAS REGISTRY NO=329061-91-8
##MP= -300
##BP= -300
##MW= 360
##$RETENTION INDEX=0
##$CONDENSED SPECTRUM=NO
##NPOINTS= 230
##XYDATA=(XY..XY) 1 
    33          2
    34          2
    36          0
    37          2
    38          9
    39        103
    40         30
    41         26
    42         57
    43          3
    44          4
    45         15
    46          1
    47          1
    50         14
    51         39
    52         13
    53         16
    54          5
    55          5
    56          1
    57          5
    58          6
    59          7
    60          7
    61          1
    62          5
    63         29
    64         18
    65        187
    66         44
    67        101
    68          5
    69          2
    70          5
    71          5
    72         24
    73          1
    74          5
    75         10
    76         25
    77         49
    78         14
    79          2
    80         14
    81          8
    82         49
    83         18
    84          7
    85          2
    86          1
    87          1
    88          2
    89         33
    91        999
    92         86
    93         19
    94          7
    95          4
    96          3
    97          3
    98          7
    99          2
   100          1
   101          2
   102         19
   103         25
   104         11
   105          3
   107         29
   108         12
   109         14
   110          2
   111          1
   112          3
   113          1
   114          1
   115          5
   116          7
   117          6
   118         19
   119         87
   120          7
   121          8
   122         27
   123          8
   124         30
   125         24
   126          5
   127          5
   128          4
   129         10
   130          5
   131         16
   132         51
   133          5
   134          7
   135          2
   136          1
   137          1
   138          0
   139          6
   140         64
   141         15
   142          5
   143         14
   144          9
   145         15
   146         13
   147          1
   148          0
   149          1
   150          4
   151        130
   152         31
   153         15
   154          3
   155          2
   156          2
   157          2
   158          1
   159          0
   161         11
   162          6
   163         12
   164          3
   165          3
   166          1
   167          2
   168          3
   169         11
   170         10
   171          3
   172          0
   174          0
   175          4
   176          1
   177          3
   178          7
   179         15
   180          9
   181          2
   182          2
   183          3
   184          2
   185          0
   187          0
   188          1
   189          0
   190          2
   191          1
   192          1
   193          3
   194          4
   195          3
   196          7
   197         12
   198        106
   199         15
   200          1
   201          0
   203          0
   204          4
   205         10
   206         25
   207         16
   208         10
   209         14
   210         18
   211         31
   212          4
   213          0
   215          0
   216          0
   217          2
   218         19
   219        200
   220         66
   221        157
   222         48
   223          6
   224          0
   225          6
   226          1
   227          0
   228          1
   229         52
   230          8
   231          3
   232          0
   235         10
   236        200
   237         46
   238        131
   239         44
   240          5
   241          1
   242          0
   246          0
   249          0
   250          0
   251         11
   252          2
   253         27
   254          5
   255          1
   256          0
   267          2
   269        400
   270         72
   271         23
   272          3
   283          0
   312          0
   313          2
   314          1
   315          0
   325          2
   326          3
   327        123
   328         31
   329          3
   330          0
   335          6
   336          1
   360        269
   361         66
   362         19
   363          3
   366          0