##TITLE=Library Entry 99319
##JCAMP-DX=Revision 4.10 
##DATA TYPE=MASS SPECTRUM
##SAMPLE DESCRIPTION=A.A.Kutin, Moscow, Russia
##NAMES=HP
##CAS NAME=4H-Cyclopenta[b]thiophene-3-carboxamide, 5,6-dihydro-2-(3-methylb
enzoylamino)-N-phenyl-
##MOLFORM=C22H20N2O2S
##CAS REGISTRY NO=329068-73-7
##MP= -300
##BP= -300
##MW= 376
##$RETENTION INDEX=0
##$CONDENSED SPECTRUM=NO
##NPOINTS= 114
##XYDATA=(XY..XY) 1 
    33         19
    34          3
    40          6
    41         11
    43          7
    44         10
    45          8
    47          0
    51         17
    52          5
    53          4
    54          1
    55          2
    57          3
    58         14
    59          2
    60          1
    63          6
    65         95
    66         12
    67          2
    69          2
    70          2
    71          9
    72          0
    73          1
    74          0
    75          0
    77         37
    78          9
    79          2
    80          1
    82          1
    83          1
    84          2
    85          1
    88         14
    89         12
    91        416
    93        147
    94          9
    95          1
    96          2
    97          3
    98          0
    99          0
   102          1
   103          2
   104         12
   105         11
   106          3
   107          0
   109         13
   110          4
   111          2
   115          1
   116          0
   119        999
   120         45
   122          3
   127          0
   128          1
   129          0
   130          0
   131          0
   132          1
   134          0
   135          0
   136         12
   137          4
   138          1
   139          0
   143          0
   153          0
   154          0
   157          0
   163          0
   164          4
   165         27
   166         11
   167          2
   168          1
   192          1
   194         18
   195          3
   196          0
   202          0
   210          0
   212          2
   213          0
   223          1
   224          1
   225          0
   229          1
   239          3
   240         32
   241          4
   242          1
   256          0
   257          1
   258          3
   259          0
   269          0
   270          0
   283        107
   284         58
   285         13
   286          3
   287          0
   362          0
   376         88
   377         22
   378          6
   379          0