##TITLE=Library Entry 97530
##JCAMP-DX=Revision 4.10 
##DATA TYPE=MASS SPECTRUM
##SAMPLE DESCRIPTION=T.A.BLAZER DU PONT, GIBBSTOWN, N.J., USA
##NAMES=HP
##CAS NAME=Benzene, (2-methyl-2-propenyl)-
##MOLFORM=C10H12
##CAS REGISTRY NO=3290-53-7
##MP= -300
##BP= -300
##MW= 132
##$RETENTION INDEX=1018
##$CONDENSED SPECTRUM=NO
##NPOINTS= 67
##XYDATA=(XY..XY) 1 
    14          1
    15         19
    26          9
    27         52
    28          5
    29         10
    37          6
    38         21
    39        166
    40         12
    41         50
    42          1
    43          2
    49          2
    50         38
    51         87
    52         21
    53         24
    54         17
    55          4
    57          4
    58          6
    61          5
    62         19
    63         58
    64         30
    65        126
    66         10
    67          1
    73          1
    74         12
    75         11
    76          8
    77         40
    78         43
    79          9
    85          1
    86          4
    87          5
    88          2
    89         33
    90         12
    91        360
    92         43
    93          2
    98          2
   101          3
   102         19
   103         33
   104         43
   105         26
   113         10
   114         13
   115        221
   116         83
   117        999
   118         98
   119          4
   126          2
   127         13
   128         27
   129         30
   130          9
   131        156
   132        579
   133         62
   134          3