##TITLE=Library Entry 80051
##JCAMP-DX=Revision 4.10 
##DATA TYPE=MASS SPECTRUM
##SAMPLE DESCRIPTION=A.A.Kutin, Moscow, Russia
##NAMES=HP
##CAS NAME=4-(4-Methyloxycarbonylbenzylidene)-2-phenyl-oxazolin-5-one
##MOLFORM=C18H13NO4
##CAS REGISTRY NO=329023-63-4
##MP= -300
##BP= -300
##MW= 307
##$RETENTION INDEX=0
##$CONDENSED SPECTRUM=NO
##NPOINTS= 121
##XYDATA=(XY..XY) 1 
    34          0
    37          2
    38          9
    39         14
    40          3
    41          2
    42          0
    43          3
    44          1
    45          0
    49          1
    50         50
    51        145
    52         12
    53          8
    55          1
    56          0
    57          2
    59          9
    60          0
    61          3
    62         18
    63         22
    64          8
    65          6
    66          0
    67          0
    69          1
    70          0
    71          1
    73          1
    74         19
    75         27
    76         44
    77        526
    78         33
    79          1
    81          0
    83          0
    85          0
    86          3
    87         12
    88         36
    89         18
    90          3
    91          6
    92          0
    93          0
    95          0
    97          0
    98          1
    99          2
   100          2
   101         15
   102          4
   103         13
   104         11
   105        999
   106         75
   107          4
   108          0
   110          0
   111          0
   112          1
   113          0
   114         45
   115        131
   116         18
   117          2
   118          1
   119          0
   121          0
   123          1
   127          1
   128          1
   129          8
   130          3
   131          1
   132          0
   134          0
   135          0
   138          4
   141          0
   143         69
   144          9
   146         34
   147          4
   149          4
   150          0
   151          0
   152          0
   154          5
   160          1
   162          0
   163          1
   164          0
   165          2
   166          0
   171          1
   173          1
   174         19
   175          3
   176          0
   188          0
   189          0
   190          1
   191          1
   202          2
   203          1
   204          0
   219          1
   222          0
   248          3
   249          0
   262          0
   276         13
   277          2
   278          0
   307        189
   308         37
   309          5