##TITLE=Library Entry 22486
##JCAMP-DX=Revision 4.10 
##DATA TYPE=MASS SPECTRUM
##SAMPLE DESCRIPTION=Chemical Concepts
##NAMES=HP
##CAS NAME=2H-Pyran-2-one, tetrahydro-3,5-dimethyl-
##MOLFORM=C7H12O2
##CAS REGISTRY NO=3290-57-1
##MP= -300
##BP= -300
##MW= 128
##$RETENTION INDEX=0
##$CONDENSED SPECTRUM=NO
##NPOINTS= 90
##XYDATA=(XY..XY) 1 
    25          0
    26         14
    27        123
    28        165
    29        110
    30          4
    31          9
    33          0
    34          1
    35          1
    37          2
    38         11
    39        156
    40         35
    41        406
    42        468
    43        163
    44          5
    45          5
    49          0
    50          5
    51         10
    52          3
    53         35
    54         31
    55        458
    56        999
    57         55
    58          9
    59          3
    60          1
    61          0
    62          1
    63          2
    64          0
    65          5
    66          1
    67         22
    68         12
    69        526
    70         97
    71          8
    72          0
    73          7
    74          5
    75          0
    76          0
    77          1
    78          0
    79          2
    80          0
    81          5
    82          5
    83         15
    84         53
    85         20
    86         10
    87         26
    88          1
    89          0
    91          0
    92          0
    93          0
    94          0
    95          2
    96          1
    97          2
    98         65
    99          8
   100          1
   101          0
   102          0
   105          0
   109          1
   110          6
   111          1
   112          0
   113          3
   114          0
   115          1
   121          0
   122          0
   123          1
   124          0
   125          0
   126          0
   127          2
   128        207
   129         26
   130          2