##TITLE=Library Entry 16468
##JCAMP-DX=Revision 4.10 
##DATA TYPE=MASS SPECTRUM
##SAMPLE DESCRIPTION=Asinex Ltd, Moscow, Russia
##NAMES=HP
##CAS NAME=Benzamide, N-[2-(4-methylphenoxy)ethyl]-2-nitro-
##MOLFORM=C16H16N2O4
##CAS REGISTRY NO=329063-79-8
##MP= -300
##BP= -300
##MW= 300
##$RETENTION INDEX=0
##$CONDENSED SPECTRUM=NO
##NPOINTS= 115
##XYDATA=(XY..XY) 1 
    33          1
    35         22
    36        131
    37          9
    38         51
    39         64
    40         22
    41         25
    42         58
    44        999
    45         49
    48          0
    50         49
    51        135
    52         40
    53         28
    54          3
    55          6
    56          1
    57          1
    58          0
    59          0
    60          0
    61          2
    62          9
    63         34
    64         17
    65        104
    66          8
    67          2
    68          1
    69          1
    70          4
    71          0
    73          1
    74          8
    75         13
    76         60
    77        119
    78         50
    79         44
    80         15
    81          2
    82          0
    83          0
    85          0
    86          1
    87          1
    89         26
    90         32
    91        140
    92         33
    93         15
    94          2
    95          0
    96          0
    97          0
   102          2
   103          4
   104         35
   105         31
   107        148
   108        169
   109         14
   110          1
   115          0
   117         52
   118          8
   119         33
   120         31
   121         24
   122         30
   123          2
   124          0
   128          0
   129          0
   130          0
   131          0
   132          2
   133          6
   134         53
   135          9
   136          3
   137          0
   139          0
   146          5
   147         21
   149        108
   150         88
   151        114
   152         12
   153          1
   154          0
   160          0
   161          3
   162          2
   163         33
   164          4
   165          0
   167          0
   168          0
   173          0
   176          0
   177          3
   178          0
   191          5
   193        434
   194         41
   195          4
   196          0
   268          0
   270          2
   271          0
   300         11
   301          2