##TITLE=Library Entry 83765
##JCAMP-DX=Revision 4.10 
##DATA TYPE=MASS SPECTRUM
##SAMPLE DESCRIPTION=NIST Mass Spectrometry Data Center, 1990.
##NAMES=HP
##CAS NAME=2,5-Dimethylphenyl methyl carbinol
##MOLFORM=C10H14O
##CAS REGISTRY NO=32917-52-5
##MP= -300
##BP= -300
##MW= 150
##$RETENTION INDEX=0
##$CONDENSED SPECTRUM=NO
##NPOINTS= 75
##XYDATA=(XY..XY) 1 
    14          8
    15         40
    17         14
    18         41
    19         12
    26         13
    27        128
    28         30
    29         44
    37          8
    38         24
    39        197
    40         27
    41         53
    42          8
    43        357
    44         17
    45         51
    50         78
    51        205
    52         58
    53         76
    55         11
    58         18
    59          6
    60         61
    61         10
    62         39
    63        121
    64         64
    65        208
    66         21
    67         33
    73          7
    74         52
    75         29
    76         31
    77        291
    78         98
    79        198
    80         16
    86         10
    87         18
    89         54
    91        789
    92         78
    93         10
   101          8
   102         46
   103        110
   104         47
   105        330
   106          8
   107        999
   108         85
   115        300
   116        119
   117        673
   118         71
   119         29
   120          7
   121          8
   127         19
   128         50
   129         48
   130          7
   131        195
   132        685
   133        149
   134          7
   135        363
   136         36
   148         10
   150        182
   151         16