##TITLE=Library Entry 89906
##JCAMP-DX=Revision 4.10 
##DATA TYPE=MASS SPECTRUM
##SAMPLE DESCRIPTION=Chemical Concepts
##NAMES=HP
##CAS NAME=Ethyl 2-acetamido-2-(cyclohexylamino)-3,3,3-trifluoropropionate
##MOLFORM=C13H21F3N2O3
##CAS REGISTRY NO=329182-33-4
##MP= -300
##BP= -300
##MW= 310
##$RETENTION INDEX=0
##$CONDENSED SPECTRUM=NO
##NPOINTS= 153
##XYDATA=(XY..XY) 1 
    33          5
    34          2
    36          1
    37          1
    39         95
    40         54
    41        294
    43        953
    44        103
    45         17
    46          3
    47          2
    48          2
    50          5
    51         10
    53         64
    54         72
    55        480
    56        369
    57         44
    58          7
    59         29
    60         48
    61          2
    62          1
    63          2
    65         11
    67        105
    68         15
    69         50
    70         32
    71          8
    72          4
    73          4
    74          2
    75          2
    77         22
    78          8
    79         41
    80         12
    81        100
    82         36
    83        247
    84         17
    85          5
    86          3
    87          1
    89         33
    90          3
    91          3
    92          5
    93          2
    94          7
    95          9
    96         60
    98        298
    99         29
   100          4
   101          1
   102          1
   103          2
   104          2
   105          2
   106          3
   108          8
   109          5
   110          8
   113        999
   114         29
   115          5
   117         50
   118          4
   119          1
   120          1
   121          2
   122         13
   123          6
   124          7
   125         13
   126          5
   127          5
   128          4
   129          1
   130          1
   131          2
   133          2
   135          8
   136         15
   137         46
   138          6
   139         51
   140          5
   142         38
   143          5
   144          1
   147          5
   148         10
   149          5
   150         11
   151         26
   152         11
   153          7
   155        160
   156          9
   157          1
   158          1
   159          4
   160          2
   161          1
   163          4
   164          3
   165          3
   167         13
   168          8
   170         39
   171          9
   173          1
   174          1
   176          6
   177         31
   178         41
   180         26
   181         10
   182          4
   183          1
   185          3
   193          3
   195        449
   196         35
   197          4
   199         30
   200          3
   202          2
   204          1
   205          1
   208         18
   209          3
   210          2
   222          9
   223          5
   225          1
   229          3
   231          1
   237        382
   238         36
   239          3
   241         12
   242          1
   249          1
   250          6
   251          9
   252          8
   267         13