##TITLE=Library Entry 61685
##JCAMP-DX=Revision 4.10 
##DATA TYPE=MASS SPECTRUM
##SAMPLE DESCRIPTION=Chemical Concepts
##NAMES=HP
##CAS NAME=1-(5-Methyl-2-thiazolin-2-yl)-3-phenyl-1-(m-tolyl)urea
##MOLFORM=C18H19N3OS
##CAS REGISTRY NO=329182-72-1
##MP= -300
##BP= -300
##MW= 325
##$RETENTION INDEX=0
##$CONDENSED SPECTRUM=NO
##NPOINTS= 143
##XYDATA=(XY..XY) 1 
    33         11
    34          6
    35          4
    37         99
    38        158
    39        341
    40        101
    41        314
    42         39
    43         15
    44         33
    45        123
    46         43
    47         28
    48          4
    50        132
    51        170
    52         89
    53         33
    54         15
    55         56
    56         51
    57         41
    58         27
    59        104
    60         79
    61         45
    62         63
    63        251
    64        381
    65        293
    66         27
    67          8
    68          3
    69         10
    70          9
    71         18
    72         37
    73         58
    74         91
    75         59
    76         31
    77        196
    78         78
    79         60
    80         11
    81          6
    82          6
    83          6
    84          5
    85          4
    86          9
    87         10
    88         46
    89         90
    91        999
    92         88
    93         14
    94          5
    95          5
    96          3
    97          3
    98          3
    99          4
   100          6
   102         24
   104         93
   105         54
   106         61
   107         25
   108          4
   109          6
   110          6
   111          3
   112          1
   113          1
   114          2
   115          4
   116         33
   118        486
   119        864
   120         74
   121         16
   122          8
   123         10
   124          3
   125          2
   128          2
   129          3
   131        147
   132        596
   133         73
   134          7
   135          4
   136         10
   137          9
   138          4
   139          1
   142          1
   144          4
   145        158
   146        125
   147         15
   148         12
   149         20
   150         29
   151          9
   152          5
   154          1
   157          3
   159          9
   160          1
   161          3
   163         62
   164        213
   165         38
   166          9
   167          2
   168          1
   171          6
   172          4
   173          3
   174          1
   175          4
   176          4
   177          7
   178          5
   179          1
   187          4
   189          8
   191         14
   192          2
   203          4
   205        851
   206        490
   207         92
   208         20
   209          2
   225          2
   226          1
   325         32
   326          5
   327          1