##TITLE=Library Entry 90102
##JCAMP-DX=Revision 4.10 
##DATA TYPE=MASS SPECTRUM
##SAMPLE DESCRIPTION=A.A.Kutin, Moscow, Russia
##NAMES=HP
##CAS NAME=Acetamide, 2-(4-methyl-1-piperazinyl)-N-(5-chloro-2-methoxyphenyl
)-
##MOLFORM=C14H20ClN3O2
##CAS REGISTRY NO=329210-38-0
##MP= -300
##BP= -300
##MW= 297
##$RETENTION INDEX=0
##$CONDENSED SPECTRUM=NO
##NPOINTS= 156
##XYDATA=(XY..XY) 1 
    33          6
    34          0
    35          0
    36          3
    39          8
    42        325
    43        164
    44         50
    45          1
    51         20
    52          5
    54         17
    56        125
    58         88
    61          0
    63         10
    64          4
    65          7
    66          1
    68          6
    70        737
    73          2
    76         13
    77          9
    78         14
    79          4
    81          1
    82          8
    83         25
    84         20
    85         18
    86          3
    87          1
    88          1
    90         12
    91          4
    93         14
    94          1
    95          2
    98         62
    99         91
   101          7
   102          1
   104          1
   105         12
   106          2
   107          2
   108          0
   109          0
   111         30
   113        999
   114         68
   115          4
   116          1
   118          1
   119          0
   120          1
   121          0
   122          0
   124          1
   125          1
   126         10
   127          3
   128          4
   129          1
   130          0
   131          0
   132          0
   133          1
   134          1
   135          0
   136          0
   138          1
   139          1
   140          5
   141         14
   142         19
   144          6
   145          0
   146          0
   147          0
   148          2
   149          1
   150          0
   152          0
   154          8
   155          7
   156          3
   157         10
   158          2
   159          2
   160          0
   162          0
   163          3
   164          0
   166          1
   167          1
   168          7
   170         28
   172          9
   173          0
   175          0
   177          0
   180          0
   181          0
   182          0
   183          2
   184          1
   185          0
   186          0
   190          0
   194          0
   195          0
   196          1
   197          0
   198          0
   199          4
   201          1
   205          0
   209          0
   211          0
   214          0
   215          0
   223          0
   224          0
   225          1
   227          8
   229          3
   233          0
   237          0
   238          0
   239          2
   240         13
   241         14
   242          6
   243          3
   244          0
   253          0
   254          7
   255         10
   256          3
   257          3
   258          0
   261          0
   263          0
   266          0
   267          0
   268          0
   280          4
   281          0
   282          0
   295          1
   297        104
   298         15
   299         50
   300          4