##TITLE=Library Entry 99032
##JCAMP-DX=Revision 4.10 
##DATA TYPE=MASS SPECTRUM
##SAMPLE DESCRIPTION=Chemical Concepts
##NAMES=HP
##CAS NAME=4-(2-Bromobenzylidene)-2-(o-tolyl)-5(4H)-oxazolone
##MOLFORM=C17H12BrNO2
##CAS REGISTRY NO=329212-99-9
##MP= -300
##BP= -300
##MW= 341
##$RETENTION INDEX=0
##$CONDENSED SPECTRUM=NO
##NPOINTS= 46
##XYDATA=(XY..XY) 1 
    34          4
    38         43
    39         79
    40         53
    41         11
    43         15
    44         59
    49          9
    50         24
    51         18
    52          5
    55          4
    61          6
    62         37
    63         30
    65        162
    69          4
    74          9
    75         15
    76         13
    77          9
    80         10
    81          7
    87         19
    89         72
    90        204
    91        181
    92         14
   101          8
   114         19
   115         36
   116          9
   119        999
   131         16
   164          4
   171          4
   183          4
   185          4
   194          8
   196          6
   262         56
   263         10
   341         39
   342          8
   343         33
   344          7