##TITLE=Library Entry 73010
##JCAMP-DX=Revision 4.10 
##DATA TYPE=MASS SPECTRUM
##SAMPLE DESCRIPTION=A.A.Kutin, Moscow, Russia
##NAMES=HP
##CAS NAME=Propanamide, 3-(4-morpholyl)-N-(4-methoxycarbonylphenyl)-
##MOLFORM=C15H20N2O4
##CAS REGISTRY NO=329210-49-3
##MP= -300
##BP= -300
##MW= 292
##$RETENTION INDEX=0
##$CONDENSED SPECTRUM=NO
##NPOINTS= 138
##XYDATA=(XY..XY) 1 
    33          3
    34          0
    36          0
    37          0
    39         20
    42        285
    44         46
    45         12
    50          6
    51          4
    52          5
    56        347
    57         99
    58         19
    59         17
    63         23
    64         17
    65         15
    66          2
    68          9
    70         87
    71         28
    72         19
    74          6
    75          7
    76          8
    77          9
    78          3
    79          2
    80          1
    82         11
    84         73
    86        183
    87         47
    90         14
    91         26
    92         17
    93          3
    96         17
    98        106
   100        999
   102         20
   103          6
   105         14
   106          3
   107          1
   108          1
   110          3
   112         14
   114         63
   115          5
   116          1
   120         97
   122         11
   124          3
   126          0
   128          0
   129          0
   130          3
   131          6
   132          4
   133          4
   135          6
   136          0
   137          0
   140          2
   142          9
   144          1
   145          1
   146         16
   147          2
   148          1
   149          1
   151         71
   152          6
   153          0
   158          0
   159          0
   160          3
   161          1
   162          6
   163         10
   164         20
   165          1
   166          0
   172          0
   174          5
   175          1
   176          2
   177          5
   178          5
   179          0
   188          1
   190          3
   191          2
   192          1
   193          3
   194          0
   202          1
   204          2
   205         10
   206         14
   207          4
   215          0
   217          0
   218          0
   219          0
   220          0
   221          0
   231          0
   232          0
   233          3
   234          2
   235          2
   236          0
   243          0
   246          1
   247          3
   249        224
   250         24
   251          2
   257          0
   259          3
   261        114
   262         12
   263          6
   264          0
   271          0
   274         45
   275          8
   277          4
   278          0
   288          0
   289          0
   290          0
   292         56
   293          8
   294          0