##TITLE=Library Entry 6719
##JCAMP-DX=Revision 4.10 
##DATA TYPE=MASS SPECTRUM
##SAMPLE DESCRIPTION=A.A.Kutin, Moscow, Russia
##NAMES=HP
##CAS NAME=1,2,5-Oxadiazole-3,4-dicarboxaldehyde, 4-(O-acetyloxime) 3-oxime,
 2-oxide
##MOLFORM=C6H6N4O5
##CAS REGISTRY NO=329206-29-3
##MP= -300
##BP= -300
##MW= 214
##$RETENTION INDEX=0
##$CONDENSED SPECTRUM=NO
##NPOINTS= 86
##XYDATA=(XY..XY) 1 
    33          0
    34          0
    36          3
    37         47
    38         43
    39         28
    40         31
    41         12
    42         34
    43        999
    44         68
    45         48
    46          3
    47          0
    48          0
    49          2
    50         20
    51         40
    52         18
    53         23
    54         15
    55         14
    56          3
    57          3
    58          1
    60         26
    61          6
    62          2
    63          8
    64         46
    65         14
    66          3
    67          9
    68         12
    69          6
    70          9
    71         13
    72          3
    73          0
    74          0
    76          3
    77         12
    78          3
    79          0
    80          2
    81          9
    82          6
    83          1
    84          1
    85          1
    86          0
    87          2
    90          0
    93          0
    94          1
    95          6
    96          1
    97          0
    98          3
    99          1
   108          1
   110          0
   111          5
   112         38
   113          2
   114          0
   123          0
   124         16
   125          2
   126          0
   127          0
   129          0
   138          2
   140          0
   141          0
   142          4
   152          0
   153          0
   154         18
   155          3
   156          1
   164          0
   172         32
   173          1
   214         10
   215          0