##TITLE=Library Entry 76018
##JCAMP-DX=Revision 4.10 
##DATA TYPE=MASS SPECTRUM
##SAMPLE DESCRIPTION=A.A.Kutin, Moscow, Russia
##NAMES=HP
##CAS NAME=Oxamide, N-(3-bromophenyl)-N'-(3-hydroxypropyl)-
##MOLFORM=C11H13BrN2O3
##CAS REGISTRY NO=329210-83-5
##MP= -300
##BP= -300
##MW= 300
##$RETENTION INDEX=0
##$CONDENSED SPECTRUM=NO
##NPOINTS= 178
##XYDATA=(XY..XY) 1 
    33          1
    34          0
    36          0
    37          5
    38         18
    39         53
    40         23
    41        277
    42         82
    43         40
    44        176
    45         38
    46        116
    47          1
    48          0
    50         35
    51         13
    52         14
    53          2
    54          7
    56        362
    57         49
    58         79
    59        174
    61          7
    62         13
    63         70
    64         59
    65         88
    66          8
    67          0
    68          1
    70         10
    71          7
    72         32
    74        532
    75        172
    76         78
    77         15
    78          2
    79          3
    80          6
    81          3
    82          7
    84        440
    85         23
    86          6
    87          1
    88          2
    90         72
    91        122
    92        112
    93         23
    94          2
    95          1
    98          0
    99          1
   100          6
   102        999
   103         53
   104          7
   105          1
   106          1
   107          0
   108          0
   109          0
   110          2
   111          1
   113          0
   115          0
   117          7
   118         10
   119         25
   120          7
   121          1
   125          0
   126          0
   127          5
   128          1
   129          3
   130          1
   131          1
   132          0
   133          0
   134          0
   135          1
   136          3
   137          0
   139          0
   141          0
   143         21
   144          5
   145         22
   146          8
   147          1
   148          4
   149          0
   153          1
   155         70
   156          7
   157         68
   158          4
   159          0
   162          0
   163          0
   164          0
   168          0
   169          4
   170         55
   171        291
   172         83
   173        279
   174         30
   175          2
   177          0
   181          0
   182          1
   183          1
   184          2
   185          1
   186          1
   191          0
   193          0
   196          0
   197         49
   198         39
   199         78
   200         38
   201         35
   202          4
   203          0
   210          0
   212          0
   213          1
   214          0
   215          1
   221          0
   222          2
   223          0
   224          0
   225          0
   226          0
   227          0
   228          1
   229          2
   230          0
   231          2
   241          0
   242          1
   243          4
   244          1
   245          3
   246          0
   254          0
   255          3
   256         10
   257          4
   258          8
   259          0
   267          0
   268          0
   269          1
   270          4
   271          1
   272          4
   273          0
   281          0
   282          3
   283          1
   284          2
   285          0
   297          0
   298          2
   300        202
   301         29
   302        194
   303         25
   304          2