##TITLE=Library Entry 18454
##JCAMP-DX=Revision 4.10 
##DATA TYPE=MASS SPECTRUM
##SAMPLE DESCRIPTION=A.A.Kutin, Moscow, Russia
##NAMES=HP
##CAS NAME=Pyrazolo[4,3-c]pyrazole-3-carboxylic acid, 1,4-dihydro-6-nitro-,
 ethyl ester
##MOLFORM=C7H7N5O4
##CAS REGISTRY NO=329210-08-4
##MP= -300
##BP= -300
##MW= 225
##$RETENTION INDEX=0
##$CONDENSED SPECTRUM=NO
##NPOINTS= 156
##XYDATA=(XY..XY) 1 
    33          0
    34          0
    36         11
    37         29
    38         78
    39         59
    40         52
    41         37
    42         37
    43         99
    44         66
    45        154
    46        245
    48         14
    49         43
    50         30
    51         51
    52         75
    53        999
    54        434
    55         92
    56         13
    57         14
    58          2
    59          2
    60          1
    62         13
    63         15
    64         25
    65         82
    66         63
    67         61
    68         16
    69         28
    70          6
    71          4
    72         23
    73          5
    74          1
    75          2
    76         23
    77        114
    78         60
    79         48
    80        137
    81         19
    82          6
    83          4
    84          2
    85          1
    86          0
    87          0
    90          4
    91          9
    92         15
    93         45
    94         20
    95          5
    96          5
    97          2
    98          1
    99          6
   100          1
   102          0
   103          1
   104          3
   105         44
   106         34
   107        241
   108         18
   109         32
   110          3
   111          2
   112          1
   113          1
   114          0
   115          0
   116          0
   117          0
   118          1
   119         10
   120         14
   121         42
   122          8
   123         14
   124          5
   125          1
   126          0
   127          3
   128          1
   130          0
   131          0
   133         10
   134         45
   135         17
   136         23
   137          7
   138          1
   139          6
   140          2
   141          0
   142          0
   143          0
   145          0
   146          1
   147          1
   148          0
   149          6
   150          6
   151         38
   152         18
   153        297
   154         35
   155          3
   156          0
   157          0
   159          0
   160          1
   161          8
   162          4
   163          3
   164         16
   165          2
   166         14
   167          7
   168          2
   169          0
   171          0
   177          1
   179         52
   180        434
   181        252
   182         22
   183          2
   185          0
   190          0
   192          1
   193          1
   194          2
   195          8
   197        338
   198         27
   199          3
   205          0
   206          0
   208         33
   209          4
   210          6
   211          0
   221          1
   222          3
   223          3
   225        226
   226         21
   227          2
   228          0