##TITLE=Library Entry 12617
##JCAMP-DX=Revision 4.10 
##DATA TYPE=MASS SPECTRUM
##SAMPLE DESCRIPTION=A.A.Kutin, Moscow, Russia
##NAMES=HP
##CAS NAME=Acetamide, N-[2-nitro-4-(4-nitrophenylsulfonyloxy)phenyl]-
##MOLFORM=C14H11N3O8S
##CAS REGISTRY NO=329210-10-8
##MP= -300
##BP= -300
##MW= 381
##$RETENTION INDEX=0
##$CONDENSED SPECTRUM=NO
##NPOINTS= 133
##XYDATA=(XY..XY) 1 
    33          9
    34         11
    36          2
    37          8
    38         20
    39         48
    40        124
    41         36
    43        999
    44         77
    45         16
    46          5
    48         20
    50        110
    51         60
    52        132
    53         63
    54         21
    55         20
    56          9
    57         11
    58          6
    59          4
    60          5
    61          4
    62         14
    63         36
    64         44
    65         20
    66          9
    67         16
    68         22
    69         14
    70         14
    71          6
    72          1
    73          4
    74         23
    75         61
    76         95
    77         35
    78         25
    79         55
    80         69
    81         22
    82          7
    83          5
    84          4
    85          3
    86          4
    87          0
    89          4
    90          3
    91         19
    92         30
    93         11
    94          6
    95         24
    96         16
    97          5
    98          4
    99          1
   100          1
   102          0
   103          2
   104          3
   105          9
   106         29
   107        114
   108        280
   109         37
   110          4
   111          3
   112          5
   113          3
   114          3
   115          1
   117          1
   118          9
   119          2
   120          3
   122         56
   123         18
   124          9
   125          5
   126          1
   127          2
   128          1
   133          3
   134          7
   135          3
   136          2
   137         16
   138          4
   139          1
   140          3
   141          0
   143          0
   144          7
   145          0
   146          3
   147          1
   148          5
   149         11
   150         47
   151         16
   153        730
   154        137
   155         17
   156         10
   157          2
   163          0
   165          2
   166          1
   171          5
   180          1
   186         13
   195         24
   196         20
   197          3
   198          0
   212          4
   214          5
   294          1
   335          6
   336         12
   337          2
   339         65
   340          9
   341          3
   381         26
   382          3
   383          0