##TITLE=Library Entry 29082
##JCAMP-DX=Revision 4.10 
##DATA TYPE=MASS SPECTRUM
##SAMPLE DESCRIPTION=Chemical Concepts
##NAMES=HP
##CAS NAME=Hexahydro-2-imino-5-(2,2,6,6-tetramethyl-4-piperidyl)-1,3,5-triaz
ine-1-carbonitrile
##MOLFORM=C13H24N6
##CAS REGISTRY NO=329205-85-8
##MP= -300
##BP= -300
##MW= 264
##$RETENTION INDEX=0
##$CONDENSED SPECTRUM=NO
##NPOINTS= 63
##XYDATA=(XY..XY) 1 
    39        108
    41        316
    42        326
    43        200
    44        105
    45         56
    46         13
    51          8
    53         38
    55        147
    56        104
    57        251
    58        999
    59         40
    60         27
    63         10
    65         10
    67         43
    68         19
    69         28
    70         35
    71         47
    72         30
    73         47
    77          9
    79         15
    80          9
    81         21
    82         40
    83         47
    84         57
    85        146
    86        168
    87          9
    91         13
    93          8
    94          9
    95         14
    96         19
    97         24
    98         91
    99         37
   100         13
   105         11
   107         68
   108         18
   109         10
   110          9
   111         10
   112         26
   121          7
   122          9
   124        203
   125         20
   126          9
   135         10
   140         15
   142        840
   143         64
   149         24
   157         14
   166         26
   226          9