##TITLE=Library Entry 109764
##JCAMP-DX=Revision 4.10 
##DATA TYPE=MASS SPECTRUM
##SAMPLE DESCRIPTION=A.A.Kutin, Moscow, Russia
##NAMES=HP
##CAS NAME=Oxamide, N-(4-chlorobenzyl)-N'-phenyl-
##MOLFORM=C15H13ClN2O2
##CAS REGISTRY NO=329210-82-4
##MP= -300
##BP= -300
##MW= 288
##$RETENTION INDEX=0
##$CONDENSED SPECTRUM=NO
##NPOINTS= 101
##XYDATA=(XY..XY) 1 
    34          1
    36          1
    37          2
    38         18
    39        100
    40         56
    41         12
    44         54
    45          5
    50         36
    51        112
    52         25
    53          3
    54          1
    55          2
    56          5
    57          6
    62         14
    63         66
    64         47
    65        167
    66         61
    67          7
    69          1
    73         16
    74          8
    75         30
    76         24
    77        446
    78         40
    79          9
    85          3
    87          1
    89        179
    90         86
    91        170
    92        288
    93        540
    94        203
    95         14
    99         56
   100          1
   101         19
   102          3
   103          1
   104         21
   105         30
   106         56
   107          8
   111         12
   112         11
   113         15
   114          6
   115          2
   118          1
   119        134
   120        416
   121         75
   122          5
   123          2
   125        999
   126        209
   127        324
   128         64
   129          5
   131          1
   132         39
   133          6
   134         21
   135          3
   138         35
   139         45
   140        909
   141        101
   142        299
   143         28
   144          6
   151          9
   152         10
   153          2
   166          3
   167          2
   168         40
   169         18
   170         15
   171          8
   180          1
   181          3
   182          2
   185          1
   193          1
   216          6
   240         13
   241          1
   245         25
   247          8
   288        489
   289         79
   290        159
   291         31
   292          2