##TITLE=Library Entry 55844
##JCAMP-DX=Revision 4.10 
##DATA TYPE=MASS SPECTRUM
##SAMPLE DESCRIPTION=A.A.Kutin, Moscow, Russia
##NAMES=HP
##CAS NAME=2-(Butylamino)-4'-chloroacetanilide
##MOLFORM=C12H17ClN2O
##CAS REGISTRY NO=329212-50-2
##MP= -300
##BP= -300
##MW= 240
##$RETENTION INDEX=0
##$CONDENSED SPECTRUM=NO
##NPOINTS= 141
##XYDATA=(XY..XY) 1 
    34          2
    35         18
    36         71
    37         13
    38         36
    39        113
    40         40
    41        273
    42        317
    43        239
    44        693
    45         24
    47          2
    48          1
    49          5
    50         25
    51         21
    52         14
    53         14
    54         11
    55         39
    56         62
    57        119
    58          7
    59          0
    60          1
    61          5
    62         13
    63         48
    64         28
    65         26
    66          5
    67          3
    68          8
    69          4
    70         21
    71          5
    72        187
    73         36
    74          8
    75         39
    76         10
    77         12
    78          5
    79          1
    80          1
    81          0
    82          2
    83          2
    84         20
    86        999
    87         55
    88          4
    89          5
    90         24
    91         27
    92         13
    93          8
    94          1
    96          0
    97          1
    99        102
   100         16
   101         20
   102          5
   103          1
   104          6
   105          6
   106          1
   107          1
   108          0
   110          1
   111         18
   112          3
   113          8
   114          1
   115          0
   118          1
   119          2
   120          1
   121          0
   123          0
   124          0
   125         17
   126         47
   127        107
   128         26
   129         35
   130          4
   131          0
   132          1
   133          3
   135          1
   136          0
   137          1
   138          3
   139          5
   140          3
   141          0
   142          1
   143          0
   144          0
   146          0
   147          0
   151          0
   152          0
   153         10
   154          5
   155          4
   156          2
   161          0
   163          0
   166          1
   167          0
   168          4
   169          6
   170          2
   171          2
   172          0
   173          0
   177          0
   179          0
   181          0
   182          0
   183          0
   184          1
   185          0
   195          4
   196          0
   197         11
   198          1
   199          2
   200          0
   205          0
   213          0
   238          0
   239          0
   240         35
   241          5
   242         11
   243          1