##TITLE=Library Entry 38137
##JCAMP-DX=Revision 4.10 
##DATA TYPE=MASS SPECTRUM
##SAMPLE DESCRIPTION=A.A.Kutin, Moscow, Russia
##NAMES=HP
##CAS NAME=Methanone, (5-benzyloxy-3-methyl-2-indolyl)(4-methyl-1-piperaziny
l)-
##MOLFORM=C22H25N3O2
##CAS REGISTRY NO=329210-47-1
##MP= -300
##BP= -300
##MW= 363
##$RETENTION INDEX=0
##$CONDENSED SPECTRUM=NO
##NPOINTS= 186
##XYDATA=(XY..XY) 1 
    29         26
    30         13
    32         52
    36          2
    38          1
    39          6
    40          1
    41         10
    42        129
    43        158
    44        147
    45         14
    47          0
    48          2
    51          0
    53          1
    54          1
    55         14
    56        383
    57         65
    58        414
    59         12
    60          1
    63          1
    64          0
    65         41
    67          2
    68          5
    69         13
    70        999
    71        101
    72         33
    73         17
    77          5
    78          2
    79          2
    80          2
    81          0
    82         26
    83        177
    84         47
    85         48
    86          1
    87          0
    89         29
    90         22
    91        780
    92         60
    93          0
    95          3
    96          1
    97         50
    98        101
    99        370
   100         45
   101        241
   102         15
   103          0
   104          0
   105          2
   107          0
   108          0
   109          2
   110          1
   113         13
   115          3
   116         42
   117         31
   118         11
   119          3
   120          0
   126          0
   127         37
   128          6
   129          5
   130         12
   131         10
   132          1
   135          0
   138          0
   139          0
   140          0
   142          0
   143          5
   144        182
   145        191
   146         42
   147          0
   148          0
   149          0
   150          0
   156          0
   157          3
   158         16
   159         12
   160          6
   164          0
   167          0
   168          0
   169          0
   170          2
   171         14
   172        337
   173        118
   174         19
   175          0
   178          0
   179          1
   180          0
   185          0
   186          1
   187          9
   188          4
   189        210
   190         23
   191          0
   198          2
   199          0
   200         10
   201         34
   202          1
   203          2
   206          0
   207          1
   208          1
   209          0
   210          0
   213          2
   214          5
   215        286
   216         38
   217          1
   218          0
   219          0
   220          1
   228          2
   229        252
   230         34
   231          1
   234          1
   235         12
   236          6
   237          3
   238          1
   239          0
   240          0
   241          7
   242          0
   244          0
   249          0
   250          2
   254          2
   260          0
   262          2
   263         18
   264         84
   265         12
   266          0
   269          0
   270          4
   271          7
   272        326
   273         48
   274          4
   275          0
   279          0
   280         64
   281          9
   291         11
   292          2
   295          0
   300          0
   305          0
   306         25
   307          2
   309          0
   320         12
   321          2
   348          0
   359          1
   360          5
   361         10
   362         24
   363        798
   364        285
   365         42