##TITLE=Library Entry 107024
##JCAMP-DX=Revision 4.10 
##DATA TYPE=MASS SPECTRUM
##SAMPLE DESCRIPTION=NIST Mass Spectrometry Data Center
##NAMES=HP
##CAS NAME=1-Cyclohexene-1-propanol, .alpha.,2,6,6-tetramethyl-
##MOLFORM=C13H24O
##CAS REGISTRY NO=3293-47-8
##MP= -300
##BP= -300
##MW= 196
##$RETENTION INDEX=1452
##$CONDENSED SPECTRUM=NO
##NPOINTS= 107
##XYDATA=(XY..XY) 1 
    27         10
    29         20
    30          1
    31          5
    39         34
    40          7
    41        106
    42          6
    43         63
    44          5
    45         63
    46          1
    50          2
    51         11
    52          6
    53         49
    54          6
    55        131
    56         10
    57         66
    58         23
    59         14
    62          1
    63          5
    64          2
    65         37
    66         12
    67        156
    68         34
    69        150
    70         25
    71         72
    72         20
    73          2
    74          1
    76          2
    77         92
    78         17
    79        162
    80         29
    81        357
    82        151
    83         96
    84          8
    85         33
    86          2
    91        130
    92         23
    93        260
    94         44
    95        267
    96         58
    97         21
    99          8
   100          1
   102          1
   103         10
   104          3
   105         73
   106         14
   107        321
   108         53
   109        100
   110         13
   111         32
   112          5
   113          4
   117          4
   118          4
   119         28
   120          7
   121        233
   122        121
   123        999
   124        115
   125         59
   126          8
   127          2
   128          2
   131          1
   133          3
   135         51
   136         57
   137         44
   138         60
   139         39
   140         13
   141          1
   147          5
   148          2
   149          6
   150          1
   153          5
   162          1
   163        416
   164         57
   165          4
   167          2
   168          1
   177          2
   178          6
   179          1
   181         28
   182          3
   196        213
   197         31
   198          2