##TITLE=Library Entry 53
##JCAMP-DX=Revision 4.10 
##DATA TYPE=MASS SPECTRUM
##SAMPLE DESCRIPTION=James Little,Eastman Chem.Co.,Kingsport,TN
##NAMES=HP
##CAS NAME=3-Cyclobutene-1,2-dione
##MOLFORM=C4H2O2
##CAS REGISTRY NO=32936-74-6
##MP= -300
##BP= -300
##MW= 82
##$RETENTION INDEX=0
##$CONDENSED SPECTRUM=NO
##NPOINTS= 17
##XYDATA=(XY..XY) 1 
    25        182
    26        999
    28        224
    29         43
    32         32
    37         66
    40         17
    41         44
    48          6
    52         27
    53        130
    54        495
    55         19
    56          9
    69          5
    82        162
    83          8