##TITLE=Library Entry 78414
##JCAMP-DX=Revision 4.10 
##DATA TYPE=MASS SPECTRUM
##SAMPLE DESCRIPTION=Chemical Concepts
##NAMES=HP
##CAS NAME=Ethyl 2-benzamido-3,3,3-trifluoro-2-[4-(trifluoromethyl)anilino]p
ropionate
##MOLFORM=C19H16F6N2O3
##CAS REGISTRY NO=329349-17-9
##MP= -300
##BP= -300
##MW= 434
##$RETENTION INDEX=0
##$CONDENSED SPECTRUM=NO
##NPOINTS= 104
##XYDATA=(XY..XY) 1 
    36          1
    39          9
    40         45
    41         13
    44        115
    45          4
    46          2
    47          2
    48          2
    50        132
    51          7
    52          4
    55         11
    57         15
    58          1
    59          1
    60          2
    61          2
    63          7
    64          9
    65          7
    66          2
    67          2
    69         18
    70          4
    71          4
    73         10
    77        380
    80          3
    81          4
    83          7
    84          3
    85          2
    88          2
    89          1
    90          1
    91          5
    92          2
    93          2
    95         16
    96          7
    98          1
    99          1
   100          2
   101          1
   105        999
   106          8
   108          3
   109          1
   111         11
   112          2
   113          4
   114          5
   115          1
   118          4
   119          2
   121         20
   122          5
   123          4
   125          7
   126          3
   127          1
   130          1
   132          1
   133          2
   134          1
   139          4
   141          4
   142         11
   143          2
   145         61
   147          2
   149          1
   152          3
   160          5
   161         32
   162          2
   167          2
   171          1
   172         17
   173          1
   187          6
   200          6
   201          1
   207          1
   221          1
   235          1
   236          1
   237          1
   238          1
   240         28
   241          3
   255         10
   256          2
   294          2
   295          1
   313          9
   314          1
   361         44
   362          6
   365          1
   415          2
   434         10
   435          2