##TITLE=Library Entry 67755
##JCAMP-DX=Revision 4.10 
##DATA TYPE=MASS SPECTRUM
##SAMPLE DESCRIPTION=A.A.Kutin, Moscow, Russia
##NAMES=HP
##CAS NAME=Furan-2-carboxylic acid, 5-chloromethyl-, 1,7,7-trimethylbicyclo[
2.2.1]hept-2-yl ester
##MOLFORM=C16H21ClO3
##CAS REGISTRY NO=329325-69-1
##MP= -300
##BP= -300
##MW= 296
##$RETENTION INDEX=0
##$CONDENSED SPECTRUM=NO
##NPOINTS= 138
##XYDATA=(XY..XY) 1 
    33          9
    34          6
    35         18
    36         58
    37         18
    39        333
    41        911
    43        380
    44         37
    45         15
    47          0
    49         23
    50         93
    51        336
    52        451
    53        207
    55        328
    56         20
    57         61
    59         10
    60          2
    61         10
    63         16
    65         66
    67        269
    68         75
    69        244
    70         18
    71         17
    72          2
    73          2
    74          1
    75          3
    77        140
    79        272
    80        366
    81        260
    82         45
    83         40
    84          4
    85          4
    86          7
    87         26
    88          3
    89         10
    91        121
    92        205
    93        600
    95        999
    96         69
    97         30
    98          2
    99          1
   101          0
   102          1
   103          5
   105         36
   107        108
   108        428
   109        214
   110        129
   111         18
   112          2
   114          2
   115          8
   116          2
   117          3
   118          2
   119         11
   121        339
   122         30
   123         15
   125        186
   126         13
   127          3
   128          2
   129          1
   131          1
   133          1
   136        449
   137         73
   138          7
   139          2
   140          1
   143        477
   145        182
   146          9
   147          1
   149          0
   151          0
   152          3
   153         15
   154          1
   156          0
   157          1
   159          6
   160          4
   161          6
   162          1
   163          1
   171          2
   172          5
   173          1
   174          0
   177          0
   185          4
   187         10
   189          3
   199          0
   201          0
   202          0
   211          0
   212          0
   213          0
   214          0
   215          0
   217          0
   223          0
   225          3
   226          0
   227          2
   229          0
   247          0
   253          5
   254          0
   255          1
   261         57
   262         11
   263          1
   268          2
   270          0
   281          0
   295          0
   296         65
   297         11
   298         22
   299          2
   300          0