##TITLE=Library Entry 13562
##JCAMP-DX=Revision 4.10 
##DATA TYPE=MASS SPECTRUM
##SAMPLE DESCRIPTION=Exported from NIST MS Search
##NAMES=HP
##CAS NAME=Galactopyranoside, methyl 4-deoxy-4-fluoro-, triacetate, .alpha.-
D-
##MOLFORM=C13H19FO8
##CAS REGISTRY NO=32934-08-0
##MP= -300
##BP= -300
##MW= 322
##$RETENTION INDEX=0
##$CONDENSED SPECTRUM=NO
##NPOINTS= 44
##XYDATA=(XY..XY) 1 
    29         80
    31         50
    41         50
    42        110
    43        999
    44        280
    45         50
    53         50
    61         50
    69        180
    70        210
    72         70
    73         70
    74         40
    75         40
    81        230
    85         60
    87         40
    97        100
    98        130
    99        280
   100        330
   101        300
   102        619
   103        629
   104         40
   109         90
   112         40
   117         70
   118        170
   129        130
   131         40
   139         70
   144        200
   145        310
   159         60
   160        250
   161        180
   169        140
   182         40
   189         70
   202         40
   203        999
   231        170