##TITLE=Library Entry 47847
##JCAMP-DX=Revision 4.10 
##DATA TYPE=MASS SPECTRUM
##SAMPLE DESCRIPTION=LAC, NIDDK, NIH, Bethesda, MD 20892
##NAMES=HP
##CAS NAME=Isotemazepan
##MOLFORM=C16H13ClN2O2
##CAS REGISTRY NO=3294-96-0
##MP= -300
##BP= -300
##MW= 300
##$RETENTION INDEX=0
##$CONDENSED SPECTRUM=NO
##NPOINTS= 212
##XYDATA=(XY..XY) 1 
    41         80
    42        130
    43         83
    44         39
    45         23
    46          3
    47         21
    48          6
    49         94
    50        192
    51        551
    52        135
    53         33
    54         23
    55         34
    56         41
    57         41
    58         37
    59          7
    60         21
    61         30
    62         89
    63        239
    64         76
    65         82
    66         54
    67         25
    68         16
    69         60
    71         73
    72         13
    73         84
    74        135
    75        331
    76        254
    77        999
    78        141
    79         50
    80         12
    81         56
    82        102
    84        182
    85         30
    86         74
    87         71
    88         88
    89        166
    90        139
    91        144
    92         22
    93         20
    94         12
    96         95
    97        136
    98         48
    99         94
   100         92
   101         67
   102        115
   103        103
   104        361
   105        213
   106         37
   107         16
   108         16
   109         30
   111        261
   112         61
   113         87
   114        103
   115         76
   116         43
   117         61
   118        179
   120          9
   121         58
   122         40
   123         34
   124         74
   125         88
   126         85
   127         75
   128         41
   129         20
   130         17
   131         21
   132         54
   133         10
   134          6
   135         16
   136         61
   137         39
   138         76
   139         79
   140        138
   141         34
   142         35
   143          6
   144          2
   147          4
   148          3
   149         21
   150         97
   151        174
   152        173
   153         55
   154         27
   155          6
   156          2
   158          4
   159          2
   160          3
   161          6
   162         13
   163         68
   164         75
   165        237
   166         90
   167         70
   168         18
   169          8
   170          2
   173          4
   174          5
   175         10
   176         20
   177         84
   178         64
   179         49
   180         53
   181         18
   182          4
   185          3
   186          7
   187          3
   188          7
   189          4
   190         19
   191         31
   192         58
   193        162
   194         37
   195         60
   196         14
   197         15
   198          5
   199         17
   200          9
   201         12
   202          9
   203         12
   204          5
   205         16
   206         21
   207         17
   208         19
   209          6
   211          2
   212          3
   213         19
   214         24
   215         13
   216         10
   217          3
   218          3
   219          6
   220         12
   221         96
   222         20
   223          5
   224          2
   226          8
   227         46
   228        125
   229         41
   230         43
   231          9
   232          1
   235         14
   236         14
   237         14
   238          4
   239         22
   240          6
   241         22
   242         13
   243         73
   244         23
   245         26
   246          7
   247          1
   253          2
   254          9
   255        239
   256        204
   257        171
   258         84
   259         29
   260          4
   269         18
   270         10
   271        646
   272        114
   273        216
   274         36
   275          4
   283          3
   299         13
   300        101
   301         27
   302         34
   303          8