##TITLE=Library Entry 3043
##JCAMP-DX=Revision 4.10 
##DATA TYPE=MASS SPECTRUM
##SAMPLE DESCRIPTION=NIST Mass Spectrometry Data Center
##NAMES=HP
##CAS NAME=Allyl n-octyl ether
##MOLFORM=C11H22O
##CAS REGISTRY NO=3295-97-4
##MP= -300
##BP= -300
##MW= 170
##$RETENTION INDEX=0
##$CONDENSED SPECTRUM=NO
##NPOINTS= 63
##XYDATA=(XY..XY) 1 
    14          1
    15         13
    16          1
    18          1
    26         13
    27        177
    28         67
    29        303
    30         15
    31         24
    37          1
    39        193
    40         40
    41        999
    42        151
    43        618
    44         28
    45          6
    50          1
    51          5
    52          2
    53         25
    54         19
    55        234
    56        156
    57        634
    58        526
    59         39
    60          1
    65          4
    66          5
    67         31
    68         35
    69        184
    70        129
    71        438
    72         25
    73          1
    77          1
    79          3
    81         15
    82         39
    83        100
    84         73
    85         12
    86          1
    95          5
    96          2
    97         10
    98          1
    99          5
   109          2
   110         23
   111         22
   112         54
   113          8
   123          3
   127          4
   128          1
   141         93
   142          7
   170         11
   171          1