##TITLE=Library Entry 48333
##JCAMP-DX=Revision 4.10 
##DATA TYPE=MASS SPECTRUM
##SAMPLE DESCRIPTION=O.Demina, N.M.Emanuel, Inst. Biochem. Phys., Moscow
##NAMES=HP
##CAS NAME=3-(2-Pyridyl)-5-hydroxymethylisoxazoline
##MOLFORM=C9H10N2O2
##CAS REGISTRY NO=329694-52-2
##MP= -300
##BP= -300
##MW= 178
##$RETENTION INDEX=0
##$CONDENSED SPECTRUM=NO
##NPOINTS= 58
##XYDATA=(XY..XY) 1 
    49         13
    50         83
    51        169
    52        137
    53         32
    54         11
    55          1
    61          6
    62         15
    63         32
    64         39
    65         31
    66         14
    67         16
    68          8
    75         32
    76         64
    77        123
    78        999
    79        397
    80         35
    81          4
    90         20
    91         21
    92         44
    93         32
    94         12
    95         14
   103         33
   104        318
   105        353
   106         55
   107          4
   115          3
   116         12
   117         40
   118         65
   119         90
   120        170
   121         25
   122         12
   123          5
   131         44
   132         32
   133          8
   143          5
   144         36
   145         32
   146         48
   147        603
   148         68
   149         29
   159         10
   160         86
   161         10
   162          3
   178         17
   179          4