##TITLE=Library Entry 109688
##JCAMP-DX=Revision 4.10 
##DATA TYPE=MASS SPECTRUM
##SAMPLE DESCRIPTION=Div. of Experiment Therapeutics WRAIR, WRAMC, Washingto
n DC 20307
##NAMES=HP
##CAS NAME=1-Bromo-6-[4-chlorophenyl]hexane
##MOLFORM=C12H16BrCl
##CAS REGISTRY NO=32968-33-5
##MP= -300
##BP= -300
##MW= 274
##$RETENTION INDEX=0
##$CONDENSED SPECTRUM=NO
##NPOINTS= 125
##XYDATA=(XY..XY) 1 
    41        125
    42         19
    43         24
    44          1
    45          0
    47          0
    49          4
    50         16
    51         31
    52          6
    53         16
    54          5
    55         43
    56          4
    57          7
    58          0
    61          2
    62          8
    63         40
    64         10
    65         19
    66          2
    67          9
    68          3
    69        116
    70          7
    71          3
    73         10
    74          6
    75         26
    76          7
    77         54
    78          9
    79          4
    80          1
    81          5
    82          1
    83          8
    84          2
    85          4
    86          2
    87          4
    89        104
    90         41
    91        139
    92         11
    93          5
    95          8
    96          0
    97          7
    99         34
   101         20
   102         14
   103         53
   104         10
   105         10
   107         12
   109         11
   110          0
   111          7
   112         20
   113          4
   114          8
   115         30
   116         11
   117         20
   118          2
   119          2
   120          2
   121          2
   123          4
   125        999
   126        149
   127        359
   128         45
   129          6
   130          1
   131          5
   132          3
   133          1
   135          2
   136          1
   137          5
   138         29
   139         21
   140         11
   141          7
   142          0
   145          0
   147          0
   149         25
   151         32
   152          4
   153          9
   154          1
   155          3
   159          9
   160          1
   161          1
   162          2
   163          1
   164          0
   165          2
   166          1
   167          4
   169          9
   171          6
   175          0
   183          1
   185          1
   191          1
   194          1
   195          0
   197          0
   239          6
   240          0
   241          6
   242          1
   273          0
   274        199
   275         26
   276        259
   277         34
   278         67
   279          8