##TITLE=Library Entry 91693
##JCAMP-DX=Revision 4.10 
##DATA TYPE=MASS SPECTRUM
##SAMPLE DESCRIPTION=John Halket,Royal Holloway, University of London, UK
##NAMES=HP
##CAS NAME=Methyl 4-oxo-4-((5-(trifluoromethyl)-1,3,4-thiadiazol-2-yl)amino)
butanoate
##MOLFORM=C8H8F3N3O3S
##CAS REGISTRY NO=329695-18-3
##MP= -300
##BP= -300
##MW= 283
##$RETENTION INDEX=0
##$CONDENSED SPECTRUM=NO
##NPOINTS= 119
##XYDATA=(XY..XY) 1 
    14          5
    15         67
    26         36
    27        130
    28        160
    29         54
    30         10
    31         38
    32         14
    33          3
    37          1
    38          3
    39          7
    40          4
    41         39
    42         53
    43         24
    44         20
    45         54
    46         12
    47          2
    48          1
    50         12
    51          4
    52          5
    53         11
    54         49
    55        701
    56         78
    57         13
    58         42
    59        376
    60         26
    61          4
    63         72
    64          2
    65          4
    66          1
    67          1
    69        204
    70         17
    71         14
    72         11
    73          7
    74          9
    75          5
    76         14
    77          1
    79          1
    80          1
    81          3
    82         13
    83          9
    84          4
    85          6
    86         45
    87        169
    88         15
    89          2
    90          2
    91          4
    94         56
    95          2
    96          5
    98          1
    99          2
   100          9
   101          7
   108          1
   110          5
   111          3
   113        167
   115        999
   116         58
   117          7
   120          2
   121          1
   123          2
   126          1
   127         10
   128          8
   129          1
   137         38
   138          1
   139          1
   142          2
   150         10
   151          1
   153          4
   154          1
   156          1
   168          3
   169         18
   170         60
   171          4
   172          4
   176          9
   177          1
   182          8
   193          2
   194          1
   196        180
   197         11
   198          8
   214          1
   222         11
   223          7
   224         14
   225          2
   232          5
   233          1
   251         13
   252        124
   253         13
   254          7
   255          1
   264          1
   283         10
   284          1