##TITLE=Library Entry 65829
##JCAMP-DX=Revision 4.10 
##DATA TYPE=MASS SPECTRUM
##SAMPLE DESCRIPTION=A.A.Kutin, Moscow, Russia
##NAMES=HP
##CAS NAME=Butanamide, 2-ethoxythiocarbonylthio-3-oxo-N-phenyl-
##MOLFORM=C13H15NO3S2
##CAS REGISTRY NO=329691-53-4
##MP= -300
##BP= -300
##MW= 297
##$RETENTION INDEX=0
##$CONDENSED SPECTRUM=NO
##NPOINTS= 155
##XYDATA=(XY..XY) 1 
    33         19
    34         22
    35          4
    36          6
    37          7
    38         22
    39         78
    40        172
    41         29
    42         30
    43        487
    44         74
    45         92
    46         13
    47         11
    48          0
    50         19
    51         67
    52         20
    53          9
    54         10
    55         35
    56          7
    57         13
    58         18
    59         19
    60         29
    61         25
    62         11
    63         30
    64         35
    65         84
    66         68
    67         15
    68          5
    69         32
    70         13
    71         19
    72          7
    73          6
    74          6
    75          6
    76         23
    77        165
    78         24
    79          6
    80          3
    81          4
    82          7
    83         10
    84         10
    85         10
    86          7
    87         29
    88         58
    89         67
    90         16
    91         37
    92         66
    93        999
    94        230
    95         18
    96          9
    97          5
    98          2
   101          5
   102          8
   103         11
   104         66
   105         20
   106         32
   107          4
   108         13
   109         12
   110          2
   111          3
   112          2
   113          1
   114          1
   115          3
   116         18
   117         30
   118          9
   119         20
   120         29
   121        123
   122         61
   123         18
   124        123
   125         11
   126          6
   127          1
   128          9
   129          2
   130          5
   132        135
   133         20
   134          5
   135         17
   136         22
   137          3
   138          6
   139          1
   140          3
   141          1
   143          1
   144         13
   145          4
   146         24
   147          7
   148          9
   149          6
   150          1
   151          1
   152          1
   157          1
   158          0
   159          3
   160          6
   161          0
   162          9
   163          2
   164          5
   165         16
   166         43
   167         43
   168          6
   169          4
   170          0
   171          1
   174          9
   175          3
   176          0
   177          9
   179          3
   180          7
   181          2
   190          3
   191         10
   192          1
   194          5
   195          3
   208         66
   209         39
   210          8
   211          2
   224          0
   237         25
   238          3
   239          1
   253          0
   255          0
   297         22
   298          2
   299          1