##TITLE=Library Entry 97898
##JCAMP-DX=Revision 4.10 
##DATA TYPE=MASS SPECTRUM
##SAMPLE DESCRIPTION=A.A.Kutin, Moscow, Russia
##NAMES=HP
##CAS NAME=N-(4-Amino-furazan-3-yl)-2-(1-phenyl-1H-tetrazol-5-ylsulfanyl)-ac
etamide
##MOLFORM=C11H10N8O2S
##CAS REGISTRY NO=329692-55-9
##MP= -300
##BP= -300
##MW= 318
##$RETENTION INDEX=0
##$CONDENSED SPECTRUM=NO
##NPOINTS= 144
##XYDATA=(XY..XY) 1 
    33          1
    34          1
    36          2
    37         11
    38         39
    39        130
    40         71
    41         71
    42        201
    43        232
    44         57
    45        107
    46        194
    47         40
    48         11
    50         66
    51        224
    52         37
    53         62
    54         39
    55         34
    56        109
    57         22
    58         32
    59         31
    60         22
    61         10
    62         25
    63         81
    64        129
    65        318
    66         24
    67          7
    68         20
    69         39
    70         80
    71         22
    72         33
    73         22
    74         38
    75         21
    76         39
    77        655
    78         53
    79          7
    80          5
    81          2
    82          9
    83         20
    84         31
    85         14
    86          5
    87         36
    88         16
    89         15
    90         38
    91        324
    92         61
    93         14
    94          4
    95          3
    96         20
    97         20
    98          6
    99          4
   100         19
   101          9
   102          4
   103         21
   104         56
   105         81
   106         14
   107         10
   109         42
   110         14
   111          9
   112          6
   113         12
   114         43
   115         29
   116         97
   117        330
   118        999
   119        310
   120         24
   121          7
   122         16
   123         24
   124          5
   125          3
   126          0
   127          3
   129         28
   131         33
   132          7
   133         18
   135        241
   136         58
   137         15
   138          2
   139          0
   142         50
   143        346
   144         40
   145         63
   146          8
   147          7
   148         12
   149         85
   150         31
   151          8
   152          0
   153          0
   157          0
   159          1
   161          2
   163        363
   164         35
   165         16
   169          0
   171          2
   172          1
   173         34
   174          9
   175          4
   176          2
   178         67
   179         14
   180          2
   190          2
   191         11
   192         11
   193          4
   218         44
   219        280
   220         31
   221         13
   232          1
   260          1
   261         41
   262          4
   318        133
   319         17
   320          4