##TITLE=Library Entry 33055
##JCAMP-DX=Revision 4.10 
##DATA TYPE=MASS SPECTRUM
##SAMPLE DESCRIPTION=Exported from NIST MS Search
##NAMES=HP
##CAS NAME=1H-Indene, octahydro-, trans-
##MOLFORM=C9H16
##CAS REGISTRY NO=3296-50-2
##MP= -300
##BP= -300
##MW= 124
##$RETENTION INDEX=955
##$CONDENSED SPECTRUM=NO
##NPOINTS= 84
##XYDATA=(XY..XY) 1 
    12          1
    13          1
    14          2
    15         41
    16          1
    25          1
    26         31
    27        307
    28         83
    29        140
    30          3
    37          5
    38         21
    39        343
    40         53
    41        402
    42         39
    43         16
    44          1
    45          2
    46          3
    47          1
    49          1
    50         18
    51         49
    52         28
    53        132
    54        255
    55        256
    56         17
    57          5
    58          2
    59          1
    61          1
    62          5
    63         13
    64          3
    65         37
    66        115
    67        999
    68        295
    69         57
    70          4
    74          2
    75          1
    76          1
    77         43
    78         10
    79         65
    80         29
    81        475
    82        410
    83         64
    84          3
    85          1
    86          1
    87          1
    89          1
    90          1
    91         17
    92          2
    93         13
    94         14
    95        180
    96        636
    97         48
    98          2
   103          1
   104          1
   105          1
   106          1
   107          1
   108          1
   109          9
   110          1
   115          1
   116          1
   117          1
   121          1
   122          1
   123         10
   124        354
   125         35
   126          2