##TITLE=Library Entry 94394
##JCAMP-DX=Revision 4.10 
##DATA TYPE=MASS SPECTRUM
##SAMPLE DESCRIPTION=A.A.Kutin, Moscow, Russia
##NAMES=HP
##CAS NAME=Sulfamide, N-(1-methylethyl)-N'-(1-naphthyl)-
##MOLFORM=C13H16N2O2S
##CAS REGISTRY NO=329713-88-4
##MP= -300
##BP= -300
##MW= 264
##$RETENTION INDEX=0
##$CONDENSED SPECTRUM=NO
##NPOINTS= 158
##XYDATA=(XY..XY) 1 
    35          0
    36          2
    37          1
    38          4
    39         27
    40          9
    41         43
    42         44
    43        103
    44         17
    45          1
    46          0
    47          0
    48          4
    49          0
    50          8
    51         11
    52          6
    53          1
    54          1
    55          2
    56          5
    57          6
    58         17
    59          1
    60          0
    61          2
    62         13
    63         40
    64         17
    65         26
    66          2
    67          0
    68          0
    69          2
    70          3
    71          7
    72          0
    73          0
    74          7
    75         13
    76          9
    77         10
    78          3
    79          0
    80          1
    81          0
    82          0
    83          1
    84          0
    85          1
    86          6
    87         14
    88         25
    89         72
    90         11
    91          4
    92          0
    93          1
    95          0
    96          0
    97          0
    98          1
    99          2
   100          1
   101          3
   102          6
   103          6
   104          2
   105          0
   106          0
   107          1
   108          0
   109          0
   110          0
   111          1
   112          3
   113         48
   114         92
   115        999
   116        122
   117         12
   118          1
   119          0
   120          0
   121          0
   122          3
   123          0
   125          5
   126          5
   127          6
   128          9
   129          4
   130         17
   131          6
   132          0
   133          0
   134          0
   135          1
   136          0
   138          1
   139          3
   140        103
   141        714
   142        745
   143        308
   144         33
   145          2
   146          0
   147          0
   148          1
   149          0
   152          0
   153          0
   154          1
   155          2
   156          3
   157         33
   158          5
   159          0
   160          0
   161          2
   167          0
   168          1
   169          0
   170          1
   171          1
   172          1
   173          0
   174          0
   182          0
   183          0
   184          0
   185          9
   186          1
   188          0
   189          0
   199          1
   200          0
   205         20
   206          2
   207          0
   220          0
   221          3
   222          7
   223          1
   224          0
   229          0
   248          0
   249          0
   251          0
   258          0
   261          0
   262          2
   264        144
   265         21
   266          8
   267          0