##TITLE=Library Entry 78739
##JCAMP-DX=Revision 4.10 
##DATA TYPE=MASS SPECTRUM
##SAMPLE DESCRIPTION=A.A.Kutin, Moscow, Russia
##NAMES=HP
##CAS NAME=Benzamide, N-[1-aminocarbonyl-2-(4-chlorophenyl)ethenyl]-
##MOLFORM=C16H13ClN2O2
##CAS REGISTRY NO=329717-67-1
##MP= -300
##BP= -300
##MW= 300
##$RETENTION INDEX=0
##$CONDENSED SPECTRUM=NO
##NPOINTS= 78
##XYDATA=(XY..XY) 1 
    33         16
    36          3
    37          1
    38         10
    39         27
    40         28
    41          5
    42          1
    43          7
    44         56
    45          4
    50         32
    51        156
    52          7
    53          1
    55          1
    56          0
    57          2
    61          4
    62         13
    63         29
    64          5
    65          6
    69          0
    73          7
    74         12
    75         15
    77        512
    78         29
    79          1
    85          0
    86          2
    87          6
    88          7
    89         76
    90         11
    91          9
    97          1
    99          4
   101          3
   103          2
   105        999
   106         51
   107          7
   108          0
   109          3
   114          5
   115          3
   116         19
   117         16
   118          2
   119          0
   122          0
   123          9
   124         11
   125         14
   126          3
   127          2
   135          1
   136          0
   140          1
   150          5
   151         22
   152          9
   153          6
   154          1
   165          0
   267          2
   268          0
   283         38
   284          7
   285         12
   286          1
   299          0
   300         25
   301          5
   302          8
   303          0