##TITLE=Library Entry 1904
##JCAMP-DX=Revision 4.10 
##DATA TYPE=MASS SPECTRUM
##SAMPLE DESCRIPTION=A.A.Kutin, Moscow, Russia
##NAMES=HP
##CAS NAME=Bicyclo[2.2.1]heptan-2-one, 7-bromo-5-trifluoromethyl-, oxime
##MOLFORM=C8H9BrF3NO
##CAS REGISTRY NO=329743-30-8
##MP= -300
##BP= -300
##MW= 271
##$RETENTION INDEX=0
##$CONDENSED SPECTRUM=NO
##NPOINTS= 165
##XYDATA=(XY..XY) 1 
    33         51
    34          2
    36         21
    37        101
    38        304
    39        999
    40        251
    41        350
    42        303
    43        134
    44        145
    45         27
    46         35
    47         27
    48         12
    49         36
    50        234
    51        592
    52        362
    53        282
    54        106
    55         94
    56         82
    57        185
    58        155
    59        115
    60         14
    61         34
    62         63
    63        152
    64        148
    65        374
    66        157
    67         78
    68         70
    69        186
    70         70
    71         44
    72         11
    73         15
    74         23
    75         96
    76        102
    77        472
    78        339
    79        243
    80        118
    81         74
    82         82
    83        117
    84         64
    85         76
    87         23
    88         37
    89         90
    90         44
    91        133
    92         53
    93         75
    95        898
    96        373
    97        102
    98         18
    99         12
   100         11
   101         71
   102         31
   103         78
   104        173
   105         72
   106         68
   107         40
   108         46
   109         97
   110         32
   111         19
   112          9
   113         52
   114        141
   115        470
   116         43
   117         30
   118          9
   119         45
   120         18
   121         67
   122         93
   123         35
   124         41
   125         26
   126         41
   127        278
   128         48
   129         33
   130         12
   131         37
   132         38
   133        117
   134        258
   135        947
   136        100
   137        103
   138         16
   139        100
   140         27
   141         42
   142         10
   143          6
   144         32
   145         34
   146         43
   147        116
   148         49
   149         38
   151        283
   152         62
   153         31
   154        150
   155        143
   156         21
   157         12
   158         50
   159         43
   160         38
   161         24
   162          6
   163          6
   164         24
   165          7
   171         15
   172         90
   173         38
   174        104
   175         65
   176         80
   177         24
   178         89
   179         32
   180          0
   187          0
   188          0
   190         29
   191        109
   192        576
   193         46
   194          1
   195          0
   202          2
   204          2
   213          2
   215          2
   234          8
   235          0
   236          8
   251          4
   252          5
   253          6
   254         12
   255          0
   256          5
   270        144
   271        392
   272        148
   273        327
   274         29