##TITLE=Library Entry 11345
##JCAMP-DX=Revision 4.10 
##DATA TYPE=MASS SPECTRUM
##SAMPLE DESCRIPTION=Asinex Ltd, Moscow, Russia
##NAMES=HP
##CAS NAME=2H-Pyran-2,4-dione, tetrahydro-3,5,5-trimethyl-6-propyl-
##MOLFORM=C11H18O3
##CAS REGISTRY NO=329787-83-9
##MP= -300
##BP= -300
##MW= 198
##$RETENTION INDEX=0
##$CONDENSED SPECTRUM=NO
##NPOINTS= 111
##XYDATA=(XY..XY) 1 
    33          3
    34          0
    39         59
    40         26
    41        193
    43        999
    44         43
    45         42
    46          1
    50          1
    51          4
    53         25
    55        224
    56         54
    57         58
    59         67
    60          2
    61          0
    63          0
    64          0
    65          3
    67         19
    69        209
    70         80
    71         69
    72         24
    73         21
    74          1
    75          0
    77          3
    79          6
    81          6
    82          8
    83         55
    85         15
    86          3
    87          8
    88          5
    89          0
    90          1
    91          2
    92          0
    93          0
    95          4
    97        179
    98        269
    99         28
   101         23
   102          1
   103          0
   105          1
   106          0
   107          0
   109          3
   110          0
   111          3
   112          1
   113          5
   114         13
   115        317
   116         23
   117          3
   119          1
   121          0
   122          0
   123          2
   124          4
   125         14
   126         13
   127          5
   128         30
   129          5
   130          2
   131          0
   135          2
   136          0
   137          1
   138          1
   139          0
   140          0
   141          4
   142          2
   143         40
   144          4
   145          0
   149          0
   151          0
   152          1
   153          2
   154          0
   155         14
   156          3
   157          2
   159          0
   165          1
   166          1
   168          0
   169          2
   170          2
   171          1
   172          6
   173          0
   180          2
   183          4
   184          0
   185          5
   186          1
   198        231
   199         28
   200          3
   201          0