##TITLE=Library Entry 14363
##JCAMP-DX=Revision 4.10 
##DATA TYPE=MASS SPECTRUM
##SAMPLE DESCRIPTION=A.A.Kutin, Moscow, Russia
##NAMES=HP
##CAS NAME=2-(4-Acetyl-5-methyl-[1,3]oxathiol-2-ylidene)-3,3,3-trifluoro-pro
pionic acid methyl ester
##MOLFORM=C10H9F3O4S
##CAS REGISTRY NO=329735-44-6
##MP= -300
##BP= -300
##MW= 282
##$RETENTION INDEX=0
##$CONDENSED SPECTRUM=NO
##NPOINTS= 211
##XYDATA=(XY..XY) 1 
    33          1
    34          1
    35          1
    37          5
    38         11
    39         37
    40          4
    43        999
    44         40
    45        114
    46          5
    47          9
    48          1
    49          1
    50          6
    51         13
    52          3
    53         10
    54          2
    55          5
    56          2
    57          5
    59         87
    60          3
    61          2
    62          3
    63         10
    64          1
    65          2
    67         59
    69        204
    70         35
    71         81
    72         39
    73          5
    74          3
    75          9
    76          1
    77          4
    78          1
    79          1
    81         24
    82          7
    83          7
    84          4
    85          5
    86          4
    87         14
    88          8
    89          4
    90          8
    91          4
    92          1
    93          3
    94          2
    95          2
    96          1
    97          4
    98          1
    99          8
   100          1
   101          3
   102          1
   103          1
   105          2
   106          6
   107          2
   108          1
   109          3
   110          1
   111          2
   113         12
   114         56
   115          9
   116          3
   117          2
   118          5
   119          7
   120          1
   121          3
   122          1
   123          1
   125          4
   126          2
   127          1
   129          5
   130         11
   131          2
   132          2
   133          3
   134          1
   135          1
   137        158
   138          9
   139          3
   140          1
   141          5
   142          1
   143          1
   144          1
   145          1
   146          1
   147          1
   149         31
   150          2
   151          1
   152          3
   153          9
   154          1
   155          1
   156          1
   157          1
   158          1
   159          1
   160          1
   161          1
   162          1
   163          3
   164          1
   165          2
   166          1
   167          2
   168          1
   169          3
   171         16
   172         44
   173          5
   174          3
   175          1
   176          1
   177          1
   178          1
   179          1
   180          2
   182         67
   183          6
   184          4
   185          1
   186          1
   187          1
   189          9
   190          1
   191          2
   192          1
   193          1
   194          1
   195          2
   196          1
   197          1
   198          1
   199          1
   200          1
   201          1
   202          1
   203          1
   204          2
   205          6
   206          1
   207          1
   209         63
   210          6
   211          5
   212          1
   213          1
   214          1
   216          1
   217          1
   219          1
   220          1
   221          1
   222          2
   224         97
   225         11
   226          5
   227          1
   228          1
   229          1
   230          1
   231          1
   232          1
   233          1
   234          1
   235          1
   237          1
   239          3
   240          2
   241          1
   242          1
   243          1
   244          1
   247          1
   248          1
   251        134
   252         16
   253         10
   254          1
   255          1
   260          1
   263         26
   264          3
   265          2
   267         12
   268          1
   269          1
   270          1
   278          1
   282        255
   283         34
   284         16
   285          2
   286          1