##TITLE=Library Entry 12068
##JCAMP-DX=Revision 4.10 
##DATA TYPE=MASS SPECTRUM
##SAMPLE DESCRIPTION=A.A.Kutin, Moscow, Russia
##NAMES=HP
##CAS NAME=2-(4-Acetyl-5-phenyl-[1,3]oxathiol-2-ylidene)-3,3,3-trifluoro-pro
pionic acid methyl ester
##MOLFORM=C15H11F3O4S
##CAS REGISTRY NO=329735-45-7
##MP= -300
##BP= -300
##MW= 344
##$RETENTION INDEX=0
##$CONDENSED SPECTRUM=NO
##NPOINTS= 225
##XYDATA=(XY..XY) 1 
    33          1
    34          1
    37          2
    38          5
    39         25
    40          2
    43        999
    44         23
    45          9
    46          1
    47          2
    48          1
    50         18
    51         52
    52          5
    53          3
    54          1
    55          1
    56          1
    57          1
    59         42
    60          2
    61          5
    62         17
    63         50
    64          5
    65          5
    66          1
    67          1
    69        108
    70          2
    71          3
    72          1
    73          1
    74         11
    75         20
    77         19
    78          3
    79          1
    81         23
    82          9
    83          3
    84          3
    85          2
    86          4
    87         10
    89        203
    90         42
    91          7
    92          3
    93         25
    94          4
    95          3
    96          1
    97          1
    98          1
    99          1
   100          1
   101          6
   102         12
   103          6
   107          2
   108         11
   109          2
   110          2
   111          2
   112          1
   113          3
   114          1
   116          1
   117          2
   118          2
   119          1
   120          1
   121          4
   122          1
   123          1
   125          2
   126          1
   127          1
   129         62
   130          7
   131          1
   132         12
   133        102
   134        423
   135         45
   136         26
   137         80
   138          4
   139          1
   140          1
   141          1
   142          1
   144          1
   145         14
   146          2
   149          9
   151          2
   153          2
   154          1
   155          1
   156          1
   157          1
   158          1
   159          1
   161          5
   162          1
   163          2
   164          1
   165          1
   166          1
   168          1
   169          3
   170          1
   171          1
   172          1
   173          1
   177          2
   179          1
   181          1
   182          1
   183          1
   184          1
   186          1
   187          1
   188          1
   189          1
   191          4
   192         14
   193          2
   194          1
   195          4
   196          1
   197          1
   198          1
   199          1
   201          1
   202          1
   203          1
   204          1
   207          1
   208          1
   210          1
   212          1
   213          1
   214          3
   215          2
   216          1
   217          1
   218          1
   219          1
   220          1
   222          1
   223          1
   224          1
   225          1
   226          1
   227          1
   228          1
   229          1
   230          1
   231          1
   233          5
   234         16
   235          2
   236          1
   237          1
   238          1
   241          1
   242          1
   244         41
   245          6
   246          2
   247          1
   248          1
   251         16
   252          2
   253          1
   254          1
   255          1
   256          1
   257          1
   258          1
   259          1
   261          1
   262          1
   265          1
   271         43
   272          6
   273          2
   274          1
   277          1
   278          1
   279          1
   281          1
   283          1
   286         34
   287          4
   288          2
   289          1
   297          1
   301          2
   302         11
   303          2
   304          1
   305          1
   309          1
   310          1
   313          6
   314          1
   315          1
   316          1
   317          1
   325          6
   326          1
   329         12
   330          2
   331          1
   332          1
   344        168
   345         37
   346         14
   347          2
   348          1