##TITLE=Library Entry 11888
##JCAMP-DX=Revision 4.10 
##DATA TYPE=MASS SPECTRUM
##SAMPLE DESCRIPTION=J.Bernier ET AL.Biomed.Mass Spectrom.,10,626(1983)
##NAMES=HP
##CAS NAME=Uracil, 6-acetamido-
##MOLFORM=C6H7N3O3
##CAS REGISTRY NO=32970-34-6
##MP= -300
##BP= -300
##MW= 169
##$RETENTION INDEX=0
##$CONDENSED SPECTRUM=NO
##NPOINTS= 21
##XYDATA=(XY..XY) 1 
    14         41
    15        100
    16         16
    29         15
    40         44
    42         86
    43        999
    45        204
    55         28
    57          3
    60         99
    68        125
    69          7
    84        113
    85         10
    99         30
   100         21
   127        722
   128         28
   169        334
   170          8