##TITLE=Library Entry 76619
##JCAMP-DX=Revision 4.10 
##DATA TYPE=MASS SPECTRUM
##SAMPLE DESCRIPTION=John Halket,Royal Holloway, University of London, UK
##NAMES=HP
##CAS NAME=3-Phenyl-N-(3-phenyl-2-propynyl)acrylamide30
##MOLFORM=C18H15NO
##CAS REGISTRY NO=329701-59-9
##MP= -300
##BP= -300
##MW= 261
##$RETENTION INDEX=0
##$CONDENSED SPECTRUM=NO
##NPOINTS= 171
##XYDATA=(XY..XY) 1 
    26          4
    27         17
    28         41
    29          2
    30          2
    37          3
    38         12
    39         61
    40          4
    41          6
    42          1
    43          2
    44          5
    50         93
    51        242
    52         57
    53         20
    54          3
    55          4
    56          2
    57          3
    61          9
    62         50
    63        140
    64         23
    65         61
    67          1
    68          1
    70          1
    73          6
    74         78
    75        106
    76        136
    77        776
    78        108
    79          8
    80          2
    82          1
    83          1
    85          3
    86         17
    87         33
    88         45
    89        139
    90         26
    91         35
    92          3
    93          1
    95          2
    96          1
    97          2
    98         11
    99          8
   100         12
   101         53
   102        350
   103        999
   104        160
   105         75
   106          6
   108          3
   110          3
   111          2
   113         46
   114         59
   115        373
   116         49
   117         16
   118         22
   119          3
   120          2
   122          1
   123          1
   125          1
   126          5
   127         19
   128        107
   129         93
   130        178
   131        800
   132        101
   133          8
   134          1
   137          1
   138          1
   139          7
   140          6
   141         20
   142          6
   143          9
   144          5
   146         41
   147          4
   150          2
   151          3
   152          3
   154         19
   155         24
   156        238
   157         30
   158         10
   159          7
   160          1
   162          1
   163          2
   164          3
   165         11
   166          8
   167          5
   168          1
   169          1
   170         21
   171          2
   172          1
   174          1
   175          1
   176          3
   177          2
   178         12
   179          4
   180          1
   182        141
   183         30
   184        158
   185         21
   186          2
   187          1
   188          1
   189         12
   190          7
   191         11
   192          4
   193          1
   200          3
   201          7
   202        101
   203         96
   204         35
   205         15
   206          6
   207          2
   213          3
   215         63
   216         28
   217        123
   218         53
   219          9
   220          2
   226          1
   227          2
   228          4
   229          1
   230         17
   231         11
   232        133
   233         38
   234          6
   235          1
   240          3
   241          5
   242         11
   243         12
   244        179
   245         35
   246         10
   247          1
   258          3
   260        388
   261        277
   262         49
   263          5