##TITLE=Library Entry 10461
##JCAMP-DX=Revision 4.10 
##DATA TYPE=MASS SPECTRUM
##SAMPLE DESCRIPTION=Exported from NIST MS Search
##NAMES=HP
##CAS NAME=D-Glycero-L-gulo-Octitol, 2,6:5,7-dianhydro-8-deoxy-7-C-methyl-,
 triacetate
##MOLFORM=C15H22O8
##CAS REGISTRY NO=32970-01-7
##MP= -300
##BP= -300
##MW= 330
##$RETENTION INDEX=0
##$CONDENSED SPECTRUM=NO
##NPOINTS= 78
##XYDATA=(XY..XY) 1 
    43        999
    67         63
    68        203
    69        857
    70        363
    71        328
    72        587
    79         61
    80         49
    81        273
    82        116
    83        313
    84        125
    85        375
    95        110
    96         26
    97        912
    98        354
    99        200
   100         37
   101         34
   102        110
   103        168
   107         32
   108         40
   109        165
   110         69
   111         87
   112        174
   113        186
   114        194
   115        273
   116         40
   121         52
   122         52
   123         43
   124         17
   125        101
   126         72
   127        139
   128         43
   129         49
   135         17
   137        447
   138         49
   139        811
   140        125
   141         81
   142         11
   143         32
   144         20
   145         37
   149         37
   150        226
   151         98
   155         93
   156         17
   157        305
   158         29
   168        107
   169         78
   170         52
   179        145
   180         29
   192         66
   193         20
   197         58
   199         55
   201         29
   210         49
   217         40
   227         14
   228         20
   259        107
   260         14
   270         20
   271         14
   329         40