##TITLE=Library Entry 17198
##JCAMP-DX=Revision 4.10 
##DATA TYPE=MASS SPECTRUM
##SAMPLE DESCRIPTION=A.A.Kutin, Moscow, Russia
##NAMES=HP
##CAS NAME=Butanamide, 3-(methoxyacetylhydrazono)- N-(2-tetrahydrofurfuryl)-
##MOLFORM=C12H21N3O4
##CAS REGISTRY NO=329713-40-8
##MP= -300
##BP= -300
##MW= 271
##$RETENTION INDEX=0
##$CONDENSED SPECTRUM=NO
##NPOINTS= 172
##XYDATA=(XY..XY) 1 
    33         13
    34          8
    36          2
    37          3
    38         12
    39        151
    40        162
    41        413
    42        224
    43        581
    44        132
    45        999
    46         22
    47          3
    48          0
    50          4
    51          7
    52          7
    53         30
    54         48
    55        129
    56        152
    57         89
    58         49
    59         19
    60         22
    61          3
    62          1
    63          3
    64          2
    65          7
    66          6
    67         77
    68         25
    69         59
    70         74
    71        598
    72         69
    73         32
    74         11
    75          7
    76          1
    77          5
    78          2
    79          5
    80          7
    81         14
    82         63
    83        157
    84        344
    85        188
    86         16
    87          3
    88         65
    90         20
    91          3
    92          6
    93          2
    94          5
    95         27
    96         20
    97        101
    98        281
    99        222
   100         67
   101         27
   102        247
   103         34
   104          5
   105          8
   106          1
   107          2
   108          3
   109         12
   110         78
   111        249
   112         40
   113         95
   114         25
   115         18
   116          3
   117          1
   118          0
   119          0
   120          0
   121          2
   122          6
   123         90
   124         63
   125         61
   126         13
   127         13
   128         22
   129        121
   130          7
   131          2
   132          0
   134          0
   135          5
   136          6
   137          5
   138         26
   139         16
   140         24
   141         17
   142         54
   143        456
   144         73
   145          9
   146          0
   149          4
   150          9
   151          2
   152          1
   153          2
   154          6
   155          9
   156         37
   157         13
   158          3
   159          2
   160          0
   162          1
   164         13
   165         13
   166          3
   167          4
   168         10
   169          5
   170         17
   171        229
   172         21
   173          2
   174          1
   176          0
   178          0
   179          0
   180          2
   181          6
   182         21
   183        112
   184         17
   185          3
   186          1
   187          9
   188         52
   189          5
   190          0
   196          4
   197          2
   198          4
   199          1
   200         20
   201         21
   202          8
   203          0
   208          3
   212          0
   213          0
   224          1
   226        309
   227         38
   228          9
   229          0
   240          0
   241         12
   242          1
   243          1
   251          4
   253          0
   256          0
   271          6