##TITLE=Library Entry 40572
##JCAMP-DX=Revision 4.10 
##DATA TYPE=MASS SPECTRUM
##SAMPLE DESCRIPTION=A.A.Kutin, Moscow, Russia
##NAMES=HP
##CAS NAME=N2-Cyano-N2-[4-chloro-6-(dimethylamino)-1,3,5-triazin-2-yl]-N1,N1
-dimethylalaninamide
##MOLFORM=C11H16ClN7O
##CAS REGISTRY NO=329736-32-5
##MP= -300
##BP= -300
##MW= 297
##$RETENTION INDEX=0
##$CONDENSED SPECTRUM=NO
##NPOINTS= 132
##XYDATA=(XY..XY) 1 
    33          9
    35          5
    36         18
    38         10
    40         32
    42        348
    44        254
    45         16
    46         10
    49          2
    50          2
    51          2
    53         36
    55        106
    56         53
    57         17
    58         14
    62         15
    64          5
    65          2
    66          7
    67         33
    68         32
    69         88
    73        999
    74          3
    76          7
    78         11
    80         18
    81         14
    82         23
    84          5
    85          2
    87         50
    88          9
    89         14
    90          2
    91          4
    92          5
    93         16
    94         26
    96        252
    97         11
    99         18
   100          9
   102          1
   104          1
   105          1
   106          2
   107         14
   108          2
   113          2
   114          3
   115          1
   116          2
   117          2
   118          5
   119          3
   120          2
   121          3
   122          4
   123          5
   124          3
   127          1
   128          2
   129          2
   130          2
   131          1
   132          2
   137          1
   138          2
   140          2
   141          2
   142          1
   143          2
   145          1
   148          1
   149          2
   150          1
   154          1
   155          3
   156          3
   157          6
   158         16
   159          2
   160          4
   161          1
   163          4
   164         13
   165          3
   166          3
   167          1
   168          1
   169          2
   171          2
   182          1
   183          2
   185          4
   186          2
   188          1
   189          2
   190          1
   192          1
   193          3
   195          2
   197          9
   198         15
   199         33
   200         98
   202         42
   208          1
   209          4
   210          1
   211          1
   219          2
   220          2
   221          3
   223         19
   225        110
   227         48
   228          6
   229          1
   239          1
   250          1
   251          4
   252          7
   253         19
   255         10
   264          1
   296          4
   297          7
   299          2