##TITLE=Library Entry 99726
##JCAMP-DX=Revision 4.10 
##DATA TYPE=MASS SPECTRUM
##SAMPLE DESCRIPTION=Chemical Concepts
##NAMES=HP
##CAS NAME=1-Methyl-3-(4-methylphenacylthio)-5,6,7,8-tetrahydroisoquinoline-
4-carbonitrile
##MOLFORM=C20H20N2OS
##CAS REGISTRY NO=329726-34-3
##MP= -300
##BP= -300
##MW= 336
##$RETENTION INDEX=0
##$CONDENSED SPECTRUM=NO
##NPOINTS= 110
##XYDATA=(XY..XY) 1 
    33         21
    39        112
    41         92
    43         16
    45         42
    51         59
    52         15
    53         21
    55         20
    58         13
    59          3
    60          2
    63         58
    65        179
    69         11
    70          8
    72          8
    73          2
    75         12
    77         67
    78         13
    79         27
    81          3
    82          3
    83          4
    84          4
    86          3
    89         51
    91        421
    94          3
    95          2
    96          4
    97          3
    98          1
   102         19
   103         18
   104         12
   105         19
   107          4
   108          2
   109          2
   110          1
   111          1
   112          3
   115         30
   116         20
   119        999
   123          1
   125          1
   127          8
   128          7
   129          7
   130          6
   131          6
   132          5
   133          9
   134          9
   135          5
   136          2
   137          1
   140          5
   141          3
   142          6
   143          8
   144          9
   145          4
   146          3
   147          4
   148          5
   149          3
   152          1
   153          2
   154          6
   155          9
   156          9
   157          4
   159          2
   160          2
   161          3
   162          4
   163          1
   165          2
   168          4
   169          6
   171         12
   172          4
   173          4
   174          2
   175          2
   176          4
   183          3
   187          2
   189          7
   190          2
   199          1
   201          4
   202          4
   203          4
   204         10
   217        259
   219         11
   303          9
   304          2
   307          1
   308          2
   319          2
   334         32
   336         65
   337         14
   338          5