##TITLE=Library Entry 6433
##JCAMP-DX=Revision 4.10 
##DATA TYPE=MASS SPECTRUM
##SAMPLE DESCRIPTION=A.A.Kutin, Moscow, Russia
##NAMES=HP
##CAS NAME=2-Oxo-2-(piperonylidenehydrazino)-N-propylacetamide
##MOLFORM=C13H15N3O4
##CAS REGISTRY NO=329713-81-7
##MP= -300
##BP= -300
##MW= 277
##$RETENTION INDEX=0
##$CONDENSED SPECTRUM=NO
##NPOINTS= 64
##XYDATA=(XY..XY) 1 
    37         14
    38         60
    39        305
    41        730
    42        119
    43        999
    44        254
    45          5
    46         17
    49          2
    50        182
    51        124
    52         49
    53         72
    54         17
    55         23
    56         60
    57          8
    58         25
    59         35
    61         10
    62         88
    63        181
    64         33
    65        211
    66         11
    70          0
    74         27
    75         32
    76        242
    77         61
    78         58
    79         35
    80         13
    81          5
    86         67
    87          6
    88          0
    89          3
    90         19
    91         21
    92          5
   104         31
   105         83
   106         13
   118          1
   120          1
   121         49
   122         21
   133         30
   134         73
   135         15
   136          7
   137         18
   146         36
   147         44
   148         58
   149         94
   150          3
   163         50
   164          6
   191        352
   192         31
   277         21