##TITLE=Library Entry 82498
##JCAMP-DX=Revision 4.10 
##DATA TYPE=MASS SPECTRUM
##SAMPLE DESCRIPTION=A.A.Kutin, Moscow, Russia
##NAMES=HP
##CAS NAME=Thiourea, 1-(3-chloro-2-hydroxy-5-nitrophenyl)-3-(3-pyridylcarbon
yl)-
##MOLFORM=C13H9ClN4O4S
##CAS REGISTRY NO=329713-46-4
##MP= -300
##BP= -300
##MW= 352
##$RETENTION INDEX=0
##$CONDENSED SPECTRUM=NO
##NPOINTS= 112
##XYDATA=(XY..XY) 1 
    33         16
    34         31
    35          1
    36         21
    37         21
    38         46
    39         64
    40         24
    41         38
    42         28
    43         62
    44        218
    45         46
    46          9
    47          5
    48         14
    49         37
    50        214
    51        500
    52        125
    53         65
    54         35
    55         14
    56          2
    57         14
    58         26
    59         65
    60         20
    61         15
    62         34
    63         21
    64         40
    65         19
    66         20
    67          4
    68          4
    69         14
    70         13
    71          4
    72          4
    73         11
    74         17
    75         28
    76         58
    77         73
    78        758
    79         83
    80          7
    82          1
    83         12
    84         13
    85         21
    86         15
    87         30
    88          4
    89         13
    90          4
    91         21
    92          8
    93          4
    94         12
    96          2
    97         15
    99          1
   101         16
   102          3
   104         13
   106        999
   107        113
   108          9
   111          4
   112          8
   113         11
   114         75
   115         14
   116         21
   120         18
   121          1
   122        226
   123         36
   124         11
   125          7
   126          1
   129         12
   130         21
   131          2
   132          6
   133          3
   134          3
   140          6
   142         91
   143          5
   144         24
   149          8
   156         17
   157          1
   158          4
   162          1
   164         11
   165         37
   172         15
   181          2
   184          1
   188        117
   189          5
   190         34
   200          3
   230         31
   232          9
   318          3
   319         19
   352          5