##TITLE=Library Entry 8047
##JCAMP-DX=Revision 4.10 
##DATA TYPE=MASS SPECTRUM
##SAMPLE DESCRIPTION=J.E.W. VAN MELICK, CATHOLIC UNIV., NIJMEGEN, NETHERLAND
S
##NAMES=HP
##CAS NAME=1-Propen-2-ol, formate
##MOLFORM=C4H6O2
##CAS REGISTRY NO=32978-00-0
##MP= -300
##BP= -300
##MW= 86
##$RETENTION INDEX=905
##$CONDENSED SPECTRUM=NO
##NPOINTS= 13
##XYDATA=(XY..XY) 1 
    26         51
    27        122
    28        173
    29        326
    31         51
    40         61
    41        224
    42        122
    43        999
    44         20
    57        132
    58        673
    86        183