##TITLE=Library Entry 46770
##JCAMP-DX=Revision 4.10 
##DATA TYPE=MASS SPECTRUM
##SAMPLE DESCRIPTION=Chemical Concepts
##NAMES=HP
##CAS NAME=N,N-Diethyl-3-(N,N'-diphenylamidinothio)-3-phenylpyruvamide
##MOLFORM=C26H27N3O2S
##CAS REGISTRY NO=329907-66-6
##MP= -300
##BP= -300
##MW= 445
##$RETENTION INDEX=0
##$CONDENSED SPECTRUM=NO
##NPOINTS= 112
##XYDATA=(XY..XY) 1 
    37         47
    38        105
    39        325
    40         65
    41        103
    42        235
    44        700
    45        143
    47          8
    50        272
    51        517
    52         79
    53         21
    54         23
    56        167
    58        277
    59         18
    60         30
    61         38
    62         64
    63        207
    64        181
    65        299
    66         79
    67          9
    69         37
    70         46
    72        910
    73         72
    74         69
    75         48
    77        999
    78        165
    79         41
    80          9
    84          8
    86         51
    87         10
    89        204
    90        217
    91        551
    92        205
    93        220
    94         21
    96         13
    97          9
   100        808
   101         68
   102         40
   103         48
   104         82
   105         27
   107          9
   108         11
   109         32
   110         14
   114          8
   115         17
   116         39
   117         49
   118        111
   119         53
   121        372
   122        106
   123         59
   124         15
   128          9
   132         55
   133          9
   135        108
   136         17
   149          8
   150          9
   151         13
   152         17
   153          9
   154          8
   165         39
   166         23
   167         63
   168         19
   178         10
   180        105
   181         59
   182         49
   192         27
   193         72
   194        169
   195        201
   196         28
   207         11
   210        187
   211         25
   218         11
   219          9
   222          8
   223         10
   224          9
   225         25
   226         10
   227         39
   228         27
   251         12
   285         30
   286         14
   343          8
   344         15
   345         42
   346         12
   445         11
   446          1
   447          2