##TITLE=Library Entry 6718
##JCAMP-DX=Revision 4.10 
##DATA TYPE=MASS SPECTRUM
##SAMPLE DESCRIPTION=Chemical Concepts
##NAMES=HP
##CAS NAME=1,3-Dioxolane, 2,4,5-trimethyl-
##MOLFORM=C6H12O2
##CAS REGISTRY NO=3299-32-9
##MP= -300
##BP= -300
##MW= 116
##$RETENTION INDEX=742
##$CONDENSED SPECTRUM=NO
##NPOINTS= 53
##XYDATA=(XY..XY) 1 
    26         69
    27        349
    28         70
    29        254
    30          7
    31         77
    33          0
    35          3
    36          0
    37          2
    38          6
    39         64
    40          6
    41         75
    42         47
    43        999
    44        944
    45        585
    46         14
    47          1
    49          0
    50          3
    51          4
    52          2
    53         15
    54          0
    55        521
    56         26
    57        143
    58          8
    59          1
    60          0
    61          7
    68          0
    69          1
    70          0
    71         38
    72        501
    73        371
    74         16
    75          0
    83          3
    84          0
    85          3
    86          1
    87          0
    99          1
   101        505
   102         24
   103          2
   115         46
   116          2
   117          0