##TITLE=Library Entry 47872
##JCAMP-DX=Revision 4.10 
##DATA TYPE=MASS SPECTRUM
##SAMPLE DESCRIPTION=V.A.Korolev, Moscow, Russia
##NAMES=HP
##CAS NAME=2-Benzoyl-6-methyl-5H,7H,8H-thieno[2,3-b]1,6-naphthyridin-3-amine
##MOLFORM=C18H17N3OS
##CAS REGISTRY NO=329934-88-5
##MP= -300
##BP= -300
##MW= 323
##$RETENTION INDEX=0
##$CONDENSED SPECTRUM=NO
##NPOINTS= 193
##XYDATA=(XY..XY) 1 
    38          6
    39         34
    40         10
    41         25
    42        213
    43         23
    44         39
    45         42
    50         71
    51        231
    52         54
    53         22
    54         14
    55          6
    56          3
    57          9
    58          7
    59          2
    60          4
    61          4
    62         24
    63         65
    64         30
    65         41
    66         21
    67         12
    68         12
    69         45
    70         18
    71         13
    72         17
    73         18
    74         35
    75         47
    76         90
    77        999
    78        122
    79         21
    80          9
    81         11
    82         15
    83          9
    84         12
    85          2
    86          4
    87          9
    88         16
    89         54
    90         39
    91         30
    92         32
    93         29
    94         28
    95         22
    96         11
    97          3
    98          2
    99          2
   100          6
   101          9
   102         30
   103         36
   104         75
   105        510
   106         56
   107         31
   108         22
   109          9
   110          3
   111          1
   113          2
   114         24
   115         24
   116         39
   117         32
   118         18
   119         12
   120         14
   121         45
   122         12
   123          5
   124          2
   125          3
   126          2
   127          7
   128         10
   129         30
   130         19
   131        101
   132         20
   133          9
   134         18
   135         35
   136          6
   137          3
   138          1
   139          9
   140         10
   141          9
   142         31
   143         21
   144         11
   145         17
   146         29
   147         11
   148         39
   149         13
   150          8
   151          3
   152          6
   153          9
   154         10
   155         13
   156         12
   157          9
   158          9
   159          7
   161        205
   163          2
   164          2
   165          4
   166          2
   167          3
   168          2
   169          7
   170         11
   171          7
   172          9
   173         13
   174         21
   175         91
   176         25
   177         13
   178          4
   179          2
   180          2
   182          1
   184          1
   185          2
   187          4
   188          3
   189          8
   190          9
   191          6
   192          3
   193          1
   200          3
   201         11
   202         18
   203         85
   204         12
   205          5
   210          1
   214          2
   215          8
   216         14
   217         23
   218         12
   219          4
   223          2
   224          2
   227          2
   231         92
   232         13
   238          4
   239          5
   250          2
   251         13
   252          8
   253          3
   263          4
   264          4
   265          1
   266          3
   267          1
   268          3
   277          4
   278          5
   279        708
   280        273
   281         84
   282         15
   293          3
   294         10
   295          4
   306         24
   307          3
   308         26
   309          3
   322        346
   323        440
   324        102
   325         25