##TITLE=Library Entry 85230
##JCAMP-DX=Revision 4.10 
##DATA TYPE=MASS SPECTRUM
##SAMPLE DESCRIPTION=D. GAMES, M. HEWLINS, A. JACKSON, CHEM DEPT, UNIV COLL,
 CARDIFF, U.K.
##NAMES=HP
##CAS NAME=1H-Pyrrole, 2-ethyl-3,5-dimethyl-
##MOLFORM=C8H13N
##CAS REGISTRY NO=32990-59-3
##MP= -300
##BP= -300
##MW= 123
##$RETENTION INDEX=0
##$CONDENSED SPECTRUM=NO
##NPOINTS= 24
##XYDATA=(XY..XY) 1 
    41         27
    42         55
    53         24
    54         15
    65         30
    66         17
    67         45
    77         28
    79         37
    80         12
    91         10
    92         20
    93        130
    94         31
   106         45
   107        130
   108        999
   109         89
   118          8
   120         56
   121         18
   122         83
   123        366
   124         29