##TITLE=Library Entry 99811
##JCAMP-DX=Revision 4.10 
##DATA TYPE=MASS SPECTRUM
##SAMPLE DESCRIPTION=A.A.Kutin, Moscow, Russia
##NAMES=HP
##CAS NAME=Benzamide, 2-methyl-N-(5-chloro-2-methoxyphenyl)-
##MOLFORM=C15H14ClNO2
##CAS REGISTRY NO=329938-25-2
##MP= -300
##BP= -300
##MW= 275
##$RETENTION INDEX=0
##$CONDENSED SPECTRUM=NO
##NPOINTS= 201
##XYDATA=(XY..XY) 1 
    33          0
    34          0
    35          0
    36          1
    37          1
    38          7
    39         51
    40          9
    41         17
    43          3
    44          1
    45          1
    46          1
    47          0
    49          1
    50         15
    51         42
    52         14
    53          4
    54          1
    55          1
    56          0
    57          0
    59          0
    60          0
    61          2
    62         12
    63         49
    64         16
    65        158
    66          8
    67          1
    68          1
    69          2
    71          0
    72          0
    73          5
    74          3
    75          9
    76         15
    77         12
    78         29
    79         14
    80          1
    81          1
    82          0
    83          1
    85          3
    86          4
    87          5
    88          3
    89         50
    90         56
    91        406
    92         36
    93         24
    94          2
    95          1
    96          0
    97          1
    98          2
    99         26
   100          3
   101          9
   102          1
   103          1
   104          1
   105          4
   106          2
   107          1
   108          0
   109          0
   110          0
   111          2
   112          4
   113          4
   114          6
   115          3
   116          3
   117          2
   118         27
   119        999
   120         89
   121          6
   122          1
   124          1
   125          2
   126         13
   127          4
   128          7
   129          3
   130          2
   131          1
   132          1
   133          1
   134          0
   135          0
   136          1
   137          0
   138          1
   139          1
   140          2
   141          1
   142          2
   143          0
   144          0
   145          0
   147          0
   148          0
   149          0
   150          0
   151          0
   152          1
   153          0
   154          3
   155          0
   156          4
   157          2
   158          1
   159          1
   161          0
   162          0
   163          0
   164          0
   165          0
   166          1
   167          1
   168          2
   169          0
   170          0
   171          0
   172          0
   175          0
   176          0
   177          0
   178          0
   179          0
   180          0
   181          0
   182          0
   183          0
   187          0
   188          0
   190          0
   191          0
   193          0
   194          0
   195          1
   196          1
   197          0
   200          0
   201          0
   202          0
   203          0
   207          0
   209          0
   210          0
   211          0
   214          1
   215          0
   216          0
   217          0
   218          0
   219          0
   221          0
   222          0
   223         15
   224          2
   225          1
   227          0
   228          0
   229          0
   230          1
   231          0
   232          0
   236          0
   237          0
   238          0
   239          0
   240          1
   241          1
   242          0
   243          0
   244          3
   245          1
   246          1
   247          0
   253          0
   254          0
   258          1
   259          0
   260          0
   261          1
   263          0
   272          0
   273          0
   275        189
   276         33
   277         66
   278          9
   279          1