##TITLE=Library Entry 65933
##JCAMP-DX=Revision 4.10 
##DATA TYPE=MASS SPECTRUM
##SAMPLE DESCRIPTION=A.A.Kutin, Moscow, Russia
##NAMES=HP
##CAS NAME=Benzaldehyde, 3,5-dichloro-2-hydroxy-, phenylhydrazone
##MOLFORM=C13H10Cl2N2O
##CAS REGISTRY NO=329934-26-1
##MP= -300
##BP= -300
##MW= 280
##$RETENTION INDEX=0
##$CONDENSED SPECTRUM=NO
##NPOINTS= 204
##XYDATA=(XY..XY) 1 
    33          9
    35          4
    36         14
    37         26
    39        282
    40         27
    41         22
    42         15
    43         29
    44         11
    45          8
    47          5
    50         90
    51        180
    52         41
    53         38
    54          9
    55          3
    56          2
    57          4
    61         47
    62         87
    63        128
    65        646
    66         78
    68          6
    69          2
    72         26
    73         53
    74         57
    75         99
    77        268
    78         33
    80          3
    81          1
    83         12
    84         10
    85         22
    86         10
    87         20
    88         29
    89         19
    90         23
    92        608
    93        999
    94         74
    97        130
    99         64
   100          8
   101          5
   102          3
   103          3
   104          8
   105         14
   107         15
   109         34
   110         20
   111         39
   112         18
   113         15
   114          6
   115          2
   116          1
   117          1
   119        141
   120         10
   122          8
   123         15
   124         24
   125         28
   126         17
   127         11
   128          4
   129          1
   130          0
   133         80
   135         54
   137         12
   138          8
   139         22
   140         19
   141         25
   142          5
   143          1
   144          2
   145          6
   146          8
   147          6
   148          9
   149          3
   150          5
   151          6
   152         28
   153         14
   154         15
   155          5
   156          1
   158          4
   159          9
   160          6
   161         13
   162          6
   163          7
   164          3
   165          2
   166          2
   167         10
   168         22
   169          4
   170          7
   171          1
   172          1
   173          7
   174         11
   175         16
   176         13
   177          9
   178          5
   179          4
   180          2
   181         11
   182          7
   183          4
   184          1
   186         10
   187          9
   188         21
   189         19
   190         11
   191         10
   192          3
   193          1
   194          0
   195          0
   196          0
   197          0
   198          0
   199          1
   200          2
   201          6
   202          4
   203         22
   204          5
   205         13
   206          2
   207          2
   208          2
   209          2
   210          2
   211          0
   214          0
   215          7
   216          4
   217         12
   218          9
   219          6
   220          4
   221          1
   222          0
   225          0
   227          0
   228          1
   229          0
   230          0
   231          3
   232          3
   233          2
   234          2
   235          1
   236          1
   237          0
   238          0
   239          0
   240          0
   241          0
   242          0
   243          2
   244         14
   245          6
   246          5
   247          2
   248          0
   249          1
   250          0
   251          1
   252          1
   253          2
   254          0
   255          1
   262          0
   263         14
   264          3
   265          8
   266          1
   267          1
   268          0
   279         40
   280        207
   281         55
   282        133
   283         24
   284         23
   285          3
   286          0