##TITLE=Library Entry 55797
##JCAMP-DX=Revision 4.10 
##DATA TYPE=MASS SPECTRUM
##SAMPLE DESCRIPTION=Japan AIST/NIMC Database- Spectrum MS-NW-6049
##NAMES=HP
##CAS NAME=2-Butanone, 4-(diethylamino)-
##MOLFORM=C8H17NO
##CAS REGISTRY NO=3299-38-5
##MP= -300
##BP= -300
##MW= 143
##$RETENTION INDEX=1025
##$CONDENSED SPECTRUM=NO
##NPOINTS= 101
##XYDATA=(XY..XY) 1 
    13          1
    14          8
    15         62
    25          3
    26         22
    27        139
    28        101
    29        112
    30        297
    31          9
    32          1
    36          1
    37          5
    38          7
    39         22
    40         10
    41         43
    42        157
    43        448
    44         99
    45          8
    49          2
    50          5
    51          5
    52          3
    53          7
    54         13
    55        122
    56         92
    57         32
    58        421
    59         22
    60          1
    61          3
    63          1
    65          2
    66          1
    67          3
    68          5
    69          7
    70         68
    71         82
    72         67
    73         48
    74          3
    75          1
    77          2
    78          1
    79          4
    80          1
    81          2
    82          5
    83          6
    84         41
    85         20
    86        999
    87         61
    88          3
    89          1
    91          3
    92          1
    93          2
    94          2
    95          3
    96          3
    97          9
    98         13
    99          3
   100         19
   101          5
   103          1
   105          2
   106          1
   107          2
   108          3
   109          5
   110          4
   111          2
   112         14
   113          2
   114         13
   115          2
   121          2
   122          5
   123          3
   124          4
   125          5
   126         11
   127          2
   128        227
   129         19
   130          1
   136          1
   137          1
   138         10
   139          2
   140         29
   141          5
   142         12
   143         79
   144          9