##TITLE=Library Entry 4677
##JCAMP-DX=Revision 4.10 
##DATA TYPE=MASS SPECTRUM
##SAMPLE DESCRIPTION=A.A.Kutin, Moscow, Russia
##NAMES=HP
##CAS NAME=Furazan-3-amine, 4-(1-piperidinoyl)-
##MOLFORM=C8H12N4O2
##CAS REGISTRY NO=329922-46-5
##MP= -300
##BP= -300
##MW= 196
##$RETENTION INDEX=0
##$CONDENSED SPECTRUM=NO
##NPOINTS= 109
##XYDATA=(XY..XY) 1 
    33          0
    37          7
    38         75
    39        536
    40        159
    41        800
    42        999
    43         80
    44         45
    45          2
    46          0
    49          2
    50         31
    51         59
    52         79
    53        833
    54        874
    55        504
    56        345
    58        268
    59          8
    60          1
    61          0
    62          2
    63          4
    64          6
    65         12
    66         21
    67         82
    68         87
    69        403
    70        326
    71         12
    72          2
    73          0
    74          1
    75          2
    76          2
    77          3
    78          6
    79          7
    80         26
    81         20
    82        113
    83        176
    84        227
    85         23
    86          3
    87          0
    89          0
    90          0
    91          0
    92          4
    93          4
    94         15
    95         19
    96         19
    97         26
    98         10
    99          1
   104          0
   105          1
   106          1
   107          3
   108          3
   109         31
   110         19
   112        715
   113         37
   114          2
   116          0
   118          0
   119          1
   121         39
   122          9
   123         23
   124         11
   125         12
   126          1
   127          1
   128          0
   134          2
   136          4
   137         45
   139        868
   140         63
   141          4
   142          0
   148          7
   149         11
   150          1
   151          5
   152         10
   153          2
   155          1
   159          2
   161          1
   162          3
   163         14
   166        259
   167         22
   168          1
   177          0
   178          3
   179         17
   180          1
   196        220
   197         27
   198          1