##TITLE=Library Entry 20674
##JCAMP-DX=Revision 4.10 
##DATA TYPE=MASS SPECTRUM
##SAMPLE DESCRIPTION=NIST Mass Spectrometry Data Center, 1994
##NAMES=HP
##CAS NAME=N,N'-Dicyclohexyloxamide
##MOLFORM=C14H24N2O2
##CAS REGISTRY NO=3299-64-7
##MP= -300
##BP= -300
##MW= 252
##$RETENTION INDEX=0
##$CONDENSED SPECTRUM=NO
##NPOINTS= 88
##XYDATA=(XY..XY) 1 
    15          8
    17          0
    18         71
    25          2
    26          1
    27        117
    28        234
    29        129
    30         92
    39        185
    41        691
    42        106
    43        260
    44        108
    45         92
    46        372
    47          4
    50          3
    51         13
    52         12
    53         87
    54        139
    55        999
    56        444
    57         30
    58          8
    60         13
    65         15
    67        172
    68         28
    69         34
    70         85
    71         20
    72         17
    73          4
    77         16
    78          4
    79         46
    80         21
    81        104
    82        152
    83        807
    84        117
    85         17
    86          5
    89        553
    90         16
    94          5
    95          2
    96         13
    97         45
    98        424
    99        127
   100         23
   101          2
   109          3
   110          6
   111          4
   112          6
   113          2
   114          2
   115          3
   124          5
   126        239
   127        108
   128        246
   129         19
   141          7
   152          3
   153          4
   154         21
   155          6
   168          5
   169         29
   171        187
   172         16
   180          7
   181          4
   182          3
   194          4
   195         10
   207         12
   208          8
   209          4
   224         74
   225          9
   252         71
   253         13