##TITLE=Library Entry 30992
##JCAMP-DX=Revision 4.10 
##DATA TYPE=MASS SPECTRUM
##SAMPLE DESCRIPTION=A.A.Kutin, Moscow, Russia
##NAMES=HP
##CAS NAME=5-(4-Chloro-2-nitro-phenylsulfanyl)-[1,3,4]thiadiazol-2-ylamine
##MOLFORM=C8H5ClN4O2S2
##CAS REGISTRY NO=329921-19-9
##MP= -300
##BP= -300
##MW= 288
##$RETENTION INDEX=0
##$CONDENSED SPECTRUM=NO
##NPOINTS= 199
##XYDATA=(XY..XY) 1 
    33          9
    34          4
    35          3
    36          9
    37         15
    38         22
    39         19
    40         38
    41         18
    42         83
    43         38
    44         82
    45        139
    46         23
    47         42
    48         12
    49         17
    50         71
    51         28
    52          7
    53          6
    54          2
    55          7
    56          5
    57         26
    58         34
    59         72
    60        999
    61         54
    62        116
    63        189
    64         41
    65          7
    66          3
    67          2
    68          8
    69        190
    70         30
    71         21
    72         31
    73        132
    74        392
    75        250
    76        159
    77         33
    78         10
    79         28
    80          5
    81         44
    82         52
    83         17
    84         40
    85         21
    86         21
    87         30
    88         20
    89         12
    90         12
    91          7
    92         15
    93         34
    94         19
    95        274
    96         26
    97         35
    98         15
    99         31
   100         81
   101         16
   102         11
   103         12
   104          7
   105         21
   106         38
   107        141
   108         87
   109         57
   110         85
   111         43
   112         97
   113         17
   114         28
   115         10
   116         10
   117         16
   118         10
   119         28
   120         25
   121         18
   122         11
   123          6
   124         56
   125         26
   126         24
   127         13
   128          4
   129         17
   130        100
   131         16
   132         60
   133         75
   134         15
   135         16
   136         13
   137         48
   138         27
   139         32
   140        143
   141         20
   142        245
   143         31
   144         78
   145         47
   146         13
   147         67
   148         12
   149          9
   150          5
   151         12
   152         17
   153         15
   154         11
   155          8
   156         50
   157          7
   158         20
   159          3
   160          1
   161          4
   163          5
   164          9
   165         70
   166         12
   167         13
   168          7
   169          9
   170          6
   171         10
   172        236
   173         91
   174         98
   175         31
   176          7
   177          3
   178          0
   179          1
   180          1
   181         29
   182         30
   183          8
   184         13
   185          6
   186          3
   187          3
   188          5
   189          3
   190          2
   191         13
   192          1
   193          8
   194          0
   195          1
   196          4
   197          1
   198          2
   199          2
   200         99
   201         28
   202         44
   203         11
   204          5
   205          1
   206          1
   207          3
   209          0
   214          1
   216          0
   217          1
   219         17
   220          1
   221          7
   223          0
   233          1
   235          1
   238          0
   240          8
   241         14
   242        279
   243         37
   244        113
   245         11
   246         12
   247          0
   287         30
   288        139
   289         27
   290         56
   291          6
   292          4