##TITLE=Library Entry 107550
##JCAMP-DX=Revision 4.10 
##DATA TYPE=MASS SPECTRUM
##SAMPLE DESCRIPTION=A.A.Kutin, Moscow, Russia
##NAMES=HP
##CAS NAME=2-Fluoro-N-naphthalen-1-ylmethyl-benzamide
##MOLFORM=C18H14FNO
##CAS REGISTRY NO=329920-26-5
##MP= -300
##BP= -300
##MW= 279
##$RETENTION INDEX=0
##$CONDENSED SPECTRUM=NO
##NPOINTS= 117
##XYDATA=(XY..XY) 1 
    33          0
    34          8
    36          0
    37          1
    38          3
    39         30
    40         27
    41         13
    42          5
    43         28
    44         67
    45          5
    50         28
    51         41
    52          7
    53          2
    55         11
    56          7
    57         15
    62          6
    63         31
    64          4
    65         12
    67          0
    68          7
    69         18
    70         10
    71          2
    74         26
    75        129
    76         33
    77         48
    78         10
    79          2
    81          2
    83          4
    84          2
    86          0
    87          5
    88          2
    89         20
    90          0
    91         17
    92          3
    93          2
    94         28
    95        289
    96         27
    97          3
    98          2
    99          2
   100          2
   101         21
   102         25
   103          5
   104          9
   105          6
   106          0
   109          1
   112          2
   113         10
   114         11
   115        147
   116         12
   119          0
   121         10
   123        999
   124        103
   125         17
   126         44
   127        150
   128        169
   129        313
   130         26
   131          3
   135          0
   139        120
   140         55
   141        167
   142         21
   145          4
   150          2
   151          7
   152          8
   153         15
   154        132
   155         75
   156        353
   157         48
   158         22
   159          2
   169          1
   171          3
   173         13
   175          3
   176          1
   182          2
   184          9
   189          1
   215          1
   220          1
   230          4
   231          1
   233          5
   234          0
   249          6
   250          3
   261         16
   262         73
   263         13
   264          2
   276         10
   277         22
   278        114
   279        760
   280        142
   281         14