##TITLE=Library Entry 31199
##JCAMP-DX=Revision 4.10 
##DATA TYPE=MASS SPECTRUM
##SAMPLE DESCRIPTION=MASS SPECTROMETRY CENTER, UNIV. OF UTAH EPA-PTSEL 4240
##NAMES=HP
##CAS NAME=Linuron
##MOLFORM=C9H10Cl2N2O2
##CAS REGISTRY NO=330-55-2
##MP= -300
##BP= -300
##MW= 248
##$RETENTION INDEX=1946
##$CONDENSED SPECTRUM=NO
##NPOINTS= 71
##XYDATA=(XY..XY) 1 
    15         43
    28         38
    29         15
    30         24
    31         10
    33         34
    38          8
    39          2
    42          1
    44          0
    45         65
    46        291
    47          4
    49          2
    50          7
    51          2
    52          2
    56          5
    58          7
    59          3
    60         81
    61        999
    62         64
    63         41
    64          8
    65          1
    72          4
    73         26
    74         20
    75         24
    83          2
    85          5
    86          0
    88         16
    89          9
    90         18
    97         17
    98          6
    99         10
   107          4
   109         26
   110          7
   111         11
   112          1
   124         37
   125         33
   126         17
   127          7
   133         44
   134          1
   135         29
   137          1
   145         23
   147         12
   153          0
   159          7
   160         79
   161         19
   162         53
   163          8
   164         11
   182          3
   187         29
   188         26
   189         21
   190         18
   248        105
   249         14
   250         70
   251         10
   252          9