##TITLE=Library Entry 40409
##JCAMP-DX=Revision 4.10 
##DATA TYPE=MASS SPECTRUM
##SAMPLE DESCRIPTION=MASS SPECTROMETRY CENTER, UNIV. OF UTAH EPA-PTSEL 2740
##NAMES=HP
##CAS NAME=Diuron
##MOLFORM=C9H10Cl2N2O
##CAS REGISTRY NO=330-54-1
##MP= -300
##BP= -300
##MW= 232
##$RETENTION INDEX=1720
##$CONDENSED SPECTRUM=NO
##NPOINTS= 86
##XYDATA=(XY..XY) 1 
    15        205
    26          7
    27         21
    29          9
    30         10
    35          7
    36         15
    37         26
    38         32
    39         16
    40         11
    41         17
    42        134
    43         53
    44        256
    45         65
    47          5
    49         19
    50         21
    51         12
    52          8
    56         54
    60          9
    61         32
    62         47
    63         54
    64         15
    65          4
    71          9
    72        999
    73        154
    74         46
    75         35
    76          6
    83          4
    84          9
    85         10
    86          8
    87         10
    88         22
    89         11
    90         14
    97         26
    98         16
    99         18
   100          6
   107          8
   109         25
   110          4
   111         11
   112          2
   124         68
   125         29
   126         26
   127         12
   133         36
   134          4
   135         25
   136          1
   137          2
   145         14
   147          9
   153          1
   159         30
   160         17
   161         34
   162         15
   163         12
   164          2
   174          8
   181          1
   187        107
   188         15
   189         70
   190         10
   191         12
   196         18
   197          2
   198          3
   231          2
   232        375
   233         45
   234        257
   235         29
   236         44
   237          3