##TITLE=Library Entry 88691
##JCAMP-DX=Revision 4.10 
##DATA TYPE=MASS SPECTRUM
##SAMPLE DESCRIPTION=J.E. WILKINSON S-CUBED, SAN DIEGO, CA.
##NAMES=HP
##CAS NAME=Acetamide, 2-fluoro-N-phenyl-
##MOLFORM=C8H8FNO
##CAS REGISTRY NO=330-68-7
##MP= -300
##BP= -300
##MW= 153
##$RETENTION INDEX=0
##$CONDENSED SPECTRUM=NO
##NPOINTS= 62
##XYDATA=(XY..XY) 1 
    45          2
    46          0
    48          0
    49          0
    50         14
    51         14
    52         20
    53          0
    54          0
    55          0
    56          1
    57         95
    58          4
    59          0
    61          5
    62         11
    63         33
    64         45
    65         13
    66          0
    67          0
    68          3
    69          6
    70          3
    71          0
    72          1
    73          0
    74          5
    75         19
    76          2
    77          8
    78          0
    80          1
    81         15
    82         19
    83        118
    84         86
    85          6
    88          0
    89          2
    90          7
    91         50
    92          3
    93          0
    94          2
    95          5
    96          1
    97          0
   102          0
   108          0
   109          2
   110         42
   111        999
   112         68
   113          0
   122          0
   124          3
   137          1
   138          1
   153        138
   154         11
   155          0