##TITLE=Library Entry 70928
##JCAMP-DX=Revision 4.10 
##DATA TYPE=MASS SPECTRUM
##SAMPLE DESCRIPTION=Chemical Concepts
##NAMES=HP
##CAS NAME=N-(Ethoxycarbonyl)-3,3,3-trifluoroalanine ethyl ester
##MOLFORM=C8H12F3NO4
##CAS REGISTRY NO=330154-13-7
##MP= -300
##BP= -300
##MW= 243
##$RETENTION INDEX=0
##$CONDENSED SPECTRUM=NO
##NPOINTS= 135
##XYDATA=(XY..XY) 1 
    33          5
    34          4
    35          8
    36          7
    37          4
    38          4
    39         22
    40         65
    41         69
    42         29
    43        138
    44        227
    45        285
    46         29
    47         30
    48         51
    49          3
    50         19
    51         26
    53          7
    54         11
    55         67
    56         46
    57         86
    58         20
    59          7
    60         15
    61          4
    62          5
    63          9
    64          5
    65          9
    66          1
    67         16
    69        104
    70         26
    71         37
    72         10
    73         27
    74         74
    75         10
    76         16
    77         27
    78        122
    79        136
    80         11
    81         11
    82         16
    83         85
    85         64
    86          9
    87         11
    88          6
    89          3
    90          3
    91         22
    92         41
    93          6
    94          6
    95         22
    96         16
    98        999
    99         37
   100          6
   101         16
   102          9
   103         12
   105         45
   106         17
   107          7
   108          9
   109          8
   110         15
   111         10
   112         13
   113         19
   114          9
   115         10
   116          3
   118          6
   119          4
   120          6
   121          6
   122          2
   123        201
   124         93
   125         10
   126         89
   127         12
   128         44
   129          9
   130         28
   131          3
   132          3
   133          2
   135          9
   137          3
   139          4
   140          7
   141          4
   142        143
   144         36
   145          4
   147          4
   148          4
   149         64
   150          9
   151        193
   152         14
   153          1
   155         15
   156          3
   158          9
   159          2
   161          1
   163          1
   165          1
   167          6
   168          7
   170        211
   171         49
   172          7
   173          1
   174          6
   185          3
   186          5
   196         13
   197          2
   198         38
   199          4
   205          2
   208          1
   213          1
   223          1
   243          3