##TITLE=Library Entry 72172
##JCAMP-DX=Revision 4.10 
##DATA TYPE=MASS SPECTRUM
##SAMPLE DESCRIPTION=Japan AIST/NIMC Database- Spectrum MS-NW-8862
##NAMES=HP
##CAS NAME=.delta.-Nonalactone
##MOLFORM=C9H16O2
##CAS REGISTRY NO=3301-94-8
##MP= -300
##BP= -300
##MW= 156
##$RETENTION INDEX=1404
##$CONDENSED SPECTRUM=NO
##NPOINTS= 81
##XYDATA=(XY..XY) 1 
    15          5
    17          6
    18         33
    26          4
    27        105
    28         22
    29        106
    30          2
    31          4
    38          1
    39         73
    40         14
    41        247
    42        397
    43        268
    44         31
    45          8
    51          3
    52          2
    53         17
    54         28
    55        325
    56        146
    57         72
    58         18
    59          4
    60         19
    61          1
    65          3
    66          2
    67         26
    68         39
    69         84
    70        312
    71        469
    72         24
    73         20
    74          2
    77          2
    79          5
    80          3
    81         17
    82          9
    83         26
    84         45
    85         58
    86         38
    87          8
    88          2
    91          1
    93          2
    94          6
    95         13
    96         33
    97         21
    98          6
    99        999
   100        127
   101         12
   109          5
   110          6
   111          2
   112          2
   113         21
   114        105
   115          8
   120          6
   121          1
   123          3
   127         10
   128          7
   129          1
   137          1
   138         28
   139         11
   140          2
   141          1
   155          3
   156          5
   157         25
   158          3