##TITLE=Library Entry 25006
##JCAMP-DX=Revision 4.10 
##DATA TYPE=MASS SPECTRUM
##SAMPLE DESCRIPTION=Exported from NIST MS Search
##NAMES=HP
##CAS NAME=Propane, 1-(1,1-dimethylethoxy)-2-methyl-
##MOLFORM=C8H18O
##CAS REGISTRY NO=33021-02-2
##MP= -300
##BP= -300
##MW= 130
##$RETENTION INDEX=763
##$CONDENSED SPECTRUM=NO
##NPOINTS= 64
##XYDATA=(XY..XY) 1 
    14          1
    15          7
    17          1
    18          3
    26          2
    27         34
    28         10
    29        102
    30          3
    31         19
    32          1
    33          1
    36          1
    37          2
    38          2
    39         41
    40          7
    41        172
    42         17
    43         47
    44          2
    45          8
    46          1
    48          2
    49          4
    50          3
    51          2
    52          1
    53          4
    54          2
    55         20
    56        102
    57        999
    58         47
    59        438
    60         17
    61          1
    67          1
    69          1
    70          1
    71         11
    72          4
    73          7
    74          1
    81          1
    82          2
    83          2
    85          1
    86          1
    87         35
    88          2
    89          1
    91          1
    95          1
    97          1
    99          1
   101          1
   108          1
   114          1
   115        151
   116         12
   117          1
   129          2
   130          1