##TITLE=Library Entry 5977
##JCAMP-DX=Revision 4.10 
##DATA TYPE=MASS SPECTRUM
##SAMPLE DESCRIPTION=LAC, NIDDK, NIH, Bethesda, MD 20892
##NAMES=HP
##CAS NAME=E-14-Hexadecenal
##MOLFORM=C16H30O
##CAS REGISTRY NO=330207-53-9
##MP= -300
##BP= -300
##MW= 238
##$RETENTION INDEX=2189
##$CONDENSED SPECTRUM=NO
##NPOINTS= 178
##XYDATA=(XY..XY) 1 
    41        950
    42        243
    43        999
    44         48
    45          2
    46          0
    47          1
    49          1
    50          1
    51          7
    52          5
    53         71
    54        152
    55        889
    56        499
    57        776
    58         34
    59          2
    60          1
    61          3
    63          1
    64          0
    65         13
    66         14
    67        161
    68        147
    69        609
    70        444
    71        340
    72         17
    73          3
    74          0
    75          4
    76          0
    77          8
    78          2
    79         18
    80          7
    81         77
    82        209
    83        678
    84        283
    85        182
    86         12
    87          1
    88          0
    89          0
    91          3
    92          1
    93          3
    94          2
    95         33
    96         99
    97        590
    98        158
    99         33
   100          2
   101          3
   102          0
   103          0
   105          1
   106          0
   107          2
   108          1
   109         13
   110         44
   111        271
   112         91
   113         15
   114          1
   115          1
   116          0
   117          1
   119          0
   120          1
   121          1
   122          1
   123          6
   124         24
   125        109
   126         53
   127          9
   128          1
   129          1
   130          0
   131          1
   132          0
   133          1
   134          0
   135          2
   136          1
   137          3
   138         14
   139         28
   140         30
   141          6
   142          0
   143          1
   144          0
   145          0
   147          1
   149          1
   150          0
   151          1
   152          8
   153         13
   154         18
   155          3
   156          0
   157          1
   158          0
   159          0
   161          0
   162          0
   163          1
   165          1
   166          5
   167          7
   168         14
   169          2
   170          0
   171          1
   172          0
   173          0
   175          0
   176          0
   177          1
   178          0
   179          0
   180          5
   181          4
   182          7
   183          1
   184          0
   185          1
   186          1
   187          0
   189          0
   190          0
   191          0
   192          0
   193          0
   194          2
   195          2
   196          5
   197          1
   198          0
   199          1
   200          0
   203          1
   204          0
   205          0
   208          1
   209          1
   210         16
   211          3
   212          0
   213          2
   214          0
   215          0
   217          1
   218          1
   221          0
   222          0
   223          0
   226          0
   227          1
   228          0
   229          0
   231          0
   232          0
   235          0
   236          0
   237          0
   238         38
   239          8
   240          1
   241          1