##TITLE=Library Entry 23663
##JCAMP-DX=Revision 4.10 
##DATA TYPE=MASS SPECTRUM
##SAMPLE DESCRIPTION=Exported from NIST MS Search
##NAMES=HP
##CAS NAME=Hexanoic acid, 3,5,5-trimethyl-
##MOLFORM=C9H18O2
##CAS REGISTRY NO=3302-10-1
##MP= -300
##BP= -300
##MW= 158
##$RETENTION INDEX=1139
##$CONDENSED SPECTRUM=NO
##NPOINTS= 73
##XYDATA=(XY..XY) 1 
    27        227
    28         47
    29        279
    30          7
    31         18
    32          1
    41        447
    42         65
    43        241
    44         10
    45        112
    53         29
    54          9
    55        173
    56        237
    57        999
    58         46
    59         81
    60        288
    61         27
    67         12
    68          3
    69         50
    70          8
    71         15
    72          3
    73         75
    74         10
    81          5
    82          6
    83        349
    84         41
    85         26
    86          2
    87         22
    88          2
    89          1
    94          1
    95          1
    96          1
    97         37
    98          7
   102         53
   103        131
   104          8
   105          2
   109          1
   110          3
   111          2
   112          2
   113          1
   114          1
   115          1
   122          1
   123          1
   124          1
   125         37
   126          4
   127          1
   128          1
   129          2
   135          1
   136          1
   138          1
   139          1
   140          1
   141          3
   142          1
   143         40
   144          5
   145          1
   158          2
   159          1