##TITLE=Library Entry 114545
##JCAMP-DX=Revision 4.10 
##DATA TYPE=MASS SPECTRUM
##SAMPLE DESCRIPTION=CARL DJERASSI DEPT OF CHEM STANFORD UNIV STANFORD CALIF
 94305
##NAMES=HP
##CAS NAME=5-Hepten-2-one, 7-phenyl-
##MOLFORM=C13H16O
##CAS REGISTRY NO=33046-89-8
##MP= -300
##BP= -300
##MW= 188
##$RETENTION INDEX=0
##$CONDENSED SPECTRUM=NO
##NPOINTS= 23
##XYDATA=(XY..XY) 1 
    41         30
    43        270
    51         30
    53         10
    63         10
    65         40
    67         10
    77         20
    78         10
    91        190
    92         20
    97         30
   103         10
   104         20
   115        130
   116         30
   117         60
   127         10
   128         50
   129        260
   130        999
   131        120
   132         10