##TITLE=Library Entry 59057
##JCAMP-DX=Revision 4.10 
##DATA TYPE=MASS SPECTRUM
##SAMPLE DESCRIPTION=A.A.Kutin, Moscow, Russia
##NAMES=HP
##CAS NAME=Pyrimido[5,4-b]indol-4(3H)-one, 5-benzyl-8-methoxy-3-methyl-
##MOLFORM=C19H17N3O2
##CAS REGISTRY NO=330439-81-1
##MP= -300
##BP= -300
##MW= 319
##$RETENTION INDEX=0
##$CONDENSED SPECTRUM=NO
##NPOINTS= 229
##XYDATA=(XY..XY) 1 
    33          2
    34          1
    35          3
    36          7
    37          5
    38         18
    39         87
    40         35
    41         85
    42        594
    43         28
    45          2
    49          3
    50         27
    51         49
    52         16
    53          8
    54          3
    55          9
    56          4
    57          6
    58          4
    59          2
    60          1
    61          5
    62         24
    63         59
    64         33
    65        199
    66         13
    67          3
    68          2
    69          4
    70          2
    71          2
    73          4
    74         11
    75         21
    76         19
    77         43
    78         11
    79          5
    80          5
    81          3
    82          4
    83          3
    84          3
    85          2
    86          4
    87         10
    88         17
    89         58
    91        999
    92         68
    93          3
    94          1
    95          3
    96          3
    97          1
    98          1
    99          4
   100          9
   101         16
   102         21
   103         11
   104          8
   105          7
   106          3
   107          2
   108          1
   109          2
   110          1
   111          2
   112          2
   113          4
   114          8
   115         20
   116         23
   117         23
   118          4
   119          4
   120          1
   121          1
   122          0
   123          1
   124          1
   125          2
   126          3
   127         10
   128         15
   129         10
   130          8
   131          4
   132          3
   133          1
   135          1
   136          1
   137          2
   138          2
   139          4
   140          4
   141          4
   142          5
   143          5
   144         15
   145          3
   146          2
   147          1
   149          1
   150          2
   151          4
   152          4
   153          2
   154          3
   155          5
   156         13
   157         18
   158         20
   159        137
   162          1
   163          4
   164          3
   165          4
   166          1
   167          1
   168          2
   169          5
   170          4
   171         12
   172          4
   173          4
   174          1
   175          1
   176          2
   177          3
   178          3
   179          2
   180          1
   181          1
   182          1
   183          8
   184         13
   185         12
   186          6
   187          1
   188          1
   189          2
   190          6
   191          5
   192          3
   193          1
   194          1
   195          1
   196          1
   197          5
   198         13
   199         26
   200          7
   201          3
   202          1
   203          2
   204          3
   205          5
   206          3
   207          1
   210          1
   211          1
   212          4
   213         20
   214          6
   215          2
   216          2
   217          2
   218          3
   219          2
   220          1
   223          1
   224          1
   225          2
   226          3
   228        224
   229         32
   230          4
   231          1
   232          1
   233          3
   234          2
   235          1
   239          1
   241          6
   242         47
   243          7
   244          1
   245          1
   246          1
   247          1
   248          1
   249          2
   250          1
   259          1
   260          1
   261          3
   262          2
   263          0
   273          1
   274          1
   275          2
   276          1
   277          1
   278          1
   286          1
   287          0
   288          3
   289          1
   290          0
   300          0
   301          1
   302         12
   303          4
   304         19
   305          4
   313          0
   314          1
   315          5
   316          7
   317         12
   319        354
   320         65
   321          8