##TITLE=Library Entry 3234
##JCAMP-DX=Revision 4.10 
##DATA TYPE=MASS SPECTRUM
##SAMPLE DESCRIPTION=Chemical Concepts
##NAMES=HP
##CAS NAME=2-Isopropylidene-5-methylhex-4-enal
##MOLFORM=C10H16O
##CAS REGISTRY NO=3304-28-7
##MP= -300
##BP= -300
##MW= 152
##$RETENTION INDEX=0
##$CONDENSED SPECTRUM=NO
##NPOINTS= 90
##XYDATA=(XY..XY) 1 
    26         13
    27        238
    28         35
    29        173
    31         30
    38         22
    39        439
    40         88
    41        999
    42         96
    43        520
    44         30
    45         25
    50         29
    51         90
    52         36
    53        283
    54         78
    55        300
    56         96
    57        100
    58         34
    59        172
    60         21
    62         13
    63         33
    64         11
    65        107
    66         53
    67        899
    68        681
    69        628
    70         87
    71        119
    72        116
    73         12
    75         10
    77        163
    78         36
    79        241
    80         59
    81        519
    82        225
    83        144
    84         90
    85         81
    86         14
    91        228
    92         44
    93        124
    94         75
    95        247
    96        179
    97        179
    98         40
    99         16
   100         15
   103         18
   104         10
   105         67
   106         17
   107        146
   108         51
   109        572
   110         98
   111         60
   112         14
   113         17
   115         12
   117         15
   119        182
   120         31
   121         66
   122         89
   123         97
   124         39
   125         44
   126         42
   127         11
   128          9
   133         13
   134        206
   135         48
   136         14
   137        773
   138         82
   139         18
   151         22
   152        443
   153         66