##TITLE=Library Entry 89476
##JCAMP-DX=Revision 4.10 
##DATA TYPE=MASS SPECTRUM
##SAMPLE DESCRIPTION=A.A.Kutin, Moscow, Russia
##NAMES=HP
##CAS NAME=Piperidine, 3,5-dimethyl-1-phenylsulfonyl-
##MOLFORM=C13H19NO2S
##CAS REGISTRY NO=330466-83-6
##MP= -300
##BP= -300
##MW= 253
##$RETENTION INDEX=0
##$CONDENSED SPECTRUM=NO
##NPOINTS= 61
##XYDATA=(XY..XY) 1 
    33         85
    34          3
    38          1
    39        102
    40        164
    41        265
    42        319
    43         88
    44         75
    45          2
    47          1
    50         18
    51        100
    52          6
    53         26
    55        284
    56         53
    57          9
    58          6
    65          8
    67         18
    68         52
    69         77
    70         39
    71          1
    74          1
    75          4
    77        381
    78         24
    79          6
    81          4
    83         92
    84          9
    90          1
    91          4
    96        124
    97         15
    98          2
   109          1
   110         41
   112        999
   113         69
   114          1
   125          1
   139          3
   141        222
   142          7
   143         14
   162          3
   170         17
   184        163
   185         11
   186          4
   188          3
   189          2
   238          3
   251          3
   252        106
   253        184
   254         37
   255         10