##TITLE=Library Entry 63835
##JCAMP-DX=Revision 4.10 
##DATA TYPE=MASS SPECTRUM
##SAMPLE DESCRIPTION=Chemical Concepts
##NAMES=HP
##CAS NAME=Leucine, N-(N-carboxy-l-leucyl)-, dibenzyl ester, l-
##MOLFORM=C27H36N2O5
##CAS REGISTRY NO=3304-64-1
##MP= -300
##BP= -300
##MW= 468
##$RETENTION INDEX=0
##$CONDENSED SPECTRUM=NO
##NPOINTS= 165
##XYDATA=(XY..XY) 1 
    26          4
    27         33
    28         12
    29         22
    30         48
    31          4
    37          3
    38          7
    39         48
    40          7
    41         84
    42         22
    43        218
    44         61
    45          4
    49          3
    50         24
    51         51
    52         17
    53         19
    54          8
    55         36
    56         13
    57         22
    61          4
    62          8
    63         22
    64          8
    65         91
    66          7
    67          8
    68         11
    69         59
    70         45
    71          5
    72          2
    73          3
    74         16
    75          6
    76          5
    77         74
    78         19
    79         88
    80         11
    81          4
    82          7
    83         20
    84         13
    85          4
    86        162
    87         11
    88          4
    89         23
    90         27
    91        999
    92         90
    93          4
    95          4
    96          7
    97          8
    98          5
    99          2
   100          4
   105         10
   106          2
   107         38
   108         38
   109          4
   110          4
   112         22
   113          6
   114          2
   117          3
   124          2
   125          2
   126          7
   129          3
   130         33
   131          3
   132          2
   140          3
   141         17
   142          2
   148         12
   149          5
   153          3
   154          6
   155         34
   156          4
   157        197
   158         22
   159          3
   160          9
   161          6
   162          3
   164          4
   165          2
   166          2
   167          5
   168          8
   169         23
   170          8
   174          3
   175          2
   176        503
   177         80
   178          6
   180          2
   181          9
   182          4
   183         53
   184          8
   185          3
   196          2
   197         17
   198          3
   204          2
   205          8
   206          2
   209          5
   210          2
   211          2
   213          4
   214          2
   217          2
   219          6
   220        186
   221         33
   222          9
   223          7
   224          2
   225        628
   226        121
   227         15
   248         50
   249          8
   253          9
   254          2
   262          2
   266          2
   269          4
   271         14
   272          2
   277          4
   289          1
   299          2
   304         46
   305          9
   317          1
   333         46
   334         10
   335          2
   345          7
   360         29
   361         10
   362          2
   367          1
   412         54
   413         15
   414          2
   453          6
   454          2
   468          6
   469         10
   470          3