##TITLE=Library Entry 59138
##JCAMP-DX=Revision 4.10 
##DATA TYPE=MASS SPECTRUM
##SAMPLE DESCRIPTION=CARL DJERASSI DEPT OF CHEM STANFORD UNIV STANFORD CALIF
 94305
##NAMES=HP
##CAS NAME=3-Octen-2-one, 8-phenyl-
##MOLFORM=C14H18O
##CAS REGISTRY NO=33046-68-3
##MP= -300
##BP= -300
##MW= 202
##$RETENTION INDEX=0
##$CONDENSED SPECTRUM=NO
##NPOINTS= 62
##XYDATA=(XY..XY) 1 
    41         90
    42          9
    43        819
    44         19
    50         19
    51         70
    52         19
    53         49
    54          9
    55         39
    62          9
    63         39
    64          9
    65        149
    66         29
    67         49
    68         39
    69         19
    71         49
    77        110
    78         59
    79         49
    80          9
    81         29
    82          9
    83          9
    84         29
    85         19
    89         29
    90          9
    91        999
    92        129
    93         19
    95         29
    96          9
    97        159
    98         19
   103         49
   104        220
   105         90
   106          9
   111        100
   115         29
   116          9
   117        159
   118         19
   128          9
   129         70
   130          9
   131         19
   132          9
   134          9
   143         19
   144        139
   145         19
   155         11
   159         22
   169         11
   184         11
   200         11
   202        149
   203          9