##TITLE=Library Entry 7090
##JCAMP-DX=Revision 4.10 
##DATA TYPE=MASS SPECTRUM
##SAMPLE DESCRIPTION=CARL DJERASSI DEPT OF CHEM STANFORD UNIV STANFORD CALIF
 94305
##NAMES=HP
##CAS NAME=3-Octen-2-one, 7-methyl-
##MOLFORM=C9H16O
##CAS REGISTRY NO=33046-81-0
##MP= -300
##BP= -300
##MW= 140
##$RETENTION INDEX=1062
##$CONDENSED SPECTRUM=NO
##NPOINTS= 30
##XYDATA=(XY..XY) 1 
    41        290
    42         40
    43        999
    44         20
    51         20
    53         60
    54         20
    55        770
    56         80
    57        130
    67         40
    68         20
    69        180
    70        180
    71        210
    72         10
    77         10
    79         20
    81         40
    82        220
    83         50
    84        160
    85        120
    95         20
    97        220
    98         20
   122         20
   125        130
   126         10
   140         30