##TITLE=Library Entry 63309
##JCAMP-DX=Revision 4.10 
##DATA TYPE=MASS SPECTRUM
##SAMPLE DESCRIPTION=A.A.Kutin, Moscow, Russia
##NAMES=HP
##CAS NAME=1-Piperazineacetamide, N-(5-chloro-2-methoxyphenyl)-4-(phenylmeth
yl)-
##MOLFORM=C20H24ClN3O2
##CAS REGISTRY NO=330556-85-9
##MP= -300
##BP= -300
##MW= 373
##$RETENTION INDEX=0
##$CONDENSED SPECTRUM=NO
##NPOINTS= 205
##XYDATA=(XY..XY) 1 
    29         14
    30         13
    31          0
    32         25
    33          0
    36          1
    37          0
    38          1
    39          1
    40          3
    41         14
    42        163
    43         95
    44         49
    45          2
    50          1
    51          7
    52          2
    53          3
    54          9
    55         33
    56        115
    57         21
    58         55
    59          7
    60          1
    61          0
    63          2
    64          0
    65         16
    67          0
    68          6
    69         18
    70        229
    71         36
    72         29
    73          2
    74          0
    75          0
    76          1
    77          9
    78          5
    79          3
    80          3
    81          5
    82          9
    83         28
    84         22
    85         89
    86          6
    87          0
    88          0
    89          1
    90         17
    91        999
    92         83
    93         14
    94          2
    95          3
    96          2
    97         94
    98         66
    99         27
   100          0
   101          0
   102          0
   103          3
   104         23
   105         30
   106         12
   107          3
   108          0
   109          0
   111          5
   112          2
   113          7
   114          4
   115          0
   116          0
   117         13
   118         23
   119         66
   120         31
   121          3
   122          0
   123          0
   124          1
   125          5
   126          8
   127          5
   128          3
   129          3
   130          5
   131         13
   132         52
   133         31
   134        106
   135         12
   136          0
   138          0
   139          0
   140          4
   141          0
   142         23
   143          4
   144         13
   145          7
   146        146
   147         52
   148         10
   149          5
   152          0
   153          0
   154         11
   155         16
   156          5
   157         16
   158          8
   159         11
   160         27
   161         37
   162          6
   163          9
   164          0
   166          0
   167          1
   168         14
   169          8
   170         41
   171          6
   172         13
   173          4
   174          5
   175         53
   176          6
   182          0
   183          8
   184          4
   185          2
   186          0
   187         17
   188         19
   189        852
   190        169
   191         15
   192          0
   193          0
   194          0
   195          0
   196          2
   197          0
   198          0
   199          8
   201          0
   204          0
   205          0
   209          0
   213          1
   214          1
   215          0
   216          0
   217          4
   218          0
   223          0
   225          1
   226          0
   227          7
   228          0
   229          1
   234          0
   235          0
   239          1
   240          2
   241          3
   242          2
   243          2
   244          1
   253          0
   254          3
   255          3
   256          0
   257          0
   265          0
   270          0
   281          0
   282          5
   283          0
   284          2
   285          0
   295          0
   296          0
   315          0
   331          0
   334          0
   345          0
   346          0
   358          0
   370          0
   372          3
   373        168
   374         47
   375         54
   376         17
   377          0
   386          0