##TITLE=Library Entry 73688
##JCAMP-DX=Revision 4.10 
##DATA TYPE=MASS SPECTRUM
##SAMPLE DESCRIPTION=A.A.Kutin, Moscow, Russia
##NAMES=HP
##CAS NAME=Benzofurane-2-carboxylic acid, 3-[2-(4-morpholyl)-2-oxoethylamino
]-, ethyl ester
##MOLFORM=C17H20N2O5
##CAS REGISTRY NO=330557-06-7
##MP= -300
##BP= -300
##MW= 332
##$RETENTION INDEX=0
##$CONDENSED SPECTRUM=NO
##NPOINTS= 121
##XYDATA=(XY..XY) 1 
    29        386
    30         70
    31         31
    32        158
    39          2
    40          1
    41         19
    42         30
    43         10
    44         28
    45          1
    49          0
    50          0
    51          0
    55          0
    56         66
    57          9
    58          1
    59          0
    68          1
    69          2
    70         13
    71          4
    72          5
    73          0
    76          9
    77         10
    78          1
    79          0
    81          0
    82          0
    83          0
    84          0
    85          1
    86        128
    87          1
    88          2
    89          2
    90          0
    91          1
    92          0
    97          0
    98         22
    99         19
   100        999
   101         89
   102         22
   103         23
   104         15
   105          1
   109          0
   112          0
   115          0
   116          2
   117          0
   118          1
   119          4
   120         10
   121          1
   122          0
   123          0
   127        106
   128         24
   129          2
   130         22
   131          3
   132         29
   133         17
   134          0
   143          0
   145          0
   146          0
   148         10
   158          1
   159         13
   160          7
   161          0
   171          0
   172         17
   173          1
   176          0
   177         12
   178          0
   185          0
   186         33
   187          3
   188          0
   189          0
   201          2
   202          0
   203          1
   204          0
   205         32
   206          1
   207          0
   209          0
   222          0
   223          5
   224          0
   231          0
   232          1
   235          0
   237          0
   247          3
   265          2
   266          0
   281          9
   282          1
   283          0
   287          0
   289          0
   293          0
   302          0
   303          0
   304          1
   314          1
   330          0
   331          5
   332        653
   333         92
   334         10