##TITLE=Library Entry 107893
##JCAMP-DX=Revision 4.10 
##DATA TYPE=MASS SPECTRUM
##SAMPLE DESCRIPTION=Chemical Concepts
##NAMES=HP
##CAS NAME=N-Cyclohexyl-N'-(2,2,6,6-tetramethyl-4-piperidyl)oxamide
##MOLFORM=C17H31N3O2
##CAS REGISTRY NO=330593-10-7
##MP= -300
##BP= -300
##MW= 309
##$RETENTION INDEX=0
##$CONDENSED SPECTRUM=NO
##NPOINTS= 79
##XYDATA=(XY..XY) 1 
    33         28
    34          3
    37          1
    39         74
    41        140
    42         88
    43         37
    44         50
    46          2
    48          1
    49          1
    50          2
    51          2
    55        176
    56         36
    58        238
    63          1
    64          1
    65          5
    67         33
    68         10
    70         28
    71          9
    72          4
    77          5
    79         11
    82         77
    83         57
    84         30
    85          3
    89          3
    91          6
    92          3
    93          4
    94          4
    96         18
    98         56
    99         45
   105          3
   107         22
   108         14
   110         33
   111          9
   112         22
   113          4
   115          3
   117          1
   118          2
   119          2
   120          1
   124        999
   125         91
   136          1
   138         15
   139          8
   140          6
   141          2
   151          1
   153          1
   155          1
   165          1
   167         13
   168          3
   169          1
   171          1
   183          4
   196          1
   197          3
   210          1
   212          1
   235          1
   237          1
   252          1
   253          1
   290          1
   294        212
   295         37
   296          4
   309          4