##TITLE=Library Entry 13817
##JCAMP-DX=Revision 4.10 
##DATA TYPE=MASS SPECTRUM
##SAMPLE DESCRIPTION=A.A.Kutin, Moscow, Russia
##NAMES=HP
##CAS NAME=Benzo[d,E]isoquinoline-1,3(1H,3H)-dione, 6-acetyl-2-(3,4-dimethyl
phenyl)-
##MOLFORM=C22H17NO3
##CAS REGISTRY NO=330560-43-5
##MP= -300
##BP= -300
##MW= 343
##$RETENTION INDEX=0
##$CONDENSED SPECTRUM=NO
##NPOINTS= 162
##XYDATA=(XY..XY) 1 
    34          6
    36          7
    38         23
    39        190
    40        162
    41         94
    42         82
    43        999
    44        124
    45         14
    50         49
    51        218
    52         65
    53         92
    54         11
    55         33
    56          7
    57         19
    58          6
    60          4
    61          7
    62         54
    63        156
    64         45
    65        133
    66         21
    67         12
    68          3
    69         20
    70         11
    71         10
    73         46
    74        120
    75        316
    76        102
    77        441
    78        203
    79        151
    80          8
    81          4
    83          7
    85          7
    86         31
    87         53
    88         44
    89         71
    90         39
    91        118
    92         23
    93         25
    95         25
    97          3
    98         62
    99        190
   100         64
   101         65
   102         48
   103        216
   104        150
   105         93
   106         19
   107         25
   108         44
   110          3
   111          9
   112         19
   113         72
   114        205
   116         22
   117         12
   118         13
   119         29
   121        129
   122         28
   123         18
   124         63
   125        450
   126        134
   127         46
   128        126
   132         16
   135         62
   137         19
   138         27
   139        126
   140         75
   141         21
   143        104
   146         12
   149        174
   150        301
   151        283
   152        146
   153        236
   154         36
   155          4
   157        195
   158        142
   163         12
   164         71
   165         22
   166         87
   167         27
   168         16
   169          6
   172         44
   176         11
   177          6
   178         13
   179        172
   180         59
   181         77
   182         11
   187          4
   189          7
   190          3
   193         27
   194        186
   195         41
   196         14
   197          6
   200          9
   201         10
   202         16
   203          6
   213         14
   214         19
   215         15
   216          6
   222        823
   223        120
   224         15
   225         18
   226         15
   227         29
   228         36
   229         17
   230          4
   238          3
   239          6
   240         75
   241         91
   242         26
   243          6
   254         25
   255         36
   256        147
   257         37
   258          4
   271          9
   284         33
   285         18
   298          5
   299         49
   300         51
   301         11
   328         71
   329         14
   342        231
   343        395
   344         73
   345         11