##TITLE=Library Entry 78889
##JCAMP-DX=Revision 4.10 
##DATA TYPE=MASS SPECTRUM
##SAMPLE DESCRIPTION=A.A.Kutin, Moscow, Russia
##NAMES=HP
##CAS NAME=Furazano[3,4-b]pyrazin-5(4H)-one, 6-(3,4-dimethylphenyl)amino-
##MOLFORM=C12H11N5O2
##CAS REGISTRY NO=330593-36-7
##MP= -300
##BP= -300
##MW= 257
##$RETENTION INDEX=0
##$CONDENSED SPECTRUM=NO
##NPOINTS= 135
##XYDATA=(XY..XY) 1 
    33          5
    34          7
    36          1
    37          7
    38         35
    39        251
    40        157
    41        117
    42         51
    43        101
    44        106
    45         15
    50         62
    51        209
    52         95
    53        213
    54         31
    55         40
    56         17
    57         34
    58         10
    59         12
    60         11
    61          5
    62         25
    63         99
    64         42
    65        131
    66         31
    67         27
    68         31
    69         68
    70         15
    71         25
    72          6
    73         12
    74         14
    75         25
    76         43
    77        633
    78        175
    79        508
    80         39
    81          8
    82          6
    83         11
    84          9
    85         14
    86         12
    87          9
    88          5
    89         68
    90         31
    91        121
    92         28
    93         31
    94          6
    95          7
    96          5
    97          6
    98          4
    99          7
   100          3
   101         13
   102         45
   103        284
   104        121
   105        999
   106         99
   107          6
   109          2
   110          2
   111          3
   112          5
   113          3
   114          5
   115         10
   116         65
   117         24
   118         18
   119          9
   120         28
   121          8
   122          1
   123          2
   125          4
   126          1
   128         52
   129         25
   130         50
   131         74
   132        256
   133         28
   134          0
   135          2
   141          4
   142         20
   143         15
   144          7
   145         36
   146         29
   147         13
   149         26
   150          1
   153          0
   155          8
   156         32
   157        483
   158         65
   159         10
   170         62
   171         26
   172         49
   173         12
   182          1
   183          1
   184          8
   185         10
   187        151
   188         16
   197          0
   198         13
   199          5
   200         18
   201          1
   212          4
   226          0
   227         12
   228          2
   242         22
   243          1
   256        146
   257        329
   258         47
   259          2