##TITLE=Library Entry 79416
##JCAMP-DX=Revision 4.10 
##DATA TYPE=MASS SPECTRUM
##SAMPLE DESCRIPTION=Chemical Concepts
##NAMES=HP
##CAS NAME=3-Benzamido-4,5-dimethyl-2-thiophenecarboxylic acid
##MOLFORM=C14H13NO3S
##CAS REGISTRY NO=330592-89-7
##MP= -300
##BP= -300
##MW= 275
##$RETENTION INDEX=0
##$CONDENSED SPECTRUM=NO
##NPOINTS= 77
##XYDATA=(XY..XY) 1 
    33         16
    34          3
    35          3
    36          3
    39         86
    40         22
    41         11
    43         42
    44         30
    45         20
    47          6
    51        193
    53         33
    55         11
    59         79
    60          7
    61          5
    63         10
    65         31
    66         27
    67          7
    69         11
    70          4
    71          6
    73          6
    74          9
    77        616
    78         38
    81          4
    83          9
    84          3
    85          6
    86          1
    87          1
    89          2
    91          6
    92          8
    93          4
    94          3
    97         15
    98          3
    99          4
   105        999
   106         58
   107          2
   110          2
   111          1
   112          1
   115          2
   118          1
   121          1
   122          6
   123          3
   124          4
   125          8
   126          5
   127          1
   128          2
   136          4
   138          3
   140          1
   149          2
   153        355
   154         47
   155         15
   156          1
   228          1
   229          1
   230          1
   231          2
   257         32
   258          5
   259          2
   275        206
   276         29
   277         11
   278          2