##TITLE=Library Entry 72038
##JCAMP-DX=Revision 4.10 
##DATA TYPE=MASS SPECTRUM
##SAMPLE DESCRIPTION=Chemical Concepts
##NAMES=HP
##CAS NAME=N-(4-Chlorophenyl)-N'-[2-(1-piperazinyl)ethyl]oxamide
##MOLFORM=C14H19ClN4O2
##CAS REGISTRY NO=330593-05-0
##MP= -300
##BP= -300
##MW= 310
##$RETENTION INDEX=0
##$CONDENSED SPECTRUM=NO
##NPOINTS= 70
##XYDATA=(XY..XY) 1 
    33         11
    34          3
    35          3
    36          3
    40         61
    42         81
    44        138
    50          8
    51          4
    52          2
    56        214
    57         21
    58         17
    61          3
    63         15
    64          5
    65          4
    67          7
    70        122
    71         14
    72         14
    73          5
    75         17
    76          4
    77          1
    80          2
    81          2
    84         41
    85         11
    86          2
    87          1
    90          9
    91          5
    92          2
    93          1
    95          1
    99        999
   111         17
   113         24
   119          1
   120          1
   123          1
   126         34
   127         20
   128          9
   129          5
   130          1
   134          8
   135          3
   137          1
   138          1
   139          1
   140          1
   149          1
   153          9
   154         10
   155          6
   156         19
   157          2
   171          1
   225          6
   226          1
   227          2
   239          1
   268          2
   308          3
   309          1
   310          5
   311          1
   312          1