##TITLE=Library Entry 33270
##JCAMP-DX=Revision 4.10 
##DATA TYPE=MASS SPECTRUM
##SAMPLE DESCRIPTION=A.A.Kutin, Moscow, Russia
##NAMES=HP
##CAS NAME=N'-(But-2-enylidene)-2,2,3,3,4,4,5,5,6,6,7,7,7-tridecafluorohepta
nohydrazide
##MOLFORM=C11H7F13N2O
##CAS REGISTRY NO=330591-15-6
##MP= -300
##BP= -300
##MW= 430
##$RETENTION INDEX=0
##$CONDENSED SPECTRUM=NO
##NPOINTS= 51
##XYDATA=(XY..XY) 1 
    38         33
    39        346
    41        452
    42        172
    45         52
    50         54
    51         60
    52         23
    53         65
    54         34
    55         39
    56         77
    57         34
    62          0
    63          2
    64          2
    65         17
    66         33
    68        999
    69        189
    70         10
    71          2
    75          3
    76         10
    77         29
    78          8
    79         12
    80         17
    81         32
    82         31
    83         70
    84          3
    91          4
    93         15
    94          0
    95          0
   100         31
   105          6
   107          5
   109          3
   119         50
   120          0
   131         39
   135         28
   150          3
   169          2
   181          0
   183          2
   185          0
   192          2
   430         21