##TITLE=Library Entry 78838
##JCAMP-DX=Revision 4.10 
##DATA TYPE=MASS SPECTRUM
##SAMPLE DESCRIPTION=A.A.Kutin, Moscow, Russia
##NAMES=HP
##CAS NAME=Benzamide, N-[1,3-dioxo-2-(1-imidazolyl)-2-indanyl]-
##MOLFORM=C19H13N3O3
##CAS REGISTRY NO=330593-26-5
##MP= -300
##BP= -300
##MW= 331
##$RETENTION INDEX=0
##$CONDENSED SPECTRUM=NO
##NPOINTS= 152
##XYDATA=(XY..XY) 1 
    33          2
    34          5
    36          0
    37          3
    38         23
    39         43
    40        129
    41        188
    42         32
    43         21
    44         18
    45          3
    46          0
    48          0
    50         80
    51        147
    52         15
    53          7
    54          3
    55         11
    56          5
    57          9
    58          3
    59          1
    60          2
    61          1
    62          4
    63          5
    64          2
    65          3
    66          3
    67         34
    68        256
    69         16
    70          3
    71         10
    72          7
    73          4
    74         17
    75         31
    76         87
    77        475
    78         36
    79          2
    80          0
    81          2
    82          2
    83         10
    84          4
    85          2
    86          2
    87          3
    88          3
    89          5
    90          1
    91          2
    92          0
    93          1
    94          1
    95          2
    96          0
    97          2
    98          1
    99          2
   100          1
   101          2
   102         25
   103         10
   104         55
   105        999
   106         90
   107          6
   108          0
   109          1
   110          1
   111          1
   112          1
   113          1
   114          1
   115          1
   116          2
   117          1
   118          0
   119          0
   120          0
   121          2
   122          2
   123          1
   124          0
   125          0
   126          0
   127          0
   128          1
   129          1
   130          2
   131          0
   132          5
   133          5
   134          0
   135          0
   137          0
   139          0
   140          0
   141          1
   142          0
   143          0
   144          1
   145          0
   148          0
   149          5
   150          0
   151          1
   152          1
   153          0
   154          1
   155          0
   157          0
   158          7
   159          2
   160          1
   161          0
   162          0
   163          0
   164          0
   165          1
   167          0
   170          0
   171          1
   173         66
   174          7
   175          0
   176          0
   177          0
   190          1
   193          0
   195          0
   199          0
   207          0
   217          0
   226          6
   227          0
   247          2
   248          0
   263          4
   264          2
   265         36
   266          6
   267          0
   291          0
   305          0
   331          5
   332          0