##TITLE=Library Entry 8369
##JCAMP-DX=Revision 4.10 
##DATA TYPE=MASS SPECTRUM
##SAMPLE DESCRIPTION=A.A.Kutin, Moscow, Russia
##NAMES=HP
##CAS NAME=[1,2,4]Triazolo[1,5-a]pyrimidin-7-ol, 2-amino-5-methyl-6-nitro-
##MOLFORM=C6H6N6O3
##CAS REGISTRY NO=330569-99-8
##MP= -300
##BP= -300
##MW= 210
##$RETENTION INDEX=0
##$CONDENSED SPECTRUM=NO
##NPOINTS= 98
##XYDATA=(XY..XY) 1 
    37         41
    38        128
    39        456
    40         57
    41        230
    42        606
    43        999
    44        464
    45         58
    46         30
    48         25
    50         20
    51         50
    52        127
    53        166
    54        129
    55        105
    56         66
    57         80
    58         15
    59         24
    60         40
    63         12
    64         58
    65         33
    66        163
    67        702
    68        254
    69        170
    70         91
    71         47
    72         10
    73         26
    74         17
    75         23
    76         10
    77         24
    78         25
    79         69
    80         23
    81         33
    82         26
    83         72
    84         95
    85         36
    86          9
    87          7
    90          3
    91         13
    92         12
    93         23
    94         64
    95         74
    96         30
    97         15
    98         14
    99         17
   101          3
   104          5
   105          9
   107          6
   108         32
   109         32
   110         79
   111         52
   112         22
   113         20
   114         12
   115          2
   118          3
   119          6
   120         14
   121         24
   122          4
   123         39
   124        121
   125         15
   126         18
   127          4
   129          6
   135         15
   136        100
   137         35
   138         10
   139         39
   141          9
   149         24
   150         14
   152          3
   165         32
   166         22
   171         12
   178          2
   193         15
   194         90
   195          4
   210        168
   211         11