##TITLE=Library Entry 16632
##JCAMP-DX=Revision 4.10 
##DATA TYPE=MASS SPECTRUM
##SAMPLE DESCRIPTION=A.A.Kutin, Moscow, Russia
##NAMES=HP
##CAS NAME=Methanone, (5-bromo-2-thienyl)(5-hydroxy-4-dimethylaminomethyl-3-
benzofuryl)-
##MOLFORM=C16H14BrNO3S
##CAS REGISTRY NO=330556-65-5
##MP= -300
##BP= -300
##MW= 379
##$RETENTION INDEX=0
##$CONDENSED SPECTRUM=NO
##NPOINTS= 300
##XYDATA=(XY..XY) 1 
    29         11
    30         24
    31          0
    32          8
    38          0
    39          3
    40          3
    41          7
    42         88
    43         16
    44        999
    45        295
    46         24
    50          0
    51          2
    52          0
    53          2
    54          2
    55          8
    56          3
    57         25
    58        174
    59          7
    60          3
    61          1
    62          0
    63          5
    64          0
    65          4
    66          0
    67          1
    68          4
    69         38
    70          7
    71         12
    72          4
    73          4
    75          0
    76          1
    77          6
    78          2
    79          2
    80          3
    81          8
    82         13
    84          2
    86          1
    87          0
    88          9
    89         28
    90         11
    91         14
    92          3
    93          3
    94          1
    95          0
    96          2
    97          5
    98          4
    99          2
   100          1
   101          6
   102          5
   103          3
   104          1
   105          3
   106          0
   107          0
   108          9
   109         25
   110          4
   111         13
   112          2
   113          5
   114          7
   115         18
   116          4
   117         13
   118         26
   119         11
   120          3
   121          5
   122          2
   123          1
   124          1
   125          2
   126          9
   127         30
   128         11
   129          6
   130          5
   131          7
   132          4
   133          2
   134          2
   137          3
   138          5
   139         30
   140          8
   141          5
   142          6
   143          4
   144          3
   145         24
   146         34
   147         17
   148          8
   150          1
   151          3
   152          3
   153          1
   154          1
   155         31
   156          4
   157          0
   158          7
   159          9
   160          7
   161         32
   162          5
   163          9
   164          1
   166          3
   167          3
   168          7
   169          9
   170         23
   171        135
   172         28
   173         23
   174         20
   175         22
   176          1
   177          2
   178          0
   179          1
   180          1
   181          1
   182          6
   183          7
   184          5
   185          3
   186         15
   187          6
   188          7
   189         65
   190         10
   191         69
   192          5
   193          4
   194          1
   195          8
   196          2
   197          0
   198          6
   199         37
   200         33
   201         13
   202        113
   203         13
   204          2
   205          0
   207          0
   208          0
   209          1
   210          4
   211         30
   212          5
   213          3
   214          0
   215          0
   216          0
   217          2
   219          0
   220          0
   221          0
   222          4
   223         13
   224         11
   225          4
   226          7
   227         59
   228         22
   229         14
   230          2
   231          0
   232          0
   233          0
   234          0
   236          1
   238          1
   239         12
   240          4
   241          3
   242          2
   243          1
   244          0
   249          3
   250          1
   251          4
   252          3
   253          6
   254         12
   255        163
   256         57
   257         75
   258         14
   259          4
   260          0
   261          0
   262          0
   263          0
   264          0
   265          0
   269          0
   270          0
   271          0
   272          0
   274          0
   276          0
   278          0
   279          0
   280          2
   281          0
   282          0
   283          0
   284          1
   285          0
   286          0
   289          0
   291          0
   292          0
   293          0
   294          0
   295          1
   299          2
   300         59
   301         13
   302          5
   303          0
   304          0
   305          5
   306          0
   307          3
   308          0
   309          1
   310          0
   311          0
   313          0
   314          0
   317          0
   318          1
   319          3
   320          2
   321          2
   322          8
   323         15
   324          9
   325          9
   331          0
   332          1
   333         16
   334         19
   335         30
   336         53
   337         19
   338         26
   339          2
   340          0
   342          1
   344          0
   350          0
   351          0
   352          0
   353          0
   359          0
   360          2
   361          3
   362          8
   363         17
   364        391
   365         67
   366        300
   367         47
   368         23
   369          3
   372          0
   373          0
   374          0
   375          0
   376          0
   377          4
   378         15
   379        254
   380         85
   381        286
   382         72
   383         21
   384          4
   385          0