##TITLE=Library Entry 47470
##JCAMP-DX=Revision 4.10 
##DATA TYPE=MASS SPECTRUM
##SAMPLE DESCRIPTION=Chemical Concepts
##NAMES=HP
##CAS NAME=N-[2-(2-Benzoxazolylthio)ethyl]benzenesulfonamide
##MOLFORM=C15H14N2O3S2
##CAS REGISTRY NO=330593-06-1
##MP= -300
##BP= -300
##MW= 334
##$RETENTION INDEX=0
##$CONDENSED SPECTRUM=NO
##NPOINTS= 123
##XYDATA=(XY..XY) 1 
    36          1
    39        263
    40          7
    42         62
    44        112
    45         34
    46         16
    48         18
    51        240
    52         21
    53         10
    55          9
    57          6
    58         17
    59         12
    60          9
    61          8
    63         67
    64         97
    65         37
    66          6
    69         16
    70         11
    71          7
    72          5
    74         13
    77        999
    79         11
    80          5
    81          3
    82          4
    83          5
    84          2
    86          3
    87          4
    91         97
    92         25
    93         15
    95         21
    96         17
    97         11
    98          1
    99          1
   102          1
   104         19
   105         11
   106          9
   107          4
   109         12
   110          6
   111          2
   112          1
   113          1
   115          3
   116          1
   119         83
   120         31
   122         99
   124         30
   125         16
   126          3
   127          2
   128          1
   129          1
   132        172
   133         39
   134         21
   135          9
   136         20
   138         15
   141        223
   142         14
   143          9
   144          1
   147        124
   151        728
   152        130
   153         38
   154          6
   155          1
   159          3
   160          5
   165        395
   166         32
   167         17
   168          2
   170         23
   171          4
   172          1
   176         27
   177         12
   178          8
   179          1
   183          4
   184         22
   185          2
   186          1
   191          2
   193        221
   194         22
   195          9
   196          1
   209          4
   210         20
   211          2
   223         70
   224         12
   225          3
   226          2
   237          5
   238          1
   241          2
   253         29
   254          5
   255          1
   269          3
   270         10
   271          1
   274          3
   275          4
   334         44
   335          9
   336          4