##TITLE=Library Entry 71396
##JCAMP-DX=Revision 4.10 
##DATA TYPE=MASS SPECTRUM
##SAMPLE DESCRIPTION=A.A.Kutin, Moscow, Russia
##NAMES=HP
##CAS NAME=Ethanone, 1-[5-(2-1-piperidyl)ethoxy-3-benzofuryl]-
##MOLFORM=C17H21NO3
##CAS REGISTRY NO=330556-90-6
##MP= -300
##BP= -300
##MW= 287
##$RETENTION INDEX=0
##$CONDENSED SPECTRUM=NO
##NPOINTS= 135
##XYDATA=(XY..XY) 1 
    29         27
    30         46
    35          0
    38          0
    39          9
    40          2
    41         72
    42         85
    43         87
    44         49
    45          5
    46          0
    50          2
    51          3
    52          1
    53         10
    54          3
    55         59
    56         43
    57         12
    58          3
    60          2
    62          1
    63          4
    64          0
    65          1
    66          1
    67          2
    68          3
    69         29
    70         43
    71          4
    72          1
    73          5
    74          0
    75          2
    76          6
    77         26
    78          4
    79          5
    80          3
    81         12
    82         22
    83         28
    84          7
    87          2
    88         12
    89          5
    90          2
    91          4
    92          0
    93          0
    94          6
    95          6
    96         43
    97         40
    98        999
    99        224
   100          9
   101          3
   102          7
   103         44
   104         17
   105         23
   106          1
   108          7
   109          5
   110         45
   111         81
   112         51
   113          4
   115          3
   116         22
   117          2
   118          4
   119          1
   121          1
   122         12
   123          0
   124          2
   125          0
   128          0
   129          3
   130          6
   131         15
   132          7
   133         16
   134          1
   135          3
   136         73
   137          0
   141          1
   143          4
   144         47
   145          9
   146          2
   147         14
   148          1
   153          0
   155          0
   159         15
   160         17
   161         92
   162         12
   163          1
   171          0
   172          0
   173         16
   174          1
   175          2
   176         21
   177          2
   185          2
   187         14
   188          0
   189          5
   190          0
   201          0
   203          0
   214          0
   217          0
   223          0
   243          0
   255          0
   257          1
   265          0
   272          0
   273          1
   274          0
   284          0
   285          4
   286         43
   287        123
   288         38
   289          4