##TITLE=Library Entry 71705
##JCAMP-DX=Revision 4.10 
##DATA TYPE=MASS SPECTRUM
##SAMPLE DESCRIPTION=Chemical Concepts
##NAMES=HP
##CAS NAME=5-(4-Methoxybenzylidene)-3-(piperidinomethyl)-2-thiohydantoin
##MOLFORM=C17H21N3O2S
##CAS REGISTRY NO=330593-04-9
##MP= -300
##BP= -300
##MW= 331
##$RETENTION INDEX=0
##$CONDENSED SPECTRUM=NO
##NPOINTS= 112
##XYDATA=(XY..XY) 1 
    33          8
    34          2
    35          1
    38         35
    40        100
    42        109
    44         80
    45          6
    47          2
    48          2
    51         63
    52          8
    53          9
    55         79
    56         24
    57         15
    59         14
    60         24
    63         35
    65         14
    67          6
    69         44
    70         26
    72         12
    73          9
    76         94
    78          9
    79          6
    80          2
    82          7
    84        145
    85         22
    86         16
    87          4
    89         30
    91         22
    92          3
    98        999
    99         50
   103         24
   104         18
   105          6
   106          1
   107          1
   108          1
   109          1
   110          1
   111          1
   112          1
   113          2
   114          4
   117         29
   119         10
   120          6
   121          5
   123          3
   128          1
   132        163
   133         13
   134          2
   135          2
   136          1
   137          1
   138          1
   139          1
   144          3
   147        208
   148         23
   149          4
   151          2
   152          1
   155          6
   157          1
   158          2
   159          2
   160          3
   161          1
   163          3
   165         17
   171          2
   172          1
   174         10
   175          3
   176          1
   178          5
   179          1
   181          3
   182          1
   183          1
   190          9
   191          1
   192          1
   200          1
   201          1
   202          1
   203          3
   204          1
   216          1
   218          4
   219          6
   220          1
   231          1
   234        239
   235         29
   236         11
   237          2
   248          1
   298          3
   299          1
   331         52
   332          9
   333          3