##TITLE=Library Entry 49754
##JCAMP-DX=Revision 4.10 
##DATA TYPE=MASS SPECTRUM
##SAMPLE DESCRIPTION=A.A.Kutin, Moscow, Russia
##NAMES=HP
##CAS NAME=Butanamide, 3-spiro[2,3]hex-1-ylcarbonylhydrazono-N-(4-nitropheny
l)-
##MOLFORM=C17H20N4O4
##CAS REGISTRY NO=330589-71-4
##MP= -300
##BP= -300
##MW= 344
##$RETENTION INDEX=0
##$CONDENSED SPECTRUM=NO
##NPOINTS= 135
##XYDATA=(XY..XY) 1 
    34          6
    36         24
    38        100
    39        566
    41        758
    42        151
    43        114
    44         89
    45         17
    46         12
    47          0
    48          2
    50         73
    51        130
    53        646
    55        503
    56         70
    57         80
    58         13
    59          7
    60          7
    62         29
    63         96
    64         69
    65        261
    66         73
    67        107
    68         42
    69         48
    70         32
    71         45
    72         61
    73         18
    74         13
    75         27
    76         42
    77         80
    79        517
    81        999
    82         54
    83         25
    84         54
    85         10
    86          0
    87          2
    89          8
    90         29
    91         47
    92         83
    93         18
    94         13
    95         20
    96         54
    98         98
    99        199
   101          1
   102          0
   103          3
   104         16
   105         25
   108        289
   109        362
   110         35
   111         29
   112          9
   113          2
   115          2
   116          0
   117          3
   118          3
   119          8
   120          4
   121         10
   122         38
   123         17
   124         68
   125         13
   126          0
   127          0
   128          0
   129          0
   130          1
   131          1
   132          3
   133          9
   134          8
   135         11
   137         73
   138        110
   139         15
   140          1
   141          0
   143          0
   145          0
   146          0
   147          2
   148          4
   149         25
   150         19
   151         29
   152          6
   153          0
   159          0
   160          0
   161          2
   162          5
   163         16
   165        111
   171          1
   175          0
   177         45
   178         47
   179         15
   180         20
   181          0
   188          1
   189          1
   190          0
   191          2
   192          0
   203          0
   206         74
   207         66
   208          2
   218         21
   219          3
   220          0
   221          0
   222          1
   316          2
   326          2
   327          1
   342          0
   344         77
   345          9