##TITLE=Library Entry 99249
##JCAMP-DX=Revision 4.10 
##DATA TYPE=MASS SPECTRUM
##SAMPLE DESCRIPTION=A.A.Kutin, Moscow, Russia
##NAMES=HP
##CAS NAME=N'-[3-Methoxy-4-(2-propynyloxy)benzylidene]-3-methylbenzhydrazide
##MOLFORM=C19H18N2O3
##CAS REGISTRY NO=330591-13-4
##MP= -300
##BP= -300
##MW= 322
##$RETENTION INDEX=0
##$CONDENSED SPECTRUM=NO
##NPOINTS= 101
##XYDATA=(XY..XY) 1 
    34          0
    37         25
    38         58
    39        236
    40         26
    41         31
    43         23
    44         16
    45          2
    50         37
    51         71
    52         23
    53         18
    54          4
    55          9
    57          9
    59          0
    61          3
    63         88
    65        237
    66         29
    67          4
    68          1
    69          3
    70          0
    71          0
    74          5
    75          6
    76         15
    77         42
    78         15
    79         35
    80          6
    81          3
    82          0
    83          0
    84          0
    85          0
    86          0
    87          2
    89         48
    91        545
    92         58
    93         14
    94          4
    95          4
   102          2
   103          3
   104          6
   105         13
   106          6
   107          6
   108          1
   109          0
   115          4
   116         13
   119        999
   121         32
   122          3
   123          1
   128          0
   129          0
   130          1
   131          2
   132          3
   133          7
   135         91
   136         13
   137          4
   144          5
   145          2
   146          2
   147          5
   148         57
   149         17
   150          6
   152          5
   156          1
   157          0
   159          4
   160          1
   161          0
   162          0
   163          3
   164          5
   165          1
   172          4
   174          0
   175          0
   187        149
   188         13
   189          1
   190          0
   208          0
   282          0
   283          3
   284          4
   319          1
   322         87
   323         20
   324          0