##TITLE=Library Entry 59005
##JCAMP-DX=Revision 4.10 
##DATA TYPE=MASS SPECTRUM
##SAMPLE DESCRIPTION=Chemical Concepts
##NAMES=HP
##CAS NAME=5-(5-Bromo-3-tert-butylsalicylideneamino)-2,3-dihydro-1,4-phthala
zinedione
##MOLFORM=C19H18BrN3O3
##CAS REGISTRY NO=330682-13-8
##MP= -300
##BP= -300
##MW= 415
##$RETENTION INDEX=0
##$CONDENSED SPECTRUM=NO
##NPOINTS= 164
##XYDATA=(XY..XY) 1 
    33         84
    34         15
    36          6
    37         28
    38        337
    40        236
    41        537
    43        163
    44         99
    45         44
    46         15
    49          7
    50         56
    51        122
    52        179
    53        137
    54         43
    55         61
    57         92
    58         13
    59         19
    60         22
    61        100
    63        295
    64        389
    66        143
    67         31
    69         29
    70         24
    71         27
    73         31
    75        146
    77        222
    78        101
    79         47
    80         42
    82         29
    83         16
    84          9
    85         11
    86         21
    88         31
    89         56
    91        999
    92        144
    93         26
    94          9
    95          6
    97          7
    98          7
    99          9
   100          7
   101         14
   102         41
   103        148
   104         65
   105         80
   106         20
   107         14
   108          5
   111          5
   112          9
   113         13
   114         18
   115         82
   117        222
   119        532
   120         85
   122          6
   126          6
   127          9
   128         27
   129         20
   130         46
   131         91
   132        146
   133         31
   134         12
   135          8
   140          7
   141         13
   142          6
   143         23
   145        399
   146         61
   147         23
   148         10
   149         11
   152          5
   153          5
   155          7
   156         13
   157         14
   158         39
   159         66
   160         30
   162        503
   163        147
   164         13
   167          8
   168         36
   169         10
   170          7
   171         19
   172          9
   174         64
   175         22
   177        362
   178         30
   179          5
   182          6
   183          7
   184          7
   185          9
   188         22
   189         12
   195          5
   196          6
   197          8
   198          8
   200          6
   208          5
   209         10
   210         62
   212        100
   213         18
   214         17
   215          8
   216          6
   222          7
   224         10
   226          6
   235          9
   236         24
   238         88
   239         16
   240         69
   241         20
   242          5
   243          9
   252          9
   253         19
   254         43
   255         18
   256         42
   257          7
   336         12
   337          5
   348          5
   372         49
   373         20
   374         44
   375         14
   376          5
   398          6
   400         79
   401         19
   402         54
   403         12
   414         17
   415        140
   416         50
   417        121
   418         25