##TITLE=Library Entry 109087
##JCAMP-DX=Revision 4.10 
##DATA TYPE=MASS SPECTRUM
##SAMPLE DESCRIPTION=A.A.Kutin, Moscow, Russia
##NAMES=HP
##CAS NAME=Cyclopropanecarboxamide, N-(3,5-dibromophenyl)-2,2,3,3-tetramethy
l-
##MOLFORM=C14H17Br2NO
##CAS REGISTRY NO=330645-04-0
##MP= -300
##BP= -300
##MW= 373
##$RETENTION INDEX=0
##$CONDENSED SPECTRUM=NO
##NPOINTS= 229
##XYDATA=(XY..XY) 1 
    33          6
    36          1
    37          6
    38         18
    39        178
    40         46
    41        331
    42         35
    43        123
    44         10
    45          3
    46          1
    49          1
    50         13
    51         21
    52         25
    53         99
    54         26
    55        646
    57        209
    58          9
    60          3
    61         11
    62         36
    63        115
    64         17
    65         31
    66         13
    67        125
    68         21
    69        171
    71         13
    72          1
    73          3
    74         19
    75         47
    76          7
    77         22
    78          7
    79         79
    80         18
    81        137
    82         87
    83        330
    84         35
    86          8
    87          5
    88         12
    89         13
    90         44
    91         29
    92         13
    93          7
    95         62
    96         35
    97        624
    98         59
    99          7
   100          4
   101          1
   102          1
   103          2
   104          2
   105          2
   106          2
   107          7
   108          5
   109        100
   110         35
   111          3
   112          5
   113          1
   114          1
   115          5
   116          3
   117         11
   118          3
   119          9
   120          1
   123          3
   125        999
   126         79
   127          8
   128          4
   129          4
   130          7
   131          4
   132          3
   133          3
   134          1
   138          1
   139          2
   140          3
   141         10
   142          6
   143         27
   144          6
   145         12
   146          1
   147          2
   148          1
   149          2
   152          1
   153          9
   154         16
   155         10
   156         20
   157         42
   158          6
   159          1
   163          2
   167          1
   168         14
   169         32
   170         34
   171         42
   172         21
   173         12
   174          1
   175          1
   179          1
   180          1
   181          1
   182          2
   183          1
   184          1
   185          0
   195          1
   196          2
   197          5
   198          2
   199          3
   200          1
   207          1
   208          2
   209          2
   210          3
   211          5
   212          3
   213          4
   214          1
   219          2
   220          2
   221         18
   222         29
   223         26
   224          6
   225          9
   226          2
   233         13
   234          2
   235         32
   236          9
   237         21
   238          7
   239          2
   247          0
   248          9
   249         35
   250         25
   251         67
   252         21
   253         32
   254          6
   260          1
   262          2
   263          1
   264          3
   266          1
   274          2
   275          3
   276          9
   277          6
   278         11
   279          6
   280          7
   281          3
   282          2
   288          1
   289          1
   290          5
   291         13
   292          8
   293         22
   294         40
   295         16
   296         33
   297          6
   298          8
   299          1
   300         20
   301          3
   302         15
   303          2
   304          5
   305          2
   306          1
   314         10
   315         75
   316         28
   317        151
   318         29
   319         72
   320         10
   327          1
   329          4
   330          5
   331          8
   332         13
   333          8
   334         12
   335          3
   336          3
   344          1
   346          0
   358        105
   359         17
   360        206
   361         31
   362         99
   363         15
   364          1
   371          0
   373         33
   374          6
   375         62
   376         10
   377         31
   378          4