##TITLE=Library Entry 51980
##JCAMP-DX=Revision 4.10 
##DATA TYPE=MASS SPECTRUM
##SAMPLE DESCRIPTION=ATLAS OF MASS SPECTRA OF ORGANIC COMPOUNDS, V. A. KOPTY
UG, ED.
##NAMES=HP
##CAS NAME=2-Pyrazoline, 1-methyl-4-propyl-
##MOLFORM=C7H14N2
##CAS REGISTRY NO=33063-77-3
##MP= -300
##BP= -300
##MW= 126
##$RETENTION INDEX=0
##$CONDENSED SPECTRUM=NO
##NPOINTS= 36
##XYDATA=(XY..XY) 1 
    26          8
    27         72
    28         90
    29         35
    30         20
    38          6
    39         58
    40         16
    41         92
    42        318
    43        101
    44         30
    51          5
    52          6
    53         11
    54         20
    55         32
    56        158
    57         15
    66          7
    67          7
    68         17
    69         20
    70          9
    81         15
    82          3
    83        999
    84         90
    85         50
    95         14
    96          5
    97         32
    98          3
   125         25
   126        207
   127         19