##TITLE=Library Entry 83059
##JCAMP-DX=Revision 4.10 
##DATA TYPE=MASS SPECTRUM
##SAMPLE DESCRIPTION=A.A.Kutin, Moscow, Russia
##NAMES=HP
##CAS NAME=Pyrimidine, 4,5-dimethyl-2-[2-(4-pyridyl)ethylthio]-
##MOLFORM=C13H15N3S
##CAS REGISTRY NO=330637-78-0
##MP= -300
##BP= -300
##MW= 245
##$RETENTION INDEX=0
##$CONDENSED SPECTRUM=NO
##NPOINTS= 116
##XYDATA=(XY..XY) 1 
    33         17
    39        313
    40         54
    42        273
    43         10
    45         65
    46         11
    47          5
    48          0
    51        221
    52         68
    53        114
    54         21
    55         10
    57          6
    58         18
    59         16
    60         18
    61          3
    63         27
    65        128
    67        416
    68         14
    69          5
    70         11
    72         55
    73          3
    74          6
    75          3
    76          7
    77        114
    78         82
    79         31
    80         45
    82        260
    83         20
    84         10
    85          5
    86          3
    87          0
    89          0
    93        378
    94        135
    95         25
    96         16
    98         12
    99          4
   100          1
   101          0
   102          2
   104         45
   106        999
   107        138
   108        136
   109         33
   110          6
   112         23
   113          5
   114          1
   115          0
   117          1
   119         14
   120          2
   121          1
   123         11
   124         25
   125         29
   126          3
   127          1
   128          0
   130          3
   131          1
   133          0
   134          1
   135          2
   136         42
   138        114
   140        394
   141         39
   142         16
   144          3
   150          0
   151          6
   153        705
   154         47
   155         31
   156          3
   157          0
   158          0
   163          0
   165          2
   167         17
   168          1
   169          2
   170          1
   171          0
   175          0
   184          0
   185          4
   186          1
   188          0
   196          0
   197          2
   198          2
   199          1
   201          0
   203          0
   210          4
   212        126
   213         14
   214          0
   216          0
   244          6
   245         79
   246         11
   247          3