##TITLE=Library Entry 81009
##JCAMP-DX=Revision 4.10 
##DATA TYPE=MASS SPECTRUM
##SAMPLE DESCRIPTION=Japan AIST/NIMC Database- Spectrum MS-NW-5797
##NAMES=HP
##CAS NAME=Benzoic acid, 1-methylpropyl ester
##MOLFORM=C11H14O2
##CAS REGISTRY NO=3306-36-3
##MP= -300
##BP= -300
##MW= 178
##$RETENTION INDEX=1291
##$CONDENSED SPECTRUM=NO
##NPOINTS= 66
##XYDATA=(XY..XY) 1 
    14          1
    15          6
    17          1
    18          4
    26          4
    27         42
    28          5
    29         88
    30          3
    31          1
    37          1
    38          4
    39         30
    40          5
    41         94
    42          5
    43          9
    44          5
    45          3
    49          2
    50         34
    51        111
    52          8
    53          4
    54          1
    55         19
    56        195
    57         59
    58          3
    62          1
    63          2
    65          4
    72          2
    73         83
    74          8
    75          7
    76         16
    77        311
    78         26
    79         35
    80          3
    91          2
    93          1
    94          2
   103          1
   104          4
   105        999
   106         81
   107          7
   121          2
   122         31
   123        462
   124         35
   125          3
   131          1
   134          2
   139          1
   145          1
   149         23
   150          3
   160          1
   161          1
   163          1
   177          1
   178          8
   179          1