##TITLE=Library Entry 109101
##JCAMP-DX=Revision 4.10 
##DATA TYPE=MASS SPECTRUM
##SAMPLE DESCRIPTION=Asinex Ltd, Moscow, Russia
##NAMES=HP
##CAS NAME=Benzene, 1,2-di(2,2,3,3-tetramethylcyclopropanoylamino)-
##MOLFORM=C22H32N2O2
##CAS REGISTRY NO=330645-03-9
##MP= -300
##BP= -300
##MW= 356
##$RETENTION INDEX=0
##$CONDENSED SPECTRUM=NO
##NPOINTS= 212
##XYDATA=(XY..XY) 1 
    33          1
    34          0
    35          1
    37          0
    39         18
    40         24
    41         63
    42          8
    43         42
    44          8
    45          1
    47          1
    48          0
    50          0
    51          3
    52          3
    53         15
    55        192
    56         13
    57         84
    58          8
    59          2
    63          1
    64          1
    65          9
    66          2
    67         22
    69         57
    70          7
    71          6
    72          0
    73          0
    74          1
    77          7
    78          3
    79         16
    80         14
    81         30
    82         10
    83         66
    84          8
    85          1
    87          0
    89          0
    90          1
    91          4
    92         14
    93          7
    94          1
    95         28
    96         15
    97         90
    98          9
    99          1
   100          1
   101          0
   102          0
   103          0
   104          1
   105          6
   106         14
   107         22
   108        137
   109         34
   110         17
   111          5
   112          8
   113          3
   115          1
   117         12
   118          3
   119         31
   120          5
   121          4
   122          0
   123          4
   125        999
   126         89
   127          6
   128          1
   129          2
   130          1
   131         18
   132         58
   133         52
   134         44
   135         46
   136          4
   137          0
   138          1
   139          0
   140          0
   141          1
   142          1
   143          1
   144          4
   145          9
   146          6
   147         14
   148         10
   149         22
   150         10
   151          2
   152          2
   153          1
   154          1
   155          1
   156          1
   157          9
   158          8
   159         16
   160         12
   161          6
   162          4
   163         21
   164          0
   165          0
   166          0
   167          1
   168          0
   169          2
   171         25
   172         12
   173         97
   174        102
   175         17
   176          2
   177          0
   178          0
   179          0
   181          0
   182          1
   183          2
   184          7
   185          5
   186          2
   187          2
   189         10
   190          6
   191          3
   192          0
   196          0
   197          2
   198         10
   199         27
   200          8
   201         45
   202         11
   203          1
   207          0
   211          0
   212          0
   213          4
   214         11
   215         47
   216         13
   217        185
   218         28
   219          2
   221          0
   223          0
   225          1
   227          0
   228          0
   229          1
   230          1
   231         12
   232        101
   233         18
   234          1
   239          0
   240          1
   241          3
   242         16
   243          5
   244          0
   245          0
   249          2
   250          0
   255          4
   256          1
   257          7
   259        125
   260         21
   261          1
   265          0
   269          0
   270          0
   271          0
   272         12
   273          7
   274          1
   281          0
   282          0
   283         13
   284          2
   286          2
   287          0
   297          1
   298         11
   299          3
   301          2
   302          0
   313          1
   314          0
   315          0
   341         56
   342         12
   343          1
   356        124
   357         30
   358          4