##TITLE=Library Entry 16386
##JCAMP-DX=Revision 4.10 
##DATA TYPE=MASS SPECTRUM
##SAMPLE DESCRIPTION=A.A.Kutin, Moscow, Russia
##NAMES=HP
##CAS NAME=Propenamide, 2-cyano-3-(2,4,6-trimethylphenyl)-
##MOLFORM=C13H14N2O
##CAS REGISTRY NO=330656-52-5
##MP= -300
##BP= -300
##MW= 214
##$RETENTION INDEX=0
##$CONDENSED SPECTRUM=NO
##NPOINTS= 172
##XYDATA=(XY..XY) 1 
    33          0
    34          1
    37         25
    38         77
    39        408
    40         87
    41        147
    42         28
    44        999
    45         52
    46         22
    47          2
    48          0
    50        163
    51        308
    52        126
    53         96
    54         14
    55         11
    56          3
    57         13
    58          7
    59          3
    60          3
    61         24
    62         82
    63        217
    64         89
    65        148
    66         36
    67         17
    68          5
    69          7
    70         18
    71         12
    72          4
    73          8
    74         71
    75        107
    76        118
    77        300
    78        137
    79         44
    80          9
    81          2
    82          4
    83          5
    84          9
    85         12
    86         23
    87         42
    88         42
    89        103
    90         47
    91        153
    92         31
    93         10
    94          9
    95          1
    97          2
    98         10
    99         23
   100         22
   101         48
   102         89
   103         83
   104         65
   105         66
   106         50
   107          6
   109          0
   110          2
   111          5
   112          7
   113         32
   114         36
   115        336
   116         87
   117         44
   118         11
   119         18
   120          9
   121          7
   122          6
   123          2
   124          3
   125         17
   126         79
   127        372
   128        551
   129        382
   130         87
   131         31
   132         18
   133          3
   134          2
   135          2
   136         10
   137          5
   138          6
   139         57
   140        198
   141        161
   142        164
   143        316
   144        170
   145         27
   146          4
   147         15
   148          9
   149          2
   150         27
   151         40
   152        116
   153        173
   154        458
   155        172
   156        308
   157         58
   158         16
   159         12
   160          2
   161          1
   163          0
   164          9
   165         10
   166         35
   167         30
   168         95
   169        375
   170        649
   171        574
   172         69
   173          5
   174         22
   175          2
   176          0
   177          3
   178          2
   179          4
   180          8
   181         35
   182        116
   183         81
   184         13
   185         54
   186         22
   187         11
   188          3
   190          3
   191          3
   192          3
   193          2
   194          0
   195          4
   196         21
   197        579
   198        131
   199        624
   200         85
   201          6
   207          0
   208          1
   209          1
   210          1
   211          0
   212          0
   213         10
   214        348
   215         53
   216          5
   217          2