##TITLE=Library Entry 79373
##JCAMP-DX=Revision 4.10 
##DATA TYPE=MASS SPECTRUM
##SAMPLE DESCRIPTION=A.A.Kutin, Moscow, Russia
##NAMES=HP
##CAS NAME=Benzofuran-2-carboxylic acid, 2-(benzoylamino)ethyl ester
##MOLFORM=C18H15NO4
##CAS REGISTRY NO=330646-57-6
##MP= -300
##BP= -300
##MW= 309
##$RETENTION INDEX=0
##$CONDENSED SPECTRUM=NO
##NPOINTS= 109
##XYDATA=(XY..XY) 1 
    33          5
    34          1
    37          5
    38         11
    39         42
    40         24
    41          7
    42         14
    43         19
    44         18
    45          7
    46          0
    50         54
    51        113
    52         11
    53          5
    54          1
    55          3
    56          2
    57          3
    58          1
    59          1
    60          1
    61          5
    62         21
    63         50
    64          8
    65         10
    66          1
    67          1
    68          0
    69          3
    70          4
    71          2
    73          3
    74         10
    75         14
    76         46
    77        353
    78         30
    79          4
    80          1
    81          1
    82          1
    83          1
    84          1
    85          1
    86          4
    87          6
    89        128
    90         17
    91         19
    92         13
    93          3
    94          1
    98          0
   101          4
   102          2
   105        999
   106         62
   107          5
   112          0
   113          0
   115          2
   116          3
   117         16
   118         21
   119         15
   120          4
   121          8
   122          6
   123          1
   126          1
   127          1
   128          1
   130          1
   131          2
   132          6
   134         41
   135          5
   137          1
   139          1
   142          1
   145        155
   146         36
   147        177
   148        105
   149         12
   150         10
   151         31
   152          3
   159          1
   160          8
   162         44
   163          7
   164         45
   165          7
   166          1
   171          1
   188         17
   189          2
   190          0
   221          0
   266          1
   267          1
   268          1
   309         36
   310          5
   311          0