##TITLE=Library Entry 63678
##JCAMP-DX=Revision 4.10 
##DATA TYPE=MASS SPECTRUM
##SAMPLE DESCRIPTION=Asinex Ltd, Moscow, Russia
##NAMES=HP
##CAS NAME=Propanoic acid, 3-amino-3-[(4-benzyloxy)phenyl]-
##MOLFORM=C16H17NO3
##CAS REGISTRY NO=330645-19-7
##MP= -300
##BP= -300
##MW= 271
##$RETENTION INDEX=0
##$CONDENSED SPECTRUM=NO
##NPOINTS= 93
##XYDATA=(XY..XY) 1 
    34          5
    36          3
    38          9
    39         55
    40        104
    41         28
    42         29
    43         34
    44        122
    45         15
    46          1
    50          9
    51         25
    52          9
    53          8
    54          2
    55          8
    56          3
    57          7
    60          4
    62          6
    63         29
    64         13
    65        127
    66         24
    67          6
    68          1
    69          6
    70          6
    71          3
    73          2
    74          1
    75          3
    76          4
    77         32
    78          9
    79         11
    80          3
    81          2
    83          1
    84          1
    88          2
    89         25
    91        999
    92         83
    93         32
    94          5
    95          7
    97          1
   102          1
   103          1
   104          9
   105         13
   106         21
   107          8
   108          3
   109          0
   111          0
   112          0
   117          1
   118          3
   119          9
   120         20
   121         21
   122         24
   123          1
   133          2
   134         17
   135          4
   149          1
   152          3
   155          0
   162          1
   164          1
   165          4
   171          3
   177          1
   178          0
   180          5
   181          2
   184          5
   185          1
   195         10
   210         26
   212        776
   213        123
   214          8
   225         17
   226          2
   254          6
   255          0
   271         23
   272          2