##TITLE=Library Entry 11968
##JCAMP-DX=Revision 4.10 
##DATA TYPE=MASS SPECTRUM
##SAMPLE DESCRIPTION=A.A.Kutin, Moscow, Russia
##NAMES=HP
##CAS NAME=N-(4-Amino-furazan-3-yl)-2-(5-amino-2H-[1,2,4]triazol-3-ylsulfany
l)-acetamide
##MOLFORM=C6H8N8O2S
##CAS REGISTRY NO=330656-15-0
##MP= -300
##BP= -300
##MW= 256
##$RETENTION INDEX=0
##$CONDENSED SPECTRUM=NO
##NPOINTS= 98
##XYDATA=(XY..XY) 1 
    33          7
    34          9
    36          8
    38         10
    39         32
    40        194
    41        131
    42        452
    43        999
    44        156
    45        204
    46        109
    47         35
    51         11
    52         10
    53        135
    54         59
    55         50
    56         31
    57        131
    58        250
    59        141
    60        130
    61         14
    62          7
    63         48
    64         14
    65         17
    67         11
    68         36
    69         44
    70        363
    71         49
    72         38
    73         30
    74         65
    75         11
    76          3
    77         29
    78         51
    79          6
    82         12
    83         61
    84         55
    85        557
    86        252
    87         64
    88         20
    89         10
    91         21
    95          7
    96          3
    97        204
    98         31
   100        135
   101         17
   102          2
   105          9
   106         26
   107         42
   109        436
   110         30
   111         11
   112         34
   113         12
   115         74
   116        451
   117         76
   118         24
   119         11
   120          3
   125         10
   126         15
   127         21
   128        141
   129        883
   130        766
   131         86
   132         35
   133          6
   142         11
   146          5
   149         16
   151          5
   156        364
   157        613
   158         44
   159         27
   171          6
   173          4
   178          5
   184         26
   199        152
   200          7
   209          5
   256        431
   257         30
   258          9