##TITLE=Library Entry 77678
##JCAMP-DX=Revision 4.10 
##DATA TYPE=MASS SPECTRUM
##SAMPLE DESCRIPTION=Chemical Concepts
##NAMES=HP
##CAS NAME=N'-(5-Bromo-3-tert-butylsalicylidene)-4-nitrobenzhydrazide
##MOLFORM=C18H18BrN3O4
##CAS REGISTRY NO=330682-19-4
##MP= -300
##BP= -300
##MW= 419
##$RETENTION INDEX=0
##$CONDENSED SPECTRUM=NO
##NPOINTS= 167
##XYDATA=(XY..XY) 1 
    33         12
    34          5
    37         11
    39        310
    41        567
    43        312
    44         74
    45         12
    46         12
    50        373
    51        184
    53        170
    55        103
    57        266
    59         13
    60         15
    62         38
    63        187
    65        204
    66         33
    67         32
    69         34
    71         23
    73         13
    74        284
    76        734
    77        214
    78         91
    79         60
    80         37
    81         27
    82         19
    83          7
    84          7
    85          8
    86          7
    87         16
    88         17
    89         72
    91        175
    92        353
    94         12
    95          9
    97          9
    98          8
    99          8
   100          7
   101         18
   102         59
   104        999
   105        123
   106         22
   107         16
   108          7
   109          9
   110          5
   112          7
   113          9
   114         20
   115        118
   116         50
   117         92
   118         72
   120        235
   121         77
   122         21
   123          7
   124          5
   126          6
   127         16
   128         43
   129         33
   130         54
   131        127
   132        144
   134        135
   135         18
   136          7
   140         11
   141          9
   143         37
   144         29
   145         40
   146         71
   147         49
   148         27
   150        887
   151         71
   152         11
   155          7
   156         15
   157         21
   158         47
   159         71
   160         34
   161         19
   162          9
   164         36
   165         13
   167        206
   168         18
   169         11
   170         13
   171         15
   172         14
   173         20
   174         76
   175         65
   176          9
   182          8
   183         10
   184          8
   185         14
   186          5
   189          6
   190          8
   192         11
   195          6
   196          7
   197         12
   198         11
   199         13
   200         10
   208          6
   209         17
   210        122
   211        117
   212        134
   213        111
   214         32
   215         10
   222          8
   223          5
   224         14
   225          8
   226         10
   227          9
   234          5
   235         17
   236         24
   238        333
   239         57
   240        246
   241         36
   242          7
   252         29
   253        118
   254         89
   255        108
   256         73
   257          9
   269          5
   340          7
   376         21
   377          8
   378         17
   379          5
   402          5
   404         64
   405         16
   406         49
   407          9
   418         25
   419        163
   420         50
   421        130
   422         27