##TITLE=Library Entry 73015
##JCAMP-DX=Revision 4.10 
##DATA TYPE=MASS SPECTRUM
##SAMPLE DESCRIPTION=A.A.Kutin, Moscow, Russia
##NAMES=HP
##CAS NAME=Acetamide, 2-(4-morpholyl)-N-(4,5,6,7-tetrahydro-2-cyano-benzothi
en-3-yl)-
##MOLFORM=C15H19N3O2S
##CAS REGISTRY NO=330637-98-4
##MP= -300
##BP= -300
##MW= 305
##$RETENTION INDEX=0
##$CONDENSED SPECTRUM=NO
##NPOINTS= 108
##XYDATA=(XY..XY) 1 
    33         12
    36          2
    37          0
    38          3
    39         20
    40         15
    41         68
    42        109
    43         64
    44         16
    45         22
    46          1
    47          4
    48          1
    50          3
    51          7
    52          5
    53          6
    54         10
    55         30
    56        134
    57         29
    58         10
    59          5
    60          4
    61          0
    62          0
    63          4
    64          7
    65          6
    66          2
    67          7
    68          5
    69         16
    70         54
    71         17
    72         21
    73          3
    75          0
    76          4
    77         10
    78          6
    79          6
    80          3
    81          4
    82          6
    83          6
    84          7
    85          6
    86         23
    87          2
    88          1
    89          4
    90          2
    91          7
    92          0
    93          2
    94          3
    95          4
    96          2
    97          3
    98         12
   100        999
   101         55
   102          4
   103          1
   104          1
   105          5
   107          0
   108          0
   109          2
   110          1
   111          1
   112          2
   113          0
   114          1
   115          1
   116          7
   117          2
   118          0
   119          0
   120          0
   121          2
   122          6
   123          4
   124          0
   133          0
   134          0
   135          1
   143          3
   144          0
   148          0
   149          4
   150         10
   151          0
   152          0
   161          0
   162          1
   163          0
   171          1
   176          3
   177          3
   178          2
   190          1
   191          0
   220          1
   305         17
   306          2