##TITLE=Library Entry 13887
##JCAMP-DX=Revision 4.10 
##DATA TYPE=MASS SPECTRUM
##SAMPLE DESCRIPTION=Asinex Ltd, Moscow, Russia
##NAMES=HP
##CAS NAME=3,6-Dichloro-benzo[b]thiophene-2-carboxylic acid (4-acetylamino-f
urazan-3-yl)-amide
##MOLFORM=C13H8Cl2N4O3S
##CAS REGISTRY NO=330645-20-0
##MP= -300
##BP= -300
##MW= 370
##$RETENTION INDEX=0
##$CONDENSED SPECTRUM=NO
##NPOINTS= 205
##XYDATA=(XY..XY) 1 
    33         17
    34          7
    35         21
    36         86
    37         13
    38         37
    39         26
    40         51
    41         57
    43        999
    44        163
    45         50
    46          7
    47          5
    48          4
    49          5
    50         19
    51         17
    52         13
    53         23
    54          8
    55         31
    56         17
    57         57
    58         90
    59         11
    60         10
    61         13
    62         13
    63         14
    64          4
    65         10
    66          2
    67          7
    68         29
    69         44
    70         23
    71         14
    72          6
    73         21
    74         17
    75         21
    76          6
    77         13
    78          8
    79         14
    80          9
    81         21
    82         22
    83         34
    84         17
    85         25
    86         22
    87         47
    88         97
    89          6
    90          2
    91          8
    92          6
    93         31
    94          4
    95          6
    96          6
    97         13
    98         10
    99         12
   100         10
   101         13
   102          4
   103          6
   104          2
   105         18
   106          9
   107          6
   108          4
   109          6
   110          5
   111          6
   112         10
   113          3
   114          3
   115          3
   116          4
   117          3
   118          2
   119          4
   120          3
   121          7
   122         11
   123         15
   124          5
   125          7
   126          2
   127          5
   129         10
   130         11
   131         28
   132         12
   133          4
   135         12
   136         29
   137          7
   138         10
   139          4
   140          1
   141          0
   142          2
   143          0
   144          0
   145          1
   146          0
   147          0
   148          2
   149          4
   150          2
   151          1
   152          2
   153          1
   154          3
   155          5
   157         67
   159         45
   160          4
   161          6
   162          2
   163          6
   166        128
   167         21
   168         40
   169          7
   170          5
   171         22
   172          3
   173          8
   174          0
   175          1
   180          3
   181          0
   182          1
   189          2
   190          0
   191          2
   192          3
   193          5
   194          9
   195          4
   196          3
   197          2
   199         30
   201        102
   202         22
   203         53
   204          9
   205         10
   206          1
   207          0
   209          0
   216          0
   217          0
   229        369
   230         55
   231        189
   232         32
   233         42
   234          7
   235          6
   236          2
   237          0
   238          0
   242          0
   245          2
   246          8
   248          7
   249          0
   258          0
   259          2
   260          3
   262         70
   263         42
   264         25
   265         12
   266          2
   268          1
   270          1
   272          0
   275          3
   276          3
   277          1
   278          0
   291          0
   292          3
   293         15
   295          7
   305         11
   306          1
   307          3
   331          1
   332          4
   333          5
   335         44
   337         20
   338          1
   370          5
   371          0
   372          3