##TITLE=Library Entry 109086
##JCAMP-DX=Revision 4.10 
##DATA TYPE=MASS SPECTRUM
##SAMPLE DESCRIPTION=A.A.Kutin, Moscow, Russia
##NAMES=HP
##CAS NAME=Cyclopropanecarboxamide, N-(2,3-dihydro-1,3-dioxo-2-isoindolyl)-2
,2,3,3-tetramethyl-
##MOLFORM=C16H18N2O3
##CAS REGISTRY NO=330645-01-7
##MP= -300
##BP= -300
##MW= 286
##$RETENTION INDEX=0
##$CONDENSED SPECTRUM=NO
##NPOINTS= 135
##XYDATA=(XY..XY) 1 
    33          0
    34          0
    35          0
    36          1
    37          3
    39        117
    40         24
    41        228
    43        114
    44         10
    45          1
    46          0
    50         62
    51         31
    52         10
    53         61
    55        490
    57        194
    59         40
    61          1
    62          2
    63          7
    64          5
    65         13
    66          8
    67         61
    69        112
    70          7
    71          0
    73          1
    74         14
    75         21
    76        121
    77         47
    79         37
    80          6
    81        105
    82         55
    83        125
    84          8
    85          1
    86          0
    87          2
    88          1
    89          1
    90         18
    91          6
    92          1
    93          2
    95         38
    96         86
    97        270
    98         16
    99          1
   100          0
   101          0
   102          7
   103         11
   104        120
   105         51
   106          4
   107          2
   109         96
   110         18
   111          1
   112          0
   114          0
   115          3
   116          0
   117          2
   118          0
   119          0
   120          0
   121          0
   122          0
   123          3
   125        999
   126         76
   127          5
   128          2
   130         21
   131          2
   132         10
   133         10
   134          1
   136          1
   137          0
   139          1
   140         15
   141          1
   145          0
   146          0
   147         11
   148         98
   149          8
   150          0
   151          0
   160          0
   161          5
   162         64
   163         14
   164          1
   165          0
   171          0
   173          0
   174          0
   175          0
   176          0
   177          0
   188          0
   189          1
   190          2
   191          0
   200          1
   201          1
   202          0
   203          3
   204          0
   208          0
   215          0
   216          1
   217          0
   227          0
   228          0
   243          2
   244          6
   245          1
   248          0
   253          0
   269          0
   271        121
   272         18
   273          2
   286         11
   287          2