##TITLE=Library Entry 13515
##JCAMP-DX=Revision 4.10 
##DATA TYPE=MASS SPECTRUM
##SAMPLE DESCRIPTION=A.A.Kutin, Moscow, Russia
##NAMES=HP
##CAS NAME=Furazan, 3-acetylamino-4-(2-acetylimino-4-oxo-3-thiazolidinyl)-
##MOLFORM=C9H9N5O4S
##CAS REGISTRY NO=330645-27-7
##MP= -300
##BP= -300
##MW= 283
##$RETENTION INDEX=0
##$CONDENSED SPECTRUM=NO
##NPOINTS= 89
##XYDATA=(XY..XY) 1 
    33         32
    34          1
    40         32
    43        999
    45        136
    46          8
    47          5
    48          0
    51          0
    53         21
    54         10
    55          4
    57          1
    58          4
    59          3
    60          3
    64          0
    68         27
    69         10
    70          8
    71          3
    72          3
    73          3
    74         10
    76          0
    77          0
    82          1
    83          1
    84          2
    85          9
    86          1
    87          1
    91          0
    94          0
    95          3
    96          7
    97          5
    98          0
    99          0
   100          2
   101          2
   110          0
   112          0
   114          2
   115          6
   116         13
   117          1
   118          0
   125          1
   126         20
   127         57
   128          4
   129          2
   138          0
   139          0
   141         69
   142         77
   143         38
   144          5
   145          1
   152          0
   154         11
   155          0
   156          0
   157          1
   158          3
   168          3
   169         20
   170          6
   171          1
   182          0
   183          0
   185         17
   186          1
   187          0
   199        145
   200         11
   201          6
   202          0
   211          4
   212          0
   239          0
   241         59
   242          5
   243          3
   253          0
   283         11
   284          1
   285          0