##TITLE=Library Entry 51040
##JCAMP-DX=Revision 4.10 
##DATA TYPE=MASS SPECTRUM
##SAMPLE DESCRIPTION=Chemical Concepts
##NAMES=HP
##CAS NAME=5-Heptenoic acid, 6-methyl-, methyl ester
##MOLFORM=C9H16O2
##CAS REGISTRY NO=33077-53-1
##MP= -300
##BP= -300
##MW= 156
##$RETENTION INDEX=0
##$CONDENSED SPECTRUM=NO
##NPOINTS= 52
##XYDATA=(XY..XY) 1 
    27        100
    28          8
    29         73
    31         15
    39        149
    40         30
    41        424
    42         88
    43        150
    44         13
    45         26
    51         23
    53         77
    54         39
    55        279
    56         61
    57         26
    58         19
    59        238
    65         17
    67        283
    68         42
    69        241
    70         30
    72         16
    74        244
    75         29
    77         21
    79         33
    81        115
    82        999
    83        219
    84         15
    85         16
    87         74
    88         16
    95         35
    96         42
    97         82
    99         15
   100        159
   101        140
   107         13
   113          9
   124         92
   125        117
   126         13
   128         96
   129        150
   130         11
   156        243
   157         27