##TITLE=Library Entry 39063
##JCAMP-DX=Revision 4.10 
##DATA TYPE=MASS SPECTRUM
##SAMPLE DESCRIPTION=V.Zaikin,Topchiev Inst.Petrochem.Synth.,Moscow
##NAMES=HP
##CAS NAME=3-Bromobenzoic acid, 2-tetrahydrofurylmethyl ester
##MOLFORM=C12H13BrO3
##CAS REGISTRY NO=330838-07-8
##MP= -300
##BP= -300
##MW= 284
##$RETENTION INDEX=0
##$CONDENSED SPECTRUM=NO
##NPOINTS= 89
##XYDATA=(XY..XY) 1 
    26          4
    27         18
    28          3
    29         10
    30          2
    31          3
    35          1
    36          9
    37          2
    38          7
    39         18
    40          4
    41         48
    42         18
    43        175
    44          8
    45          1
    49          3
    50         43
    51         13
    52          4
    53          6
    54          9
    55         14
    56          8
    57          3
    60          1
    62          1
    63          2
    64          1
    65          7
    66          1
    67          3
    68          2
    69          6
    70         22
    71        999
    72         56
    73          5
    74         23
    75         78
    76         92
    77         21
    78          4
    79          4
    80          8
    81          6
    82         11
    83          9
    84        413
    85         21
    86          1
    89          1
    91          4
    92          2
    93          2
    96          7
    97          1
    98          2
   101          2
   103          4
   104          8
   105          8
   112          4
   121          1
   122          3
   129          3
   131          3
   135          9
   154          2
   155        145
   156         16
   157        146
   158         13
   172          1
   182          1
   183        269
   184         21
   185        265
   186         19
   187          1
   196          1
   198          3
   199          1
   200         70
   201         11
   202         66
   203         10
   284          1