##TITLE=Library Entry 19732
##JCAMP-DX=Revision 4.10 
##DATA TYPE=MASS SPECTRUM
##SAMPLE DESCRIPTION=Mark Whitten, Florida Museum of Natural History, U. of
 Florida
##NAMES=HP
##CAS NAME=Lilac alcohol A
##MOLFORM=C10H18O2
##CAS REGISTRY NO=33081-34-4
##MP= -300
##BP= -300
##MW= 170
##$RETENTION INDEX=1211
##$CONDENSED SPECTRUM=NO
##NPOINTS= 66
##XYDATA=(XY..XY) 1 
    41        612
    43        939
    44         34
    45         39
    50         15
    51         44
    52         25
    53        185
    55        999
    56         64
    57        146
    58         41
    59         45
    61          4
    63          6
    65         56
    67        474
    68        115
    69        196
    70         41
    71        231
    72         36
    73          7
    77         87
    78         13
    79         89
    80         26
    81        238
    82         91
    83        152
    84         48
    85         39
    86          5
    87         29
    91        115
    93        688
    94         99
    95         67
    96         16
    97         29
    98          6
    99          5
   100          7
   101          4
   102         21
   105          7
   107         35
   108          7
   109         78
   111        669
   112         50
   113         16
   119         13
   121         12
   122          5
   123          7
   124          5
   125         47
   126          5
   137         30
   139          8
   143         16
   152          6
   155        140
   156         14
   170         12