##TITLE=Library Entry 93436
##JCAMP-DX=Revision 4.10 
##DATA TYPE=MASS SPECTRUM
##SAMPLE DESCRIPTION=A.A.Kutin, Moscow, Russia
##NAMES=HP
##CAS NAME=Methanone, (phenyl)[4-(3-phenyl-2-propynyl)-1-piperazinyl]-
##MOLFORM=C20H20N2O
##CAS REGISTRY NO=330838-21-6
##MP= -300
##BP= -300
##MW= 304
##$RETENTION INDEX=0
##$CONDENSED SPECTRUM=NO
##NPOINTS= 188
##XYDATA=(XY..XY) 1 
    34          0
    37          1
    38          6
    39         46
    40          9
    41         42
    42        154
    43         13
    44          8
    45          2
    46          0
    50         55
    51        180
    52         18
    53          4
    54         29
    55         44
    56         63
    57         17
    58          2
    61          2
    62         19
    63         67
    64         13
    65         56
    66          4
    67          2
    68          6
    69          8
    70          7
    71          5
    72          2
    74         20
    75         28
    76         45
    77        570
    78         46
    79          3
    80          5
    81          4
    83         18
    84          3
    85          4
    86          7
    87         15
    88         24
    89         98
    90         11
    91         55
    92          6
    93          1
    94          3
    95          1
    96          2
    97         13
    98          2
    99          1
   100          2
   101          2
   102         10
   103         11
   104         29
   105        708
   106         69
   107          7
   108          2
   109          0
   110          0
   111          1
   113         33
   114         54
   115        999
   116        110
   117         24
   118          5
   119          2
   120          2
   121          0
   122          1
   123          0
   124          0
   125          0
   126          1
   127         11
   128         43
   129         29
   130         21
   131          4
   132          3
   133          1
   134          8
   135          1
   139          0
   140          2
   141         14
   142         16
   143         24
   144         14
   145          4
   146          9
   147          3
   148        148
   149         17
   150          2
   151          0
   152          2
   153          5
   154          7
   155         11
   156        115
   157         37
   158         67
   159         10
   160         24
   161          5
   162         53
   163          6
   164          1
   165          1
   167          5
   168         26
   169        221
   170        228
   171         43
   172          7
   173          2
   174         10
   175          2
   176          1
   180          0
   181          2
   182         40
   183         64
   184         14
   185          9
   186          1
   187          1
   188          3
   189         18
   190          2
   191          2
   192          0
   193          0
   196          1
   197          5
   198          4
   199        192
   200         29
   201          3
   202          0
   203          1
   204          0
   206          0
   213          2
   214          0
   217          0
   219          1
   220          0
   221          0
   227          1
   228          0
   230          0
   232          0
   233          0
   234          0
   239          0
   246          0
   247          0
   248          0
   260          0
   261          0
   262          0
   270          0
   274          0
   275          2
   276          0
   283          0
   289          0
   296          0
   297          0
   299          0
   300          3
   301          0
   302          0
   303         12
   304         78
   305         17
   306          1