##TITLE=Library Entry 19735
##JCAMP-DX=Revision 4.10 
##DATA TYPE=MASS SPECTRUM
##SAMPLE DESCRIPTION=Mark Whitten, Florida Museum of Natural History, U. of
 Florida
##NAMES=HP
##CAS NAME=Lilac alcohol D
##MOLFORM=C10H18O2
##CAS REGISTRY NO=33081-37-7
##MP= -300
##BP= -300
##MW= 170
##$RETENTION INDEX=1232
##$CONDENSED SPECTRUM=NO
##NPOINTS= 54
##XYDATA=(XY..XY) 1 
    41        588
    42        107
    43        861
    44         32
    45         36
    50         18
    51         40
    53        175
    55        999
    56         66
    57        122
    58         38
    59         41
    63          7
    65         54
    67        401
    68        108
    69        186
    70         39
    71        241
    72         35
    77         81
    78         11
    79         83
    80         27
    81        217
    82         76
    83        129
    84         42
    85         27
    87         22
    91        111
    93        639
    94         96
    95         60
    96         19
    97         22
   102         11
   105          7
   107         33
   108          6
   109         63
   111        622
   112         53
   113         16
   119         12
   121         11
   123          7
   125         49
   137         24
   143          8
   155        147
   156         15
   170         11