##TITLE=Library Entry 19734
##JCAMP-DX=Revision 4.10 
##DATA TYPE=MASS SPECTRUM
##SAMPLE DESCRIPTION=Mark Whitten, Florida Museum of Natural History, U. of
 Florida
##NAMES=HP
##CAS NAME=Lilac alcohol C
##MOLFORM=C10H18O2
##CAS REGISTRY NO=33081-36-6
##MP= -300
##BP= -300
##MW= 170
##$RETENTION INDEX=1219
##$CONDENSED SPECTRUM=NO
##NPOINTS= 63
##XYDATA=(XY..XY) 1 
    41        577
    42        104
    43        771
    44         32
    45         37
    50         17
    51         38
    52         21
    53        158
    55        999
    56         61
    57        125
    58         33
    59         41
    63          5
    65         46
    67        402
    68        101
    69        190
    70         41
    71        211
    72         33
    73          6
    77         80
    78         12
    79         77
    80         23
    81        207
    82         79
    83        133
    84         37
    85         30
    86          5
    87         23
    91        100
    93        634
    94         89
    95         62
    96         14
    97         19
   100          4
   101          5
   102         17
   105          6
   107         27
   108          5
   109         67
   111        591
   112         48
   113         10
   119         15
   121         11
   122          4
   123          6
   125         49
   126          5
   137         34
   139          4
   143          7
   152          5
   155        152
   156         14
   170         11