##TITLE=Library Entry 55034
##JCAMP-DX=Revision 4.10 
##DATA TYPE=MASS SPECTRUM
##SAMPLE DESCRIPTION=Japan AIST/NIMC Database- Spectrum MS-IW-2922
##NAMES=HP
##CAS NAME=5-Undecanone
##MOLFORM=C11H22O
##CAS REGISTRY NO=33083-83-9
##MP= -300
##BP= -300
##MW= 170
##$RETENTION INDEX=0
##$CONDENSED SPECTRUM=NO
##NPOINTS= 85
##XYDATA=(XY..XY) 1 
    15          4
    26          7
    27        135
    28         33
    29        261
    30          5
    31          5
    38          2
    39         83
    40         13
    41        376
    42         62
    43        726
    44         26
    45         10
    50          2
    51          5
    52          3
    53         25
    54          9
    55        127
    56         40
    57        781
    58        966
    59        127
    60         31
    61          2
    64          1
    65          3
    66          1
    67         19
    68         53
    69         42
    70         25
    71        246
    72         92
    73         16
    74          2
    75          1
    77          3
    78          1
    79          4
    80          1
    81         18
    82          6
    83         15
    84         21
    85        999
    86         94
    87          9
    91          2
    93          1
    94          1
    95         50
    96          6
    97          5
    98          2
    99         25
   100        190
   101         62
   102          4
   103          2
   109          2
   110         18
   111          4
   112          6
   113        768
   114         67
   115          5
   123          2
   126          1
   127         19
   128         99
   129         12
   130          1
   131          2
   135          1
   141         56
   142         13
   143          1
   155          3
   169          1
   170         94
   171         12
   172          1