##TITLE=Library Entry 73469
##JCAMP-DX=Revision 4.10 
##DATA TYPE=MASS SPECTRUM
##SAMPLE DESCRIPTION=A.A.Kutin, Moscow, Russia
##NAMES=HP
##CAS NAME=Benzofurane-2-carboxamide, 5-chloro-3-(4-morpholylacetylamino)-
##MOLFORM=C15H16ClN3O4
##CAS REGISTRY NO=330835-37-5
##MP= -300
##BP= -300
##MW= 337
##$RETENTION INDEX=0
##$CONDENSED SPECTRUM=NO
##NPOINTS= 168
##XYDATA=(XY..XY) 1 
    33          1
    40         24
    41         36
    42         89
    43         67
    44         41
    45         14
    46          1
    48          0
    49          1
    50          4
    51          4
    52          2
    53          2
    54          7
    55          8
    56        116
    57         15
    58          8
    59          1
    60          0
    61          0
    62          1
    63          3
    64          1
    65          1
    66          0
    67          0
    68          3
    69          5
    70         33
    71         10
    72         14
    73          3
    74          4
    75         14
    76          5
    77          3
    78          0
    79          0
    80          0
    81          0
    82          1
    83          1
    84          2
    85          5
    86         31
    87          7
    88          1
    89          2
    90          1
    91          2
    92          0
    93          0
    94          0
    95          0
    96          0
    97          1
    98         20
   100        999
   102         72
   103          4
   104          1
   105          0
   106          0
   107          0
   109          1
   110          5
   111         10
   112          3
   113          3
   114          1
   115          0
   116          0
   117          0
   118          1
   119          0
   122          0
   123          1
   124          0
   125          2
   126          2
   127        123
   128          8
   129          2
   130          0
   131          0
   132          0
   136         10
   137         13
   138         10
   139          6
   140          2
   141          0
   143          0
   145          2
   146          1
   148          0
   149          1
   150          2
   151          0
   152          0
   153          1
   154          6
   155          1
   156          2
   157          0
   158          0
   161          0
   163          0
   164          6
   165          1
   166          4
   167          0
   168          0
   169          0
   171          0
   175          0
   177          0
   178          0
   179          0
   180          1
   181          8
   182          1
   183          2
   184          0
   185          0
   191          0
   192          0
   193          5
   194          3
   195          2
   196          0
   204          0
   205          0
   206          5
   207          1
   208          1
   210         19
   211          2
   212          6
   213          0
   220         13
   221          2
   222          4
   223          1
   224          0
   234          0
   235          1
   236          0
   237          5
   238          0
   239          1
   252          3
   253          0
   254          0
   286          0
   288          0
   294          1
   296          0
   322          2
   323          2
   324          1
   325          0
   337         28
   338          5
   339          9
   340          1