##TITLE=Library Entry 4267
##JCAMP-DX=Revision 4.10 
##DATA TYPE=MASS SPECTRUM
##SAMPLE DESCRIPTION=C.M.COMBS MEAD JOHNSON RES. CTR., EVANSVILLE, INDIANA,
 USA
##NAMES=HP
##CAS NAME=2,3'-Bi-1H-indole, 1-(3,4-dihydro-2H-pyrrol-5-yl)-2,3-dihydro-
##MOLFORM=C20H19N3
##CAS REGISTRY NO=33090-98-1
##MP= -300
##BP= -300
##MW= 301
##$RETENTION INDEX=0
##$CONDENSED SPECTRUM=NO
##NPOINTS= 17
##XYDATA=(XY..XY) 1 
    41        999
    77        260
    89        320
    90        200
   115        140
   117        230
   130        340
   144        170
   158        100
   217        100
   232        480
   233        240
   258         70
   272         70
   300        170
   301        280
   302        100