##TITLE=Library Entry 90230
##JCAMP-DX=Revision 4.10 
##DATA TYPE=MASS SPECTRUM
##SAMPLE DESCRIPTION=LAC, NIDDK, NIH, Bethesda, MD 20892
##NAMES=HP
##CAS NAME=Imidazol, 4-fluoro-5-carbhydrazino-
##MOLFORM=C4H5FN4O
##CAS REGISTRY NO=330953-77-0
##MP= -300
##BP= -300
##MW= 144
##$RETENTION INDEX=0
##$CONDENSED SPECTRUM=NO
##NPOINTS= 27
##XYDATA=(XY..XY) 1 
    41         16
    42         23
    43         46
    44         34
    45          6
    46         37
    52          7
    53         43
    54         16
    55          7
    57        108
    58        529
    59         87
    60         17
    67         43
    68         33
    69          9
    70         40
    71         36
    85        735
    86         68
    87         16
   113        999
   114         51
   117         48
   144        595
   145         71