##TITLE=Library Entry 83060
##JCAMP-DX=Revision 4.10 
##DATA TYPE=MASS SPECTRUM
##SAMPLE DESCRIPTION=A.A.Kutin, Moscow, Russia
##NAMES=HP
##CAS NAME=Butanamine, 3-(4-methylphenyl)-N,N'-(2-chloroethyl)-
##MOLFORM=C15H23Cl2N
##CAS REGISTRY NO=33090-18-5
##MP= -300
##BP= -300
##MW= 287
##$RETENTION INDEX=0
##$CONDENSED SPECTRUM=NO
##NPOINTS= 169
##XYDATA=(XY..XY) 1 
    33         61
    34          2
    35         38
    36        182
    37         12
    38         59
    39         43
    40         41
    41         81
    42        239
    43         75
    44         31
    45          3
    46          0
    49          7
    50          4
    51         17
    52          6
    53         23
    54         17
    55         63
    56        176
    57         62
    58          6
    59          0
    60          1
    61          1
    63        210
    64         12
    65        101
    66          6
    67          6
    68          4
    69          9
    70         29
    71         10
    72          2
    73          1
    74          1
    75          2
    76          6
    77         65
    78         25
    79         33
    80          5
    81          4
    82          5
    83          5
    84         20
    85          3
    86          3
    87          1
    88          2
    89         11
    90         27
    91        177
    92         76
    93         24
    94         18
    95          3
    96          2
    97          2
    98          1
    99          1
   100          0
   101          2
   102          7
   103         36
   104         33
   105        199
   106        999
   107         55
   108        315
   109         16
   110          1
   111          2
   112          6
   113          1
   114          1
   115         57
   116         26
   117         80
   118         54
   119        133
   120        102
   121         12
   122          7
   123          1
   124          0
   126         10
   127          6
   128         21
   129         15
   130          9
   131        111
   132         24
   133          5
   134          1
   135          0
   136          0
   138          0
   139          1
   140          1
   141          1
   142          4
   143          4
   144          9
   145         13
   146         45
   147          5
   148          1
   149          8
   150          0
   151          0
   152          4
   154        877
   155         55
   156        514
   157         34
   158         82
   159          6
   160         16
   161          1
   162          5
   163          0
   167          1
   168          8
   169          1
   170          4
   171          1
   172          1
   173          0
   174          2
   176          1
   180          0
   182          1
   184          0
   188          2
   189          1
   194          0
   195          2
   196          0
   197          1
   200          0
   202          0
   205          0
   208          0
   219          0
   223          0
   225          5
   226          0
   227          2
   236          1
   237          0
   238        150
   239         22
   240         53
   241          9
   242          0
   252         15
   253          2
   254          5
   255          0
   287         48
   288          8
   289         25
   290          4
   291          5
   292          0