##TITLE=Library Entry 91652
##JCAMP-DX=Revision 4.10 
##DATA TYPE=MASS SPECTRUM
##SAMPLE DESCRIPTION=A.A.Kutin, Moscow, Russia
##NAMES=HP
##CAS NAME=Furazan-3-carbohydrazide, 4-amino-N2-(3-phenyl-2-propenylideno)-
##MOLFORM=C12H11N5O2
##CAS REGISTRY NO=330991-70-3
##MP= -300
##BP= -300
##MW= 257
##$RETENTION INDEX=0
##$CONDENSED SPECTRUM=NO
##NPOINTS= 117
##XYDATA=(XY..XY) 1 
    37         14
    38         75
    39        194
    40         42
    41         64
    42        221
    43         73
    44        112
    45          7
    46          0
    50        107
    51        166
    53        737
    54        521
    55        116
    56          6
    58        201
    59          5
    61         15
    62         66
    63        168
    64         31
    65         70
    66         15
    67         16
    68         34
    69         27
    70        330
    71         13
    72          1
    73          6
    74         54
    75         61
    76         70
    77        230
    78         55
    79          3
    82         47
    84         80
    85          9
    86         20
    87         40
    88         25
    89        171
    90         34
    91        137
    92         11
    94          1
    96          2
    98          8
    99          4
   100          4
   101         27
   102        147
   103        129
   104         45
   105          5
   109          0
   110          1
   112        450
   113         47
   115        999
   116        150
   117         72
   118         61
   119          7
   121          1
   122          1
   124          0
   126          1
   127         10
   128         86
   129        386
   130        187
   131         19
   132          1
   139          0
   140          1
   141          3
   142          3
   143          6
   144         13
   145        150
   146         18
   147          1
   150          0
   155         12
   156          3
   157          4
   159          1
   169          1
   170          4
   171         22
   173          9
   180         26
   181          0
   182          3
   183          0
   184          4
   185          0
   197         11
   198         90
   199         17
   200         15
   201          2
   214         17
   215          3
   216          0
   217          0
   227          4
   228          0
   233          0
   246          0
   256        154
   257        186
   258         26
   259          3