##TITLE=Library Entry 12733
##JCAMP-DX=Revision 4.10 
##DATA TYPE=MASS SPECTRUM
##SAMPLE DESCRIPTION=A.A.Kutin, Moscow, Russia
##NAMES=HP
##CAS NAME=Acetic acid, 2-[5-(4-dimethylaminobenzylidenamino)tetrazol-1-yl]-
, ethyl ester
##MOLFORM=C14H18N6O2
##CAS REGISTRY NO=330991-40-7
##MP= -300
##BP= -300
##MW= 302
##$RETENTION INDEX=0
##$CONDENSED SPECTRUM=NO
##NPOINTS= 209
##XYDATA=(XY..XY) 1 
    33          1
    34          2
    35          1
    36          4
    37          7
    38         24
    39         88
    40         73
    41        151
    42        745
    43        999
    44        212
    45        113
    46          8
    48          0
    49          3
    50         55
    51         82
    52         34
    53         63
    54         37
    55         92
    56         29
    57         27
    58        113
    59        315
    60        159
    61         65
    62         32
    63         73
    64         35
    65         56
    66         31
    67         15
    68         13
    69         19
    70        109
    71         14
    72         16
    73         24
    74         13
    75         39
    76         83
    77        145
    78         56
    79         64
    80         14
    81          6
    82          3
    83          5
    84          3
    86         74
    87         93
    88         47
    89        108
    90         58
    91         89
    92         32
    93         14
    94          7
    95          1
    96          1
    98         79
    99          8
   100          5
   101         70
   102         61
   103         73
   104         74
   105         68
   106         11
   107          3
   108          1
   109          0
   110          0
   111          1
   112          3
   114        102
   115        170
   116        113
   117         81
   118        162
   119         66
   120         58
   121         12
   122          2
   123          0
   124          0
   125          2
   126         18
   127          4
   128         20
   129         46
   130         38
   131         49
   132        177
   133        112
   134         30
   135          4
   136          0
   137          0
   138          0
   139          0
   140          0
   141          5
   142         24
   143        333
   144         76
   145        153
   146        331
   147        272
   148         63
   149         14
   150          2
   151          0
   152          0
   153          0
   154          0
   155          3
   156         26
   157         35
   158        144
   159        794
   160        171
   161         33
   162         14
   163          2
   164          0
   165          0
   168          0
   169          2
   170          6
   171        104
   172        255
   173        375
   174        282
   175         87
   176          9
   177          1
   178          0
   183          0
   184          1
   185          3
   186          8
   187         37
   188          8
   189          5
   190          1
   191          0
   193          0
   198          0
   199          8
   200          5
   201         63
   202         13
   203          1
   204          1
   205          1
   206          0
   207          0
   213          1
   214          4
   215          7
   216          1
   217          1
   218          0
   219          4
   220          1
   221          5
   222          1
   227          0
   228          2
   229         13
   230          7
   231          3
   232          4
   233          5
   234          1
   239          0
   240          0
   242          0
   243          0
   245          6
   247        177
   248         27
   249          3
   251          0
   252          0
   253          0
   257         25
   258          4
   259          5
   260         73
   261         10
   262          1
   268          0
   273          8
   274          3
   275          0
   283          0
   287          0
   288          0
   298          0
   299          4
   301        119
   302        314
   303         54
   304          5
   305          0