##TITLE=Library Entry 44605
##JCAMP-DX=Revision 4.10 
##DATA TYPE=MASS SPECTRUM
##SAMPLE DESCRIPTION=R.T.HOLMAN,UNIVERSITY OF MINNESOTA
##NAMES=HP
##CAS NAME=Octadecanoic acid, 9,10-dichloro-, methyl ester
##MOLFORM=C19H36Cl2O2
##CAS REGISTRY NO=33094-27-8
##MP= -300
##BP= -300
##MW= 366
##$RETENTION INDEX=0
##$CONDENSED SPECTRUM=NO
##NPOINTS= 238
##XYDATA=(XY..XY) 1 
    26          1
    27         51
    28         15
    29        130
    30          4
    31          7
    33          2
    35          3
    36         14
    37          1
    38          5
    39         38
    40          8
    41        300
    42         51
    43        250
    44         10
    45         14
    49          2
    51          4
    52          3
    53         36
    54         56
    55        310
    56         50
    57        100
    58          9
    59         76
    60          3
    61          2
    62          2
    63          6
    64          1
    65         14
    66         10
    67        100
    68         68
    69        180
    70         29
    71         33
    72          3
    73         16
    74        999
    75        170
    76         10
    77         19
    78          6
    79         46
    80         30
    81        150
    82        140
    83        100
    84         36
    85         22
    86          2
    87        270
    88         31
    89         12
    90          4
    91         17
    92          4
    93         35
    94         30
    95        120
    96         75
    97         56
    98         22
    99          9
   100          3
   101         29
   102          5
   103          6
   104          3
   105          9
   106          5
   107         23
   108         20
   109         65
   110         51
   111         26
   112          6
   113          5
   114          5
   115         18
   116          9
   117          5
   118          2
   119         12
   120          5
   121         24
   122         16
   123         34
   124         33
   125         20
   126          4
   127          7
   128          5
   129         17
   130         33
   131          8
   132          3
   133          7
   134          3
   135         21
   136         21
   137         31
   138         26
   139          9
   140          8
   141          9
   142          5
   143         17
   144          3
   145          5
   146          2
   147          8
   148          2
   149         15
   150         30
   151         16
   152         19
   153          7
   154          8
   155         11
   156          3
   157          8
   158          2
   159          3
   160          1
   161          4
   162          2
   163         11
   164         23
   165         17
   166         13
   167          6
   168          8
   169          4
   170          2
   171          4
   172          1
   173          5
   174          1
   175          3
   176          1
   177          6
   178         13
   179          9
   180          5
   181          6
   182          7
   183          2
   184          1
   185          4
   186          4
   187          4
   188          2
   189          2
   191          5
   192          5
   193          5
   194          3
   195          4
   196         10
   197          5
   198          1
   199          3
   200          3
   201          4
   202          2
   203          2
   205          4
   206          5
   207          5
   208          3
   209          4
   210          7
   211          2
   213          2
   214          2
   215          2
   216          1
   218          2
   219          3
   220         14
   221          6
   222          2
   223          3
   224          4
   225          1
   227          2
   229          1
   233          1
   234          5
   235          6
   236          2
   237          3
   238          3
   239          1
   243          1
   244          1
   245          4
   246          1
   251          2
   252          2
   256          1
   261          2
   262         33
   263         36
   264          9
   265          4
   266          1
   270          2
   279          1
   281          1
   287          2
   288          1
   289          1
   292          5
   293          3
   294         72
   295         21
   296          4
   297          1
   298          3
   299          8
   300          3
   301          3
   323          1
   325          1
   330          1
   331          1
   336          2
   338          1
   366          1
   367          2
   368          2
   369          1