##TITLE=Library Entry 33279
##JCAMP-DX=Revision 4.10 
##DATA TYPE=MASS SPECTRUM
##SAMPLE DESCRIPTION=A.A.Kutin, Moscow, Russia
##NAMES=HP
##CAS NAME=4-Oxo-5,6,7,8-tetrahydrofurazano[4,5-c]azepin-1-oxide
##MOLFORM=C6H7N3O3
##CAS REGISTRY NO=330982-48-4
##MP= -300
##BP= -300
##MW= 169
##$RETENTION INDEX=0
##$CONDENSED SPECTRUM=NO
##NPOINTS= 86
##XYDATA=(XY..XY) 1 
    37        105
    38        264
    39        412
    40        220
    41        622
    42        194
    43        111
    44         69
    45         19
    46         12
    48          1
    50        215
    51        349
    52        507
    53        500
    54        281
    55        173
    56        158
    57         20
    58          4
    60         10
    61          7
    62         23
    63         59
    64         41
    65        157
    66        326
    67        160
    68        999
    69        131
    71          6
    72          0
    74          4
    75          6
    76          7
    77         16
    78         33
    79        126
    80        210
    81        192
    82         40
    83         19
    84          8
    85          8
    88          1
    92          0
    93         61
    94        181
    95         65
    96         21
    97         12
    98          3
    99          6
   100          6
   102          1
   106          1
   108         62
   109         71
   110         16
   111        154
   112         15
   113         19
   116          1
   122          6
   123          3
   124         10
   125          6
   126         14
   127          2
   129          0
   130          2
   134          1
   135          1
   136          0
   138          7
   139         56
   140          4
   141          0
   145          1
   153         35
   154          0
   159          1
   169        350
   170         26
   171          2
   173          1