##TITLE=Library Entry 73022
##JCAMP-DX=Revision 4.10 
##DATA TYPE=MASS SPECTRUM
##SAMPLE DESCRIPTION=A.A.Kutin, Moscow, Russia
##NAMES=HP
##CAS NAME=2H-Tetrazole, 2-(4-morpholylmethyl)-5-nitro-
##MOLFORM=C6H10N6O3
##CAS REGISTRY NO=330978-02-4
##MP= -300
##BP= -300
##MW= 214
##$RETENTION INDEX=0
##$CONDENSED SPECTRUM=NO
##NPOINTS= 130
##XYDATA=(XY..XY) 1 
    33         54
    34         70
    39        112
    40         64
    41        354
    42        365
    43        327
    44         42
    46        164
    47         13
    49          5
    50         33
    51         85
    52         28
    53         46
    54        228
    56        470
    57        300
    58         59
    59         44
    60         19
    61         11
    63         24
    64         59
    65         22
    67         50
    68         37
    69         66
    70        116
    71         79
    72         52
    73         16
    74         13
    75         11
    76         18
    77         90
    79         32
    80         15
    81         23
    82         23
    83         39
    84         29
    85         82
    87        137
    89         12
    90         14
    91         78
    93         27
    95         22
    96          9
    97         31
    98         22
   100        999
   101         42
   103          7
   104         17
   105         31
   106          9
   107          7
   108          5
   109         10
   110         10
   111         16
   112         22
   113         15
   115         17
   116         17
   117         55
   118         62
   119         17
   120          5
   121          5
   122          8
   123          9
   124          6
   126          9
   127          7
   129          9
   130          5
   131          4
   132          4
   133          4
   134          4
   135         19
   136          6
   137          1
   138          1
   139         11
   140          2
   141          5
   142          2
   143          2
   144          3
   145          3
   146          1
   147          3
   149         67
   150         11
   151          2
   152          3
   153          1
   154          2
   156          2
   157          1
   159          1
   161          3
   162          3
   163          0
   165          1
   166          0
   167         16
   169          1
   170          1
   171         13
   172          2
   174          1
   175          2
   177          1
   178          3
   179          0
   183          1
   185          2
   187          1
   189          1
   190          0
   191          3
   200          1
   205          2
   214         46
   215          1