##TITLE=Library Entry 13867
##JCAMP-DX=Revision 4.10 
##DATA TYPE=MASS SPECTRUM
##SAMPLE DESCRIPTION=A.A.Kutin, Moscow, Russia
##NAMES=HP
##CAS NAME=Benzoic acid, 4-[[6-[(acetyloxy)amino][1,2,5]oxadiazolo[3,4-b]pyr
azin-5-yl]amino]-, ethyl ester
##MOLFORM=C15H14N6O5
##CAS REGISTRY NO=330991-35-0
##MP= -300
##BP= -300
##MW= 358
##$RETENTION INDEX=0
##$CONDENSED SPECTRUM=NO
##NPOINTS= 230
##XYDATA=(XY..XY) 1 
    33          0
    36          2
    37          2
    38          9
    39         24
    40         10
    41         15
    43        999
    44         53
    45         47
    46          0
    50         48
    51         29
    52         15
    53         45
    54          6
    55          3
    56          1
    57          3
    58          1
    59          4
    60         10
    61          5
    62          8
    63         38
    64         35
    65        103
    66          8
    67          8
    68         28
    69         14
    70          2
    72          2
    73          5
    74         14
    75         55
    76         90
    77         41
    78         14
    79          7
    80          2
    81          4
    82          1
    83          2
    84          7
    85          2
    86          1
    87          1
    88          4
    89         10
    90         69
    91         31
    92         15
    93         15
    94          4
    95          2
    96          1
    97          0
    98          0
    99          1
   100          3
   101          7
   102         68
   103         98
   104         40
   105          9
   106          2
   107          1
   108          9
   109          1
   111          5
   112          1
   113          1
   114          5
   115         11
   116         13
   117         28
   118         15
   119         16
   120         13
   121         46
   122          4
   123          1
   124          0
   125          1
   127          7
   128         13
   129         24
   130         35
   131          8
   132          3
   133          6
   134          1
   135          1
   136          2
   137          1
   138          0
   139          0
   140          1
   141          7
   142         24
   143         21
   144         38
   145         65
   146         17
   147         10
   148         32
   149         36
   150          4
   151          0
   152          0
   154         17
   155         14
   156         19
   157         12
   158          5
   159          6
   160          2
   161          3
   162          7
   163          6
   164          2
   165          1
   167          2
   168          8
   169         34
   170         76
   171         20
   172          9
   173         17
   174          3
   176         47
   177          4
   178          0
   181          7
   182         36
   183         13
   184         13
   185         14
   186         19
   187          8
   188         20
   189          7
   190          2
   191          3
   192          0
   194          3
   195         13
   196         70
   197         74
   198         14
   199          4
   200          8
   201         23
   202          4
   203          2
   204          0
   208          1
   209          9
   210         17
   211          8
   212         13
   213         17
   214         12
   215          5
   216         16
   217          6
   218          0
   221          0
   222          6
   223         13
   224         27
   225         20
   226        159
   227        233
   228         36
   229          5
   230          1
   231          6
   232          1
   237          6
   238         11
   239          7
   240         87
   241         15
   242          6
   243          5
   244          6
   245          1
   246          0
   252          3
   253         61
   254         20
   255         78
   256         38
   257          8
   258         11
   259         13
   260          2
   268         14
   269          8
   270         21
   271         91
   272         20
   273          7
   274          0
   275          0
   281          0
   282          0
   283          0
   284          1
   286         12
   287         11
   288          2
   297          1
   298         22
   299         75
   300         37
   301         37
   302          6
   303          0
   313         32
   314          8
   315         44
   316         34
   317          5
   318          0
   358         42
   359          8
   360          1