##TITLE=Library Entry 86515
##JCAMP-DX=Revision 4.10 
##DATA TYPE=MASS SPECTRUM
##SAMPLE DESCRIPTION=NIST Mass Spectrometry Data Center, 1994
##NAMES=HP
##CAS NAME=3-Fluorophenylacetic acid
##MOLFORM=C8H7FO2
##CAS REGISTRY NO=331-25-9
##MP= -300
##BP= -300
##MW= 154
##$RETENTION INDEX=0
##$CONDENSED SPECTRUM=NO
##NPOINTS= 82
##XYDATA=(XY..XY) 1 
    14          1
    17          1
    18          2
    26          4
    27          6
    28          7
    29          6
    31         14
    32          0
    33          5
    37          8
    38         16
    39         46
    40          2
    41          1
    42          2
    43          5
    44         10
    45         40
    46          1
    49          4
    50         28
    51         28
    52          4
    53          3
    55         18
    56          7
    57         69
    58          4
    59         18
    60          2
    61         14
    62         28
    63         52
    64          7
    65          3
    68          8
    69          8
    70          8
    71          2
    73          2
    74         11
    75         15
    76          4
    77         14
    78          3
    79          2
    80          6
    81         30
    82          2
    83        195
    84         15
    85          4
    86          7
    87          7
    88          3
    89         29
    90          9
    91          4
    92          1
    93          1
    94          3
    95          9
    96          4
    97          8
   104          1
   105          4
   107         62
   109        999
   110        210
   111         14
   112          5
   121          1
   123          0
   125          4
   126          4
   136          7
   137          2
   152          1
   154        310
   155         28
   156          2