##TITLE=Library Entry 16906
##JCAMP-DX=Revision 4.10 
##DATA TYPE=MASS SPECTRUM
##SAMPLE DESCRIPTION=NIST Mass Spectrometry Data Center, 1994
##NAMES=HP
##CAS NAME=15-Crown-5
##MOLFORM=C10H20O5
##CAS REGISTRY NO=33100-27-5
##MP= -300
##BP= -300
##MW= 220
##$RETENTION INDEX=1554
##$CONDENSED SPECTRUM=NO
##NPOINTS= 72
##XYDATA=(XY..XY) 1 
    15         86
    16          5
    18          2
    19         22
    26         22
    27        116
    28        303
    29        221
    30         43
    31        147
    32          2
    33          1
    39          5
    41         51
    42        125
    43        554
    44        365
    45        999
    46         23
    47          3
    51          1
    54          1
    55          6
    56         20
    57         97
    58        161
    59        127
    60         10
    61         10
    62          0
    67          1
    68          1
    69          8
    70         40
    71         63
    72        107
    73        228
    74         12
    75         28
    76          2
    77          2
    83          3
    84          1
    85          6
    86         47
    87        212
    88        152
    89        378
    90         18
    91          4
    99          6
   100          8
   101         52
   102         10
   103         11
   104          4
   105          7
   112          0
   113          1
   114          4
   115          9
   116          4
   117         25
   118          6
   119          4
   131         20
   133        121
   134          7
   135          0
   145          1
   147          0
   177          6