##TITLE=Library Entry 60621
##JCAMP-DX=Revision 4.10 
##DATA TYPE=MASS SPECTRUM
##SAMPLE DESCRIPTION=ORMSBG,9(12)1173(1974); WHEELER
##NAMES=HP
##CAS NAME=3-Thujen-2-ol, stereoisomer
##MOLFORM=C10H16O
##CAS REGISTRY NO=3310-03-0
##MP= -300
##BP= -300
##MW= 152
##$RETENTION INDEX=1107
##$CONDENSED SPECTRUM=NO
##NPOINTS= 45
##XYDATA=(XY..XY) 1 
    39        140
    40         20
    41        170
    42         10
    43        160
    44         50
    45         20
    47         30
    48         10
    49         10
    50         30
    51         80
    52         20
    53         50
    55         30
    62         10
    63         50
    64         20
    65        140
    66         20
    67         40
    77        110
    78         40
    79         60
    81         20
    83        130
    85         80
    89         20
    90         20
    91        999
    92        530
    94         80
    96         30
   103         40
   104         30
   105         50
   107         20
   109        140
   115         50
   117         60
   119        310
   120         30
   133         20
   134         80
   137         20