##TITLE=Library Entry 59175
##JCAMP-DX=Revision 4.10 
##DATA TYPE=MASS SPECTRUM
##SAMPLE DESCRIPTION=A.A.Kutin, Moscow, Russia
##NAMES=HP
##CAS NAME=Acetamide, N-benzyl-N-(7-hydroxy-1-naphthyl)-
##MOLFORM=C19H17NO2
##CAS REGISTRY NO=331002-98-3
##MP= -300
##BP= -300
##MW= 291
##$RETENTION INDEX=0
##$CONDENSED SPECTRUM=NO
##NPOINTS= 144
##XYDATA=(XY..XY) 1 
    37          3
    39        150
    40         33
    41         28
    43        283
    44         43
    45          4
    48          0
    50         27
    51         49
    52         18
    53          5
    58          0
    63         42
    64         14
    65        150
    66          8
    67          1
    75         20
    76         22
    77         47
    78         10
    79          3
    80          1
    90         27
    91        999
    92         62
    93          3
    94          0
   101         15
   102         49
   103         50
   104          8
   105          4
   106          1
   114         16
   115         33
   116          5
   117          2
   118          0
   126          3
   127          0
   129          8
   130        103
   131         32
   132          3
   133          0
   142          3
   143         11
   144          3
   145          1
   146          0
   147          0
   149          0
   150          1
   151          1
   152          3
   153          2
   154          3
   155          1
   156          3
   158        152
   159         26
   160          2
   161          0
   162          0
   163          1
   164          1
   165          3
   166          0
   167          0
   170         59
   171         13
   172          5
   173          0
   174          1
   175          0
   176          1
   177          0
   178          1
   179          0
   180          0
   181          0
   182          1
   183          2
   184          0
   185          1
   186          0
   187          1
   188          1
   189          4
   190          2
   191          2
   192          0
   193          1
   194          0
   196          3
   197          1
   198         21
   199          7
   200         54
   201         12
   202         11
   203          5
   204          5
   205          1
   206          1
   207          1
   208          0
   212          0
   213          0
   214          1
   215          2
   216          2
   217          4
   218          3
   219          2
   220          6
   221          1
   227          0
   228          1
   229          1
   230          6
   231         10
   232          4
   233          3
   234          0
   247          5
   248         26
   249         35
   250          6
   251          0
   258          4
   259          2
   260          0
   273          3
   274          4
   275          0
   276         14
   277          2
   291        136
   292         27
   293          3
   294          0