##TITLE=Library Entry 58703
##JCAMP-DX=Revision 4.10 
##DATA TYPE=MASS SPECTRUM
##SAMPLE DESCRIPTION=M.Mattammal ET AL.
##NAMES=HP
##CAS NAME=2-Methyl-4-(4-nitrophenyl)thiazole
##MOLFORM=C10H8N2O2S
##CAS REGISTRY NO=33102-81-7
##MP= -300
##BP= -300
##MW= 220
##$RETENTION INDEX=0
##$CONDENSED SPECTRUM=NO
##NPOINTS= 87
##XYDATA=(XY..XY) 1 
    41         35
    42         34
    43         35
    44         24
    45        115
    46         13
    50         81
    51         74
    52          8
    53          5
    55         15
    56          5
    57         22
    58         19
    59         32
    60          3
    61         13
    62         64
    63        265
    64         17
    65          7
    66         12
    67          2
    69         91
    70          5
    71         13
    73         32
    74         52
    75         66
    76         37
    77         98
    78          7
    81         20
    82         73
    83         20
    84          8
    85          3
    87         44
    89        999
    90         78
    91          3
    93         61
    94          8
    95         17
    96          2
    97          5
    98          3
   100          3
   101         10
   102          3
   103         19
   104          5
   105          3
   106         13
   107          2
   114          2
   115          3
   116          5
   117          5
   121        194
   122         27
   123          8
   130         13
   133        248
   134         32
   135          5
   140          2
   147          5
   149        315
   150         34
   151          8
   159         35
   160          2
   162         71
   163          3
   174        132
   175         17
   176          2
   179        108
   180          2
   190        165
   191         19
   192          5
   204          8
   220        519
   221         71
   222         20