##TITLE=Library Entry 10196
##JCAMP-DX=Revision 4.10 
##DATA TYPE=MASS SPECTRUM
##SAMPLE DESCRIPTION=Exported from NIST MS Search
##NAMES=HP
##CAS NAME=Methyl palustrate
##MOLFORM=C21H32O2
##CAS REGISTRY NO=3310-94-9
##MP= -300
##BP= -300
##MW= 316
##$RETENTION INDEX=2286
##$CONDENSED SPECTRUM=NO
##NPOINTS= 128
##XYDATA=(XY..XY) 1 
    36         30
    37         60
    38         60
    39         80
    40         90
    41        869
    42         40
    43        999
    44        330
    45        300
    46         10
    47         10
    51         40
    53        200
    54         30
    55        639
    56        110
    57        110
    58         80
    59        450
    60         30
    61         40
    63         30
    65        170
    66         30
    67        370
    68         30
    69        270
    70         40
    71         60
    72         10
    73        250
    74         10
    75         40
    77        270
    78        110
    79        499
    80         40
    81        240
    82         30
    83        140
    85         60
    86         60
    87         90
    88         30
    89         30
    90         40
    91        899
    92        140
    93        450
    94         40
    95        200
    99         40
   100         30
   101         60
   103        120
   104         80
   105        769
   106        529
   107        619
   108         90
   109        370
   110         30
   115        300
   116        110
   117        460
   118         90
   119        270
   120         40
   121        240
   122         90
   123        110
   127         80
   128        300
   129        499
   130        140
   131        430
   132         40
   133        509
   134         90
   135        170
   136         40
   141        200
   142        140
   143        320
   144         60
   145        250
   146         90
   147        120
   148        380
   149        559
   150        140
   152         30
   153         40
   154         40
   155        110
   156         40
   157        190
   158         40
   159        350
   160        110
   161         40
   162         40
   165         40
   167         40
   169         90
   171         80
   173         90
   175         40
   183         40
   185        450
   186         40
   187         40
   197         40
   199         40
   201         40
   207         10
   213        140
   221         30
   239         40
   241        370
   242         40
   256         10
   257         50
   301        290
   302         60
   316        140
   317         30