##TITLE=Library Entry 65172
##JCAMP-DX=Revision 4.10 
##DATA TYPE=MASS SPECTRUM
##SAMPLE DESCRIPTION=Exported from NIST MS Search
##NAMES=HP
##CAS NAME=Bicyclo[3.1.0]hexan-3-ol, 4-methylene-1-(1-methylethyl)-, (1.alph
a.,3.alpha.,5.alpha.)-
##MOLFORM=C10H16O
##CAS REGISTRY NO=3310-02-9
##MP= -300
##BP= -300
##MW= 152
##$RETENTION INDEX=1143
##$CONDENSED SPECTRUM=NO
##NPOINTS= 76
##XYDATA=(XY..XY) 1 
    15          9
    26         11
    27        220
    28         24
    29        123
    31         26
    38         15
    39        264
    40         46
    41        463
    42         52
    43        330
    44         15
    45         11
    50         24
    51         77
    52         37
    53        220
    54         39
    55        297
    56         32
    57         25
    58          7
    59         23
    60          9
    62          8
    63         32
    64         11
    65         96
    66         49
    67        141
    68         34
    69        137
    70        209
    71         22
    75         10
    77        165
    78         50
    79        297
    80         44
    81        572
    82         64
    83        187
    84         24
    85          5
    89         11
    90         40
    91        835
    92        999
    93        155
    94         39
    95        231
    96         45
    97         10
   103         19
   104         12
   105         69
   106         29
   107         56
   108         37
   109        298
   110         50
   111          5
   115         14
   116          5
   117         26
   118          9
   119        220
   120         22
   121         10
   123          8
   133          9
   134        242
   135         36
   136          6
   137         12