##TITLE=Library Entry 99028
##JCAMP-DX=Revision 4.10 
##DATA TYPE=MASS SPECTRUM
##SAMPLE DESCRIPTION=R.G.WESTON DEPT. CHEM., UNIVERSITY OF DURHAM, DURHAM, U
K
##NAMES=HP
##CAS NAME=Bicyclo[2.2.0]hex-2-ene, 1,4,5,5,6,6-hexafluoro-
##MOLFORM=C6H2F6
##CAS REGISTRY NO=33103-48-9
##MP= -300
##BP= -300
##MW= 188
##$RETENTION INDEX=0
##$CONDENSED SPECTRUM=NO
##NPOINTS= 11
##XYDATA=(XY..XY) 1 
    69        190
    75         80
    88        320
   119        999
   120         50
   137         80
   138        160
   150         50
   168         50
   169         80
   188        160