##TITLE=Library Entry 59004
##JCAMP-DX=Revision 4.10 
##DATA TYPE=MASS SPECTRUM
##SAMPLE DESCRIPTION=A.A.Kutin, Moscow, Russia
##NAMES=HP
##CAS NAME=Ethanediamide, N-allyl-N'-benzyl-
##MOLFORM=C12H14N2O2
##CAS REGISTRY NO=331265-90-8
##MP= -300
##BP= -300
##MW= 218
##$RETENTION INDEX=0
##$CONDENSED SPECTRUM=NO
##NPOINTS= 129
##XYDATA=(XY..XY) 1 
    33          2
    34          2
    35          0
    36          0
    37          2
    38         11
    39        131
    40         54
    41        489
    42         34
    43         10
    44         54
    45          2
    46          2
    47          1
    48          0
    50         18
    51         44
    52         14
    53          4
    54         12
    55         11
    56         67
    57         30
    58         14
    59          2
    60          1
    61          1
    62          5
    63         24
    64         10
    65        130
    66          8
    67          2
    68          2
    69          2
    70          4
    71          2
    72          0
    73          1
    74          3
    75          4
    76          8
    77         53
    78         26
    79         27
    80          3
    81          1
    82          3
    83          7
    84        107
    85         12
    86          4
    87          2
    89         28
    91        999
    92        281
    93         20
    94          1
    95          0
    96          1
    97          1
    98          0
    99          1
   100          0
   101          0
   102          0
   103          3
   104         37
   105         34
   106        416
   107         43
   108          2
   109          0
   111          0
   112          1
   113          0
   115          2
   116          2
   117          8
   118          7
   119          1
   120          1
   121          0
   123          0
   127         17
   128          2
   129          1
   130          1
   131          2
   132         18
   133          9
   134         36
   135         21
   136          2
   143          0
   144          0
   145          0
   146          1
   147          0
   149          3
   150          1
   159          1
   160          7
   161         55
   162          9
   163          0
   165          0
   167          0
   171          1
   172          0
   173          3
   174          3
   175          3
   176          6
   177        144
   178         15
   179          1
   187          0
   188          0
   190          5
   191          1
   192          0
   200          0
   207          0
   216          0
   218        177
   219         23
   220          2