##TITLE=Library Entry 48827
##JCAMP-DX=Revision 4.10 
##DATA TYPE=MASS SPECTRUM
##SAMPLE DESCRIPTION=A.A.Kutin, Moscow, Russia
##NAMES=HP
##CAS NAME=Cyclododecanone, 2-pyridylcarbonylhydrazone
##MOLFORM=C18H27N3O
##CAS REGISTRY NO=331238-32-5
##MP= -300
##BP= -300
##MW= 301
##$RETENTION INDEX=0
##$CONDENSED SPECTRUM=NO
##NPOINTS= 221
##XYDATA=(XY..XY) 1 
    33          4
    34         12
    36         18
    37          3
    38         13
    39        147
    40        277
    41        544
    42        105
    43        169
    44         99
    45         10
    46          2
    50         37
    51        157
    52        178
    53        112
    54        104
    55        362
    56         78
    57         75
    58         20
    59          4
    60          4
    61         17
    62          2
    63          8
    64          3
    65         31
    66         19
    67        172
    68         54
    69        117
    70         50
    71         52
    72         13
    73         40
    74          4
    75          6
    76         12
    77         36
    78        717
    79        999
    80        170
    81        120
    82         75
    83        154
    84         27
    85         19
    86          9
    87          1
    88          1
    89          0
    90          1
    91         28
    92         12
    93        169
    94         63
    95         98
    96         49
    97         60
    98         21
    99         10
   100          7
   102          3
   103          2
   104          8
   105         85
   106        411
   107        136
   108         62
   109         79
   110         27
   111         22
   112         13
   113          5
   114          3
   115          0
   116          4
   117          6
   118          8
   119         11
   120         46
   121         84
   122         55
   123        262
   124         32
   125         11
   126          9
   127          1
   128          4
   129          3
   130          4
   131          6
   132         16
   133         58
   134         22
   135         43
   136         75
   137        694
   138        220
   139         23
   140          7
   141          1
   142          2
   143          1
   144          2
   145         13
   146         12
   147         15
   148         18
   149         81
   150         30
   151          7
   152         13
   153          2
   154         13
   155          3
   156          1
   157          3
   158          4
   159         14
   160         22
   161         68
   162         70
   163         25
   164         70
   165         27
   166          6
   167         12
   168          4
   169          2
   170          2
   171          7
   172         11
   173         14
   174         79
   175         19
   176         60
   177        515
   178         68
   179         10
   180        115
   181         61
   182         10
   183          4
   184          7
   185          6
   186          2
   187          4
   188         25
   189          8
   190        244
   191         41
   192          3
   193          3
   194          1
   195        104
   196         17
   197          1
   198          3
   199          2
   200          2
   201          5
   202         59
   203         31
   204         22
   205         13
   206          2
   212          2
   213          1
   214          2
   215          3
   216         38
   217        122
   218         31
   219         12
   220          0
   223          6
   224          5
   226          4
   227          1
   228          1
   230         47
   231         22
   232         16
   233          8
   235          0
   240          1
   241          0
   242         25
   243          6
   244         39
   245         19
   246         10
   247          2
   254          0
   256          2
   257         11
   258         29
   259         12
   260         35
   261         15
   262          1
   268          0
   270          0
   272          9
   273         17
   274          1
   279          0
   282          0
   283          2
   284          1
   285          1
   286         15
   287          3
   299          0
   300         11
   301        285
   302         63
   303          6