##TITLE=Library Entry 80525
##JCAMP-DX=Revision 4.10 
##DATA TYPE=MASS SPECTRUM
##SAMPLE DESCRIPTION=Patti Price, Georgia Bureau of Investigation, Decatur,
 Georgia
##NAMES=HP
##CAS NAME=Etomidate
##MOLFORM=C14H16N2O2
##CAS REGISTRY NO=33125-97-2
##MP= -300
##BP= -300
##MW= 244
##$RETENTION INDEX=2008
##$CONDENSED SPECTRUM=NO
##NPOINTS= 70
##XYDATA=(XY..XY) 1 
    43          3
    45          1
    50          5
    51         25
    52          9
    53          7
    54          1
    62          1
    63          6
    64          1
    65          6
    66          4
    67          7
    68          4
    69          1
    75          2
    76          3
    77        102
    78         25
    79         77
    80          4
    81          1
    89          4
    90          1
    91          4
    92          2
    93          1
    94          3
    95         35
    96          3
    97          1
   100          1
   101          2
   102          8
   103         69
   104        173
   105        999
   106         75
   107          4
   113          1
   114          1
   115          5
   116          3
   117          1
   118          1
   121          5
   122          1
   127          1
   128          4
   129          1
   142          1
   143          3
   144          1
   155          2
   156          1
   168          1
   169          2
   170          2
   171          2
   172          4
   173          1
   197          2
   198         11
   199         15
   200          4
   201          1
   215          1
   244         81
   245         13
   246          1