##TITLE=Library Entry 52437
##JCAMP-DX=Revision 4.10 
##DATA TYPE=MASS SPECTRUM
##SAMPLE DESCRIPTION=A.A.Kutin, Moscow, Russia
##NAMES=HP
##CAS NAME=Acetic acid, 2-cyclohexanoylamino-, 2-(3-nitrophenyl)-2-oxoethyl
 ester
##MOLFORM=C17H20N2O6
##CAS REGISTRY NO=331277-52-2
##MP= -300
##BP= -300
##MW= 348
##$RETENTION INDEX=0
##$CONDENSED SPECTRUM=NO
##NPOINTS= 170
##XYDATA=(XY..XY) 1 
    38          2
    39         64
    40         58
    41        258
    42         44
    43         58
    44         32
    50         32
    51         17
    52          8
    53         32
    54         54
    55        555
    56         92
    57         55
    58         14
    59          3
    61          0
    62          1
    63         15
    64         13
    65         12
    66         32
    67        118
    68         69
    69         38
    70         34
    71         37
    72          3
    73          4
    74         16
    75         24
    76         97
    77         27
    78          8
    79         31
    80         15
    81        152
    82        182
    83        999
    84        140
    85         13
    86         11
    87          3
    88          6
    89         33
    90         41
    91         11
    92         17
    93          9
    94          1
    95         14
    96          6
    97         10
    98         11
    99         27
   100          3
   103          1
   104         92
   105         16
   107         40
   108          4
   109         34
   110        162
   111        478
   112        281
   113         35
   114          4
   115          1
   118          9
   119         12
   120         29
   121          8
   122         10
   123          3
   124          1
   125         37
   126         18
   127          6
   128          0
   129          6
   132          1
   134         47
   135         37
   136         41
   137          7
   138         24
   139         22
   140         80
   141         13
   143          3
   146          2
   147          2
   148          3
   149         12
   150        215
   151         25
   152         19
   153          2
   154         45
   155          5
   156          4
   157          6
   161          3
   163          3
   164         31
   165         35
   167        151
   168        125
   169         11
   170          1
   171         41
   172          5
   176          1
   178          3
   179          0
   180          4
   181          1
   182         31
   183          4
   184         16
   185          3
   189          2
   192          2
   193          6
   194          1
   195          0
   196          0
   208         14
   209         12
   210          2
   220         14
   221          2
   222          2
   223          4
   224         59
   225          7
   227          0
   234          1
   235          2
   237          3
   239        118
   240         13
   241          4
   242          1
   248          1
   249          0
   251          0
   252          1
   262          1
   270          0
   277          1
   280          3
   283          5
   293         71
   294         10
   300          4
   301          6
   303          1
   304          0
   307          9
   308          2
   313          5
   315          2
   319          4
   330          1
   331          9
   332          1
   348         10
   349          1