##TITLE=Library Entry 67672
##JCAMP-DX=Revision 4.10 
##DATA TYPE=MASS SPECTRUM
##SAMPLE DESCRIPTION=Chemical Concepts
##NAMES=HP
##CAS NAME=N-(3-Cyano-4,5-dimethyl-2-thienyl)-2-furamide
##MOLFORM=C12H10N2O2S
##CAS REGISTRY NO=331255-43-7
##MP= -300
##BP= -300
##MW= 246
##$RETENTION INDEX=0
##$CONDENSED SPECTRUM=NO
##NPOINTS= 70
##XYDATA=(XY..XY) 1 
    33         13
    34          2
    39        243
    40         21
    41          8
    42          4
    44         14
    45         20
    46          2
    47          3
    48          1
    51         23
    53         22
    55          3
    59         64
    61          3
    63          9
    64         16
    65          9
    67         45
    69          7
    70          9
    71          4
    72          1
    73          1
    75          2
    76          5
    78          6
    79          3
    80          4
    81          1
    83          5
    84          2
    85          3
    86          2
    88          2
    90         11
    91          5
    95        999
    97         10
    98          1
   103          1
   105          2
   107          4
   109          4
   110          1
   111          1
   112          1
   117          3
   118          4
   119          1
   122          4
   124          6
   126          1
   134          1
   135          2
   137          3
   149          1
   151         15
   152          3
   153          2
   163          2
   177          1
   178          1
   189          1
   190          1
   246        200
   247         26
   248         10
   249          1