##TITLE=Library Entry 37002
##JCAMP-DX=Revision 4.10 
##DATA TYPE=MASS SPECTRUM
##SAMPLE DESCRIPTION=Japan AIST/NIMC Database- Spectrum MS-NW-4048
##NAMES=HP
##CAS NAME=N-Cyclohexyl-1,3-propanediamine
##MOLFORM=C9H20N2
##CAS REGISTRY NO=3312-60-5
##MP= -300
##BP= -300
##MW= 156
##$RETENTION INDEX=0
##$CONDENSED SPECTRUM=NO
##NPOINTS= 113
##XYDATA=(XY..XY) 1 
    14          3
    15         23
    16          3
    17          3
    18         14
    26         10
    27         90
    28         10
    29         81
    30        998
    31         27
    36          1
    37          3
    38          6
    39         94
    40         17
    41        306
    42        128
    43        151
    44        597
    45         59
    46          4
    50          5
    51         13
    52         10
    53         45
    54         80
    55        288
    56        483
    57        477
    58        178
    59         16
    60          1
    62          1
    63          3
    64          1
    65          9
    66          7
    67         47
    68        140
    69         46
    70        999
    71         79
    72          9
    73        106
    74          7
    75          3
    76          1
    77         15
    78          5
    79         22
    80         15
    81         51
    82        143
    83        185
    84        106
    85         35
    86          3
    87          3
    91          5
    92          2
    93          6
    94         16
    95          7
    96        177
    97         26
    98        800
    99         85
   100        124
   101          9
   103          1
   104          2
   105          7
   106          6
   107          7
   108          7
   109          9
   110         91
   111         55
   112        449
   113        404
   114         34
   115          2
   117          3
   118          3
   119          4
   120          3
   121          1
   122          4
   123          4
   124         94
   125         17
   126         63
   127         11
   128          1
   129          1
   130          2
   131          2
   132          5
   133          4
   134          2
   135          9
   136          4
   137          3
   138         21
   139        155
   140         20
   141          4
   153          2
   154          2
   155          7
   156         52
   157          6