##TITLE=Library Entry 67498
##JCAMP-DX=Revision 4.10 
##DATA TYPE=MASS SPECTRUM
##SAMPLE DESCRIPTION=Chemical Concepts
##NAMES=HP
##CAS NAME=3-(2,4-Dichlorobenzoylhydrazono)-N-(2-pyridyl)butyramide
##MOLFORM=C16H14Cl2N4O2
##CAS REGISTRY NO=331239-39-5
##MP= -300
##BP= -300
##MW= 364
##$RETENTION INDEX=0
##$CONDENSED SPECTRUM=NO
##NPOINTS= 103
##XYDATA=(XY..XY) 1 
    33          8
    35         84
    36        125
    37        182
    39        189
    40        396
    41        318
    43        158
    44         20
    45          5
    46          4
    47         31
    49         47
    50        151
    51        167
    52         96
    53         60
    54         65
    55         32
    56         17
    57         13
    60         18
    61         19
    63         45
    64         32
    65         45
    66        169
    67        719
    68         87
    69         24
    70         14
    71         10
    72         12
    73         67
    74        194
    75        205
    76         26
    77         24
    78        171
    79         20
    80          8
    81          4
    82          9
    83          9
    84         52
    85         33
    86         17
    87         17
    88          6
    89          6
    90          4
    91          4
    92         11
    94        999
    96         11
    97         18
    98         11
    99          7
   100          8
   101          4
   103          4
   107         11
   108         12
   109        156
   110         86
   111         79
   112         29
   113          9
   118          5
   119          8
   121        155
   122          7
   124          9
   126          5
   133         11
   134          7
   135         47
   136        306
   137         40
   138         20
   139         20
   140          8
   141          8
   145        231
   147        138
   148         11
   149         18
   161          9
   162          4
   171          7
   173        747
   174         64
   175        425
   176         40
   177         72
   178          6
   204          4
   234          4
   235         96
   236         12
   237         18
   238          4
   270          4