##TITLE=Library Entry 77825
##JCAMP-DX=Revision 4.10 
##DATA TYPE=MASS SPECTRUM
##SAMPLE DESCRIPTION=A.A.Kutin, Moscow, Russia
##NAMES=HP
##CAS NAME=Pyrrolidine-2,5-dione, 1-[2-methyl-1-(phenylamino)propyl]-
##MOLFORM=C14H18N2O2
##CAS REGISTRY NO=331249-46-8
##MP= -300
##BP= -300
##MW= 246
##$RETENTION INDEX=0
##$CONDENSED SPECTRUM=NO
##NPOINTS= 154
##XYDATA=(XY..XY) 1 
    33          0
    34          0
    36          0
    37          5
    38         16
    39         81
    40         18
    41         69
    42         37
    43         56
    44         38
    45          2
    46          0
    48          0
    50         37
    51        132
    52         27
    53         17
    55        292
    56        104
    57         11
    58          3
    59          3
    60          1
    61          1
    62          5
    63         20
    64         17
    65         67
    66         25
    67          5
    68          5
    69          5
    70         24
    72         98
    74         17
    75         12
    77        512
    78         43
    79          9
    80          3
    82         21
    84         41
    85          1
    86          0
    87          1
    88          0
    89          2
    90          6
    91         27
    92         39
    93         83
    94         22
    95          1
    96          1
    97          1
    99         78
   100        216
   101         10
   104        999
   105         79
   106         29
   107          2
   108          0
   109          0
   110          3
   111          3
   112          6
   113          1
   114          0
   115          4
   116          2
   117         22
   118         16
   119         23
   120         13
   121         43
   122          5
   123          0
   124          0
   125          0
   126          5
   127          1
   128          2
   130         31
   131         15
   132         92
   133         15
   134          2
   135          0
   138          7
   139          1
   140          2
   141          0
   142          0
   143          1
   144          5
   145          4
   146         30
   147         88
   148         79
   149          8
   150          0
   152          0
   153          0
   154          7
   155          1
   156          0
   157          0
   158          1
   159          0
   160          0
   161          0
   162          0
   163          0
   164          0
   166          1
   167          0
   168          0
   171          0
   172          0
   173          1
   174          0
   175          2
   176          1
   177          0
   180          0
   181          0
   182          0
   183          0
   184          0
   185          0
   186          0
   189          0
   190          0
   195          0
   196          0
   203        619
   204         73
   205          7
   206          0
   221          0
   231          0
   232          0
   236          0
   237          5
   238          0
   239          1
   240          0
   243          0
   244          0
   246         62
   247          9
   248          1