##TITLE=Library Entry 83171
##JCAMP-DX=Revision 4.10 
##DATA TYPE=MASS SPECTRUM
##SAMPLE DESCRIPTION=A.A.Kutin, Moscow, Russia
##NAMES=HP
##CAS NAME=Pyridine-3-carbohydrazide, N2-(4,4,5,5,6,6,6-heptafluoro-1-methyl
-2-oxo-1-hexenyl)-
##MOLFORM=C13H10F7N3O2
##CAS REGISTRY NO=331238-87-0
##MP= -300
##BP= -300
##MW= 373
##$RETENTION INDEX=0
##$CONDENSED SPECTRUM=NO
##NPOINTS= 158
##XYDATA=(XY..XY) 1 
    34          0
    36          1
    38          1
    39          7
    40          9
    41         10
    42         10
    43          3
    44          6
    45          1
    50         10
    51         47
    52          8
    53          3
    54          2
    55          5
    56          2
    57          1
    60          0
    63          0
    64          1
    65          2
    66          1
    67          2
    68          1
    69         14
    70          4
    71          1
    72          0
    75          1
    76          2
    77         11
    78        246
    79         21
    80          1
    81          1
    82          1
    83          2
    84          2
    85          0
    89          0
    91         15
    92          2
    93          2
    94          0
    95          1
    96          0
    97          1
    98          2
    99          6
   100          4
   101          1
   102          1
   103          2
   104          9
   106        999
   107         69
   108          3
   109          1
   110          1
   111          2
   112          0
   113         13
   114          0
   117          0
   118          1
   119          9
   120          3
   121          2
   122          3
   123          3
   124          0
   125          1
   126          1
   127          0
   129          0
   131          5
   132          2
   133          3
   134          0
   135          6
   136          1
   137          1
   139          7
   140          0
   141          2
   143          0
   145          0
   146          0
   147          0
   148          0
   149          1
   150          3
   151          1
   152          0
   155          0
   157          0
   158          0
   159          0
   160          0
   161          1
   162         20
   163          5
   164          1
   165          0
   166          0
   167          0
   168          0
   169          4
   171          0
   174          0
   175          0
   176          0
   177          0
   178          0
   181          0
   182         12
   183          9
   184          0
   185          5
   186          1
   190          0
   195          0
   197          0
   200          0
   202          0
   203          2
   204        278
   205         34
   206          3
   217          0
   225          0
   226          0
   229          1
   237          2
   238          0
   239          0
   242          0
   251          0
   252          0
   253          0
   267          0
   281          2
   282          0
   283          4
   284          0
   285          0
   314          9
   315          1
   316          0
   335          0
   354          7
   355          1
   356          0
   358          0
   373         34
   374          5
   375          0