##TITLE=Library Entry 27082
##JCAMP-DX=Revision 4.10 
##DATA TYPE=MASS SPECTRUM
##SAMPLE DESCRIPTION=Penn State Mass Spectrom.Center
##NAMES=HP
##CAS NAME=2,4-Pyrimidinedione, 1,2,3,4-tetrahydro-6-amino-5-formylmethylami
no-1-methyl-
##MOLFORM=C7H10N4O3
##CAS REGISTRY NO=33130-54-0
##MP= -300
##BP= -300
##MW= 198
##$RETENTION INDEX=0
##$CONDENSED SPECTRUM=NO
##NPOINTS= 73
##XYDATA=(XY..XY) 1 
    31         10
    39         15
    40         71
    41        107
    42        369
    43        141
    44         58
    45          7
    51          3
    52          9
    53         61
    54         40
    55        159
    56        103
    57        999
    58        161
    59          6
    60         10
    65          3
    66         15
    67        151
    68         56
    69        108
    70        108
    71         61
    73         15
    79          5
    81         39
    82        110
    83         39
    84        198
    85         27
    86          6
    87          4
    95         10
    96         11
    97         25
    98        175
    99         23
   109         41
   110         19
   111         48
   112         32
   113         11
   119          3
   123          3
   124         16
   125         18
   126         14
   127          3
   128         59
   129          7
   137         18
   138        123
   139          9
   141         35
   142         18
   147          3
   149          3
   152          8
   153         28
   155        541
   156         41
   167         13
   169         99
   170        778
   171         59
   172          6
   179          9
   180         79
   181         19
   198         59
   199          6