##TITLE=Library Entry 80833
##JCAMP-DX=Revision 4.10 
##DATA TYPE=MASS SPECTRUM
##SAMPLE DESCRIPTION=Japan AIST/NIMC Database- Spectrum MS-IW-1173
##NAMES=HP
##CAS NAME=o-(Phenylacetyl)benzoic acid
##MOLFORM=C15H12O3
##CAS REGISTRY NO=33148-55-9
##MP= -300
##BP= -300
##MW= 240
##$RETENTION INDEX=0
##$CONDENSED SPECTRUM=NO
##NPOINTS= 89
##XYDATA=(XY..XY) 1 
    17          4
    18         19
    27          3
    28          2
    38          1
    39          9
    40          1
    41          1
    44          1
    50         11
    51         58
    52          4
    53          4
    55          1
    61          1
    62          6
    63         19
    64          4
    65          4
    69          3
    70          1
    74          5
    75          6
    76         12
    77        411
    78         29
    79         11
    81          3
    82         16
    83         10
    84          2
    86          2
    87          3
    88          4
    89         39
    90         21
    91          5
    96          5
    97         12
    98          1
   102          1
   104          3
   105        999
   106         78
   107          6
   111          3
   113          1
   115          5
   117          2
   118        592
   119         52
   120          3
   126          1
   127          1
   128          1
   133          3
   134          1
   135         14
   136          1
   137          1
   138          1
   139          9
   140          1
   145          1
   149          1
   150          1
   151          2
   152          6
   153          1
   162          1
   163          9
   164         11
   165        114
   166         29
   167          6
   176          2
   177          4
   178          2
   180          1
   193         18
   194        189
   195         38
   196          4
   221          2
   222        183
   223         39
   224          4
   240          5
   241          1