##TITLE=Library Entry 14551
##JCAMP-DX=Revision 4.10 
##DATA TYPE=MASS SPECTRUM
##SAMPLE DESCRIPTION=Chemical Concepts
##NAMES=HP
##CAS NAME=N-[4-(5,6-Dihydroimidazo[2,1-b]thiazol-3-yl)-2-nitrophenyl]acetam
ide
##MOLFORM=C13H12N4O3S
##CAS REGISTRY NO=331421-02-4
##MP= -300
##BP= -300
##MW= 304
##$RETENTION INDEX=0
##$CONDENSED SPECTRUM=NO
##NPOINTS= 212
##XYDATA=(XY..XY) 1 
    43        999
    45        151
    46          9
    47          6
    48          2
    50         33
    51         38
    52         46
    53         17
    54         28
    55         13
    56          5
    57         10
    58         11
    59         12
    60         16
    62         54
    63         64
    64         26
    65         21
    66          7
    67          8
    69         52
    70         18
    72        128
    73         20
    74         20
    75         27
    76         42
    77         37
    78         14
    79          6
    80          8
    81          8
    82         10
    83          8
    84          7
    86         25
    87         16
    88         36
    89         67
    90         32
    91         23
    92          8
    93         14
    94         10
    95          9
    96          7
    97          5
    99         33
   100         21
   101         20
   102         32
   103         29
   104         33
   105         12
   106          6
   107          6
   108          7
   109          6
   110          3
   111          2
   112          3
   114         28
   115         47
   116         80
   117         29
   118         18
   119         12
   120         17
   121         34
   122         12
   123          7
   124          3
   125          2
   126          2
   127          6
   128         17
   129         18
   130         14
   131         14
   132         13
   133         20
   134         22
   135         11
   136          9
   137          3
   138          1
   139          1
   140          2
   141          7
   142         15
   143         19
   144          9
   145         12
   146         30
   147         23
   148         32
   149         19
   150          9
   151          4
   152          2
   153          3
   155         11
   156         12
   157         16
   158         30
   159         25
   160         27
   162        266
   163         29
   164          9
   165          6
   166          1
   167          1
   168          2
   169          4
   170          7
   171          9
   172          9
   173          9
   174         14
   175         15
   176          9
   177          5
   178          5
   179          1
   180          2
   181          4
   182          3
   183          4
   184          3
   185          6
   186         10
   187         25
   188         31
   189         23
   190         12
   191          5
   192          2
   193          2
   194          5
   195          2
   196          1
   197          2
   199         12
   200         12
   201          9
   202         26
   203         14
   204         32
   205          7
   206          2
   207          5
   208          1
   209          1
   210          1
   212          6
   213         15
   214         33
   215         72
   216         52
   217         22
   218          6
   219          1
   220          1
   221          1
   222          1
   223          1
   224          2
   225          2
   227         18
   228         14
   229          7
   230          9
   231          8
   232         11
   233          3
   235         14
   236          3
   237          1
   238          1
   239          1
   242         16
   243         10
   244         35
   245         20
   246          4
   247          1
   253          3
   254          4
   256         46
   257         16
   258         43
   259         16
   261        192
   262        127
   263         25
   264          7
   265          1
   271          1
   272          4
   273          3
   274          4
   275          1
   277          1
   303        238
   304        510
   305         88
   306         30
   307          4
   308          1