##TITLE=Library Entry 6624
##JCAMP-DX=Revision 4.10 
##DATA TYPE=MASS SPECTRUM
##SAMPLE DESCRIPTION=A.A.Kutin, Moscow, Russia
##NAMES=HP
##CAS NAME=1-[7-Acetyl-5-(4-bromo-benzoyl)-1,3,7-triaza-bicyclo[3.3.1]non-3-
yl]-ethanone
##MOLFORM=C17H20BrN3O3
##CAS REGISTRY NO=331465-22-6
##MP= -300
##BP= -300
##MW= 393
##$RETENTION INDEX=0
##$CONDENSED SPECTRUM=NO
##NPOINTS= 230
##XYDATA=(XY..XY) 1 
    33         58
    34          2
    36          0
    37          1
    39         57
    40         59
    42        924
    43        999
    44        130
    45         31
    46          2
    50         46
    51         17
    52          7
    53         22
    54         26
    55         47
    56         56
    57         42
    58         21
    59          6
    60         20
    61          1
    62          2
    63          6
    64          2
    65          6
    66          9
    67         21
    68        123
    69         54
    70         56
    71         25
    72         28
    73         10
    74         34
    75         69
    76         98
    77         28
    78          5
    79          7
    80         57
    81         23
    82         47
    83         31
    84         13
    85         14
    86         27
    87         26
    88          3
    89          7
    90          5
    91          8
    92          2
    93          3
    94         16
    95         78
    96         44
    97        160
    98         24
    99          7
   100         10
   101         15
   102          8
   103         11
   104         46
   105         13
   106          2
   107          4
   108          8
   109         77
   110         18
   111         22
   112         24
   113         15
   114         11
   115         33
   116         41
   117         15
   118          3
   119          3
   120          1
   121          1
   122          3
   123          5
   124          5
   125         49
   126         11
   127         15
   128          7
   129         10
   130         12
   131         10
   132          4
   133          2
   134          0
   135          0
   136          1
   137         19
   138         17
   139        257
   140         26
   141          9
   142          5
   143         14
   144         19
   145         43
   146         17
   147          2
   149          3
   150          2
   151         26
   152          9
   153        103
   155        106
   157         96
   158         11
   159         22
   160          4
   161          1
   166          2
   167          4
   168        111
   169         30
   171         42
   172         48
   173         22
   174          4
   181         51
   183        145
   184         17
   185        134
   186         13
   187          2
   188          0
   192          1
   193          1
   194          0
   195          4
   196          3
   197          1
   198          6
   199          1
   200          8
   201          3
   202          0
   208          1
   209          2
   210        165
   211         20
   212          3
   213          1
   214          2
   215          0
   221          2
   222          6
   223         12
   224          8
   225         10
   226          2
   228          1
   229          1
   230          1
   234          3
   235          2
   236          8
   237          4
   238         31
   239          5
   240         27
   241          3
   242          2
   243          0
   248          0
   249          5
   250         23
   251         25
   252         62
   253         25
   254         37
   255          4
   261          0
   262          1
   263          8
   264          4
   265         25
   266          5
   267         19
   268          3
   269          2
   272          1
   275          1
   277          1
   278          1
   279         16
   280         13
   281         16
   282         12
   283          1
   291          1
   292          2
   293          6
   294          4
   295          4
   296          1
   306          0
   307         12
   308          9
   309         21
   310         10
   311          8
   312          0
   321         12
   322         23
   323         15
   324         22
   325          3
   334          2
   336          2
   338          0
   350          2
   351          2
   352          2
   353          2
   378          0
   380          0
   393          9
   394          2
   395         10
   396          1