##TITLE=Library Entry 22966
##JCAMP-DX=Revision 4.10 
##DATA TYPE=MASS SPECTRUM
##SAMPLE DESCRIPTION=A.A.Kutin, Moscow, Russia
##NAMES=HP
##CAS NAME=Acetamide, 2-(4-chloro-2-methylphenoxy)-N-(2,3-dimethyl-5-oxo-1-p
henyl-3-pyrazolin-4-yl)-
##MOLFORM=C20H20ClN3O3
##CAS REGISTRY NO=33145-73-2
##MP= -300
##BP= -300
##MW= 385
##$RETENTION INDEX=0
##$CONDENSED SPECTRUM=NO
##NPOINTS= 150
##XYDATA=(XY..XY) 1 
    33          4
    36          3
    37          2
    38          5
    39         21
    40          8
    42         60
    43          8
    44          3
    50          9
    51         51
    52         15
    53         16
    54         34
    56        999
    59          0
    61          0
    63         25
    64         26
    65         32
    66          7
    67         12
    68          8
    70         15
    71          0
    73          7
    74          4
    75         11
    77        160
    78         15
    79          4
    80          3
    81          7
    83        248
    84        186
    85         15
    87          3
    88          4
    89         73
    90         27
    91         65
    92         15
    93         13
    95          5
    96          6
    97         14
    99         23
   101          6
   102          0
   103          6
   104         19
   105         10
   106         12
   107          8
   109         18
   110          7
   111         10
   112         12
   113         10
   114          3
   115          3
   116          1
   117          3
   118         16
   119         24
   120          8
   121          6
   123         58
   125        145
   126         15
   127         42
   129          5
   130          3
   131          4
   132         20
   133          2
   135          0
   136          0
   137          4
   139          8
   140          7
   141         26
   142         13
   143          8
   144          6
   145          7
   146          7
   147          7
   148          2
   150          0
   151          2
   152          5
   153          6
   155         41
   156          5
   157         12
   158          3
   159          8
   160          2
   161          2
   165          0
   171          1
   172          2
   173          4
   174          2
   175          5
   180          0
   184          1
   185          3
   186          2
   187          3
   188          3
   189          0
   193          2
   194          0
   198          1
   199          2
   200          2
   202        114
   203        304
   204         44
   205          2
   207          0
   208          0
   212          0
   214         19
   216         35
   217          2
   226          4
   228          6
   229         11
   230        331
   231         48
   232          2
   242          1
   243          4
   244         29
   245         11
   246          1
   260          5
   261          1
   328          0
   380          0
   382          1
   383          3
   384         10
   385         64
   386         17
   387         19
   388          3