##TITLE=Library Entry 17243
##JCAMP-DX=Revision 4.10 
##DATA TYPE=MASS SPECTRUM
##SAMPLE DESCRIPTION=Chemical Concepts
##NAMES=HP
##CAS NAME=2-Ethyl-5-(3-nitrobenzylideneamino)-1,3,4-thiadiazole
##MOLFORM=C11H10N4O2S
##CAS REGISTRY NO=331452-41-6
##MP= -300
##BP= -300
##MW= 262
##$RETENTION INDEX=0
##$CONDENSED SPECTRUM=NO
##NPOINTS= 127
##XYDATA=(XY..XY) 1 
    33         30
    34         17
    35          8
    36         23
    37         36
    38         97
    39        378
    40         98
    41        131
    42         90
    43        103
    45        999
    46         72
    47        167
    48         15
    50        154
    51        140
    52         62
    53         41
    54         88
    55         35
    56        136
    57         67
    58        175
    59        286
    60        307
    61         39
    62        108
    63        157
    64         54
    65         34
    66          7
    68         13
    69         95
    70         50
    71        114
    72         53
    73        839
    74        802
    75        156
    76        172
    77         49
    78         13
    79          8
    81          8
    83         23
    84         10
    85         52
    86         74
    87         74
    88        100
    89         73
    90         32
    91         19
    92          9
    94         20
    95          7
    96         11
    97          4
   100          4
   101          8
   102         82
   103         92
   104         22
   105         10
   106          2
   107         12
   108         12
   109          5
   110          4
   111          4
   113         38
   114        108
   115        168
   116         30
   117         12
   118         12
   120         79
   121         15
   122         20
   123          2
   128        177
   129        460
   130         50
   131         26
   132          6
   134         89
   135         19
   136         10
   137          2
   138          2
   143          2
   144          3
   146         37
   147         99
   148         13
   149         24
   150         16
   151          4
   159          5
   160          9
   161         62
   162          8
   163          2
   166         12
   169         15
   171          3
   172          3
   176         19
   177          2
   180         36
   181          3
   193         41
   194          4
   203          9
   215        223
   216         46
   217         11
   231         40
   232          9
   245         54
   246          8
   247          2
   261        688
   262        123
   263         41
   264          7