##TITLE=Library Entry 52148
##JCAMP-DX=Revision 4.10 
##DATA TYPE=MASS SPECTRUM
##SAMPLE DESCRIPTION=A.A.Kutin, Moscow, Russia
##NAMES=HP
##CAS NAME=Cyclohexanecarboxamide, N-(2,5-dichlorophenyl)-
##MOLFORM=C13H15Cl2NO
##CAS REGISTRY NO=331436-29-4
##MP= -300
##BP= -300
##MW= 271
##$RETENTION INDEX=0
##$CONDENSED SPECTRUM=NO
##NPOINTS= 82
##XYDATA=(XY..XY) 1 
    34         11
    35          4
    36         45
    37          2
    38         18
    39        103
    40        207
    41        300
    42         21
    43         40
    44         56
    45          2
    50          4
    51         11
    52          8
    53         47
    54         36
    55        565
    56         30
    57          8
    60          1
    62          7
    63         25
    64          8
    65         10
    66          5
    67         72
    68         12
    69         12
    70          2
    71          1
    73         11
    74          7
    75         10
    77         12
    78          3
    79         19
    80          2
    81         35
    82         24
    83        999
    84         66
    85          3
    89          1
    90         15
    91          7
    92          3
    97          9
    98          3
    99          7
   100          2
   101          1
   105          6
   109         10
   110        270
   111        126
   112          9
   119          1
   124         15
   125          7
   126          9
   127         10
   128          3
   129          1
   133         26
   135         17
   137          2
   145          3
   160          6
   161        263
   162         25
   163        161
   164         15
   165         24
   187          1
   188          1
   236        117
   237         14
   238         30
   239          2
   271         24
   273         13