##TITLE=Library Entry 23488
##JCAMP-DX=Revision 4.10 
##DATA TYPE=MASS SPECTRUM
##SAMPLE DESCRIPTION=A.S.Moskovkin,I.M.Karnaukh, Russian Center on Disaster
 Medicine
##NAMES=HP
##CAS NAME=3,7-Di-tert-butyl-1,5-diphenyl-3,7-diazabicyclo[3,3,1]nonan-9-ol
##MOLFORM=C27H38N2O
##CAS REGISTRY NO=331459-51-9
##MP= -300
##BP= -300
##MW= 406
##$RETENTION INDEX=0
##$CONDENSED SPECTRUM=NO
##NPOINTS= 272
##XYDATA=(XY..XY) 1 
    38         14
    39        120
    40         28
    41        640
    42        380
    43        130
    44        550
    45         16
    46          7
    49          3
    50         21
    51         46
    52         14
    53         20
    54         18
    55        100
    56        100
    57        999
    58        170
    59          9
    60        190
    61          7
    62          6
    63         18
    64          5
    65         35
    66          5
    67         10
    68         17
    69         29
    70        220
    71         40
    72         27
    73          5
    74         17
    75         10
    76         17
    77        160
    78         53
    79         52
    80          9
    81          9
    82         13
    83          9
    84         34
    85         19
    86        210
    87         15
    88          4
    89         20
    90         15
    91        380
    92         33
    93          6
    94          4
    95          5
    96          8
    97          5
    98         20
    99          8
   100        450
   101         46
   102        240
   103        270
   104        140
   105        190
   106         21
   107          7
   108          3
   109          3
   110          3
   111          3
   112          2
   113          5
   114          6
   115        180
   116        270
   117        190
   118         79
   119         30
   120         15
   121          4
   122          2
   123          1
   124          2
   125          2
   126          4
   127         28
   128         43
   129         53
   130         96
   131         46
   132        180
   133         63
   134         11
   135          2
   136          1
   137          1
   138          1
   139          4
   140          4
   141         19
   142         11
   143         30
   144        110
   145         38
   146        110
   147         28
   148         28
   149          6
   150          2
   151          2
   152          6
   153          6
   154         12
   155          8
   156         67
   157         23
   158         29
   159         21
   160         26
   161         10
   162          6
   163          2
   164          1
   165          8
   166          3
   167          7
   168          9
   169         10
   170         19
   171          6
   172         37
   173         10
   174         72
   175         31
   176          6
   177          2
   178         10
   179          5
   180          3
   181          1
   182          2
   183          2
   184          6
   185          4
   186         18
   187          8
   188        140
   189         42
   190         17
   191         13
   192          5
   193          4
   194          2
   195          4
   196          4
   197          2
   198          3
   199          3
   200         25
   201         69
   202        100
   203         40
   204         49
   205         44
   206         13
   207          5
   208          1
   210          3
   211          1
   212          4
   213          3
   214          4
   215         14
   216         16
   217         36
   218         52
   219         26
   220         19
   221          7
   222          5
   223          1
   225          2
   226          2
   227          2
   228          9
   229          7
   230         19
   231         56
   232        550
   233        200
   234         99
   235         23
   236          7
   237          1
   241          1
   242          2
   243          5
   244          9
   245          7
   246        130
   247         37
   248         79
   249         19
   250         81
   251         17
   252         11
   256          1
   258          4
   259          4
   260          5
   261          2
   262         13
   263         10
   264         18
   265          4
   271          3
   272         15
   273         11
   274         12
   275         48
   276         33
   277          7
   278          3
   286          6
   288        140
   289        170
   290         74
   291         20
   292          7
   293         18
   294          4
   299          1
   301         35
   303         15
   304         19
   305         20
   306         34
   307         22
   308          4
   315         12
   316          3
   317          3
   318         13
   319          7
   320         22
   321          8
   322          2
   330          1
   331        250
   332         68
   333         22
   334         14
   335         11
   336          2
   347          2
   348          4
   349        520
   350        140
   351         20
   352          2
   378          1
   391         87
   392         26
   393          4
   404          3
   405         12
   406        290
   407         88
   408         13
   409          1