##TITLE=Library Entry 3457
##JCAMP-DX=Revision 4.10 
##DATA TYPE=MASS SPECTRUM
##SAMPLE DESCRIPTION=A.A.Kutin, Moscow, Russia
##NAMES=HP
##CAS NAME=Cyclopropane carboxamide, 2-cyclopropyl-2-methyl-N-(1-cyclopropyl
ethyl)-
##MOLFORM=C13H21NO
##CAS REGISTRY NO=331416-19-4
##MP= -300
##BP= -300
##MW= 207
##$RETENTION INDEX=0
##$CONDENSED SPECTRUM=NO
##NPOINTS= 150
##XYDATA=(XY..XY) 1 
    33          0
    34          0
    35          7
    36          1
    37          7
    38         13
    39        363
    40         91
    41        999
    42        130
    43         93
    44        114
    45          9
    46          4
    47          8
    48          0
    49          6
    50         13
    51         49
    52         34
    53        209
    54         79
    55        437
    56         41
    57         45
    58         17
    59         75
    60         12
    61          2
    62          3
    63         10
    64          4
    65         65
    66         35
    67        342
    68        148
    69        831
    70        160
    72         80
    73          9
    74          2
    75          1
    77         81
    78         18
    79        148
    80         57
    81        245
    82         56
    83         26
    84         98
    85         39
    86         62
    87          3
    88          2
    89          0
    91         35
    92         11
    93         84
    94         88
    95        458
    96        168
    97         27
    98         40
    99          8
   100          1
   101          0
   102          0
   103          1
   104          1
   105          5
   106          7
   107         38
   108         22
   109         16
   110        101
   111         28
   112         29
   113          6
   114          2
   115          0
   116          1
   117          0
   118          0
   119          3
   120          8
   121         34
   122         56
   123         50
   124         62
   125         17
   126         10
   127         36
   128          3
   129          0
   131          0
   132          0
   133          1
   134          3
   135          5
   136         15
   137          5
   138         30
   139         32
   140         23
   141          4
   142          0
   143          0
   144          0
   146          0
   147          0
   148          1
   149          4
   150         12
   151          3
   152          5
   153          1
   154          0
   155          0
   156          0
   160          0
   161          0
   162          2
   164         34
   165          6
   166          5
   167          0
   170          0
   171          0
   174          0
   175          0
   176          0
   177          1
   178         53
   179         19
   180          2
   182          0
   184          1
   188          0
   189          0
   190          0
   192         38
   193          6
   194          1
   196          0
   205          0
   206         14
   207        101
   208         16
   209          1
   210          1