##TITLE=Library Entry 31458
##JCAMP-DX=Revision 4.10 
##DATA TYPE=MASS SPECTRUM
##SAMPLE DESCRIPTION=Chemical Concepts
##NAMES=HP
##CAS NAME=6-Chlorobenz[cd]indol-2(1H)-ylidenemalononitrile
##MOLFORM=C14H6ClN3
##CAS REGISTRY NO=331464-93-8
##MP= -300
##BP= -300
##MW= 251
##$RETENTION INDEX=0
##$CONDENSED SPECTRUM=NO
##NPOINTS= 81
##XYDATA=(XY..XY) 1 
    39        240
    40         95
    41         59
    43        168
    44        112
    45         63
    47        125
    50        774
    51        452
    52        283
    55         43
    62        999
    63        464
    64        269
    65        104
    66         36
    67         11
    72        173
    74        752
    75        453
    76        303
    77        236
    78         10
    79          5
    80          9
    81         20
    85        294
    86        373
    87        275
    88        166
    89         34
    91        144
    95         17
    97        128
    98        235
    99        229
   100        148
   101         62
   102          9
   108         36
   109         41
   110        101
   111        119
   112        124
   113         89
   114         19
   121         21
   122         41
   123         88
   124         69
   125         67
   126         74
   127         19
   133          6
   134         13
   135         36
   136         36
   137         29
   138         45
   139         39
   140         39
   147          6
   151         22
   161         23
   162         53
   163         36
   164         11
   188         71
   189        124
   190         25
   198          9
   203         14
   215         15
   216         28
   217         33
   224         16
   225         21
   250         10
   251        152
   252         36
   253         36