##TITLE=Library Entry 48953
##JCAMP-DX=Revision 4.10 
##DATA TYPE=MASS SPECTRUM
##SAMPLE DESCRIPTION=W. BOLAND, INST. BIOCHEM. UNIV. COLOGNE, COLOGNE, W. GE
R.
##NAMES=HP
##CAS NAME=6-[(Z)-1-Butenyl]-1,4-cycloheptadiene
##MOLFORM=C11H16
##CAS REGISTRY NO=33156-93-3
##MP= -300
##BP= -300
##MW= 148
##$RETENTION INDEX=0
##$CONDENSED SPECTRUM=NO
##NPOINTS= 97
##XYDATA=(XY..XY) 1 
    37          1
    38         16
    39        343
    40         47
    41        531
    42         33
    43         11
    44          0
    45          1
    46          0
    50         35
    51        136
    52         60
    53        154
    54         28
    55        141
    56          5
    57          7
    58         23
    59         10
    60          2
    61          1
    62         12
    63         58
    64         21
    65        200
    66        451
    67        306
    68         26
    69         18
    70         60
    71          3
    72          0
    73          0
    74          5
    75          6
    76          6
    77        398
    78        251
    79        999
    80        166
    81         82
    82        325
    83         21
    84          0
    85          0
    86          1
    87          1
    88          0
    89         17
    90          4
    91        978
    92        287
    93         96
    94         65
    95          5
    96          0
    98          0
    99          0
   101          0
   102          7
   103         57
   104         30
   105        361
   106         86
   107         94
   108          6
   109          0
   113          0
   114          0
   115         50
   116         14
   117         66
   118         13
   119        249
   120         40
   121          2
   122          0
   126          0
   127          2
   128          8
   129          4
   130          0
   131          6
   132          0
   133         41
   134          3
   135          0
   139          0
   141          0
   143          0
   145          0
   146          0
   147          1
   148         79
   149          8
   150          0