##TITLE=Library Entry 47948
##JCAMP-DX=Revision 4.10 
##DATA TYPE=MASS SPECTRUM
##SAMPLE DESCRIPTION=R.B.KING UNIVERSITY OF GEORGIA, ATHENS, GEORGIA, USA
##NAMES=HP
##CAS NAME=Tungsten, tricarbonyl(.eta.5-2,4-cyclopentadien-1-yl)(trifluoroac
etyl)-
##MOLFORM=C10H5F3O4W
##CAS REGISTRY NO=33155-47-4
##MP= -300
##BP= -300
##MW= 430
##$RETENTION INDEX=0
##$CONDENSED SPECTRUM=NO
##NPOINTS= 27
##XYDATA=(XY..XY) 1 
    39        203
    50         46
    51        125
    63        132
    65         78
    66         70
    77        999
    89        718
   105        140
   184         46
   223        351
   242        312
   249        562
   268        273
   277        320
   298        539
   305        398
   318        781
   327         54
   333        179
   336         54
   346        179
   355        179
   361        164
   383         15
   402        601
   430         23