##TITLE=Library Entry 34667
##JCAMP-DX=Revision 4.10 
##DATA TYPE=MASS SPECTRUM
##SAMPLE DESCRIPTION=V.A.KOPTYUG, ATLAS OF MASS SPECTRA OF ORGANIC COMPOUNDS
##NAMES=HP
##CAS NAME=1-Hydroxy-4-carbamoyl-2,2,5,5-tetramethyl-3-imidazoline
##MOLFORM=C8H15N3O2
##CAS REGISTRY NO=33156-73-9
##MP= -300
##BP= -300
##MW= 185
##$RETENTION INDEX=0
##$CONDENSED SPECTRUM=NO
##NPOINTS= 60
##XYDATA=(XY..XY) 1 
    29         42
    30         21
    31         14
    36         14
    38         13
    39         69
    40         39
    41        284
    42        408
    43         88
    44         82
    45          7
    48         24
    50          5
    51         14
    52         10
    53          8
    54         23
    55         20
    56         49
    57         11
    58        167
    59         12
    66          6
    67         13
    68         77
    69        999
    70         39
    71          7
    74         83
    82          6
    83         27
    84          7
    85         26
    86          6
    94         14
    95          9
    96          8
    98         21
   108          6
   109         70
   110         88
   111         13
   112         48
   125          6
   127         17
   136          7
   138         20
   139         24
   150         12
   152          5
   153        124
   154         59
   155         85
   156          9
   168         22
   170        116
   171         11
   185         83
   186          8