##TITLE=Library Entry 114743
##JCAMP-DX=Revision 4.10 
##DATA TYPE=MASS SPECTRUM
##SAMPLE DESCRIPTION=James Little,Eastman Chem.Co.,Kingsport,TN
##NAMES=HP
##CAS NAME=2-Amino-5-methylamino-1,3,4-thiadiazole
##MOLFORM=C3H6N4S
##CAS REGISTRY NO=33151-04-1
##MP= -300
##BP= -300
##MW= 130
##$RETENTION INDEX=0
##$CONDENSED SPECTRUM=NO
##NPOINTS= 35
##XYDATA=(XY..XY) 1 
    27         54
    29         73
    30        165
    41         40
    42        242
    43        116
    45         56
    46         58
    47         93
    55         65
    57        268
    59        118
    60        349
    61         78
    69        135
    70        204
    71        130
    73        117
    74        450
    75         67
    86         16
    87         22
    88        174
    89         10
    99         14
   100         20
   101         18
   102         17
   113         36
   115         13
   129         62
   130        999
   131         88
   132         43
   133          5