##TITLE=Library Entry 63973
##JCAMP-DX=Revision 4.10 
##DATA TYPE=MASS SPECTRUM
##SAMPLE DESCRIPTION=A.Pleshkova, Nesmeyanov Inst.Org.Elem.Cpds, Moscow
##NAMES=HP
##CAS NAME=2-Benzimidazolidone, N-methyl-N'-benzyl
##MOLFORM=C15H14N2O
##CAS REGISTRY NO=33158-52-0
##MP= -300
##BP= -300
##MW= 238
##$RETENTION INDEX=0
##$CONDENSED SPECTRUM=NO
##NPOINTS= 37
##XYDATA=(XY..XY) 1 
    50         20
    51         51
    52         18
    53          6
    63         34
    64         19
    65        132
    66         12
    76         13
    77         49
    78         22
    79          7
    89         23
    90         31
    91        999
    92        125
    93          9
   105         12
   106         10
   118         22
   119         53
   120          5
   121          1
   147         37
   148         22
   149         10
   150          3
   161         10
   162          2
   221         13
   222          4
   223          2
   224          1
   237         12
   238        352
   239         61
   240          5