##TITLE=Library Entry 86516
##JCAMP-DX=Revision 4.10 
##DATA TYPE=MASS SPECTRUM
##SAMPLE DESCRIPTION=V.A.KOPTYUG, ATLAS OF MASS SPECTRA OF ORGANIC COMPOUNDS
##NAMES=HP
##CAS NAME=4-Carbamoyl-2,2,5,5-tetramethyl-3-imidazoline-1-oxyl
##MOLFORM=C8H14N3O2
##CAS REGISTRY NO=33156-74-0
##MP= -300
##BP= -300
##MW= 184
##$RETENTION INDEX=0
##$CONDENSED SPECTRUM=NO
##NPOINTS= 109
##XYDATA=(XY..XY) 1 
    26         17
    27         81
    28         28
    29         53
    30         62
    31          7
    35          8
    36         81
    37          8
    38         42
    39         17
    40         63
    41        469
    42        423
    43        119
    44        106
    45         38
    46          3
    47         20
    48          9
    49          6
    50          5
    51         10
    52         22
    53         38
    54         76
    55         82
    56         68
    57         38
    58        310
    59         15
    60          4
    62          6
    64          5
    65          6
    66         17
    67         33
    68        316
    69        440
    70        129
    71         11
    72          4
    73         56
    74         50
    77          7
    78          2
    79          4
    80         33
    81         18
    82         35
    83         85
    84         21
    85         17
    86          3
    88         71
    91          3
    92          3
    93          9
    94         76
    95         53
    96        171
    97         24
    98         26
    99         17
   107          5
   108         43
   109        999
   110        291
   111        119
   112         46
   113          7
   114          3
   120          5
   121         25
   122         45
   123         12
   124          9
   125         28
   126         21
   127         19
   128          4
   133          2
   134          4
   135          9
   136         34
   137         79
   138         23
   139        576
   140         54
   141          7
   149          9
   150          4
   151         10
   152         40
   153         73
   154        787
   155        131
   156         10
   163          4
   166          3
   167          9
   168         24
   169         64
   170         76
   171          8
   183          1
   184        158
   185         99
   186         10