##TITLE=Library Entry 107332
##JCAMP-DX=Revision 4.10 
##DATA TYPE=MASS SPECTRUM
##SAMPLE DESCRIPTION=A.A.Kutin, Moscow, Russia
##NAMES=HP
##CAS NAME=3-[(2-Fluoroanilino)methyl]-5-(2-methoxyphenyl)-1,3,4-oxadiazole-
2(3H)-thione
##MOLFORM=C16H14FN3O2S
##CAS REGISTRY NO=331670-22-5
##MP= -300
##BP= -300
##MW= 331
##$RETENTION INDEX=0
##$CONDENSED SPECTRUM=NO
##NPOINTS= 154
##XYDATA=(XY..XY) 1 
    33          6
    34          2
    36          0
    37         19
    38         40
    39         75
    40         44
    41         15
    42          8
    43         58
    44         17
    45         18
    46          5
    47          5
    48          2
    49         11
    50        100
    51        141
    52         33
    53         13
    54          3
    55          5
    56         16
    57         42
    58          4
    59         12
    60         10
    61         74
    62         43
    63         78
    64         62
    65         74
    66         17
    67          4
    68         29
    69         49
    70         26
    71          4
    72          1
    73         10
    74         54
    75        213
    76         65
    77        253
    78         62
    79         16
    80          6
    81         14
    82          8
    83         25
    84          3
    85          0
    86          2
    87          3
    88          7
    89         21
    90         53
    91        315
    92        103
    93         44
    94         44
    95        407
    96         47
    97          9
    99          1
   100          0
   102        150
   103         28
   104         51
   105         58
   106         12
   107          9
   108          3
   109          3
   110          6
   111          5
   112          1
   113          0
   115          0
   117          4
   118         20
   119         99
   120        126
   122        877
   123        999
   124        753
   125         62
   126          3
   127          1
   128          0
   129          1
   131         26
   132         17
   133         29
   135        411
   136         33
   137          6
   138          1
   139          0
   145          1
   147         64
   148        153
   149         15
   150          5
   151          4
   152          0
   154          1
   161          1
   162          0
   163          3
   164          1
   165          6
   166          2
   167          1
   168          0
   171          2
   175          6
   176          0
   177          1
   178          0
   179          4
   180          4
   181          0
   182          1
   183          1
   186          0
   194          0
   195          0
   196          1
   197          1
   204          0
   205         17
   206         17
   208        942
   209        111
   210         45
   211          6
   220          0
   222          3
   224          2
   225          1
   226          1
   229          0
   238          1
   261          0
   263          1
   264         46
   265          8
   316          2
   328          1
   330          1
   331         45
   332          8
   333          2