##TITLE=Library Entry 82536
##JCAMP-DX=Revision 4.10 
##DATA TYPE=MASS SPECTRUM
##SAMPLE DESCRIPTION=A.A.Kutin, Moscow, Russia
##NAMES=HP
##CAS NAME=2-Pyrazolin-5-ol, 3-trifluoromethyl-5-(4-nitrophenyl)-1-(3-pyridi
noyl)-
##MOLFORM=C16H11F3N4O4
##CAS REGISTRY NO=331668-44-1
##MP= -300
##BP= -300
##MW= 380
##$RETENTION INDEX=0
##$CONDENSED SPECTRUM=NO
##NPOINTS= 201
##XYDATA=(XY..XY) 1 
    33          0
    36          0
    37          1
    38          5
    39         10
    40          4
    41          2
    42          3
    43          2
    44          2
    45          1
    46          2
    47          0
    50         62
    51        141
    52         21
    53          9
    54          1
    55          1
    56          0
    57          1
    58          0
    59          2
    60          0
    61          1
    62          8
    63         14
    64          6
    65          6
    66          2
    67          1
    69         40
    70          2
    71          0
    73          1
    74         12
    75         20
    76         36
    77         69
    78        417
    79         24
    80          1
    82          0
    83          0
    84          0
    85          0
    86          1
    87          3
    88          4
    89         12
    90          7
    91          7
    92          6
    93          2
    94          0
    95          0
    96          0
    97          0
    98          0
    99          1
   100          1
   101          7
   102         24
   103         36
   104         18
   106        999
   107         61
   108          4
   109          1
   110          0
   111          0
   112          0
   113          0
   114          0
   115          0
   116          1
   117          2
   118          4
   119          6
   120          3
   121          3
   122          1
   123          1
   124          0
   125          0
   126          1
   127          0
   128          0
   129          1
   130          2
   131          5
   132          1
   133          2
   134          2
   135          0
   137         18
   138          2
   139          5
   140          0
   141          0
   142          0
   143          0
   144          0
   146         26
   147          2
   148          3
   149          3
   150         12
   151          4
   152          1
   153          0
   154          0
   157          0
   158          0
   159          0
   160          1
   161          0
   162          1
   163          0
   164          0
   165          0
   166          0
   167          0
   168          0
   169          0
   171          0
   172          0
   173          0
   174          0
   175          0
   176          1
   177          0
   178          0
   179          0
   180          0
   181          0
   182          0
   183          0
   185          0
   186          0
   187          0
   188          0
   192         44
   193          4
   194          0
   198          0
   199          0
   200          0
   203          0
   205          0
   206          1
   207          0
   208          0
   212          0
   214          0
   215          0
   218          0
   220          0
   223          0
   227          0
   228          0
   229          0
   231          0
   235          0
   236          1
   238          0
   239          0
   242          0
   243          0
   244          1
   245          0
   251          0
   257          0
   259          0
   261          7
   262          0
   269          2
   270          0
   274          1
   275          0
   277          0
   279          0
   280          0
   281          0
   284          0
   307          0
   310          0
   311          2
   312          0
   313          0
   350          1
   351          0
   361          0
   362          0
   364          0
   365          0
   376          0
   378          0
   380         35
   381          5
   382          0