##TITLE=Library Entry 1359
##JCAMP-DX=Revision 4.10 
##DATA TYPE=MASS SPECTRUM
##SAMPLE DESCRIPTION=Humboldt-Universitat zu Berlin, Department of Chemistry
, Analytical Group
##NAMES=HP
##CAS NAME=4,5-Diphenyl-1,3-oxazol-2-ylmethylamin
##MOLFORM=C16H14N2O
##CAS REGISTRY NO=33162-00-4
##MP= -300
##BP= -300
##MW= 250
##$RETENTION INDEX=0
##$CONDENSED SPECTRUM=NO
##NPOINTS= 194
##XYDATA=(XY..XY) 1 
    12          0
    14          2
    15         25
    16          2
    17          3
    18          9
    19          0
    25          0
    26          4
    27         19
    28         62
    30        999
    31         21
    32          0
    35          0
    36          0
    37          3
    38          8
    39         49
    40          8
    41         23
    42         34
    43          8
    44          4
    45         10
    46          0
    47          0
    49          2
    50         36
    51        135
    52         15
    53          4
    54          1
    55          7
    56          2
    57          7
    58          1
    59          1
    60          0
    61          4
    62         28
    63         71
    64         11
    65         11
    66          1
    67          1
    68          1
    69          3
    71          1
    72          1
    73         11
    74         16
    75         19
    76         37
    77        350
    78         28
    79          2
    80          0
    81          3
    82          5
    84          2
    85          2
    86          8
    87         15
    88         22
    89         83
    90         78
    91         25
    92          3
    93          0
    94          0
    95          1
    96          1
    97          1
    98          4
    99          3
   100          3
   101          3
   102          8
   103         34
   104         36
   105        127
   106         11
   107          1
   108          0
   109          1
   110          2
   111          3
   112          1
   113          8
   114         10
   115         33
   116         12
   117         11
   118         41
   119         11
   120          1
   121          3
   122          4
   123          1
   124          2
   125          2
   126          6
   127          2
   128          6
   129          3
   130          2
   131          1
   132          1
   133          0
   134          0
   135          0
   136          0
   137          4
   138          3
   139         19
   140          5
   141          1
   142          0
   143          7
   145        375
   146         40
   147          2
   148          0
   149          1
   150          4
   151          6
   152         10
   153          2
   154          0
   155          0
   156          0
   159          0
   161          1
   162          3
   163         23
   164         31
   165        223
   166         46
   167          8
   168          1
   171          0
   172          0
   173          0
   174          0
   175          1
   176          8
   177          7
   178         18
   179          4
   180          1
   181          0
   185          0
   186          0
   187          0
   188          1
   189          1
   190         14
   191          8
   192         44
   193        231
   194         39
   195          4
   196          0
   201          0
   202          1
   203          1
   204          2
   205          1
   206          4
   207          1
   208          0
   218          0
   219          4
   220         23
   221        102
   222         36
   223          5
   224          1
   229          0
   231          0
   232          1
   233          1
   234          3
   235          2
   236          1
   237          0
   246          0
   247          1
   248          1
   250        231
   251         47
   252          4
   253          0