##TITLE=Library Entry 32217
##JCAMP-DX=Revision 4.10 
##DATA TYPE=MASS SPECTRUM
##SAMPLE DESCRIPTION=R.MALOJCIC DEPT. CHEM., UNIV. OF ZAGREB, ZAGREB, YUGOSL
AVIA
##NAMES=HP
##CAS NAME=endo-exo-1,2,3,4,4a,5,8,8a-Octahydro-1,4:5,8-dimethano-naphthalen
-2-ol
##MOLFORM=C12H16O
##CAS REGISTRY NO=33163-95-0
##MP= -300
##BP= -300
##MW= 176
##$RETENTION INDEX=0
##$CONDENSED SPECTRUM=NO
##NPOINTS= 51
##XYDATA=(XY..XY) 1 
    27         62
    28         57
    29         35
    31         19
    32         16
    39        123
    40         41
    41         74
    43         28
    44         14
    50         10
    51         45
    52         17
    53         45
    55         24
    57         14
    63         17
    65         80
    66        999
    67        121
    77         84
    78         45
    79         92
    80         45
    81         53
    82         20
    91        140
    92         52
    93         42
    95         23
   100         15
   102         14
   103         23
   104         37
   105         31
   108         39
   109        192
   110        110
   115         66
   116         31
   117        104
   128         37
   129         45
   130         67
   131         43
   132        162
   133         33
   143         26
   158         56
   176        117
   177         16