##TITLE=Library Entry 46836
##JCAMP-DX=Revision 4.10 
##DATA TYPE=MASS SPECTRUM
##SAMPLE DESCRIPTION=NIST Mass Spectrometry Data Center, 1994
##NAMES=HP
##CAS NAME=Benzene, 1-methoxy-2-(2-nitroethenyl)-
##MOLFORM=C9H9NO3
##CAS REGISTRY NO=3316-24-3
##MP= -300
##BP= -300
##MW= 179
##$RETENTION INDEX=0
##$CONDENSED SPECTRUM=NO
##NPOINTS= 106
##XYDATA=(XY..XY) 1 
    15        206
    17          7
    18         15
    26         33
    27        127
    28         60
    29         84
    30        294
    31         18
    32          1
    37         46
    38        141
    39        373
    40         58
    41         37
    42         12
    43         34
    44          7
    45         10
    46         62
    49         27
    50        298
    51        514
    52        117
    53        122
    54         18
    55         51
    59         20
    60          8
    61         53
    62        225
    63        628
    64        215
    65        266
    66         59
    67         24
    68         34
    69         15
    71          4
    73         22
    74        160
    75        225
    76        181
    77        999
    78        326
    79        333
    80         70
    81         95
    82         17
    83         10
    85         18
    86         38
    87         45
    88          4
    89        881
    90        569
    91        782
    92        151
    93        106
    94         64
    95        109
    96        132
    97         14
    98         25
    99         14
   100         10
   101         54
   102        169
   103        327
   104        117
   105        431
   106         92
   107         64
   108         60
   109         56
   110         13
   111         11
   114          5
   115         24
   116         31
   117          5
   118        628
   119        107
   120         52
   121        164
   122         39
   123         13
   124         17
   126         10
   131        621
   132        565
   133        127
   134         65
   135         39
   136         38
   137          5
   146         10
   148        117
   149         43
   150         10
   162        375
   163         44
   164         15
   179        774
   180         82
   181         11