##TITLE=Library Entry 38743
##JCAMP-DX=Revision 4.10 
##DATA TYPE=MASS SPECTRUM
##SAMPLE DESCRIPTION=Chemical Concepts
##NAMES=HP
##CAS NAME=Bicyclo[2.2.2]oct-5-en-2-yldimethylamine
##MOLFORM=C10H17N
##CAS REGISTRY NO=33162-94-6
##MP= -300
##BP= -300
##MW= 151
##$RETENTION INDEX=0
##$CONDENSED SPECTRUM=NO
##NPOINTS= 68
##XYDATA=(XY..XY) 1 
    26          3
    27         29
    28         14
    29         19
    30          8
    31         16
    38          2
    39         35
    40          5
    41         31
    42         79
    43         88
    44         35
    45          9
    46          2
    47          1
    50          5
    51         19
    52         10
    53         16
    54          7
    55         14
    56        206
    57         18
    58         15
    59          8
    63          4
    65         14
    66          7
    67          9
    68          6
    69          2
    70         61
    71        999
    72         83
    73          3
    74          6
    77         54
    78         17
    79         57
    80         17
    81          6
    82         11
    83          8
    84         16
    85          5
    91         14
    92          3
    93          3
    94         11
    95          3
    96          3
    97          2
   103          3
   104          2
   105          5
   106          5
   107          6
   108          5
   110          9
   120          7
   121          2
   122          9
   123          3
   134          2
   150          3
   151         72
   152         17