##TITLE=Library Entry 19978
##JCAMP-DX=Revision 4.10 
##DATA TYPE=MASS SPECTRUM
##SAMPLE DESCRIPTION=A.A.Kutin, Moscow, Russia
##NAMES=HP
##CAS NAME=Furazan-3-carbohydrazide, 4-amino-N2-(2-chloro-5-nitrobenzylideno
)-
##MOLFORM=C10H7ClN6O4
##CAS REGISTRY NO=331650-46-5
##MP= -300
##BP= -300
##MW= 310
##$RETENTION INDEX=0
##$CONDENSED SPECTRUM=NO
##NPOINTS= 119
##XYDATA=(XY..XY) 1 
    33         36
    34         12
    36         50
    37         39
    38        136
    39        163
    40        219
    41        104
    42        263
    43        229
    44        391
    45        155
    46         57
    49         40
    50        170
    51        117
    52         89
    53        610
    54        682
    55        999
    57        209
    58        779
    59         34
    60          8
    61         97
    62        339
    63        376
    64         55
    65         38
    66         12
    68         80
    70        624
    71        564
    73        417
    74        273
    75        572
    76        155
    77         62
    78         21
    79         13
    80         10
    82         52
    84        196
    85        332
    86        162
    87        191
    88        137
    89        226
    90        173
    91         47
    96         21
    97        107
    98         93
    99         79
   100        120
   101        122
   102         79
   103          6
   104         18
   105         35
   109         77
   110        323
   111        121
   112        514
   113         52
   114          8
   115         18
   116         38
   117         70
   118         21
   119          4
   122          8
   123        391
   124        151
   125        249
   126        100
   128        706
   129         39
   130          7
   134          6
   136         73
   137        504
   138         90
   139        203
   140         21
   141         24
   147         11
   148          4
   150         28
   151         90
   152        198
   153         60
   154         84
   164         10
   166         16
   167          6
   169         43
   170         15
   171         38
   172         18
   173          6
   180         45
   181         97
   182         44
   183        396
   185        210
   186         23
   187         16
   198         13
   210          5
   226        193
   227         24
   228         52
   235         15
   253         39
   255          7
   280          6
   310         89
   312         22