##TITLE=Library Entry 26767
##JCAMP-DX=Revision 4.10 
##DATA TYPE=MASS SPECTRUM
##SAMPLE DESCRIPTION=Asinex Ltd, Moscow, Russia
##NAMES=HP
##CAS NAME=(2-Iodo-phenyl)-carbamic acid isobutyl ester
##MOLFORM=C11H14INO2
##CAS REGISTRY NO=331726-78-4
##MP= -300
##BP= -300
##MW= 319
##$RETENTION INDEX=0
##$CONDENSED SPECTRUM=NO
##NPOINTS= 149
##XYDATA=(XY..XY) 1 
    37         11
    38         34
    39        266
    40         65
    41        811
    42        208
    43         56
    44         11
    45          5
    46          0
    48          0
    49          2
    50         29
    51         15
    52         45
    53         12
    54          6
    55         59
    56         62
    57        999
    58        208
    59         62
    60          6
    61          2
    62         19
    63        107
    64        103
    65        133
    66         19
    67          0
    69          0
    72          0
    73         15
    74          6
    75         14
    76         37
    77          8
    78          1
    81          0
    82          0
    83          0
    84          0
    88          1
    89          3
    90         35
    91        123
    92         91
    93         15
    94          2
   102          0
   104          1
   105          0
   106          1
   107          0
   108          2
   116          0
   117          2
   118         14
   119         56
   120         12
   121          2
   127          3
   128          1
   129          0
   130          1
   132          3
   133          9
   134          6
   135         60
   136        884
   137        193
   138         23
   139          0
   141          0
   146          0
   147          0
   148          0
   149          1
   150          0
   155          1
   156          1
   157          0
   158          0
   159          0
   163          0
   164          1
   165         36
   166          3
   167          0
   168          0
   175          1
   176          1
   177         15
   178          1
   179          0
   180          0
   182          0
   183          0
   186          0
   187          0
   189          0
   191          9
   192          1
   193          1
   198          0
   199          0
   200          0
   201          0
   202          0
   203         21
   204          0
   208          0
   216          0
   217          4
   218         63
   219        507
   220         43
   221          2
   226          0
   228          0
   232          3
   233          0
   244          0
   245         16
   246         87
   247          9
   248          0
   253          0
   254          0
   258          0
   259          0
   260         13
   261          0
   262          1
   263         20
   264        171
   265         15
   266          1
   276          0
   277          0
   278          0
   304          1
   305          0
   317          2
   318         44
   319        784
   320         97
   321          7
   322          0