##TITLE=Library Entry 38524
##JCAMP-DX=Revision 4.10 
##DATA TYPE=MASS SPECTRUM
##SAMPLE DESCRIPTION=A.A.Kutin, Moscow, Russia
##NAMES=HP
##CAS NAME=Benzamide, 4-chloro-3-nitro-N-(2-tetrahydrofurfuryl)-
##MOLFORM=C12H13ClN2O4
##CAS REGISTRY NO=331713-00-9
##MP= -300
##BP= -300
##MW= 284
##$RETENTION INDEX=0
##$CONDENSED SPECTRUM=NO
##NPOINTS= 109
##XYDATA=(XY..XY) 1 
    36          0
    37          1
    39         22
    41         86
    43        268
    44          6
    46          2
    50          8
    51          2
    52          2
    53          5
    54          5
    55          7
    56         11
    57          1
    58          0
    60          1
    61          2
    62          3
    63          8
    65          1
    66          1
    67          2
    71        999
    72         33
    73          9
    74         27
    75         47
    76          3
    77          2
    78          0
    80          0
    81          1
    84        236
    85         12
    87          1
    88          1
    89          1
    90          1
    91          1
    97          1
    98          4
    99          3
   100          2
   102          3
   103          3
   104          2
   105          0
   107          0
   110         89
   111         12
   112         20
   113          2
   115          1
   123          0
   124          1
   126          9
   127          1
   128          2
   129          0
   132          1
   133          0
   135          0
   138         91
   140         34
   141          2
   144          0
   149          0
   150          0
   152          0
   154          4
   155          1
   156          1
   157          0
   166          1
   167          5
   168          9
   169          4
   170          4
   171          1
   178          0
   179          1
   180          1
   181          1
   184         76
   186         28
   187          1
   195          0
   196          4
   197          8
   198          1
   199          2
   201          1
   211          0
   213         24
   214         26
   215         11
   216          7
   217          1
   225          4
   226          1
   227          1
   239          2
   241          2
   254          0
   255          0
   283          0
   284          0
   285          0