##TITLE=Library Entry 37677
##JCAMP-DX=Revision 4.10 
##DATA TYPE=MASS SPECTRUM
##SAMPLE DESCRIPTION=A.A.Kutin, Moscow, Russia
##NAMES=HP
##CAS NAME=Acetamide, 2-oxo-2-(1-pyrrolidinyl)-N-(2-methoxyphenyl)-
##MOLFORM=C13H16N2O3
##CAS REGISTRY NO=331713-63-4
##MP= -300
##BP= -300
##MW= 248
##$RETENTION INDEX=0
##$CONDENSED SPECTRUM=NO
##NPOINTS= 105
##XYDATA=(XY..XY) 1 
    37          1
    38          6
    39         48
    40         20
    41         85
    42         50
    43         83
    44         48
    45          0
    50         11
    51         32
    52         54
    53         23
    55        660
    56        306
    57          9
    58          5
    62          2
    63         17
    64         23
    65         78
    66         11
    67          6
    68         20
    70        999
    71        221
    72         12
    73          0
    74          1
    75          2
    76          5
    77         43
    78         25
    79         40
    80         19
    81          3
    82          0
    84          2
    90         16
    91         22
    92         81
    93         20
    94         48
    95         10
    96          4
    98        902
    99        222
   100         20
   101          1
   102          0
   104          3
   105          3
   106         24
   107          4
   108         32
   109          3
   112          1
   113          1
   115          1
   118          1
   119          3
   120         39
   121          9
   122         42
   123        138
   124         19
   132          1
   133          2
   134         31
   135         92
   136         13
   137          1
   140          0
   146          6
   147          6
   149        227
   150        101
   151         97
   152          9
   161          1
   162          0
   172          7
   174          3
   175         10
   176         45
   177          6
   178          1
   187          2
   188          3
   189         39
   190          4
   203         27
   204          7
   205          0
   206          7
   217         47
   218          5
   219          3
   220          2
   230          3
   231          3
   246          1
   248        686
   249        105
   250         11