##TITLE=Library Entry 45130
##JCAMP-DX=Revision 4.10 
##DATA TYPE=MASS SPECTRUM
##SAMPLE DESCRIPTION=Chemical Concepts
##NAMES=HP
##CAS NAME=3-Methyl-1,6,8-trinitro-3H-pyrazolo[3,4-c]quinolin-4(5H)-one
##MOLFORM=C11H6N6O7
##CAS REGISTRY NO=331839-05-5
##MP= -300
##BP= -300
##MW= 334
##$RETENTION INDEX=0
##$CONDENSED SPECTRUM=NO
##NPOINTS= 110
##XYDATA=(XY..XY) 1 
    36         23
    37         95
    38        187
    39        258
    40        217
    41        389
    42        701
    43        483
    45        690
    46        989
    47         49
    48         28
    50        372
    51        339
    52        550
    53        184
    54         57
    55         53
    56         30
    58         14
    61        292
    62        342
    63        382
    64        247
    65        189
    66        147
    67         66
    68         44
    69         41
    70         14
    73        125
    75        999
    76        433
    77        314
    78        174
    79        107
    80         87
    81         28
    83         13
    85        175
    86        177
    87        470
    88        619
    89        224
    90        261
    91        159
    92         44
    93         14
    99        761
   100        519
   101        331
   102        184
   103        115
   104        197
   105         50
   107        107
   111        264
   112        345
   113        334
   114        533
   115        294
   116        147
   117         82
   123         51
   124        115
   125        276
   126        356
   127        228
   128        162
   129        182
   130         39
   131         57
   132         15
   137         18
   139        159
   140        272
   141        376
   142        151
   143         48
   144         25
   145         52
   151         13
   153         91
   154         66
   155        147
   156         68
   157         39
   159         21
   167        169
   168        145
   169         43
   170         20
   171         17
   172         16
   183         41
   184         24
   196        442
   197         53
   200         20
   211         14
   212         37
   213         18
   241         28
   242        306
   243         37
   288        269
   289         30
   304         19
   334        201
   335         25