##TITLE=Library Entry 58569
##JCAMP-DX=Revision 4.10 
##DATA TYPE=MASS SPECTRUM
##SAMPLE DESCRIPTION=NIST Mass Spectrometry Data Center, 1994
##NAMES=HP
##CAS NAME=Benzene, 4-chloro-2-iodo-1-methyl-
##MOLFORM=C7H6ClI
##CAS REGISTRY NO=33184-48-4
##MP= -300
##BP= -300
##MW= 252
##$RETENTION INDEX=0
##$CONDENSED SPECTRUM=NO
##NPOINTS= 58
##XYDATA=(XY..XY) 1 
    15          8
    25          5
    26         28
    27         32
    35         11
    36         17
    37         76
    38        109
    39        294
    40         26
    41          7
    43         16
    44          8
    47         10
    48          8
    49         60
    50        167
    51        127
    52         19
    60         24
    61        125
    62        281
    63        593
    64        100
    65         42
    71          6
    72         22
    73        142
    74         92
    75         90
    76          7
    84         23
    85         64
    86         85
    87         76
    88          6
    89        999
    90        240
    91         16
    96          8
    97         25
    99        201
   100         14
   101         55
   102          4
   123         21
   124        170
   125        879
   126        152
   127        504
   128         46
   152          4
   217         86
   218          5
   252        729
   253         69
   254        223
   255         20