##TITLE=Library Entry 51092
##JCAMP-DX=Revision 4.10 
##DATA TYPE=MASS SPECTRUM
##SAMPLE DESCRIPTION=NIST Mass Spectrometry Data Center, 1998.
##NAMES=HP
##CAS NAME=trans-11-Tetradecenyl acetate
##MOLFORM=C16H30O2
##CAS REGISTRY NO=33189-72-9
##MP= -300
##BP= -300
##MW= 254
##$RETENTION INDEX=1810
##$CONDENSED SPECTRUM=NO
##NPOINTS= 104
##XYDATA=(XY..XY) 1 
    14          1
    15          9
    26          3
    27         49
    28         16
    29        100
    30          4
    31          7
    37          1
    38          2
    39        113
    40         25
    41        752
    42        142
    43        933
    44         28
    45          7
    50          2
    51          9
    52          7
    53         97
    54        308
    55        840
    56        146
    57         86
    58          8
    59          2
    60          2
    61        154
    62          4
    63          2
    65         24
    66         46
    67        681
    68        928
    69        528
    70         77
    71         30
    72          4
    73         37
    74          2
    77         17
    78          5
    79         62
    80         38
    81        601
    82        999
    83        255
    84         28
    85          9
    86          4
    87          3
    91          8
    92          1
    93         19
    94         21
    95        460
    96        559
    97        121
    98         15
    99          2
   100          3
   101          2
   105          1
   107          6
   108          9
   109        220
   110        211
   111         41
   112         10
   113          2
   114          2
   115          1
   116          1
   121          4
   122          9
   123        110
   124        111
   125         16
   126          4
   127          1
   128          2
   129          1
   135          2
   136          5
   137         63
   138         71
   139          8
   140          1
   141          1
   142          1
   149          1
   150          1
   151         22
   152         26
   153          3
   165         12
   166         25
   167          4
   179          1
   194        122
   195         19
   196          1
   211          1