##TITLE=Library Entry 96354
##JCAMP-DX=Revision 4.10 
##DATA TYPE=MASS SPECTRUM
##SAMPLE DESCRIPTION=A.A.Kutin, Moscow, Russia
##NAMES=HP
##CAS NAME=Acethydrazide, 2-(perhydro-1,4-thiazin-4-yl)-N2-(3-chlorobenzylid
eno)-
##MOLFORM=C13H16ClN3OS
##CAS REGISTRY NO=331857-00-2
##MP= -300
##BP= -300
##MW= 297
##$RETENTION INDEX=0
##$CONDENSED SPECTRUM=NO
##NPOINTS= 169
##XYDATA=(XY..XY) 1 
    33          2
    34          3
    35         11
    36          9
    37          3
    38          8
    39         30
    40         19
    41         72
    42        205
    43        125
    44         91
    45        369
    46        196
    47         14
    48          3
    49          2
    50         15
    51         13
    52          4
    53          9
    54         25
    55         23
    56         84
    57         20
    58         26
    59         55
    60         73
    61         36
    62         15
    63         31
    64          5
    65          3
    66          1
    67          2
    68          6
    69         12
    70         23
    71          9
    72          6
    73         15
    74         13
    75         37
    76          9
    77          5
    78          1
    79          0
    80          1
    81          1
    82          3
    83          4
    84          9
    85         16
    86         15
    87         41
    88        210
    89         58
    90         30
    91          6
    92          2
    93          1
    94          0
    95          0
    96          1
    97          3
    98          3
    99         12
   100          4
   101         15
   102         95
   103          8
   104          5
   105          1
   106          0
   107          0
   108          0
   111         28
   112          8
   113         13
   114         28
   116        999
   117         69
   118         52
   119          4
   120          0
   121          1
   122          0
   123          2
   124          3
   125          5
   126          5
   127          4
   128          3
   129          2
   130          1
   131          1
   132          0
   133          0
   134          0
   135          1
   136          1
   137          5
   138          7
   139          4
   140          5
   141          1
   142          3
   143          0
   144          0
   145          0
   146          0
   147          0
   149          1
   150          2
   151          0
   152          3
   153          7
   154          3
   155          3
   156          1
   157         10
   158          7
   159         10
   160          1
   161          1
   162          0
   163          0
   164          1
   165          5
   166          1
   167          6
   168          1
   169          1
   170          0
   171          1
   172          0
   173          0
   175          0
   179          0
   180          0
   181          2
   182          0
   183          0
   189          0
   194          0
   195          1
   196          2
   197          0
   198          0
   199          0
   215          3
   216          0
   217          0
   223          0
   224          2
   225          0
   226          0
   237          0
   238          1
   239          0
   240          0
   241          0
   250          0
   252          0
   294          0
   297          9
   298          1
   299          3
   300          0