##TITLE=Library Entry 66558
##JCAMP-DX=Revision 4.10 
##DATA TYPE=MASS SPECTRUM
##SAMPLE DESCRIPTION=A.A.Kutin, Moscow, Russia
##NAMES=HP
##CAS NAME=Oxamide, N-(4-pyridylmethyl)-N'-(2-thiazolyl)-
##MOLFORM=C11H10N4O2S
##CAS REGISTRY NO=331829-81-3
##MP= -300
##BP= -300
##MW= 262
##$RETENTION INDEX=0
##$CONDENSED SPECTRUM=NO
##NPOINTS= 114
##XYDATA=(XY..XY) 1 
    33          0
    34          0
    36          0
    39         90
    40         11
    41          8
    42          4
    43         14
    44         24
    45         50
    46          5
    47          2
    50         31
    51         53
    52         31
    53         15
    55        104
    57         52
    58         87
    59         41
    60          5
    61          3
    62          7
    63         32
    65        237
    66         22
    67          8
    68          3
    69          9
    70          8
    71         11
    72         13
    73         38
    74          3
    75          4
    77         18
    78         36
    79         66
    80         22
    81          2
    82          3
    83          7
    84          3
    85         11
    86          8
    87          0
    88          1
    92        553
    93        999
    94         61
    95          3
    97          1
   100        380
   101         18
   102         11
   103          2
   105         20
   106          7
   107         21
   108         19
   109          2
   111          1
   112          1
   113          4
   114          0
   115          0
   116          0
   117          1
   118          1
   119          2
   120          2
   122          0
   123          0
   125          5
   127        827
   128         76
   130          5
   131          2
   132          4
   133          5
   135         81
   136         65
   137          6
   138          0
   146          1
   148          1
   149          1
   150          0
   156          0
   158          0
   159          0
   161          0
   163          0
   171          1
   175          0
   176          0
   181          0
   187          2
   188          0
   189          0
   190          3
   191          0
   200          0
   202          0
   215          1
   216          0
   218          0
   219          4
   220          0
   259          0
   260          0
   262         24
   263          3
   264          0