##TITLE=Library Entry 85190
##JCAMP-DX=Revision 4.10 
##DATA TYPE=MASS SPECTRUM
##SAMPLE DESCRIPTION=NIST Mass Spectrometry Data Center, 1994
##NAMES=HP
##CAS NAME=5-Fluoro-2-methylbenzoic acid
##MOLFORM=C8H7FO2
##CAS REGISTRY NO=33184-16-6
##MP= -300
##BP= -300
##MW= 154
##$RETENTION INDEX=0
##$CONDENSED SPECTRUM=NO
##NPOINTS= 67
##XYDATA=(XY..XY) 1 
    17          7
    18         14
    33         12
    36          7
    37         22
    38         50
    39        112
    40          5
    44         66
    46          6
    49         17
    50         97
    51        113
    52         14
    53         27
    54         53
    56         29
    57        211
    58         11
    60          7
    61         46
    62         88
    63        145
    64         18
    68        101
    69         22
    70         17
    71          9
    75         50
    76         15
    77         68
    78         10
    79         10
    80         22
    81        122
    82         38
    83        319
    84         25
    85         19
    86         24
    87         20
    88         12
    89         55
    90          8
    91          8
    92          6
    93          9
    94         12
    95         54
    96         19
    97         51
   105         27
   107        252
   108        999
   109        833
   110         76
   111          5
   123         18
   125         14
   136        583
   137        207
   138         19
   139          7
   151          8
   154        549
   155         53
   156          5