##TITLE=Library Entry 98949
##JCAMP-DX=Revision 4.10 
##DATA TYPE=MASS SPECTRUM
##SAMPLE DESCRIPTION=V.Zaikin,Inst.Petrochem.Synth.,RAS,Moscow
##NAMES=HP
##CAS NAME=Benzoic acid, 4-methyl, 3-methylbutyl ester
##MOLFORM=C13H18O2
##CAS REGISTRY NO=331810-91-4
##MP= -300
##BP= -300
##MW= 206
##$RETENTION INDEX=1591
##$CONDENSED SPECTRUM=NO
##NPOINTS= 74
##XYDATA=(XY..XY) 1 
    26         10
    27         58
    28         10
    29         57
    30          6
    38          5
    39        104
    40         23
    41        132
    42         60
    43         86
    44          8
    50         29
    51         37
    52         20
    53         13
    54          7
    55        151
    56         14
    57         17
    58          3
    59          6
    61          7
    62         16
    63         54
    64         20
    65        162
    66         11
    67          5
    68          2
    69         21
    70        601
    71         39
    72          3
    74          4
    75          6
    76          5
    77         21
    78          4
    79         19
    81          2
    84          3
    86          3
    87          4
    88          4
    89         39
    90         36
    91        413
    92         63
    93         39
    94          6
    95          5
   104          4
   105          9
   106          2
   107         13
   108          3
   117          3
   118         11
   119        999
   120         90
   121         10
   133          3
   134          3
   135         19
   136        326
   137        333
   138         30
   139          3
   149          4
   150          5
   163          4
   191          3
   206          3