##TITLE=Library Entry 10825
##JCAMP-DX=Revision 4.10 
##DATA TYPE=MASS SPECTRUM
##SAMPLE DESCRIPTION=Chemical Concepts
##NAMES=HP
##CAS NAME=3,5-Dipiperonylidene-1-propyl-4-piperidone
##MOLFORM=C24H23NO5
##CAS REGISTRY NO=331839-37-3
##MP= -300
##BP= -300
##MW= 405
##$RETENTION INDEX=0
##$CONDENSED SPECTRUM=NO
##NPOINTS= 224
##XYDATA=(XY..XY) 1 
    33         54
    34         13
    36         13
    37         26
    39        216
    40        209
    41        493
    42        754
    43        999
    45         13
    50         72
    51        252
    52        113
    53         68
    55        103
    56         76
    57         97
    58         12
    59          8
    60         17
    62         65
    63        222
    64         43
    65         91
    66         23
    67         27
    68         25
    70        143
    71         34
    72         29
    74         56
    75        110
    76        321
    77        290
    78         75
    80         52
    81         30
    82         31
    83         32
    84         30
    85         17
    87         56
    88        100
    89        222
    90         61
    91         48
    92         27
    95        137
    96         26
    97         10
    98         11
    99         21
   101        182
   102        796
   103        276
   104         50
   105         49
   106         32
   107         17
   109         41
   110         24
   111         23
   112         16
   113         28
   115        147
   116        117
   117         98
   118         25
   119         14
   120         39
   122         61
   123         23
   124         13
   125         13
   126         13
   127         21
   128         25
   129        146
   130        235
   131        187
   132         24
   133         15
   135        400
   136         41
   137         24
   138         19
   139         17
   140          9
   141         14
   142         20
   143         35
   144        119
   145        155
   146         40
   147         45
   148         37
   149         63
   150         16
   151         47
   152         22
   154         27
   155         13
   156         19
   157        152
   159        619
   160        484
   161        153
   162         40
   163         32
   164         12
   165         15
   166         10
   167         14
   168          9
   169         10
   170         19
   171         40
   173        295
   174        139
   175         90
   176         28
   177         11
   178         12
   181          9
   182         15
   183         10
   184         17
   185         34
   187        521
   188        146
   189         91
   190         30
   191         15
   192          9
   196          9
   197         14
   198         13
   199         14
   200         43
   201         28
   202         85
   203         27
   205         24
   210         12
   211          9
   212         34
   213         20
   214         30
   215         38
   216        325
   217         58
   218        144
   219         25
   220          8
   225          9
   226         14
   227          9
   228         25
   229         25
   230         35
   231         25
   240         20
   241         33
   242        211
   243         38
   244         22
   245          9
   246         13
   247         10
   254         31
   255         29
   256        100
   257         22
   258          8
   259         18
   261         10
   263          8
   266         23
   268         29
   269         16
   270        168
   271         34
   272         14
   273         17
   274         13
   275         14
   276          9
   281         10
   283         33
   284         19
   288          8
   289         17
   290          8
   292         16
   293         34
   294         24
   302         10
   303          9
   304         15
   305         10
   306         16
   317         12
   318         13
   319         18
   332          9
   333         14
   334         20
   346         13
   347         23
   348         34
   349          9
   362         13
   372          8
   373         10
   374         26
   376        308
   377        121
   378         27
   388          9
   403         77
   404        257
   405        783
   406        202
   407         36