##TITLE=Library Entry 5371
##JCAMP-DX=Revision 4.10 
##DATA TYPE=MASS SPECTRUM
##SAMPLE DESCRIPTION=A.A.Kutin, Moscow, Russia
##NAMES=HP
##CAS NAME=4H-Pyrano[2,3-d]pyrimidine-6-carbonitrile, 7-amino-1,5-dihydro-2-
methyl-4-oxo-5-(3-pyridinyl)-
##MOLFORM=C14H11N5O2
##CAS REGISTRY NO=331859-68-8
##MP= -300
##BP= -300
##MW= 281
##$RETENTION INDEX=0
##$CONDENSED SPECTRUM=NO
##NPOINTS= 120
##XYDATA=(XY..XY) 1 
    36          4
    37         18
    38         56
    39         83
    40         63
    41        132
    42        999
    43         68
    44        191
    45          4
    50        179
    51        355
    52        102
    53         55
    54         13
    55         13
    56          8
    57          7
    59          2
    61         17
    62         35
    63         59
    64         71
    65         30
    66         56
    67         33
    68         25
    69         25
    70          7
    71          2
    74         17
    75         77
    76         70
    77         47
    78        117
    79        110
    80         17
    81          2
    82          1
    85         20
    86         10
    87         24
    88         30
    89         42
    90         27
    91         39
    92          9
    93          4
    94          1
    95          5
    98          4
    99          8
   100         15
   101         18
   102         28
   103         27
   104         20
   105         10
   106         46
   107         28
   108          2
   111          1
   112          6
   113         17
   114         33
   115         15
   116          7
   117         10
   118         13
   119         38
   120         11
   121          1
   126          4
   127          5
   128         11
   129         26
   130         12
   131          2
   132          4
   133         10
   134         29
   135          1
   139          6
   140         11
   141         30
   142         13
   143          2
   145         69
   146          8
   154          2
   155          7
   156         10
   157          6
   160          1
   162        140
   163         11
   164          1
   166          7
   167         13
   168         15
   169         10
   171          2
   184          1
   194          1
   195          6
   196          9
   197          2
   203        758
   204         85
   205          5
   214          1
   215          4
   216         13
   217          5
   222          2
   237          4
   239          1
   280          9
   281         77
   282         12