##TITLE=Library Entry 53533
##JCAMP-DX=Revision 4.10 
##DATA TYPE=MASS SPECTRUM
##SAMPLE DESCRIPTION=A.A.Kutin, Moscow, Russia
##NAMES=HP
##CAS NAME=Oxamide, N-cyclopentyl-N'-(3-methoxypropyl)-
##MOLFORM=C11H20N2O3
##CAS REGISTRY NO=331863-74-2
##MP= -300
##BP= -300
##MW= 228
##$RETENTION INDEX=0
##$CONDENSED SPECTRUM=NO
##NPOINTS= 131
##XYDATA=(XY..XY) 1 
    33         44
    34          0
    37          0
    39        105
    41        845
    42        137
    43        130
    44        132
    45        624
    46        265
    47          4
    48          0
    50          0
    51          3
    52          3
    53         25
    54         38
    56        698
    57        192
    58        128
    59        152
    60         17
    61          1
    63          0
    65         13
    66         10
    67        117
    68         93
    69        715
    70         63
    71        509
    72        549
    73        123
    74        149
    75          7
    76          0
    77          0
    79          0
    80          4
    82         24
    84        999
    85        132
    86        107
    87         16
    88        188
    89        256
    90         46
    91          2
    92          0
    93          0
    94          1
    95          2
    96          7
    97          8
    98          5
    99          3
   100          7
   101         32
   102         25
   103         22
   104          0
   108          0
   109          0
   110          2
   112        101
   113         46
   114         43
   116        758
   117         49
   118          9
   119          0
   120          0
   123          0
   124          1
   125          7
   126          2
   127         10
   129        229
   130         13
   131          5
   132          0
   135          0
   138          0
   139          1
   140          7
   141          5
   142          7
   143          3
   144         32
   145          9
   146          0
   151          0
   152          1
   153          1
   154          2
   155         11
   157         98
   158          9
   159          9
   161         62
   162          4
   163          0
   167          1
   168          2
   169         13
   170         18
   171          2
   172          3
   173          0
   180          0
   183          4
   184          1
   185          4
   186          0
   187          0
   195          1
   196          6
   197          7
   198          1
   200         28
   201          3
   202          0
   210          0
   213          4
   214          0
   224          1
   225          0
   227          1
   228        223
   229         31
   230          3