##TITLE=Library Entry 59247
##JCAMP-DX=Revision 4.10 
##DATA TYPE=MASS SPECTRUM
##SAMPLE DESCRIPTION=A.A.Kutin, Moscow, Russia
##NAMES=HP
##CAS NAME=Piperazine, 1-benzyl-4-(3-methyl-2-thienylmethyl)-
##MOLFORM=C17H22N2S
##CAS REGISTRY NO=331855-65-3
##MP= -300
##BP= -300
##MW= 286
##$RETENTION INDEX=0
##$CONDENSED SPECTRUM=NO
##NPOINTS= 110
##XYDATA=(XY..XY) 1 
    36          7
    38         11
    39         70
    40         27
    41         83
    42        154
    43         39
    44        157
    45        641
    46        300
    47         10
    50         14
    51         43
    52         17
    53         39
    54         30
    55         50
    56        105
    57         29
    58         23
    59         14
    62          6
    63         22
    64         12
    65        143
    66         22
    67         56
    68          8
    69         16
    70         30
    71         27
    72         48
    73          3
    77         82
    78         41
    79          9
    80          4
    81          7
    82          5
    83         19
    84         19
    85         37
    89         26
    91        999
    92         72
    93          6
    94          5
    95          5
    96          4
    97         17
    98          5
   103          4
   104         17
   105         15
   106          9
   107          7
   108          3
   109         17
   110         44
   111        468
   112         41
   113         24
   117          8
   118         18
   119         17
   120        100
   121         11
   123          8
   124         13
   125          7
   126          8
   127          7
   128          7
   130          3
   131          5
   132         57
   133         23
   134         75
   135         10
   136          6
   138         17
   139         95
   140         18
   141          5
   145          3
   146         32
   147          8
   148         27
   149          5
   150          6
   151          7
   152         21
   153         13
   154         10
   160          9
   161          3
   171          3
   173         10
   175        291
   176         47
   177          3
   187          8
   189          3
   195        134
   196         16
   197          7
   285          4
   286         76
   287         15
   288          4