##TITLE=Library Entry 13200
##JCAMP-DX=Revision 4.10 
##DATA TYPE=MASS SPECTRUM
##SAMPLE DESCRIPTION=A.A.Kutin, Moscow, Russia
##NAMES=HP
##CAS NAME=Isoxazole-4-carboxamide, 3-(2-chlorophenyl)-5-methyl-N-(2-thiazol
yl)-
##MOLFORM=C14H10ClN3O2S
##CAS REGISTRY NO=331847-91-7
##MP= -300
##BP= -300
##MW= 319
##$RETENTION INDEX=0
##$CONDENSED SPECTRUM=NO
##NPOINTS= 149
##XYDATA=(XY..XY) 1 
    33          9
    34          1
    35          4
    36         14
    37          6
    38         16
    39         26
    40         19
    43        999
    45         79
    47         10
    50         44
    51         35
    52         13
    53          7
    55        100
    57         24
    58         45
    59         10
    60          5
    61          8
    62         10
    63         17
    64          6
    65          3
    66          2
    67          4
    68          3
    69          7
    70          4
    71          7
    72          5
    73         18
    74         22
    75         74
    76         18
    77         15
    78          3
    79          8
    80          0
    81          1
    83          4
    84          6
    85         11
    86          7
    87         10
    88          9
    89          4
    90          2
    91          4
    92          3
    93          1
    94          0
    95          0
    97          4
    98          7
    99         20
   100         31
   101         10
   102         15
   103          2
   104          1
   105          0
   109          1
   111         39
   112          7
   113         15
   114         27
   115          6
   116          2
   117          0
   120          0
   121          0
   122          1
   123         21
   124          3
   125          9
   126          7
   127         15
   128          3
   129          4
   130          0
   132          0
   134          1
   136          1
   137          6
   138          4
   139         12
   140          2
   141          4
   142          1
   143          2
   144          7
   145          0
   150         53
   151          7
   152         15
   153          2
   154          0
   156          0
   157          0
   160          5
   161          1
   162          0
   163          0
   164          0
   165          2
   166          0
   167          0
   170          0
   171          0
   174          0
   175          1
   178        425
   179         46
   180        122
   181         12
   182          8
   183          1
   186          0
   187          0
   192          0
   196          0
   200          1
   202         55
   203          7
   204          0
   216          0
   217          0
   218          1
   220        100
   221         12
   222         31
   223          3
   238          0
   256          0
   281          0
   282          1
   284         65
   285         11
   286          3
   287          0
   315          0
   317          1
   319         47
   320          7
   321         15
   322          2
   323          0