##TITLE=Library Entry 22281
##JCAMP-DX=Revision 4.10 
##DATA TYPE=MASS SPECTRUM
##SAMPLE DESCRIPTION=A.A.Kutin, Moscow, Russia
##NAMES=HP
##CAS NAME=Piperazine, 1-(3-trifluoromethylphenyl)-4-(5-nitro-2-thienylmethy
l)-
##MOLFORM=C16H16F3N3O2S
##CAS REGISTRY NO=331855-69-7
##MP= -300
##BP= -300
##MW= 371
##$RETENTION INDEX=0
##$CONDENSED SPECTRUM=NO
##NPOINTS= 110
##XYDATA=(XY..XY) 1 
    36         13
    38         23
    39         80
    40         54
    41        107
    42        297
    43         84
    44        207
    45        745
    46        371
    47         11
    50         34
    51         49
    52         41
    53         29
    54         74
    55        189
    56        999
    57         89
    58         49
    59         10
    62          9
    63         24
    64         11
    65         17
    66         11
    67         16
    68         41
    69         60
    70        126
    71         26
    74         11
    75         34
    76         17
    77         29
    78         26
    79         11
    80         10
    81         16
    82         17
    83         21
    84         55
    85         12
    86         17
    90          9
    91         22
    93         10
    94         12
    95        104
    96        152
    97         45
    98         12
   105         10
   107          9
   109         20
   110          9
   111         22
   112         44
   113         10
   114         13
   117         10
   118         10
   119         14
   123         41
   124         11
   125         32
   126         40
   127         39
   128         15
   138         11
   139         10
   140         10
   142        177
   143         20
   144         17
   145        194
   146         19
   151         10
   152         37
   153         34
   154         22
   155         12
   159         74
   160          9
   166         10
   169         21
   170        254
   171         40
   172        213
   173        189
   174        355
   175         38
   181         16
   185         17
   186         17
   187         52
   188        184
   189         22
   197         49
   198         16
   199         11
   200         66
   201         16
   202         36
   227         17
   228         15
   229        131
   230         41
   371         99
   372         16