##TITLE=Library Entry 107516
##JCAMP-DX=Revision 4.10 
##DATA TYPE=MASS SPECTRUM
##SAMPLE DESCRIPTION=V.Zaikin,Inst.Petrochem.Synth.,RAS,Moscow
##NAMES=HP
##CAS NAME=Phenothiazine,10-(2-fluorobenzoyl)-2-trifluoromethyl-
##MOLFORM=C20H11F4NOS
##CAS REGISTRY NO=331841-01-1
##MP= -300
##BP= -300
##MW= 389
##$RETENTION INDEX=0
##$CONDENSED SPECTRUM=NO
##NPOINTS= 71
##XYDATA=(XY..XY) 1 
    28          5
    39          3
    45          7
    50          6
    51          5
    63          7
    69         14
    70          3
    74          5
    75         31
    76          4
    93          3
    94          7
    95        117
    96         14
   108          4
   122          3
   123        999
   124         69
   125          5
   126          3
   133          4
   145          3
   152          3
   153          8
   157          4
   164          5
   169          4
   170          4
   171          4
   175          3
   176          3
   182          3
   184          4
   189          3
   195          4
   196         33
   197         23
   198          5
   202         13
   203          5
   208          3
   213          3
   214          4
   215          6
   216          5
   220          3
   221          4
   222         23
   223          3
   233          3
   234         19
   235         22
   238          2
   239          6
   240          3
   245          5
   246          8
   247         17
   248          4
   265          9
   266        263
   267         81
   268         20
   269          4
   370         26
   371          6
   389        255
   390         58
   391         18
   392          3