##TITLE=Library Entry 46938
##JCAMP-DX=Revision 4.10 
##DATA TYPE=MASS SPECTRUM
##SAMPLE DESCRIPTION=A.A.Kutin, Moscow, Russia
##NAMES=HP
##CAS NAME=Acetamide, 2-(benzotriazol-1-yl)-N-(3-nitrophenyl)-
##MOLFORM=C14H11N5O3
##CAS REGISTRY NO=331962-83-5
##MP= -300
##BP= -300
##MW= 297
##$RETENTION INDEX=0
##$CONDENSED SPECTRUM=NO
##NPOINTS= 179
##XYDATA=(XY..XY) 1 
    37         28
    38         83
    39        159
    40         28
    41         44
    42         44
    43         23
    44         31
    45          3
    46          8
    50        212
    51        353
    52        136
    53         28
    54         21
    55          9
    56          3
    57          5
    58          2
    59          8
    61         19
    62         60
    63        259
    64        242
    65        101
    66         21
    67          5
    68          2
    69          4
    70          2
    71          2
    72          3
    73         11
    74         56
    75        117
    76        291
    77        999
    78        374
    79         52
    80         11
    81          3
    82          1
    83          3
    84          2
    85          2
    86          1
    87          5
    88         10
    89         20
    90        151
    91        114
    92         66
    93         28
    94          3
    95          2
    97          3
    98          1
    99          1
   100          1
   101          2
   102         24
   104        846
   105        373
   106         41
   107          5
   108          2
   109          1
   110          3
   111          1
   112          2
   113          0
   114          2
   115          4
   116          3
   117          6
   118          9
   119         15
   120         37
   121         16
   122         18
   123          2
   124          1
   125          1
   126          2
   127          3
   128          2
   129          1
   130          3
   132        603
   133        149
   134         11
   135          2
   137         56
   138          8
   139          5
   140          4
   141          2
   142          0
   143          0
   144          0
   145          0
   146          0
   147          3
   148          1
   149          4
   150          5
   151         68
   152          9
   153          3
   154          4
   155          3
   156          1
   157          1
   158          0
   161          0
   162          3
   163          4
   164          4
   165         58
   166         17
   167         21
   168          9
   169          2
   170          1
   171          2
   172          0
   177          0
   178          2
   179         13
   180          4
   181          3
   182          2
   183          5
   184          1
   185          2
   186          0
   187          0
   189          0
   192          1
   193         11
   194         30
   195         10
   196          3
   197          1
   201          0
   202          0
   204          0
   205          0
   206          0
   207          0
   208          0
   209          1
   210          1
   211          0
   212          3
   213          1
   214          0
   220          0
   221          3
   222         13
   223          8
   224          2
   225          0
   226          0
   238          0
   240          8
   241          1
   252          1
   267          1
   268          5
   269          3
   271          0
   281          0
   283          1
   284          0
   296          0
   297        200
   298         33
   299          3