##TITLE=Library Entry 78819
##JCAMP-DX=Revision 4.10 
##DATA TYPE=MASS SPECTRUM
##SAMPLE DESCRIPTION=A.A.Kutin, Moscow, Russia
##NAMES=HP
##CAS NAME=Benzamide, N-[2-(2-chlorophenyl)-1-(1-piperazinylcarbonyl)ethenyl
]-
##MOLFORM=C20H20ClN3O2
##CAS REGISTRY NO=331945-58-5
##MP= -300
##BP= -300
##MW= 369
##$RETENTION INDEX=0
##$CONDENSED SPECTRUM=NO
##NPOINTS= 230
##XYDATA=(XY..XY) 1 
    36          3
    37          2
    38          7
    39         26
    40         10
    41         63
    42        129
    43         90
    44        174
    45          6
    49          2
    50         41
    51        158
    52         14
    53          9
    54         27
    55         53
    56        311
    57         81
    58         45
    59         52
    60          5
    61          2
    62         11
    63         28
    64          6
    65          7
    66          2
    67          9
    68         16
    69         75
    70         45
    71         18
    72         27
    73          9
    74         12
    75         20
    76         46
    77        727
    78         54
    79          5
    80          1
    81          8
    82          4
    83         26
    84         64
    85        238
    86         56
    87         13
    88         19
    89         83
    90         13
    91          7
    92          2
    93          1
    95          3
    96          2
    97          6
    98          4
    99          8
   100          4
   101          7
   102          4
   103          7
   105        999
   106         76
   107          5
   109          2
   110          1
   111          4
   112          4
   113         17
   114         22
   115         64
   116         35
   117         20
   118          5
   119          1
   121          1
   122          5
   123         12
   124          8
   125         39
   126          8
   127         13
   128          6
   129          2
   130          7
   131          4
   132          3
   135          1
   136          4
   137          4
   138          4
   139          9
   140          3
   141          4
   142          2
   143          3
   144          7
   145          3
   146          3
   147          1
   148          1
   149          2
   150         12
   151         56
   152         37
   153         23
   154         13
   155          3
   156          3
   157          4
   158          3
   159          2
   161          2
   162          2
   163          5
   164          8
   165          7
   166          9
   167          3
   168          3
   169          1
   170          2
   171          6
   172          4
   173          5
   174          2
   176          1
   177          2
   178          5
   179          2
   180          4
   181          2
   182          1
   183          1
   184          3
   185          4
   186          4
   187          2
   189          3
   190          5
   191          2
   192          4
   193          8
   194          4
   195          2
   199          1
   201          2
   202          1
   203          5
   204          3
   205          2
   206          5
   207          7
   208          7
   209         45
   210          7
   211         15
   212          3
   213         13
   214          2
   218          2
   219          5
   220         14
   221         16
   222          7
   223          7
   224          1
   228          1
   230          2
   232          1
   233          2
   234          1
   235         17
   236          4
   237          6
   238          3
   240          2
   244          1
   246          2
   247         20
   248         18
   249         10
   250         12
   251          2
   255          2
   256          1
   257          1
   258          2
   261         10
   262          2
   264         10
   265         12
   266          5
   270          2
   277          1
   279         32
   280          6
   281          3
   282          4
   284        244
   285         57
   286         79
   287         18
   288          2
   291          2
   294         13
   295          3
   296          6
   297          2
   298          3
   299          5
   300          2
   301         55
   302         10
   303         18
   304          2
   313          1
   314          6
   316          5
   326          2
   327          1
   334          3
   351          3
   369         41
   370          9
   371         13
   372          3