##TITLE=Library Entry 59158
##JCAMP-DX=Revision 4.10 
##DATA TYPE=MASS SPECTRUM
##SAMPLE DESCRIPTION=CARL DJERASSI DEPT OF CHEM STANFORD UNIV STANFORD CALIF
 94305
##NAMES=HP
##CAS NAME=3-Hepten-2-one, 7-phenyl-
##MOLFORM=C13H16O
##CAS REGISTRY NO=33191-93-4
##MP= -300
##BP= -300
##MW= 188
##$RETENTION INDEX=0
##$CONDENSED SPECTRUM=NO
##NPOINTS= 56
##XYDATA=(XY..XY) 1 
    41        110
    42         10
    43        670
    44         20
    45         20
    50         20
    51         80
    52         20
    53         50
    54         20
    55         50
    62         10
    63         50
    64         10
    65        170
    66         10
    67         40
    69        100
    71         60
    77         60
    78         50
    79         80
    81         20
    82         20
    84        550
    85         40
    89         30
    91        999
    92        190
    93         10
    95         30
    97        550
    98         60
   103         50
   104        210
   105        190
   106         20
   107         20
   115         40
   116         20
   117         60
   118         20
   128         40
   129         60
   130        630
   131        130
   132         10
   141         10
   143         10
   145         40
   146         10
   155         10
   159         10
   170         10
   173         10
   188         30