##TITLE=Library Entry 109142
##JCAMP-DX=Revision 4.10 
##DATA TYPE=MASS SPECTRUM
##SAMPLE DESCRIPTION=Chemical Concepts
##NAMES=HP
##CAS NAME=3-Bromo-5,5-dimethyl-cyclohex-2-enol
##MOLFORM=C8H13BrO
##CAS REGISTRY NO=331941-93-6
##MP= -300
##BP= -300
##MW= 204
##$RETENTION INDEX=0
##$CONDENSED SPECTRUM=NO
##NPOINTS= 82
##XYDATA=(XY..XY) 1 
    26          4
    27         52
    28          4
    29         57
    31          9
    37          4
    38         16
    39        122
    40         26
    41        187
    42         15
    43        221
    44         12
    45         13
    47          4
    50         14
    51         37
    52         12
    53         59
    54         18
    55        127
    56         34
    57         42
    59         16
    62          7
    63         17
    64          5
    65         39
    66         18
    67         50
    68         16
    69        297
    70         17
    71          8
    73          5
    75          4
    77         50
    78         15
    79         82
    80         17
    81         64
    82         15
    83         72
    84          8
    85         24
    89          5
    90          4
    91        109
    92         41
    93         16
    94         15
    95         38
    96          8
    97         12
   105         24
   106          7
   107        118
   108         17
   109         35
   110         19
   119          7
   121          6
   123          7
   124          4
   125        999
   126         86
   127          6
   133          5
   135          5
   147          5
   148         44
   149          7
   150         36
   161          4
   163          4
   171         14
   173         15
   189          6
   203          7
   204          6
   205          7
   206          6