##TITLE=Library Entry 109149
##JCAMP-DX=Revision 4.10 
##DATA TYPE=MASS SPECTRUM
##SAMPLE DESCRIPTION=ATLAS OF MASS SPECTRA OF ORGANIC COMPOUNDS, V. A. KOPTY
UG, ED.
##NAMES=HP
##CAS NAME=2-Pyrazoline, 4-ethyl-1-isopropyl-
##MOLFORM=C8H16N2
##CAS REGISTRY NO=33193-27-0
##MP= -300
##BP= -300
##MW= 140
##$RETENTION INDEX=0
##$CONDENSED SPECTRUM=NO
##NPOINTS= 33
##XYDATA=(XY..XY) 1 
    26          8
    27         98
    29         41
    30         29
    39         62
    40         16
    41        114
    42        173
    43         75
    44         33
    52          5
    53         10
    54         28
    55         52
    56        114
    57          9
    67          6
    68         21
    69        475
    70         34
    81          8
    82          9
    83         12
    95         11
    96         17
    97         23
    98          5
   111         15
   125        999
   126         85
   139         14
   140        177
   141         18