##TITLE=Library Entry 72169
##JCAMP-DX=Revision 4.10 
##DATA TYPE=MASS SPECTRUM
##SAMPLE DESCRIPTION=A.A.Kutin, Moscow, Russia
##NAMES=HP
##CAS NAME=1-(4-Iodo-phenyl)-3-(4-methyl-piperazin-1-yl)-pyrrolidine-2,5-dio
ne
##MOLFORM=C15H18IN3O2
##CAS REGISTRY NO=331966-67-7
##MP= -300
##BP= -300
##MW= 399
##$RETENTION INDEX=0
##$CONDENSED SPECTRUM=NO
##NPOINTS= 209
##XYDATA=(XY..XY) 1 
    37          0
    38          1
    39          8
    40         11
    41         15
    42         79
    43        119
    44        221
    45          9
    49          0
    50          6
    51          3
    52          2
    53          3
    54         29
    55        148
    56        148
    57         59
    58        177
    59         88
    60          5
    61          0
    62          4
    63         24
    64         11
    65          4
    66          1
    67          3
    68         10
    69         37
    70        431
    71        146
    72        127
    73          6
    74          3
    75          4
    76         20
    77          9
    78          3
    79          2
    80          4
    81          6
    82         28
    83         30
    84         45
    85        123
    86         12
    87          1
    88          1
    89          5
    90         60
    91         11
    92          5
    93          4
    94          3
    95          7
    96          9
    97         62
    98        185
    99        999
   100         72
   101          3
   102          3
   103          2
   104          8
   105         13
   106          2
   107          2
   108          2
   109          5
   110          7
   111         18
   112          4
   113          1
   114          0
   115          1
   116          7
   117          5
   118         24
   119          7
   120          2
   121          1
   122          2
   123          3
   124         12
   125         20
   126         71
   127         41
   128         47
   129          2
   130          1
   131          1
   132          5
   133          1
   134          0
   135          1
   136          2
   137          1
   138          2
   139          2
   140          0
   141          0
   142          1
   143          1
   144          3
   145          3
   146          6
   147          0
   148          0
   149          4
   150          1
   151          5
   152          5
   153         14
   154          2
   155          0
   156          0
   157          0
   158          0
   159          0
   160          0
   161          0
   162          0
   165          0
   167          1
   168          1
   169          0
   170          1
   171          2
   172          4
   173          3
   174          2
   175          1
   177          0
   179          0
   181          0
   182          0
   183          0
   184          0
   185          1
   186          1
   187          1
   188          0
   189          0
   195          0
   196          0
   197          0
   200          2
   201          1
   202          1
   203         10
   204          0
   210          0
   213          0
   214          0
   215          2
   216          4
   217          1
   218          1
   219          8
   220          0
   223          0
   224          0
   225          0
   228          1
   229          3
   230          4
   231         43
   232          3
   243          1
   245         18
   246          1
   254          1
   255          0
   256          0
   257          0
   261          0
   270          0
   271          1
   272          6
   273         11
   274          1
   299         26
   300          3
   301         13
   302          1
   313          1
   314          0
   316          2
   317          0
   328          3
   329          3
   340          0
   342         14
   343         12
   344          1
   355          3
   356          8
   357          2
   359          1
   369          0
   370          1
   371          1
   382          2
   383          0
   384          1
   399        311
   400         53
   401          5