##TITLE=Library Entry 69086
##JCAMP-DX=Revision 4.10 
##DATA TYPE=MASS SPECTRUM
##SAMPLE DESCRIPTION=A.A.Kutin, Moscow, Russia
##NAMES=HP
##CAS NAME=Furan-2-carbohydrazide, N2-(3,5-ditert.-butyl-4-oxo-cyclohexa-2,5
-dienylidene)-
##MOLFORM=C19H24N2O3
##CAS REGISTRY NO=331945-00-7
##MP= -300
##BP= -300
##MW= 328
##$RETENTION INDEX=0
##$CONDENSED SPECTRUM=NO
##NPOINTS= 110
##XYDATA=(XY..XY) 1 
    37          3
    38         11
    39         82
    41         49
    42          4
    43         12
    45          6
    51          8
    52          3
    53         11
    55         15
    57         37
    65          9
    66          4
    67         25
    68          5
    69          5
    77         15
    78          4
    79          9
    80          3
    81          4
    91         30
    92          3
    93          8
    95        999
    96         58
    97          6
   103          6
   104          3
   105         14
   106          5
   107          8
   108          5
   109          3
   111          4
   112         18
   115         18
   116          7
   117         11
   118          4
   119         13
   120          4
   121          7
   122          3
   127          4
   128         11
   129         12
   130          7
   131         12
   132          9
   133         12
   134          7
   135          5
   136          3
   141          5
   142          3
   143          6
   144          5
   145         12
   146         11
   147         26
   148          8
   149          7
   150          3
   152          5
   156          3
   157          5
   158          7
   159         18
   160         24
   161         23
   162         21
   163          7
   171          5
   172          3
   173          8
   174         22
   175         27
   176         11
   177         14
   187          8
   188         12
   189         24
   190          6
   191         51
   192          6
   201          4
   202         92
   203         56
   204         12
   205         10
   213          7
   215          3
   216          5
   217         89
   218        239
   219         41
   220         98
   221         13
   233        298
   234         50
   235         12
   241          3
   243          2
   313         13
   328        496
   329        106
   330         32
   331          5