##TITLE=Library Entry 27855
##JCAMP-DX=Revision 4.10 
##DATA TYPE=MASS SPECTRUM
##SAMPLE DESCRIPTION=Exported from NIST MS Search
##NAMES=HP
##CAS NAME=Ethanone, 2-(dimethylamino)-1-phenyl-
##MOLFORM=C10H13NO
##CAS REGISTRY NO=3319-03-7
##MP= -300
##BP= -300
##MW= 163
##$RETENTION INDEX=0
##$CONDENSED SPECTRUM=NO
##NPOINTS= 21
##XYDATA=(XY..XY) 1 
    41         13
    42         88
    43         24
    44         12
    45          1
    51         44
    52         19
    53          1
    58        999
    59         29
    71         16
    72          1
    77         54
    78          3
   105         24
   106          2
   120          5
   121          1
   162          2
   163         12
   164          1