##TITLE=Library Entry 24858
##JCAMP-DX=Revision 4.10 
##DATA TYPE=MASS SPECTRUM
##SAMPLE DESCRIPTION=ASES Database, Dalian Institute, P.R. China
##NAMES=HP
##CAS NAME=2-Butoxy-3,4-dihydropyran
##MOLFORM=C9H16O2
##CAS REGISTRY NO=332-19-4
##MP= -300
##BP= -300
##MW= 156
##$RETENTION INDEX=0
##$CONDENSED SPECTRUM=NO
##NPOINTS= 29
##XYDATA=(XY..XY) 1 
    39        228
    40         46
    41        811
    42        114
    43        228
    44        623
    45        103
    53        155
    54        172
    55        281
    56        923
    57        999
    58         52
    69         30
    70         31
    71         55
    72        155
    73         25
    81        217
    82        405
    83        341
    84        170
    85        333
    86         30
    99         52
   100        312
   101         31
   156        187
   157         25