##TITLE=Library Entry 72171
##JCAMP-DX=Revision 4.10 
##DATA TYPE=MASS SPECTRUM
##SAMPLE DESCRIPTION=Japan AIST/NIMC Database- Spectrum MS-NW-8898
##NAMES=HP
##CAS NAME=Furan, 2,5-dihydro-2,5-dimethoxy-
##MOLFORM=C6H10O3
##CAS REGISTRY NO=332-77-4
##MP= -300
##BP= -300
##MW= 130
##$RETENTION INDEX=0
##$CONDENSED SPECTRUM=NO
##NPOINTS= 52
##XYDATA=(XY..XY) 1 
    14          2
    15         45
    16          1
    26          9
    27         61
    28         21
    29         71
    30          5
    31         17
    32          3
    33          4
    37          3
    38          9
    39         77
    40         31
    41        238
    42         52
    43         17
    44          2
    45         42
    47          2
    53          9
    54          4
    55         59
    56         22
    57          4
    58          1
    59         52
    60          1
    61          1
    67          5
    68         20
    69         54
    70         28
    71        345
    72         15
    73          1
    75          6
    83         17
    84          7
    85          4
    87          1
    88          1
    98         11
    99        999
   100         56
   101         64
   102          3
   113          1
   115          2
   129         77
   130          5