##TITLE=Library Entry 82447
##JCAMP-DX=Revision 4.10 
##DATA TYPE=MASS SPECTRUM
##SAMPLE DESCRIPTION=A.A.Kutin, Moscow, Russia
##NAMES=HP
##CAS NAME=Acetamide, 2-phenylamino-N-(4-phenyl-3-furazanyl)-
##MOLFORM=C16H14N4O2
##CAS REGISTRY NO=332042-26-9
##MP= -300
##BP= -300
##MW= 294
##$RETENTION INDEX=0
##$CONDENSED SPECTRUM=NO
##NPOINTS= 157
##XYDATA=(XY..XY) 1 
    33          0
    34          0
    37          0
    38          2
    39         12
    40          6
    41          3
    42          3
    43          3
    44          2
    45          1
    46          0
    47          0
    48          0
    49          1
    50         11
    51         44
    52          8
    53          4
    54          2
    55          1
    56          1
    57          1
    58          1
    59          1
    60          1
    61          2
    62          3
    63          8
    64          7
    65          8
    66          3
    67          0
    68          0
    69          1
    70          1
    71          1
    72          0
    74          2
    75          3
    76         16
    77        140
    78         32
    79         45
    80          3
    81          0
    83          0
    84          1
    85          0
    86          0
    87          2
    88          2
    89          4
    90          1
    91          5
    92          2
    93         14
    94          1
    95          0
    98          0
   100          0
   101          0
   103         26
   104         57
   105         54
   106        999
   107         82
   108          2
   109          0
   110          0
   112          0
   113          0
   114          3
   115          2
   116          2
   117          1
   118          1
   119          4
   120          2
   121          1
   122          0
   123          0
   129          0
   130          2
   131          6
   132          2
   133          5
   134          0
   135          0
   136          0
   143          0
   144          3
   145          3
   146          8
   147          1
   148          0
   149          1
   150          0
   151          0
   152          0
   155          0
   157          0
   158          0
   161          4
   162          3
   163          3
   164          0
   165          0
   171          0
   172          1
   173          0
   174          7
   175          2
   176          0
   178          0
   180          0
   181          0
   184          0
   187          0
   188          0
   189          0
   190          0
   191          1
   192          0
   194          4
   195          0
   197          0
   202          0
   205          0
   207          1
   208          0
   219          0
   220          0
   221          2
   222          1
   223          0
   233          0
   234          0
   235          0
   236          0
   237          3
   238          0
   239          1
   249          0
   250          0
   262          0
   263          0
   264          2
   265          0
   276          0
   277          8
   278          1
   279          0
   292          0
   294         93
   295         16
   296          1