##TITLE=Library Entry 21513
##JCAMP-DX=Revision 4.10 
##DATA TYPE=MASS SPECTRUM
##SAMPLE DESCRIPTION=A.A.Kutin, Moscow, Russia
##NAMES=HP
##CAS NAME=Furazano[3,4-b]pyrazin-5(4H)-one, 6-(1-pyrrolidinyl)-
##MOLFORM=C8H9N5O2
##CAS REGISTRY NO=332099-72-6
##MP= -300
##BP= -300
##MW= 207
##$RETENTION INDEX=0
##$CONDENSED SPECTRUM=NO
##NPOINTS= 125
##XYDATA=(XY..XY) 1 
    33         13
    34          7
    36          4
    37         15
    38         64
    39        356
    40        252
    41        484
    42        267
    43        229
    44         50
    45          7
    46          0
    50         19
    51         45
    52         85
    53        317
    54        184
    55        999
    56        102
    57         18
    58          7
    59          2
    62          2
    63          9
    64         16
    65         43
    66         59
    67         82
    68        127
    69        145
    70        109
    71         17
    72          2
    75          2
    76          3
    77         22
    78         30
    79         50
    80        198
    81         25
    82         25
    83          9
    84          6
    85          2
    89          0
    90          3
    91          7
    92         10
    93         31
    94         21
    95         40
    96         27
    97         50
    98          5
    99          1
   100          2
   102          2
   103          2
   104          4
   105         13
   106         17
   107         48
   108         19
   109         14
   110          4
   111          6
   116          0
   117          3
   118          2
   119          3
   120          6
   121         15
   122         39
   123         12
   124          5
   125          3
   130          0
   131          1
   132          6
   133         12
   135        489
   136         49
   137         13
   138          6
   139          0
   142          0
   144          5
   145          0
   146          1
   148          4
   149         68
   150         20
   151          2
   152          7
   153          3
   154          2
   159          0
   160          4
   162         13
   163         23
   164          5
   165          1
   166          1
   169          0
   171          2
   172          0
   175          4
   177        221
   178         43
   179         75
   180          5
   181          3
   189          4
   190          8
   192         22
   193          2
   196          4
   197          2
   205         12
   207        329
   208         32
   209          3
   211          1
   212          0