##TITLE=Library Entry 82504
##JCAMP-DX=Revision 4.10 
##DATA TYPE=MASS SPECTRUM
##SAMPLE DESCRIPTION=A.A.Kutin, Moscow, Russia
##NAMES=HP
##CAS NAME=Pyridine-4-carbohydrazide, N2-trifluoroacetyl-
##MOLFORM=C8H6F3N3O2
##CAS REGISTRY NO=332055-87-5
##MP= -300
##BP= -300
##MW= 233
##$RETENTION INDEX=0
##$CONDENSED SPECTRUM=NO
##NPOINTS= 47
##XYDATA=(XY..XY) 1 
    33          0
    34          0
    37          3
    38          5
    39          6
    40         17
    42          0
    43          6
    44          9
    47          1
    48          0
    51        426
    52         23
    53          4
    54          0
    55          2
    56          0
    57          1
    60          0
    64          4
    66          2
    67          0
    69         62
    71          0
    75          4
    76         10
    78        672
    79         31
    80          2
    82          0
    83          2
    85          1
    91          0
    92          0
    97          5
    99          1
   104          2
   106        999
   107         56
   127          1
   129          1
   135          0
   164          9
   185          0
   186          9
   233         55
   234          5