##TITLE=Library Entry 58856
##JCAMP-DX=Revision 4.10 
##DATA TYPE=MASS SPECTRUM
##SAMPLE DESCRIPTION=RADIAN CORP
##NAMES=HP
##CAS NAME=Benzene, 1-isocyanato-3-nitro-
##MOLFORM=C7H4N2O3
##CAS REGISTRY NO=3320-87-4
##MP= -300
##BP= -300
##MW= 164
##$RETENTION INDEX=0
##$CONDENSED SPECTRUM=NO
##NPOINTS= 36
##XYDATA=(XY..XY) 1 
    26          7
    27          2
    30        189
    37         87
    38        108
    39        245
    40          5
    46         62
    49          4
    50        100
    51         83
    52         38
    61         56
    62        113
    63        426
    64        203
    65         16
    74         31
    75         28
    76          7
    77          1
    78         56
    87          2
    88         24
    89         16
    90        999
    91         67
    92          2
   106        219
   107          1
   118        379
   119         20
   134         11
   138          2
   164        818
   165         64