##TITLE=Library Entry 13781
##JCAMP-DX=Revision 4.10 
##DATA TYPE=MASS SPECTRUM
##SAMPLE DESCRIPTION=A.A.Kutin, Moscow, Russia
##NAMES=HP
##CAS NAME=3-Amino-7-(trifluoromethyl)[1,2,4]triazolo[4,3-a]pyrimidin-5-ol
##MOLFORM=C6H4F3N5O
##CAS REGISTRY NO=332026-83-2
##MP= -300
##BP= -300
##MW= 219
##$RETENTION INDEX=0
##$CONDENSED SPECTRUM=NO
##NPOINTS= 120
##XYDATA=(XY..XY) 1 
    33         27
    34         29
    36         14
    37         11
    38         56
    39        138
    40        540
    41        203
    42        482
    43        999
    44        270
    45        103
    46         23
    47          9
    48          3
    50         51
    51         93
    52        285
    53        416
    54         84
    55        101
    56         56
    57         99
    58         37
    59         17
    60         73
    61          6
    62          6
    63         19
    64         16
    65         65
    66         82
    67        217
    68        526
    69        471
    70         66
    71         89
    72         13
    73         31
    74         38
    75        262
    76         27
    77         45
    78         32
    79         39
    80         16
    81         19
    82         20
    83         37
    84         20
    85         33
    86          3
    87          8
    88          3
    89         33
    90         37
    91         64
    92         19
    93         88
    94         73
    95         94
    96         44
    97         16
    98         18
    99         47
   100         24
   101         64
   102         17
   103         33
   104         12
   105         25
   106         11
   107         10
   108         11
   109         17
   110          5
   111          5
   112         12
   113          8
   115          7
   116         31
   117         10
   119          3
   120         61
   121         77
   122         84
   123         22
   124          3
   125          3
   127          2
   128          4
   129         48
   131          4
   135          9
   136         95
   137        134
   138         19
   142          2
   144          9
   147          6
   148         81
   149         50
   150        102
   151         13
   152          3
   157          5
   162          4
   163         60
   164         92
   165          4
   171         41
   172         11
   177         21
   180         16
   191        233
   192         15
   200         23
   219        619
   220         50
   221          2