##TITLE=Library Entry 58740
##JCAMP-DX=Revision 4.10 
##DATA TYPE=MASS SPECTRUM
##SAMPLE DESCRIPTION=Chuck Anderson, Aldrich Chemical Co.
##NAMES=HP
##CAS NAME=2-Nitrophenyl isocyanate
##MOLFORM=C7H4N2O3
##CAS REGISTRY NO=3320-86-3
##MP= -300
##BP= -300
##MW= 164
##$RETENTION INDEX=0
##$CONDENSED SPECTRUM=NO
##NPOINTS= 69
##XYDATA=(XY..XY) 1 
    12          4
    15          0
    16         16
    18          1
    22          1
    25          4
    26         24
    27         18
    28         35
    29          1
    30        114
    31          2
    32          0
    36         10
    37        173
    38        182
    39        486
    40         38
    41          7
    42          3
    48          5
    49         28
    50        110
    51        112
    52         61
    53         11
    54          3
    55          2
    56          0
    60          8
    61         55
    62         94
    63        443
    64        283
    65         28
    66          7
    67          3
    73          4
    74         16
    75         26
    76         31
    77         25
    78         39
    79          3
    80         10
    81          2
    86          5
    87         16
    88         25
    89          2
    90        999
    91         65
    92          9
    93          0
   103          3
   104          6
   106         77
   107          7
   108         11
   118          7
   120        412
   121         28
   122          8
   134         83
   135          6
   148          3
   164        195
   165         14
   166          1