##TITLE=Library Entry 87572
##JCAMP-DX=Revision 4.10 
##DATA TYPE=MASS SPECTRUM
##SAMPLE DESCRIPTION=A.A.Kutin, Moscow, Russia
##NAMES=HP
##CAS NAME=2-Oxaspiro[5.5]undecane-1,5-dione, 4,4-dimethyl-3-phenyl-
##MOLFORM=C18H22O3
##CAS REGISTRY NO=332015-65-3
##MP= -300
##BP= -300
##MW= 286
##$RETENTION INDEX=0
##$CONDENSED SPECTRUM=NO
##NPOINTS= 75
##XYDATA=(XY..XY) 1 
    33          1
    34         13
    36          3
    38          4
    39        106
    40        241
    41        169
    42         67
    43         67
    44        137
    45          5
    47          1
    50          6
    51         45
    52         14
    53         52
    54         69
    55         54
    56          6
    57         19
    63         11
    64          2
    65         25
    67        219
    68         20
    69         28
    70        184
    71         22
    76          2
    77         80
    78         27
    79         55
    80         14
    81         65
    82         69
    83         16
    84          3
    89          5
    90          1
    91         95
    92         16
    95          5
    97          1
    98          1
    99          1
   103          3
   104          2
   105         46
   106         10
   108          7
   110        999
   111         67
   112          8
   115         48
   116         17
   117        120
   118          8
   120          3
   123          1
   124         46
   125          1
   128          3
   129          5
   131         23
   132        133
   133         15
   135          7
   137          4
   138          2
   149          4
   152         26
   171          2
   180        354
   181         42
   286          6