##TITLE=Library Entry 64612
##JCAMP-DX=Revision 4.10 
##DATA TYPE=MASS SPECTRUM
##SAMPLE DESCRIPTION=NIST Mass Spectrometry Data Center, 2010
##NAMES=HP
##CAS NAME=N-Benzylmethylamine, N-heptafluorobutyryl-
##MOLFORM=C12H10F7NO
##CAS REGISTRY NO=332031-91-1
##MP= -300
##BP= -300
##MW= 317
##$RETENTION INDEX=0
##$CONDENSED SPECTRUM=NO
##NPOINTS= 120
##XYDATA=(XY..XY) 1 
    15          5
    26          1
    27          4
    28          6
    29          3
    30          1
    31          4
    33          1
    37          1
    38          5
    39         42
    40          4
    41         17
    42         76
    43          8
    44          2
    49          1
    50         19
    51         46
    52         12
    53          2
    54          1
    55          1
    56          7
    57          9
    58         25
    59          2
    60          1
    61          1
    62          8
    63         33
    64         11
    65        129
    66          8
    69        100
    70          1
    74         15
    75          5
    76          7
    77         40
    78         20
    79         98
    80          7
    81          2
    86          1
    87          1
    89         46
    91        999
    92        100
    93          8
    94          1
   100         20
   101          1
   102          1
   103          4
   104         23
   105         12
   107         58
   108          5
   109         13
   110          1
   112          1
   116          2
   117          3
   118         42
   119         32
   120         10
   121          2
   122          2
   127          8
   128          2
   130          1
   131          3
   132          5
   133          4
   134          1
   135          1
   137          1
   140          4
   141         15
   142          1
   146          2
   147         12
   148        151
   149         17
   150          6
   151          1
   154          1
   160          1
   164          1
   165          1
   169         70
   170          2
   171          1
   172          1
   177          3
   178          4
   179          1
   180          2
   192          1
   196          5
   197          3
   198          5
   199          1
   207          1
   210         34
   211          2
   212          1
   226          1
   227          8
   228          1
   240          8
   241          1
   302         69
   303          8
   304          1
   316         17
   317        190
   318         25
   319          2