##TITLE=Library Entry 87314
##JCAMP-DX=Revision 4.10 
##DATA TYPE=MASS SPECTRUM
##SAMPLE DESCRIPTION=A.A.Kutin, Moscow, Russia
##NAMES=HP
##CAS NAME=2-Oxaspiro[5.5]undecane-1,5-dione, 4,4-dimethyl-3-(1-propenyl)-
##MOLFORM=C15H22O3
##CAS REGISTRY NO=332015-64-2
##MP= -300
##BP= -300
##MW= 250
##$RETENTION INDEX=0
##$CONDENSED SPECTRUM=NO
##NPOINTS= 117
##XYDATA=(XY..XY) 1 
    34          2
    36          1
    38          4
    39        155
    40         72
    41        294
    42         83
    43         81
    44         25
    45          5
    47          1
    50          4
    51         18
    52         13
    53        103
    54        101
    55         97
    56         10
    57         10
    58          0
    59          1
    62          0
    63          2
    64          1
    65         22
    67        306
    68         30
    69         59
    70        168
    71         23
    72          1
    73          0
    77         36
    78         12
    79         87
    80         26
    81        270
    82        106
    83         22
    84          3
    85          1
    91         12
    92         10
    93          9
    94          4
    95         32
    96        394
    97         47
    98          7
    99          5
   103          0
   105          5
   106          1
   107          6
   108         19
   110        999
   111         72
   112          7
   113          1
   115          0
   116          0
   117          0
   119          1
   120          1
   121          3
   122          2
   123          6
   124         45
   125         17
   126          9
   127          1
   128          0
   131          0
   133          0
   134          0
   135          4
   136          3
   137         12
   138         11
   139          2
   140          4
   141          3
   147          0
   149          2
   150          1
   151          3
   152         19
   153          4
   154          2
   162          1
   163          2
   164          0
   165          3
   166          0
   168          0
   169          0
   171          0
   176          0
   177          6
   178          4
   180        238
   181         29
   182          3
   189          0
   193          2
   195          6
   196          0
   204          0
   205          0
   208         12
   209          1
   232          0
   235         20
   236          2
   250         34
   251          4
   252          0