##TITLE=Library Entry 38337
##JCAMP-DX=Revision 4.10 
##DATA TYPE=MASS SPECTRUM
##SAMPLE DESCRIPTION=A.A.Kutin, Moscow, Russia
##NAMES=HP
##CAS NAME=N1-(m-Tolyl)-N2-(tetrahydrofurfuryl)oxamide
##MOLFORM=C14H18N2O3
##CAS REGISTRY NO=332065-24-4
##MP= -300
##BP= -300
##MW= 262
##$RETENTION INDEX=0
##$CONDENSED SPECTRUM=NO
##NPOINTS= 79
##XYDATA=(XY..XY) 1 
    36          0
    37          2
    39        265
    40         72
    41        441
    42        147
    43        617
    44         56
    45          5
    50         21
    51         53
    52         36
    53         44
    54         27
    55         65
    56         54
    57         22
    58          9
    59          2
    61          0
    62          6
    63         32
    64         15
    65         97
    66         10
    67         34
    68          7
    69          8
    71        999
    72         38
    73          1
    74          2
    75          2
    76          8
    77        117
    78         49
    79         68
    80         19
    82         20
    83         23
    84        113
    85         17
    86          2
    89         19
    90          9
    91        135
    92         12
    93          1
    96          0
    98          0
   100          9
   101          0
   102          0
   103          0
   104         24
   105         10
   106         90
   107         87
   108         11
   109          3
   110          1
   115          1
   119          0
   120          1
   128          8
   132         12
   133         37
   134         44
   135         12
   136          1
   139          0
   141          4
   142          1
   178         23
   179          2
   191          0
   192         14
   262         10
   263          0