##TITLE=Library Entry 28716
##JCAMP-DX=Revision 4.10 
##DATA TYPE=MASS SPECTRUM
##SAMPLE DESCRIPTION=Japan AIST/NIMC Database- Spectrum MS-NW-7500
##NAMES=HP
##CAS NAME=Furan, 2,5-diethoxytetrahydro-
##MOLFORM=C8H16O3
##CAS REGISTRY NO=3320-90-9
##MP= -300
##BP= -300
##MW= 160
##$RETENTION INDEX=1016
##$CONDENSED SPECTRUM=NO
##NPOINTS= 94
##XYDATA=(XY..XY) 1 
    13          1
    14          6
    15         38
    16          2
    17          2
    18          7
    25          2
    26         27
    27        191
    28         83
    29        421
    30         70
    31        235
    32          4
    33          6
    36          1
    37          2
    38          6
    39         62
    40         25
    41        245
    42         53
    43        327
    44         70
    45        194
    46         12
    47        111
    48          1
    49          1
    50          3
    51          1
    53          2
    54          1
    55         16
    56         15
    57        448
    58        999
    59        106
    60          9
    61         14
    62          1
    66          1
    67          1
    68          9
    69        363
    70         47
    71         58
    72        107
    73         16
    74          5
    75         32
    76          2
    79          1
    81          1
    82          1
    83          4
    84          4
    85        223
    86        524
    87        718
    88         38
    89         11
    90          1
    91          9
    93          3
    97          1
    99          3
   100          1
   101         73
   102          7
   103         30
   104          2
   105          3
   107          2
   109          1
   112          1
   113         12
   114         16
   115        650
   116         48
   117          6
   119         15
   120          1
   121          6
   128          1
   129          5
   130          2
   131          5
   142          1
   143          2
   145          6
   158          1
   159         35
   160          3