##TITLE=Library Entry 70757
##JCAMP-DX=Revision 4.10 
##DATA TYPE=MASS SPECTRUM
##SAMPLE DESCRIPTION=A.A.Kutin, Moscow, Russia
##NAMES=HP
##CAS NAME=1H-1,2-Dithiolo[3,4-c]quinoline-1-thione, 4,5-dihydro-8-ethoxy-4,
4-dimethyl-5-[1-oxo-2-(1-piperidyl)ethyl]-
##MOLFORM=C21H26N2O2S3
##CAS REGISTRY NO=332043-47-7
##MP= -300
##BP= -300
##MW= 434
##$RETENTION INDEX=0
##$CONDENSED SPECTRUM=NO
##NPOINTS= 148
##XYDATA=(XY..XY) 1 
    33         12
    34          0
    39          4
    41         61
    42         38
    44         31
    45          2
    50          1
    51          1
    52          0
    53          1
    55         43
    57          6
    59          1
    62          0
    63          0
    65          1
    67          2
    69         22
    70         17
    77          6
    79          0
    80          0
    81          0
    82          1
    83          3
    84          1
    85          1
    87          0
    89          0
    90          0
    91          0
    93          0
    94          1
    98        999
    99         38
   101          1
   102          0
   103          0
   105          0
   107          0
   112          1
   113          0
   115          0
   116          0
   117          0
   119          0
   120          0
   121          0
   124          0
   127          0
   128          0
   129          0
   130          1
   132          0
   133          0
   135          6
   136          5
   137          0
   140          0
   142          0
   143          0
   144          0
   145          1
   147          0
   151          0
   152          0
   154          0
   155          0
   156          0
   158          1
   159          0
   160          0
   161          1
   162          0
   164          0
   170          0
   171          0
   172          0
   173          0
   174          0
   178          0
   183          0
   185          0
   186          0
   187          0
   188          1
   189          0
   195          0
   196          0
   198          0
   199          0
   200          0
   201          0
   204          0
   210          0
   213          0
   215          0
   216          0
   217          0
   218          0
   221          0
   222          0
   227          0
   232          2
   233          0
   235          0
   236          0
   237          0
   238          0
   240          0
   241          4
   242          0
   244          0
   245          0
   246          0
   247          0
   248          2
   250          3
   251          0
   255          0
   264          1
   265          0
   278          0
   279          0
   280          0
   281          0
   284          0
   292          0
   293          0
   294          1
   295          0
   296          0
   308          1
   309          0
   313          0
   336          0
   341          0
   354          0
   355          0
   363          0
   370          0
   432          0
   434         30
   435          7
   436          5
   437          1
   438          0