##TITLE=Library Entry 17934
##JCAMP-DX=Revision 4.10 
##DATA TYPE=MASS SPECTRUM
##SAMPLE DESCRIPTION=A.A.Kutin, Moscow, Russia
##NAMES=HP
##CAS NAME=Thiazol-5(4H)-one, 2-(4-nitrobenzyl)-
##MOLFORM=C10H8N2O3S
##CAS REGISTRY NO=332104-05-9
##MP= -300
##BP= -300
##MW= 236
##$RETENTION INDEX=0
##$CONDENSED SPECTRUM=NO
##NPOINTS= 88
##XYDATA=(XY..XY) 1 
    33          9
    34          3
    36          5
    37         28
    38        133
    39        301
    40        118
    41         68
    42        173
    43         59
    44        130
    45        505
    46        999
    47        105
    48         45
    50        241
    51        223
    52         70
    53         10
    55         14
    56          5
    57         25
    58          9
    59          7
    61         20
    62        278
    63        490
    64        108
    65         78
    66         12
    69         62
    70         16
    71         22
    72         16
    73         52
    74        357
    75        111
    76        127
    77        207
    78        107
    79         15
    82          9
    85         13
    86         53
    87        105
    88        181
    89        672
    90        182
    91         47
    93         11
    95          4
   101          7
   102         37
   103         30
   104         78
   105         11
   106         25
   108          6
   109          9
   114         60
   115         97
   116        306
   117        262
   118         29
   119         15
   121        106
   128          5
   130         18
   131         25
   132        231
   133         38
   134         18
   135         21
   136         38
   146         59
   147         25
   148         39
   160         23
   161         54
   162        179
   163        561
   164         44
   189          3
   190         18
   206         23
   234         16
   236        276
   237         22