##TITLE=Library Entry 52791
##JCAMP-DX=Revision 4.10 
##DATA TYPE=MASS SPECTRUM
##SAMPLE DESCRIPTION=CONTINENTAL OIL CO., PONCA CITY, OKLA, USA
##NAMES=HP
##CAS NAME=Cyclohexane, 1,1'-(1,2-ethanediyl)bis-
##MOLFORM=C14H26
##CAS REGISTRY NO=3321-50-4
##MP= -300
##BP= -300
##MW= 194
##$RETENTION INDEX=1496
##$CONDENSED SPECTRUM=NO
##NPOINTS= 98
##XYDATA=(XY..XY) 1 
    13          1
    14         11
    15         18
    16          2
    25          1
    26         11
    27        130
    28         33
    29        158
    30          4
    37          9
    38          4
    39        123
    40         25
    41        458
    42         49
    43         63
    44          3
    50          3
    51         11
    52          8
    53         63
    54         97
    55        679
    56         44
    57         11
    58          1
    63          3
    64          1
    65         13
    66         16
    67        261
    68         55
    69        101
    70         11
    71          3
    76          2
    77         16
    78          7
    79         24
    80         13
    81        124
    82        878
    83        999
    84         65
    85          2
    91         12
    92          2
    93          3
    94          2
    95         30
    96         73
    97         43
    98          4
   102          0
   103          1
   104          1
   105          1
   107          2
   108          2
   109         25
   110         35
   111         14
   112          4
   113          0
   115          1
   116          0
   117          1
   123          3
   124          2
   125          0
   126          0
   127          0
   128          1
   129          1
   130          0
   137          1
   138          1
   141          1
   142          0
   151          1
   152          1
   154          0
   155          1
   156          2
   157          2
   158          1
   165          0
   166          2
   167          1
   178          0
   180          0
   191          1
   192          6
   193          2
   194        135
   195         20
   196          1