##TITLE=Library Entry 107228
##JCAMP-DX=Revision 4.10 
##DATA TYPE=MASS SPECTRUM
##SAMPLE DESCRIPTION=A.A.Kutin, Moscow, Russia
##NAMES=HP
##CAS NAME=Propenamide, 2-(4-bromobenzoylamino)-3-phenyl-N-(4-methoxyphenyl)
-
##MOLFORM=C23H19BrN2O3
##CAS REGISTRY NO=332106-20-4
##MP= -300
##BP= -300
##MW= 450
##$RETENTION INDEX=0
##$CONDENSED SPECTRUM=NO
##NPOINTS= 116
##XYDATA=(XY..XY) 1 
    33          2
    38          1
    39         23
    40          5
    41         17
    43          9
    44          1
    50         44
    51         26
    52         28
    53         23
    54          4
    55          2
    58          0
    63         42
    64         22
    65         25
    66          2
    67          6
    69          0
    71          0
    73          3
    74         22
    75         70
    76         98
    77         43
    78         21
    79         15
    80         45
    81          6
    87          2
    89         87
    90         89
    91         83
    92         12
    93          0
    95         34
    96          0
   101          1
   102          6
   104         43
   105         31
   106         26
   107         58
   108        162
   109          5
   114          1
   116         53
   117        116
   118         61
   119          4
   121          1
   123        999
   124         52
   125          2
   129          5
   131          2
   134         26
   135          3
   139          2
   143          4
   144          5
   149         10
   150          1
   155        264
   157        253
   158         10
   164          0
   165          6
   166          3
   178          1
   180          1
   181          0
   183        601
   185        621
   186         37
   187          1
   191          0
   192          0
   193          2
   195          0
   196          1
   197          0
   208          0
   212          6
   213          0
   220          0
   221          1
   223          1
   224          1
   239          3
   240          4
   249          2
   250          0
   251          5
   267          9
   268          1
   288          6
   289          0
   290          6
   300          0
   302          0
   326          0
   327         41
   328         79
   329         55
   330         74
   331         13
   359          4
   361          4
   432          0
   434          3
   450         38
   451         10
   452         38
   453          8