##TITLE=Library Entry 70339
##JCAMP-DX=Revision 4.10 
##DATA TYPE=MASS SPECTRUM
##SAMPLE DESCRIPTION=Tox21 Consortium/NIST Mass Spectrometry Data Center, 20
12
##NAMES=HP
##CAS NAME=Benzeneacetic acid, .alpha.-hydroxy-.alpha.-phenyl-, 1-methyl-3-p
iperidinyl ester
##MOLFORM=C20H23NO3
##CAS REGISTRY NO=3321-80-0
##MP= -300
##BP= -300
##MW= 325
##$RETENTION INDEX=0
##$CONDENSED SPECTRUM=NO
##NPOINTS= 106
##XYDATA=(XY..XY) 1 
    15          3
    18          2
    26          1
    27         10
    28         13
    29          9
    30          5
    31          1
    38          1
    39         14
    40          2
    41         33
    42        109
    43         81
    44         79
    45          3
    46          1
    49          1
    50         15
    51         58
    52          8
    53          7
    54          7
    55         29
    56         17
    57         30
    58         46
    59          2
    62          2
    63          5
    64          2
    65          3
    66          1
    67          5
    68         14
    69          9
    70         70
    71         61
    72          4
    73          1
    74          4
    75          4
    76         13
    77        251
    78         22
    79          2
    80          3
    81          5
    82         72
    83          8
    84         95
    85          6
    86          6
    87          1
    88          3
    89          3
    90          1
    91          2
    93          1
    94         12
    95          4
    96        140
    97        999
    98        128
    99         30
   100          3
   101          2
   102          2
   103          1
   104          4
   105        379
   106         29
   107          2
   112          1
   113          2
   114         26
   115         14
   116          1
   126          3
   127          3
   128          3
   129          1
   137          1
   139          4
   142          1
   143          2
   150          2
   151          5
   152         16
   153          9
   154          4
   155          1
   163          4
   164          4
   165         20
   166          5
   167          2
   168          1
   181         16
   182         48
   183         99
   184         14
   185          1
   194          1
   324          1
   325          1