##TITLE=Library Entry 54011
##JCAMP-DX=Revision 4.10 
##DATA TYPE=MASS SPECTRUM
##SAMPLE DESCRIPTION=K. FOLKERS
##NAMES=HP
##CAS NAME=L-Threoninamide, 5-oxo-L-prolyl-L-histidyl-
##MOLFORM=C15H22N6O5
##CAS REGISTRY NO=33217-48-0
##MP= -300
##BP= -300
##MW= 366
##$RETENTION INDEX=0
##$CONDENSED SPECTRUM=NO
##NPOINTS= 65
##XYDATA=(XY..XY) 1 
    40         40
    41        130
    42        100
    43         50
    44        220
    54        100
    55         80
    56        190
    57         30
    58         40
    68         40
    69         40
    81        260
    82        230
    83        400
    84        999
    85         80
    93         40
    94         40
    95         40
   107         60
   108         40
   109         40
   110         70
   111         30
   112         40
   120         50
   121         50
   122         40
   124         50
   125         30
   126         50
   135         20
   136         60
   137         40
   163         30
   164         20
   168         30
   176         20
   177         20
   178         30
   189         20
   192         30
   193         30
   203         20
   204         40
   205         10
   206         10
   207         10
   218         20
   219         20
   220         20
   221         30
   222         20
   230         30
   246         20
   247         20
   248         20
   256         70
   259         70
   264         70
   287         70
   312         70
   331         70
   348          3