##TITLE=Library Entry 84438
##JCAMP-DX=Revision 4.10 
##DATA TYPE=MASS SPECTRUM
##SAMPLE DESCRIPTION=A.A.Kutin, Moscow, Russia
##NAMES=HP
##CAS NAME=Propenamide, 2-(4-bromobenzoylamino)-3-phenyl-N-(4-methylphenyl)-
##MOLFORM=C23H19BrN2O2
##CAS REGISTRY NO=332106-19-1
##MP= -300
##BP= -300
##MW= 434
##$RETENTION INDEX=0
##$CONDENSED SPECTRUM=NO
##NPOINTS= 101
##XYDATA=(XY..XY) 1 
    37          1
    39         35
    40          6
    41          8
    43          6
    44          1
    50         51
    51         38
    52         22
    53         13
    54          2
    62          8
    63         31
    64         12
    65         48
    66          2
    73          0
    74         22
    75         77
    76        115
    77        112
    78         31
    79         39
    80          6
    81          0
    87          1
    89         99
    90        100
    91        122
    92          7
   102         10
   104         59
   105         36
   107        999
   108         51
   115          0
   116         47
   117        133
   118         73
   119          6
   129          6
   131          4
   132         13
   133          7
   134          5
   139          1
   143          3
   144          4
   145          0
   146          0
   155        229
   157        245
   158         12
   165          4
   166          0
   172          1
   180          1
   181          0
   183        560
   185        576
   186         33
   187          2
   190          1
   191          0
   192          1
   193          4
   194          3
   196          6
   206          1
   208          1
   220          1
   221          0
   223          2
   224          2
   234          1
   235         14
   236          3
   239          0
   249          4
   250          4
   251          8
   252          1
   272          6
   274          6
   327         28
   328         85
   329         42
   330         81
   331         13
   332          0
   343         11
   344          1
   345         11
   416          3
   417          1
   418          3
   433          0
   434         36
   435         10
   436         33
   437          8