##TITLE=Library Entry 82126
##JCAMP-DX=Revision 4.10 
##DATA TYPE=MASS SPECTRUM
##SAMPLE DESCRIPTION=A.A.Kutin, Moscow, Russia
##NAMES=HP
##CAS NAME=Acetic acid, diphenyl-hydroxy-, N'-phenylhydrazide
##MOLFORM=C20H18N2O2
##CAS REGISTRY NO=3321-83-3
##MP= -300
##BP= -300
##MW= 318
##$RETENTION INDEX=0
##$CONDENSED SPECTRUM=NO
##NPOINTS= 138
##XYDATA=(XY..XY) 1 
    38         11
    39         52
    40          6
    41          2
    43          3
    44          1
    46          0
    50         30
    51        115
    52         31
    53         12
    54          1
    61          1
    62          5
    63         30
    64         26
    65        258
    66         27
    67          2
    69          0
    74         10
    75         12
    76         37
    77        824
    78        120
    79         13
    80         19
    81          3
    82          5
    86          0
    87          4
    88          1
    89          7
    90          4
    91         36
    92        206
    93         72
    94          5
    98          1
   100          0
   101          3
   102          5
   103          1
   105        999
   106         88
   107        150
   108        170
   109         10
   110          0
   111          3
   113          6
   114          2
   115         15
   116          1
   120          2
   125          0
   126          9
   127          9
   128         10
   129          2
   132          1
   133          1
   134          7
   135          1
   137          1
   139         27
   140          2
   141          3
   150          0
   151         21
   152         67
   153         30
   154          6
   155          3
   156          1
   162          1
   163         16
   164         17
   165        197
   166        112
   167        178
   168         31
   169          2
   171          0
   177          0
   178          0
   179          7
   180         37
   181         55
   182         25
   183        334
   184         47
   185          3
   190          2
   193          1
   194         99
   195         72
   196          9
   197          1
   202          0
   207         10
   208        311
   209         58
   210          5
   222          0
   223         12
   224          2
   232          1
   243          0
   245          0
   250          0
   251          1
   252          0
   253          0
   254          1
   255          7
   256          3
   257          1
   258          0
   259          0
   269          0
   270          3
   271         41
   272        309
   273         53
   274          6
   281          2
   283          0
   284          0
   299        327
   300        900
   301        191
   302         20
   303          1
   318         45
   319          8
   320          1
   325          0