##TITLE=Library Entry 1245
##JCAMP-DX=Revision 4.10 
##DATA TYPE=MASS SPECTRUM
##SAMPLE DESCRIPTION=Japan AIST/NIMC Database- Spectrum MS-NW-2034
##NAMES=HP
##CAS NAME=Glycyl-L-phenyl alanine
##MOLFORM=C11H14N2O3
##CAS REGISTRY NO=3321-03-7
##MP= -300
##BP= -300
##MW= 222
##$RETENTION INDEX=0
##$CONDENSED SPECTRUM=NO
##NPOINTS= 172
##XYDATA=(XY..XY) 1 
    12          1
    14          2
    15          5
    16          5
    17          9
    18         38
    26          5
    27         28
    28        101
    29         27
    30        999
    31         54
    32          5
    36          2
    37          2
    38          7
    39         42
    40          6
    41         25
    42         17
    43         17
    44         56
    45          7
    46          4
    47          1
    49          1
    50         15
    51         40
    52         11
    53          6
    54          5
    55         10
    56          7
    57         16
    58         10
    59         16
    60          5
    61          3
    62          8
    63         23
    64          7
    65         71
    66          6
    67          5
    68          4
    69          9
    70          6
    71          5
    72          1
    73          8
    74         80
    75         30
    76          8
    77         48
    78         25
    79         18
    80          3
    81          4
    82          3
    83          5
    84         10
    85         59
    86          5
    87          4
    88          2
    89         20
    90         18
    91        561
    92         97
    93         10
    94          2
    95          3
    96          2
    97          4
    98          5
    99          2
   100          1
   101          3
   102         14
   103         58
   104         43
   105         17
   106          4
   107         11
   108          2
   109          2
   110          2
   111          3
   112          3
   113         12
   114          3
   115          5
   116          9
   117         37
   118         44
   119         49
   120        114
   121         12
   122          1
   123          1
   124          1
   125          2
   126          1
   127          1
   128         10
   129         14
   130         19
   131         43
   132         23
   133         14
   134          2
   135          1
   136          2
   137          1
   140          1
   142          1
   143          3
   144          3
   145          6
   146         13
   147         58
   148        116
   149         18
   150          3
   151          1
   152          1
   154          1
   155          1
   156          2
   157          4
   158          5
   159          4
   160          3
   161         21
   162          4
   163          2
   164          2
   165          2
   166          4
   167          1
   169          1
   170          1
   171          1
   172          2
   173          3
   174          5
   175          6
   176         15
   177          9
   178        131
   179         16
   180          2
   185          2
   186          6
   187          6
   188          2
   189          2
   191          1
   192         14
   193         33
   194          4
   199          1
   200          1
   201          1
   202          5
   203          2
   204         65
   205         11
   206          1
   220          1
   222         15
   223          3