##TITLE=Library Entry 82871
##JCAMP-DX=Revision 4.10 
##DATA TYPE=MASS SPECTRUM
##SAMPLE DESCRIPTION=NIST Mass Spectrometry Data Center, 1994
##NAMES=HP
##CAS NAME=4-N-Hexylaniline
##MOLFORM=C12H19N
##CAS REGISTRY NO=33228-45-4
##MP= -300
##BP= -300
##MW= 177
##$RETENTION INDEX=0
##$CONDENSED SPECTRUM=NO
##NPOINTS= 76
##XYDATA=(XY..XY) 1 
    14          0
    15          7
    16          0
    17          0
    27         73
    28         36
    29         70
    30         13
    37          0
    38          4
    39         52
    40          8
    41         59
    42         12
    43         28
    44          1
    47          0
    50          5
    51         21
    52         19
    53         18
    54         10
    55          7
    56          1
    59          1
    61          0
    62          2
    63         10
    64          4
    65         29
    66         12
    67          5
    68          0
    71          0
    74          0
    75          1
    77         76
    78         32
    79         42
    80         13
    81          1
    89          9
    90          3
    91         17
    92         15
    93         17
    94          5
    95          0
   101          0
   102          2
   103          7
   104         16
   105          0
   106        999
   107         93
   108          4
   115          5
   116          1
   117          7
   118         14
   119         19
   120         11
   121          1
   127          0
   128          0
   130          4
   131          1
   132          6
   133          1
   134          1
   135          0
   144          0
   147          0
   177         89
   178         11
   179          0