##TITLE=Library Entry 2751
##JCAMP-DX=Revision 4.10 
##DATA TYPE=MASS SPECTRUM
##SAMPLE DESCRIPTION=R.T.HOLMAN,UNIVERSITY OF MINNESOTA
##NAMES=HP
##CAS NAME=9-Octadecenamide
##MOLFORM=C18H35NO
##CAS REGISTRY NO=3322-62-1
##MP= -300
##BP= -300
##MW= 281
##$RETENTION INDEX=2334
##$CONDENSED SPECTRUM=NO
##NPOINTS= 181
##XYDATA=(XY..XY) 1 
    36         27
    37         48
    38         12
    39        180
    40         35
    41        999
    42        160
    43        590
    44        230
    45         18
    46          7
    47        260
    49         84
    50         45
    51         10
    52         15
    53        110
    54        230
    55        750
    56        210
    57        270
    58         23
    59        710
    60         83
    61          9
    62          5
    63          7
    64          5
    65         29
    66         23
    67        240
    68        100
    69        390
    70        150
    71         63
    72        430
    73         70
    74          7
    75         12
    76          5
    77         32
    78          9
    79         53
    80         39
    81        140
    82         87
    83        630
    84        100
    85        430
    86         55
    87         67
    88          5
    89          6
    91         23
    92          6
    93         23
    94         47
    95         79
    96         72
    97        140
    98         93
    99         22
   100         42
   101         17
   105         10
   106          5
   107         15
   108         40
   109         44
   110         58
   111         55
   112         69
   113         23
   114         47
   115         14
   116          5
   117         11
   118         11
   119         12
   120         14
   121         16
   122        170
   123         50
   124         52
   125         23
   126         52
   127         14
   128         29
   129          9
   130          5
   131          5
   132          5
   133         10
   134         13
   135         12
   136        130
   137         42
   138         35
   139         13
   140         26
   141         10
   142         14
   143          7
   147          9
   148          8
   149          9
   150         53
   151         23
   152         32
   153         10
   154         21
   155          7
   156         11
   157          6
   161          9
   162          7
   163          7
   164         36
   165         15
   166         20
   167          8
   168         12
   169          5
   170          9
   171          5
   175          7
   176          5
   177          5
   178         27
   179         11
   180         17
   181          6
   182          8
   183          5
   184         10
   185          5
   189          5
   192         24
   193         12
   194         11
   195          5
   196          7
   198          7
   199          5
   200          5
   201          5
   202          5
   203          5
   206         29
   207         13
   208         12
   209          6
   210          7
   212          6
   213          6
   220         38
   221         14
   222         14
   223          5
   224          6
   225          5
   226          5
   234         25
   235         12
   236          6
   237          5
   238         10
   239          5
   240          5
   248         10
   249          5
   252          9
   253          5
   262          8
   263         36
   264         21
   265          9
   266          5
   281         45
   282         12
   283          5