##TITLE=Library Entry 83084
##JCAMP-DX=Revision 4.10 
##DATA TYPE=MASS SPECTRUM
##SAMPLE DESCRIPTION=NIST Mass Spectrometry Data Center, 1994
##NAMES=HP
##CAS NAME=p-Pentylaniline
##MOLFORM=C11H17N
##CAS REGISTRY NO=33228-44-3
##MP= -300
##BP= -300
##MW= 163
##$RETENTION INDEX=0
##$CONDENSED SPECTRUM=NO
##NPOINTS= 75
##XYDATA=(XY..XY) 1 
    14          1
    15          8
    16          0
    17          1
    26          8
    27         68
    28         42
    29         64
    30         13
    39         55
    40          9
    41         49
    42         11
    43          5
    44          0
    50          7
    51         25
    52         24
    53         21
    54         13
    55          3
    56          0
    57          2
    59          2
    61          1
    62          4
    63         12
    64          7
    65         31
    66         14
    67          6
    68          0
    69          0
    72          0
    74          1
    75          2
    77         81
    78         37
    79         47
    80         15
    81          1
    87          0
    89         11
    90          4
    91         19
    92         16
    93         19
    94          6
    95          0
   101          0
   102          3
   103          7
   104         16
   105          0
   106        999
   107        112
   108          5
   114          0
   115          5
   116          2
   117         10
   118         16
   119         15
   120         12
   121          3
   127          0
   128          0
   130          5
   131          1
   132          6
   133          2
   134          1
   135          0
   163        116
   164         13