##TITLE=Library Entry 82025
##JCAMP-DX=Revision 4.10 
##DATA TYPE=MASS SPECTRUM
##SAMPLE DESCRIPTION=NIST Mass Spectrometry Data Center, 1998.
##NAMES=HP
##CAS NAME=Cyclohexane, 1,2-dibromo-4-(1,2-dibromoethyl)-
##MOLFORM=C8H12Br4
##CAS REGISTRY NO=3322-93-8
##MP= -300
##BP= -300
##MW= 424
##$RETENTION INDEX=0
##$CONDENSED SPECTRUM=NO
##NPOINTS= 124
##XYDATA=(XY..XY) 1 
    15          4
    25          1
    26         10
    27         86
    29         19
    37          3
    38         15
    39        189
    40         20
    41        138
    42          5
    43          1
    45          1
    49          2
    50         41
    51        135
    52         99
    53        252
    54         57
    55         26
    56          3
    57         11
    59          4
    61          2
    62          8
    63         26
    64          7
    65        116
    66         48
    67         84
    68          6
    69          1
    73          1
    74          6
    75          5
    76          6
    77        231
    78         88
    79        434
    80         74
    81         65
    82         12
    83          6
    86          1
    87          4
    88          1
    89          7
    90          3
    91        236
    92         39
    93         78
    94         24
    95         19
   101          1
   102          3
   103         41
   104         21
   105        999
   106        280
   107        184
   108         20
   109         28
   110          1
   117          4
   119         46
   120          2
   121         41
   122          1
   123          1
   128          1
   131          7
   132          5
   133         25
   134         10
   135         17
   136          1
   143          2
   144          2
   145         21
   146          4
   147         18
   148          1
   157         15
   158          4
   159         25
   160          5
   161         10
   162          2
   169          1
   171          2
   173          3
   175          1
   183          2
   185        259
   186         30
   187        262
   188         28
   189         10
   190          1
   197          1
   199          3
   201          2
   203          1
   211          2
   213          5
   215          2
   225          1
   227          1
   239          1
   265        320
   266         31
   267        623
   268         57
   269        302
   270         25
   271          1
   345          9
   346          1
   347         24
   348          2
   349         23
   350          2
   351          7
   352          1