##TITLE=Library Entry 80453
##JCAMP-DX=Revision 4.10 
##DATA TYPE=MASS SPECTRUM
##SAMPLE DESCRIPTION=VERIFIN - Methodology B2-1980
##NAMES=HP
##CAS NAME=Methyl phenyl ethylphosphonate
##MOLFORM=C9H13O3P
##CAS REGISTRY NO=33232-86-9
##MP= -300
##BP= -300
##MW= 200
##$RETENTION INDEX=0
##$CONDENSED SPECTRUM=NO
##NPOINTS= 46
##XYDATA=(XY..XY) 1 
    27         60
    29        120
    31         10
    38         20
    39        110
    40         10
    47         90
    49         10
    50         30
    51        100
    55         10
    63         30
    64         10
    65        150
    66         30
    75         10
    76          6
    77        250
    78         40
    79        840
    80          5
    81          7
    90        100
    91         90
    93         20
    94        900
    95         60
    96         50
   104        270
   105        999
   106         80
   107        400
   108         80
   109          6
   110          6
   118         40
   119         10
   125         40
   140         20
   141         60
   142         20
   167          8
   171         10
   199         80
   200        560
   201         50