##TITLE=Library Entry 55887
##JCAMP-DX=Revision 4.10 
##DATA TYPE=MASS SPECTRUM
##SAMPLE DESCRIPTION=Drug Lab
##NAMES=HP
##CAS NAME=Benzeneethanamine, .alpha.-methyl-N-(1-methylethyl)-
##MOLFORM=C12H19N
##CAS REGISTRY NO=33236-69-0
##MP= -300
##BP= -300
##MW= 177
##$RETENTION INDEX=1253
##$CONDENSED SPECTRUM=NO
##NPOINTS= 100
##XYDATA=(XY..XY) 1 
    36          1
    37          1
    38          3
    39         40
    40          5
    41         67
    42         54
    43         58
    44        657
    45         20
    47          1
    50          7
    51         20
    52          5
    53          4
    54          7
    55         16
    56         18
    57         10
    58         15
    60          1
    61          1
    62          2
    63         13
    64          3
    65         53
    66          3
    67         12
    68          8
    69         10
    70         32
    71          9
    72          3
    73          1
    74          1
    75          1
    76          3
    77         25
    78         11
    79         10
    80          3
    81          9
    82          5
    83          6
    84         19
    86        999
    87         62
    88          1
    89         14
    90          5
    91        229
    92         23
    93          5
    94          1
    95          5
    96          5
    97          5
    98          4
    99          1
   102          3
   103         16
   104          5
   105          3
   107          1
   108          2
   109          3
   110          2
   111          2
   113          1
   115         30
   116          6
   117         28
   118         16
   119         24
   120         40
   121          7
   122          1
   125          1
   126          1
   127          1
   128          1
   129          3
   130          3
   131          2
   132          1
   133          1
   134          9
   135          2
   136          1
   142          1
   144          1
   145          2
   146          3
   147          1
   160          2
   161          1
   162         25
   163          4
   164          1
   176          5