##TITLE=Library Entry 65315
##JCAMP-DX=Revision 4.10 
##DATA TYPE=MASS SPECTRUM
##SAMPLE DESCRIPTION=A.A.Kutin, Moscow, Russia
##NAMES=HP
##CAS NAME=Acetamide, 2-(4-tolyloxy)-N-(2-pyridylmethyl)-
##MOLFORM=C15H16N2O2
##CAS REGISTRY NO=332399-37-8
##MP= -300
##BP= -300
##MW= 256
##$RETENTION INDEX=0
##$CONDENSED SPECTRUM=NO
##NPOINTS= 200
##XYDATA=(XY..XY) 1 
    33         19
    34         15
    36         10
    37          7
    38         28
    39        194
    40         26
    41         58
    42         49
    43         57
    44         97
    45         10
    46          2
    47          0
    48          2
    49          5
    50         51
    51        127
    52        108
    53         75
    54         13
    55         18
    56         13
    57         14
    58          9
    59          2
    60          3
    61          4
    62         15
    63         59
    64         37
    65        402
    66         40
    67         11
    68          3
    69         10
    70          7
    71          7
    72          2
    73          3
    74          5
    75          7
    76         12
    77        119
    78         94
    79        117
    80         61
    81          7
    82          3
    83          5
    84          4
    85          5
    86         24
    87          3
    88          3
    89         35
    90         43
    91        348
    92        999
    93        800
    94         60
    95          5
    96          2
    97          3
    98          3
    99          2
   100          2
   101          6
   102          1
   103          4
   104          7
   105         22
   107        244
   108         81
   109         19
   110          2
   111          2
   112          2
   113          1
   114          1
   115          3
   116          1
   117          2
   118          7
   119         59
   120         24
   121         49
   122         11
   123          3
   124          1
   125          1
   126          1
   127          2
   128          2
   129          1
   131         10
   132          5
   135        766
   136         79
   137          7
   138          1
   139          1
   140          0
   141          2
   142          0
   143          1
   144          1
   145          1
   146          2
   147         18
   149        345
   150         34
   151          3
   152          2
   153          1
   154          2
   155          0
   156          0
   157          0
   158          0
   159          0
   161          1
   162          1
   163          1
   164          4
   165         16
   166          4
   167          4
   168          2
   169          1
   170          2
   171          2
   172          0
   173          0
   175          0
   176          0
   177          0
   178          0
   179          0
   180          2
   181          1
   182          3
   183          1
   184          0
   185          0
   186          0
   187          0
   189          0
   191          0
   192          0
   193          1
   194          1
   196          1
   197          9
   198         48
   199          9
   200          1
   201          0
   202          0
   203          0
   204          0
   205          0
   206          0
   207          0
   208          1
   209          0
   210          1
   211          0
   212          0
   213          0
   215          0
   220          0
   221          0
   223          3
   225         47
   226          8
   227          1
   228          0
   229          0
   232          0
   235          0
   236          0
   237          0
   239          0
   240          0
   241          0
   242          0
   243          1
   244          2
   245          0
   246          0
   248          0
   249          0
   251          0
   252          1
   253          1
   254          2
   256         57
   257          8
   258          0