##TITLE=Library Entry 84143
##JCAMP-DX=Revision 4.10 
##DATA TYPE=MASS SPECTRUM
##SAMPLE DESCRIPTION=M.LORA-TAMAYO NAT. CENTRE OF ORGANIC CHEM., MADRID, SPA
IN
##NAMES=HP
##CAS NAME=3(2H)-Pyridazinone, 2-(.beta.-tert-butoxyphenethyl)-6-hydroxy-
##MOLFORM=C16H20N2O3
##CAS REGISTRY NO=33231-93-5
##MP= -300
##BP= -300
##MW= 288
##$RETENTION INDEX=0
##$CONDENSED SPECTRUM=NO
##NPOINTS= 27
##XYDATA=(XY..XY) 1 
    57        400
    77        100
    78         60
    79        100
    80        180
    81         10
    82         40
    91         60
    98        420
    99         40
   103         30
   104         60
   105         20
   107        999
   108         80
   113         40
   125         60
   126        760
   127         50
   163        540
   164         60
   176         20
   215        220
   216         20
   231         60
   232         10
   288         10