##TITLE=Library Entry 90785
##JCAMP-DX=Revision 4.10 
##DATA TYPE=MASS SPECTRUM
##SAMPLE DESCRIPTION=Chemical Concepts
##NAMES=HP
##CAS NAME=(+)-Ethyl-4,6-di-O-acetyl-2,3-dideoxy-.alpha.-D-erythrohex-2-eno-
pyranoside
##MOLFORM=C12H18O6
##CAS REGISTRY NO=3323-72-6
##MP= -300
##BP= -300
##MW= 258
##$RETENTION INDEX=0
##$CONDENSED SPECTRUM=NO
##NPOINTS= 117
##XYDATA=(XY..XY) 1 
    26          3
    27         48
    28          3
    29         88
    30          1
    31          9
    36          0
    37          0
    38          1
    39         25
    40          6
    41         25
    42         10
    43        840
    44         17
    45          4
    47          2
    50          0
    51          3
    52          4
    53         12
    54          3
    55         21
    56          5
    57        109
    58          5
    59          2
    60          1
    61          6
    63          0
    64          1
    65          6
    66          2
    67          3
    68         12
    69         20
    70          5
    71          5
    72          1
    73          6
    74          0
    77          1
    78          0
    79          0
    80          1
    81         38
    82         13
    83         31
    84         14
    85         55
    86        119
    87          3
    88          0
    89          2
    92          0
    93          5
    94          4
    95          2
    96          0
    97         39
    98          3
    99          8
   100          1
   101          2
   103          8
   104          0
   107          0
   109          7
   110         13
   111        206
   112         21
   113          2
   114        999
   115         66
   116          5
   117          0
   125         11
   126          1
   127          6
   128          4
   129          2
   135          0
   136          0
   138          2
   139          3
   140          0
   141          0
   142          0
   143         19
   144          1
   145          0
   152          1
   153         80
   154          8
   155          2
   156        264
   157         28
   158          2
   167          0
   169          0
   170          1
   171          7
   172          0
   174          1
   175          0
   183          0
   185          4
   186          0
   197          1
   198          2
   199          3
   213         91
   214         11
   215          1
   216          5
   217          0
   258          0