##TITLE=Library Entry 99096
##JCAMP-DX=Revision 4.10 
##DATA TYPE=MASS SPECTRUM
##SAMPLE DESCRIPTION=A.A.Kutin, Moscow, Russia
##NAMES=HP
##CAS NAME=Oxalic acid, monoamide, monohydrazide, N-tert-butyl-N2-(3-methylb
enzoyl)-
##MOLFORM=C14H19N3O3
##CAS REGISTRY NO=332414-72-9
##MP= -300
##BP= -300
##MW= 277
##$RETENTION INDEX=0
##$CONDENSED SPECTRUM=NO
##NPOINTS= 80
##XYDATA=(XY..XY) 1 
    38         36
    39         27
    40         45
    41         63
    42         45
    43          6
    44          8
    45          6
    46          0
    50          5
    51         17
    52          5
    53          4
    54          4
    55         15
    57        227
    58         41
    59          2
    61          1
    62          6
    63         38
    65        169
    66          2
    67          0
    68          0
    70          3
    72          3
    73          0
    74          3
    75          9
    76          6
    77         15
    78          6
    79          1
    83          0
    84         49
    85          4
    86          5
    87          3
    89         60
    91        453
    92         23
    93          6
    94          0
    98          0
   100          3
   101          3
   102         13
   103          0
   104          4
   105          4
   106          5
   107          1
   116          4
   119        999
   120         62
   121          6
   128          4
   129          0
   132          1
   135          8
   136          1
   143          5
   148          4
   149          2
   150         13
   151          1
   174          1
   176         25
   177        103
   178          4
   195          0
   233          0
   234         16
   235          0
   262          1
   268          2
   276          5
   277         42
   278          3