##TITLE=Library Entry 59078
##JCAMP-DX=Revision 4.10 
##DATA TYPE=MASS SPECTRUM
##SAMPLE DESCRIPTION=NIST Mass Spectrometry Data Center, 1990.
##NAMES=HP
##CAS NAME=Hexane, 1-chloro-5-methyl-
##MOLFORM=C7H15Cl
##CAS REGISTRY NO=33240-56-1
##MP= -300
##BP= -300
##MW= 134
##$RETENTION INDEX=0
##$CONDENSED SPECTRUM=NO
##NPOINTS= 42
##XYDATA=(XY..XY) 1 
    14          1
    15         15
    26         24
    27        178
    28         15
    29        104
    38         23
    39        253
    40         65
    41        583
    42        364
    43        728
    44         25
    49         57
    50         16
    51         49
    52         10
    53         62
    54         10
    55        650
    56        155
    57        116
    58          6
    61          8
    62         14
    63         35
    65         17
    67         24
    68          6
    69         44
    70         13
    75         10
    77         37
    79         14
    83        208
    84         12
    91        999
    92         59
    93        327
    94         12
    97         10
   119          8