##TITLE=Library Entry 77887
##JCAMP-DX=Revision 4.10 
##DATA TYPE=MASS SPECTRUM
##SAMPLE DESCRIPTION=A.A.Kutin, Moscow, Russia
##NAMES=HP
##CAS NAME=Benzothiazole, 2,3-dihydro-2-(4-nitrobenzoylimino)-3-phenyl-
##MOLFORM=C20H13N3O3S
##CAS REGISTRY NO=332413-18-0
##MP= -300
##BP= -300
##MW= 375
##$RETENTION INDEX=0
##$CONDENSED SPECTRUM=NO
##NPOINTS= 84
##XYDATA=(XY..XY) 1 
    33          3
    34         16
    36         16
    37          5
    39        204
    40         39
    41         86
    42         36
    43        118
    44        237
    45         51
    50        258
    51        258
    52         44
    53          7
    55         79
    56         33
    57         79
    58         16
    60          9
    63        109
    64        106
    65         68
    67          5
    69        105
    70         55
    71         41
    74         58
    75        281
    76        547
    77        324
    78         56
    79          9
    81         22
    82         31
    83         17
    84          7
    90         24
    92        424
    93         39
    95         35
    96         28
    97          9
   102         13
   104        999
   105         71
   108         30
   109          8
   112         15
   115         11
   120        314
   121         35
   122         33
   134         31
   139         25
   140         21
   148         10
   150        816
   151         60
   152         26
   154          6
   166         60
   167         74
   171         15
   184          7
   198         47
   199          3
   210          4
   211          9
   224         15
   225         57
   226          9
   252         27
   253        842
   254        124
   255         35
   281          5
   282        233
   283         37
   284          3
   331         11
   375        272
   376         40
   377          4