##TITLE=Library Entry 82535
##JCAMP-DX=Revision 4.10 
##DATA TYPE=MASS SPECTRUM
##SAMPLE DESCRIPTION=A.A.Kutin, Moscow, Russia
##NAMES=HP
##CAS NAME=Pyridine-3-carbohydrazide, N2-[5-(2,3-dichlorophenyl)-2-furfuryli
deno]-
##MOLFORM=C17H11Cl2N3O2
##CAS REGISTRY NO=332401-11-3
##MP= -300
##BP= -300
##MW= 359
##$RETENTION INDEX=0
##$CONDENSED SPECTRUM=NO
##NPOINTS= 229
##XYDATA=(XY..XY) 1 
    33          1
    34          1
    35          8
    36         30
    37         10
    38         29
    39         31
    40         17
    41          7
    42          9
    43         14
    44         19
    45          3
    47          1
    50        133
    51        471
    52         66
    53         23
    55         45
    56         18
    57          4
    59          2
    60          4
    61          8
    62         18
    63         37
    64          8
    65          5
    66          3
    67          3
    68          1
    69          5
    70          2
    71          2
    72          2
    73         18
    74         42
    75         52
    76         26
    78        814
    79        240
    80         18
    81          2
    83         27
    84         10
    85         11
    86         21
    87         25
    88          5
    89          6
    90          3
    91          8
    93          8
    94          6
    95          3
    96          3
    97          9
    98          8
    99         19
   100          5
   101          6
   102          3
   103          5
   105        119
   106        999
   107         70
   108          9
   109         34
   110         16
   111         20
   112          9
   113         41
   114          7
   115          2
   116          3
   117          1
   118          2
   119          8
   120          4
   121          7
   122         35
   123         12
   124          5
   125         18
   126         47
   127         27
   128          8
   129          4
   130          4
   131          2
   132          1
   133          8
   134          4
   135         11
   136          9
   137          5
   138          5
   139          4
   140          2
   141          1
   142          1
   143          2
   145         51
   146          8
   147         47
   148         29
   149         20
   150          9
   151          5
   152          1
   153          1
   154          1
   155         12
   156          3
   157          4
   158          3
   159         15
   160         11
   161         30
   162         26
   163         22
   164         10
   165          5
   166          1
   167          2
   168          1
   169          2
   170         15
   171         10
   172         13
   173         45
   174         26
   175         27
   176         10
   177          5
   178          2
   179          2
   180          1
   181          1
   182          4
   183         43
   184          8
   185         30
   186         30
   187          9
   188          4
   189         16
   190         42
   191         10
   192         15
   193          3
   194          1
   196         21
   197          4
   198         22
   199          4
   200          9
   201          2
   202          3
   203          4
   204          2
   205          1
   211          1
   212          4
   213          2
   214          5
   215          1
   216          0
   218          1
   223          3
   224          6
   225         46
   226          8
   227         29
   228          4
   229          4
   230          0
   232          1
   233          2
   237        340
   238         55
   239        211
   240         43
   241         42
   242         14
   243          3
   244          1
   253          1
   254          1
   255          1
   256          0
   266          3
   267          0
   268          1
   273          0
   274          0
   283          0
   288          0
   293          0
   294          5
   295          1
   296          2
   297          0
   300          1
   301          2
   302          9
   303          3
   304          7
   305          1
   306          1
   307          1
   308          0
   316          0
   324          2
   325          1
   326          0
   329          2
   330          2
   331          1
   332          1
   355          1
   356          7
   358         20
   359        111
   360         29
   361         67
   362         15
   363         11
   364          2