##TITLE=Library Entry 17654
##JCAMP-DX=Revision 4.10 
##DATA TYPE=MASS SPECTRUM
##SAMPLE DESCRIPTION=A.A.Kutin, Moscow, Russia
##NAMES=HP
##CAS NAME=Butanamide, 3-(methoxymethylcarbonyl)hydrazono-N-(2,4,6-trimethyl
phenyl)-
##MOLFORM=C16H23N3O3
##CAS REGISTRY NO=332418-51-6
##MP= -300
##BP= -300
##MW= 305
##$RETENTION INDEX=0
##$CONDENSED SPECTRUM=NO
##NPOINTS= 190
##XYDATA=(XY..XY) 1 
    33         13
    34          1
    35          1
    36          4
    37          4
    39        149
    40         44
    41        214
    42        132
    43         94
    45        999
    46         17
    47          2
    49          1
    50          9
    51         26
    52         19
    53         30
    54         33
    55         45
    56         56
    57         34
    58         13
    59          9
    60         13
    61          4
    62          5
    63         18
    64         11
    65         52
    66         16
    67         17
    68         11
    69         27
    70         40
    71         56
    72         43
    73         83
    74          7
    75          6
    77         84
    78         27
    79         48
    80          9
    81          5
    83        137
    84         85
    85         16
    86          7
    88        316
    89         22
    91        190
    92         24
    93         18
    94          8
    95          3
    96          4
    97         17
    99        176
   100         33
   101          9
   103        146
   104         27
   105         35
   106         21
   107         13
   108          3
   109          4
   110         11
   111         47
   112         20
   113         26
   114         43
   115         36
   116         19
   117         44
   118         41
   119         91
   120         93
   121         14
   122          2
   123          1
   125         10
   126          4
   127          6
   129        192
   130         25
   131         15
   132         49
   133         58
   134        206
   135        361
   136         56
   138          7
   139          2
   140          3
   141          5
   144        437
   145         36
   146         42
   147         10
   148         13
   149          2
   150          0
   152          2
   153          1
   154         11
   156          7
   157          3
   158          7
   159          9
   160         37
   161         63
   162         25
   163          3
   164          0
   165          0
   166          0
   167          0
   168          1
   169          1
   170          4
   171         10
   172          4
   173          3
   174          6
   175          4
   176          4
   177          2
   178          0
   179          0
   180          0
   182          0
   183          0
   184          3
   185          1
   186          2
   187          2
   188          3
   189          1
   190          0
   195          0
   197          0
   198          0
   199          1
   200          2
   201          9
   202         10
   203          2
   204          0
   208          0
   210          1
   211          0
   212          1
   213          0
   214          1
   215          3
   216          6
   217          4
   218          2
   219          2
   220          0
   226          0
   227          0
   228          0
   232          0
   233          0
   236          0
   237          0
   240          0
   242          2
   243          0
   246          0
   257          0
   259          0
   260         11
   261          1
   262          0
   275          0
   277          0
   283          0
   287          0
   293          0
   300          0
   301          0
   302          1
   303          2
   305         59
   306          9
   307          1