##TITLE=Library Entry 4755
##JCAMP-DX=Revision 4.10 
##DATA TYPE=MASS SPECTRUM
##SAMPLE DESCRIPTION=A.A.Kutin, Moscow, Russia
##NAMES=HP
##CAS NAME=1,3,5-Triazine, 2,4-bis(4-morpholyl)-6-(1-piperazinyl)-
##MOLFORM=C15H25N7O2
##CAS REGISTRY NO=332409-32-2
##MP= -300
##BP= -300
##MW= 335
##$RETENTION INDEX=0
##$CONDENSED SPECTRUM=NO
##NPOINTS= 185
##XYDATA=(XY..XY) 1 
    33          8
    35          0
    37          1
    39         31
    42        999
    43        205
    44        104
    45        124
    47          0
    49          0
    50          3
    51          4
    54        265
    55        419
    56        608
    57        155
    58         47
    59          1
    62          1
    64          1
    66         19
    68        298
    69        217
    70         54
    71         18
    72         11
    75          4
    76          1
    78          7
    80        159
    81        138
    82         69
    83         79
    84         50
    85         53
    86         32
    87          3
    88          3
    89          1
    91          3
    94        232
    95         48
    96         26
    97         13
    98          8
    99          0
   100          2
   101          2
   102          6
   103          3
   104          0
   106         26
   107         27
   108         67
   109         41
   110         50
   111         21
   113         94
   114          5
   115          4
   116          8
   117          1
   118          2
   119          6
   120         12
   121         21
   122         20
   124         60
   125          4
   128          0
   129          1
   130          2
   132          1
   133          5
   134         15
   135         48
   136         39
   138        271
   139         19
   140          5
   146         26
   148         20
   149         17
   150         15
   151          9
   152          6
   153          9
   154          1
   155          0
   159          2
   160          4
   161         10
   162         23
   163         44
   164         19
   165         21
   166          6
   168         30
   175         20
   176         15
   177         26
   178         15
   179         15
   180          7
   181          5
   182          2
   187          1
   189         38
   190         27
   191         33
   192         16
   193         26
   194         18
   195         11
   196          1
   201          1
   203         15
   205         39
   206         18
   207         13
   208         14
   209         25
   210          8
   211          1
   215          1
   217         14
   218          8
   219         32
   220         36
   221         71
   222         25
   223         37
   224          5
   229          0
   231         10
   233         36
   235        107
   236         42
   237         61
   238         11
   239          2
   245          6
   247         44
   248         30
   249         91
   250         38
   251         16
   252          2
   259          2
   261         44
   262         17
   263         34
   264         15
   265         16
   267        585
   268         71
   269          5
   273          1
   275         27
   276         20
   277         27
   279        537
   280         78
   281          8
   288          0
   289          2
   290          7
   291         25
   292         32
   293        100
   294         18
   295          1
   303          1
   305         81
   306         35
   307         12
   308          1
   317          0
   318          1
   319          0
   320          2
   334         52
   335        230
   336         54
   337          6