##TITLE=Library Entry 76704
##JCAMP-DX=Revision 4.10 
##DATA TYPE=MASS SPECTRUM
##SAMPLE DESCRIPTION=Exported from NIST MS Search
##NAMES=HP
##CAS NAME=1,5-Benzoxazepin-4(5H)-one, 2,3-dihydro-3-phenyl-
##MOLFORM=C15H13NO2
##CAS REGISTRY NO=33255-29-7
##MP= -300
##BP= -300
##MW= 239
##$RETENTION INDEX=0
##$CONDENSED SPECTRUM=NO
##NPOINTS= 19
##XYDATA=(XY..XY) 1 
    39         70
    51        120
    52        130
    65         70
    77        200
    91        220
   103        999
   104        519
   109         90
   120        180
   131        519
   135        170
   148         70
   165         10
   180         10
   196         10
   210         10
   220         40
   239        719