##TITLE=Library Entry 18137
##JCAMP-DX=Revision 4.10 
##DATA TYPE=MASS SPECTRUM
##SAMPLE DESCRIPTION=Asinex Ltd, Moscow, Russia
##NAMES=HP
##CAS NAME=2-Pyridinecarbonitrile, 6-chloro-
##MOLFORM=C6H3ClN2
##CAS REGISTRY NO=33252-29-8
##MP= -300
##BP= -300
##MW= 138
##$RETENTION INDEX=0
##$CONDENSED SPECTRUM=NO
##NPOINTS= 48
##XYDATA=(XY..XY) 1 
    37        374
    38        370
    39        266
    40         63
    42          8
    43         19
    44          5
    46         21
    49        254
    50        706
    51        999
    52        720
    53        184
    54          6
    57          0
    58          2
    60         98
    61         58
    62        185
    63        113
    64        105
    65         28
    69          1
    72         15
    73         21
    74         43
    75        399
    76        957
    77        323
    78         32
    82         16
    87         10
    88         19
    89          0
    97          2
    98          3
   100          4
   101          1
   102         37
   103        760
   104        273
   105         10
   118          2
   137         12
   138        829
   139         91
   140        260
   141         37