##TITLE=Library Entry 18405
##JCAMP-DX=Revision 4.10 
##DATA TYPE=MASS SPECTRUM
##SAMPLE DESCRIPTION=NIST Mass Spectrometry Data Center
##NAMES=HP
##CAS NAME=2-Propenoic acid, 3-chloro-2-hydroxypropyl ester
##MOLFORM=C6H9ClO3
##CAS REGISTRY NO=3326-90-7
##MP= -300
##BP= -300
##MW= 164
##$RETENTION INDEX=0
##$CONDENSED SPECTRUM=NO
##NPOINTS= 70
##XYDATA=(XY..XY) 1 
     1          2
    12          1
    13          3
    14         18
    15         90
    16          3
    18          2
    19          4
    25         10
    26         90
    27        423
    28         44
    29        143
    30         14
    31         95
    32          2
    35          2
    36          4
    37          4
    38          7
    39         21
    40          4
    41         16
    42         72
    43        109
    44         88
    45         12
    47          2
    48          3
    49         36
    50         18
    52         12
    53        999
    55         50
    56         29
    57         65
    58          2
    59          2
    60          2
    61          3
    62          3
    63          1
    64          2
    67          9
    68          2
    69         14
    70          2
    71         53
    73          8
    74          1
    76          1
    77          2
    78         20
    79          1
    80          7
    83         65
    85        130
    86          6
    90          3
    91         32
    92          2
    93         10
    95         18
    98         10
   109          5
   113        133
   115          7
   118          2
   132          2
   133          2