##TITLE=Library Entry 1819
##JCAMP-DX=Revision 4.10 
##DATA TYPE=MASS SPECTRUM
##SAMPLE DESCRIPTION=NIST Mass Spectrometry Data Center, 1994
##NAMES=HP
##CAS NAME=1-(2-Nitrophenyl)pyrrole
##MOLFORM=C10H8N2O2
##CAS REGISTRY NO=33265-60-0
##MP= -300
##BP= -300
##MW= 188
##$RETENTION INDEX=0
##$CONDENSED SPECTRUM=NO
##NPOINTS= 102
##XYDATA=(XY..XY) 1 
    12          9
    13          1
    16          4
    17          4
    18         15
    25          8
    26        120
    27        125
    28        130
    29          1
    30        420
    37        133
    38        311
    39        999
    40        163
    41         20
    42         22
    46         36
    50        724
    51        691
    52        250
    53         60
    54         29
    55        363
    56        167
    57         20
    58         73
    61         51
    62        182
    63        485
    64        237
    65        229
    66         42
    67         26
    68        202
    69          9
    70          9
    71         51
    73         13
    74        102
    75        203
    76        286
    77        748
    78        294
    79        108
    80         37
    82         11
    83         40
    84        112
    85         15
    86         29
    87         70
    88        109
    89        473
    90        173
    91        100
    92         97
    93         17
    99          8
   100          8
   101         39
   102        205
   103        262
   104        167
   105        275
   106         93
   107         21
   113         90
   114        134
   115        397
   116        199
   117         65
   118        384
   119         91
   120          9
   127          7
   128         84
   129        161
   130        117
   131        284
   132         71
   133         12
   134         15
   135          5
   140         99
   141         59
   143        401
   144         63
   145         13
   146          4
   147         20
   155          7
   156          8
   157         24
   158        129
   159         39
   160          5
   171        524
   172         68
   188        264
   189         36
   190          3