##TITLE=Library Entry 46363
##JCAMP-DX=Revision 4.10 
##DATA TYPE=MASS SPECTRUM
##SAMPLE DESCRIPTION=R.B.KING UNIVERSITY OF GEORGIA, ATHENS, GEORGIA, USA
##NAMES=HP
##CAS NAME=Vanadium, tricarbonyl(.eta.5-2,4-cyclopentadien-1-yl)(hexamethylp
hosphorous triamide-P)-
##MOLFORM=C14H23N3O3PV
##CAS REGISTRY NO=33269-49-7
##MP= -300
##BP= -300
##MW= 363
##$RETENTION INDEX=0
##$CONDENSED SPECTRUM=NO
##NPOINTS= 16
##XYDATA=(XY..XY) 1 
    60        253
    65         18
    66         44
    76        999
   116        120
   119        999
   135          8
   159         33
   163        337
   181        132
   203          6
   236         19
   279         39
   319          0
   335          3
   363          7