##TITLE=Library Entry 242
##JCAMP-DX=Revision 4.10 
##DATA TYPE=MASS SPECTRUM
##SAMPLE DESCRIPTION=D.HENNEBERG, MAX-PLANCK INSTITUTE, MULHEIM, WEST GERMAN
Y
##NAMES=HP
##CAS NAME=Iron, tricarbonyl[(1,2,3,4-.eta.<4>)-1,3-cyclooctadiene]-
##MOLFORM=C11H12FeO3
##CAS REGISTRY NO=33270-50-7
##MP= -300
##BP= -300
##MW= 248
##$RETENTION INDEX=0
##$CONDENSED SPECTRUM=NO
##NPOINTS= 53
##XYDATA=(XY..XY) 1 
    27         86
    28        999
    29         14
    32          6
    38          6
    39        153
    40         13
    41        117
    42          2
    43          7
    50         17
    51         50
    52         26
    53         36
    54         60
    55         12
    56         71
    57          5
    63          8
    65         50
    66         63
    67        191
    68          5
    77        115
    78         51
    79        392
    80        177
    81         10
    82          2
    84          4
    91         84
    92          3
    93        170
    94          6
    96          1
   105          3
   106          0
   107          5
   108        135
   109          6
   110         25
   121          3
   122          0
   134         73
   135          2
   136         33
   158          0
   160          0
   162         25
   164         43
   190          2
   192         23
   220         16