##TITLE=Library Entry 17918
##JCAMP-DX=Revision 4.10 
##DATA TYPE=MASS SPECTRUM
##SAMPLE DESCRIPTION=A.HAAS RUHR UNIVERSITY, BOCHUM, GERMANY, F.R.G.
##NAMES=HP
##CAS NAME=Imidosulfuryl fluoride, [(trifluoromethyl)thio]-
##MOLFORM=CF5NOS2
##CAS REGISTRY NO=33278-59-0
##MP= -300
##BP= -300
##MW= 201
##$RETENTION INDEX=0
##$CONDENSED SPECTRUM=NO
##NPOINTS= 17
##XYDATA=(XY..XY) 1 
    31         35
    46        999
    48         82
    50         39
    51         34
    63         37
    67        131
    69        658
    70         37
    82         54
    86         55
    96        115
   100         22
   101         64
   115         90
   182         22
   201        453