##TITLE=Library Entry 35176
##JCAMP-DX=Revision 4.10 
##DATA TYPE=MASS SPECTRUM
##SAMPLE DESCRIPTION=A.HAAS RUHR UNIVERSITY, BOCHUM, GERMANY, F.R.G.
##NAMES=HP
##CAS NAME=Carbonofluoridimido(dithioperoxoic) acid, [(trifluoromethyl)thio]
-, trifluoromethyl ester
##MOLFORM=C3F7NS3
##CAS REGISTRY NO=33278-63-6
##MP= -300
##BP= -300
##MW= 279
##$RETENTION INDEX=0
##$CONDENSED SPECTRUM=NO
##NPOINTS= 17
##XYDATA=(XY..XY) 1 
    31         55
    46         98
    58         66
    63        285
    64        192
    69        999
    77         28
    82         55
    96         30
   101        122
   115         99
   133         70
   146        215
   159         13
   178         30
   260         11
   279         76