##TITLE=Library Entry 57057
##JCAMP-DX=Revision 4.10 
##DATA TYPE=MASS SPECTRUM
##SAMPLE DESCRIPTION=Chemical Concepts
##NAMES=HP
##CAS NAME=1,3-Dioxolane, 2-(bromomethyl)-2-methyl-
##MOLFORM=C5H9BrO2
##CAS REGISTRY NO=33278-96-5
##MP= -300
##BP= -300
##MW= 180
##$RETENTION INDEX=0
##$CONDENSED SPECTRUM=NO
##NPOINTS= 31
##XYDATA=(XY..XY) 1 
    27         26
    28         18
    29         30
    31         10
    38          9
    39         90
    40         16
    41        187
    42         62
    43        932
    44         35
    45         45
    49         14
    57         59
    71         46
    77         35
    78         18
    79         11
    86         13
    87        999
    88         60
    93         43
    95         38
   121        105
   122          7
   123         98
   124          7
   165         95
   166          7
   167         94
   168          7