##TITLE=Library Entry 35460
##JCAMP-DX=Revision 4.10 
##DATA TYPE=MASS SPECTRUM
##SAMPLE DESCRIPTION=A.HAAS RUHR UNIVERSITY, BOCHUM, GERMANY, F.R.G.
##NAMES=HP
##CAS NAME=Carbonochloridimidothioic acid, [(trifluoromethyl)thio]-, anhydro
sulfide with thiohypochlorous acid
##MOLFORM=C2Cl2F3NS2
##CAS REGISTRY NO=33278-64-7
##MP= -300
##BP= -300
##MW= 229
##$RETENTION INDEX=0
##$CONDENSED SPECTRUM=NO
##NPOINTS= 14
##XYDATA=(XY..XY) 1 
    35         16
    44        108
    50         62
    61        196
    63        256
    67         34
    69        999
    82        701
    90        155
   101        152
   127         15
   159        366
   160         17
   162         17