##TITLE=Library Entry 44934
##JCAMP-DX=Revision 4.10 
##DATA TYPE=MASS SPECTRUM
##SAMPLE DESCRIPTION=P. BROWN
##NAMES=HP
##CAS NAME=Card-20(22)-enolide, 3-[(6-deoxy-2-O-.beta.-D-glucopyranosyl-3-O-
methyl-.alpha.-L-glucopyranosyl)oxy]-14-hydroxy-, (3.beta.,5.beta.)-
##MOLFORM=C36H56O13
##CAS REGISTRY NO=33279-55-9
##MP= -300
##BP= -300
##MW= 696
##$RETENTION INDEX=0
##$CONDENSED SPECTRUM=NO
##NPOINTS= 90
##XYDATA=(XY..XY) 1 
    74        999
   153        100
   154         50
   155         70
   157         50
   159        120
   160         70
   161        220
   162        130
   163        160
   165         40
   171         60
   173         80
   174         70
   175        110
   176        100
   177        180
   178         40
   179         40
   181        180
   182         40
   183         40
   185         70
   187         90
   189        120
   191         40
   194         50
   195         60
   197         50
   199         80
   201         70
   203        530
   204        110
   205         40
   213         70
   215         80
   217        100
   219         40
   229         70
   231        100
   232         40
   233         40
   235         50
   243         50
   246        210
   247         50
   255         60
   257         90
   275         40
   279         50
   295         60
   312         40
   313        150
   314         40
   323         60
   325         60
   338         70
   339        660
   340        200
   341         90
   356        280
   357        750
   358        230
   359         60
   374         70
   375        130
   385         30
   403        160
   404         40
   416         11
   417         36
   418         13
   429          8
   430          7
   444          3
   458          3
   459          3
   475          2
   484          2
   485          2
   490          5
   502          6
   516          3
   526          2
   534         29
   535          7
   548          2
   634          2
   652          4
   696          6