##TITLE=Library Entry 43901
##JCAMP-DX=Revision 4.10 
##DATA TYPE=MASS SPECTRUM
##SAMPLE DESCRIPTION=NIST Mass Spectrometry Data Center
##NAMES=HP
##CAS NAME=1,8-Naphthalenediamine, 2TMS derivative
##MOLFORM=C16H26N2Si2
##CAS REGISTRY NO=33285-90-4
##MP= -300
##BP= -300
##MW= 302
##$RETENTION INDEX=0
##$CONDENSED SPECTRUM=NO
##NPOINTS= 175
##XYDATA=(XY..XY) 1 
    15          1
    17          1
    18          4
    26          1
    28          4
    29          2
    30          1
    31          2
    32          1
    39          1
    40          1
    42          1
    43         13
    44         13
    45        119
    46          9
    47          4
    51          1
    53          1
    54          1
    55          1
    56          1
    57          4
    58          5
    59         11
    60          2
    61          1
    63          1
    66          1
    67          1
    69          1
    70          2
    71          2
    72          2
    73        999
    74         85
    75         42
    76          2
    77          3
    78          1
    83          1
    84          2
    85          1
    86          1
    89          1
    91          1
    92          4
    94          1
    99          5
   100          3
   101          1
   102          2
   103          3
   104          1
   105          2
   106          1
   107          2
   112          1
   113          2
   114          3
   115          7
   116          1
   117          1
   119          2
   120          2
   121          1
   126          1
   127          6
   128          3
   129          2
   130          9
   131          2
   132          1
   134          1
   135          1
   139          1
   140          5
   141          3
   142          2
   143          3
   144          1
   145          1
   146          3
   147          1
   148          1
   151          4
   153          1
   154         10
   155          4
   156         14
   157          3
   158          2
   159          1
   160          1
   167          2
   168          4
   169         14
   170         14
   171          5
   172          2
   173          1
   174          1
   180          1
   181          2
   182          4
   183          8
   184        138
   185         26
   186          9
   187          2
   188          1
   194          1
   195          2
   196          3
   197         10
   198         37
   199        505
   200         89
   201         26
   202          9
   203          2
   208          1
   209          1
   210          2
   211          7
   212          5
   213         26
   214         56
   215         30
   216          7
   217          2
   223          2
   224          2
   225          3
   226          2
   227          9
   228          6
   229          4
   230          4
   231          1
   238          1
   239          3
   240          5
   241          9
   242          3
   243          1
   253          2
   254          4
   255          7
   256          3
   257          3
   258          1
   268          1
   269          6
   270          5
   271         28
   272          7
   273          3
   274          1
   283          1
   284          3
   285          6
   286         13
   287         94
   288         29
   289         11
   290          2
   291          1
   299          1
   301         15
   302        511
   303        152
   304         54
   305         10
   306          2