##TITLE=Library Entry 86759
##JCAMP-DX=Revision 4.10 
##DATA TYPE=MASS SPECTRUM
##SAMPLE DESCRIPTION=A.A.Kutin, Moscow, Russia
##NAMES=HP
##CAS NAME=3-Methyl-furan-2-carboxylic acid naphthalen-1-ylamide
##MOLFORM=C16H13NO2
##CAS REGISTRY NO=332897-10-6
##MP= -300
##BP= -300
##MW= 251
##$RETENTION INDEX=0
##$CONDENSED SPECTRUM=NO
##NPOINTS= 128
##XYDATA=(XY..XY) 1 
    38          2
    39         16
    40         21
    41          3
    42          4
    43          7
    44          9
    45          2
    50          7
    51         17
    52         16
    53         55
    54          4
    55          2
    57          1
    62          3
    63         14
    64          3
    65         15
    66          1
    67          0
    69          3
    70          5
    71          1
    74          3
    75          7
    76          3
    77          9
    79          1
    80          3
    81         14
    82          3
    83          2
    86          2
    87          5
    88          9
    89         18
    90          1
    91          4
    94          2
    95          3
    97          0
    99          0
   100          0
   101         10
   102          2
   103          1
   105          3
   107          1
   109        999
   110         65
   111          7
   112          1
   113         19
   114         45
   115        182
   116         22
   117          3
   119          1
   120          2
   121          2
   123          0
   125          2
   126         13
   127         25
   128          8
   131          1
   133          0
   138          0
   139         11
   140         35
   141         15
   142         27
   143         43
   144         68
   145         11
   146          0
   151          2
   152          3
   153          3
   154          3
   159          0
   160          2
   161         29
   162          1
   165          3
   166          1
   167          1
   169         17
   170          5
   171          5
   172          2
   173          1
   174          4
   178          5
   179          3
   180          6
   181          0
   182          5
   183          2
   185          1
   187          0
   191          1
   192          2
   193          2
   194         21
   195          4
   203          1
   204          2
   205          3
   206          4
   207          6
   208         21
   209          3
   216          4
   220          2
   221          1
   222         13
   223         31
   224          4
   233          1
   234         37
   235          6
   236          2
   249          1
   251        462
   252         77
   253          8