##TITLE=Library Entry 41546
##JCAMP-DX=Revision 4.10 
##DATA TYPE=MASS SPECTRUM
##SAMPLE DESCRIPTION=STER PREG TMSI, 00 0000 E, M.HORN
##NAMES=HP
##CAS NAME=Silane, [[(3.alpha.,5.beta.,6.alpha.)-pregnane-3,6-diyl]bis(oxy)]
bis[trimethyl-
##MOLFORM=C27H52O2Si2
##CAS REGISTRY NO=33283-07-7
##MP= -300
##BP= -300
##MW= 464
##$RETENTION INDEX=0
##$CONDENSED SPECTRUM=NO
##NPOINTS= 181
##XYDATA=(XY..XY) 1 
    41        220
    42         45
    43        150
    44         30
    45        110
    47         40
    53         50
    55        450
    56         50
    57         75
    59         90
    61         80
    65         20
    67        350
    68         60
    69        215
    70         30
    71         30
    72         35
    73        999
    74        160
    75        999
    76         70
    77        115
    78         20
    79         30
    80         50
    81        600
    82         60
    83        130
    85         25
    89         30
    91        250
    92         55
    93        400
    94        100
    95        550
    96         60
    97         60
   101         90
   103         70
   104         20
   105        330
   106        145
   107        350
   108         80
   109        300
   110         30
   111         40
   113         20
   115         45
   116         35
   117        120
   118         60
   119        190
   120         65
   121        250
   122         60
   123        350
   124         45
   127         20
   129        300
   130         70
   131        130
   132         45
   133        240
   134         70
   135        270
   136         50
   137         75
   138         40
   141         40
   142         45
   143        100
   144         35
   145        150
   146         50
   147        500
   148        105
   149        285
   150         45
   151         45
   154         20
   155         70
   156         40
   157        120
   158         35
   159        145
   160         70
   161        350
   162         90
   163        175
   164         35
   165         30
   167         25
   168         45
   169         80
   170         20
   171         45
   172         25
   173         80
   174         40
   175        145
   176         70
   177        155
   178         40
   179         25
   181         45
   182         30
   183         35
   184         20
   185         40
   186         20
   187         55
   188         30
   189         95
   190         70
   191        125
   192         30
   193         30
   195         40
   196         40
   197         50
   198         20
   199         50
   200         20
   201         90
   202         40
   203         75
   204        140
   205         35
   207         20
   213         85
   214         40
   215         70
   216         35
   217         45
   219         45
   227         50
   228         50
   229        190
   230        140
   231         45
   232         20
   237        450
   238        100
   239         35
   241         20
   243         80
   244         45
   245        140
   246         35
   255         75
   256         60
   257         20
   258         55
   269        300
   270         70
   271         25
   278         70
   279         30
   283         45
   284        999
   285        500
   286         90
   317         15
   318         15
   319        155
   320          5
   321         15
   359        105
   360         30
   361         25
   373         20
   374        230
   375         75
   376         20
   449         10
   464         65
   465         25
   466         10