##TITLE=Library Entry 42169
##JCAMP-DX=Revision 4.10 
##DATA TYPE=MASS SPECTRUM
##SAMPLE DESCRIPTION=STER PREG TMSI L SE30 01 2998 E M.HORN
##NAMES=HP
##CAS NAME=3,16,20-Tris[(trimethylsilyl)oxy]-5.alpha-pregnane, (3.beta.,16.a
lpha.,20.alpha.)-
##MOLFORM=C30H60O3Si3
##CAS REGISTRY NO=33287-36-4
##MP= -300
##BP= -300
##MW= 552
##$RETENTION INDEX=3041
##$CONDENSED SPECTRUM=NO
##NPOINTS= 158
##XYDATA=(XY..XY) 1 
    41         55
    42         10
    43         50
    44         20
    45         48
    47         21
    53         27
    55        105
    56         10
    57         17
    58         10
    59         40
    60         10
    61         40
    65         10
    67        105
    68         20
    69        110
    70         10
    71         10
    72         21
    73        999
    74        135
    75        770
    76         60
    77         55
    78         10
    79         87
    80         15
    81        145
    82         27
    83         35
    85         10
    87         10
    89         25
    91        105
    92         20
    93        160
    94         30
    95        150
    96         20
    97         20
    99         10
   101         40
   103         47
   105        125
   106         40
   107        160
   108         35
   109         65
   110         10
   111         10
   113         10
   115         25
   116         30
   117        999
   118        145
   119        132
   120         40
   121         75
   122         15
   123         20
   127         17
   128         10
   129        100
   130         40
   131         75
   132         20
   133        130
   134         28
   135         57
   141        541
   142         91
   143        125
   144         22
   145         65
   146         20
   147        390
   148         70
   149         80
   150         10
   155         40
   156        475
   157        260
   158         50
   159         61
   160         20
   161         60
   162         15
   163         25
   167         10
   168         10
   169         30
   170         45
   171         27
   172         10
   173         37
   174         15
   175         35
   181         20
   182         10
   183        160
   184         30
   185         21
   186         10
   187         30
   188         10
   189         20
   191        150
   192         30
   193         20
   195         30
   196         28
   197         30
   199         17
   201         20
   207         30
   208         10
   209         17
   213         17
   215         30
   216         27
   217         80
   218         15
   219         10
   221         10
   227         10
   229         10
   231         30
   241         17
   267         20
   281         15
   283         40
   284         10
   305         15
   331         10
   332         10
   357         30
   358         10
   372         50
   373         25
   374         10
   419         21
   420         10
   447        241
   448         91
   449         40
   450         10
   462        610
   463        241
   464        100
   465         25
   466         10
   537         20
   538         10
   539          5
   552          7
   553          2