##TITLE=Library Entry 48920
##JCAMP-DX=Revision 4.10 
##DATA TYPE=MASS SPECTRUM
##SAMPLE DESCRIPTION=NIST Mass Spectrometry Data Center
##NAMES=HP
##CAS NAME=(Z)-2,2-Dimethyl-3-(3-methylpenta-2,4-dien-1-yl)oxirane
##MOLFORM=C10H16O
##CAS REGISTRY NO=33281-83-3
##MP= -300
##BP= -300
##MW= 152
##$RETENTION INDEX=1133
##$CONDENSED SPECTRUM=NO
##NPOINTS= 58
##XYDATA=(XY..XY) 1 
    26          3
    27         59
    28          8
    29         25
    31         10
    37          2
    38         10
    39        168
    40         33
    41        204
    42         29
    43        164
    44          6
    45          3
    50         17
    51         46
    52         26
    53        150
    54         20
    55         53
    56          4
    57         19
    59         26
    62          6
    63         15
    64          4
    65         60
    66         44
    67         68
    68         31
    69         16
    70          8
    71        102
    72         70
    73          4
    74          2
    76          2
    77        295
    78         41
    79        999
    80         85
    81        495
    82         30
    84          4
    91         97
    92          9
    93        105
    94         22
    95         11
    96          4
    97          4
   107          5
   109         21
   110          3
   119          6
   124          4
   134          9
   137          5