##TITLE=Library Entry 41421
##JCAMP-DX=Revision 4.10 
##DATA TYPE=MASS SPECTRUM
##SAMPLE DESCRIPTION=STER ANDR TMSI, 00 0000 E, M.HORNING
##NAMES=HP
##CAS NAME=Androstane-3,16-diol (3.beta.,5.alpha.,16.alpha.)-, 2TMS derivati
ve
##MOLFORM=C25H48O2Si2
##CAS REGISTRY NO=33283-01-1
##MP= -300
##BP= -300
##MW= 436
##$RETENTION INDEX=0
##$CONDENSED SPECTRUM=NO
##NPOINTS= 200
##XYDATA=(XY..XY) 1 
    41        200
    42         10
    43         90
    44         20
    45         30
    46         10
    47         60
    51         10
    52         10
    53         50
    54         10
    55        320
    56         20
    57         30
    58         10
    59        100
    60         30
    61        175
    62         10
    63         10
    65         20
    66         10
    67        320
    68         45
    69        140
    70         15
    71         20
    72         30
    73        999
    74        160
    75        999
    76        180
    77        180
    78         30
    79        320
    80         55
    81        500
    82         40
    83         80
    84         10
    85         20
    87         15
    88         10
    89         80
    90         10
    91        320
    92         60
    93        500
    94        180
    95        400
    96         30
    97         30
    99         20
   101        120
   102         10
   103         50
   104         20
   105        300
   106        130
   107        450
   108        100
   109        180
   110         20
   111         20
   113         20
   115         50
   116         50
   117        100
   118         30
   119        170
   120         50
   121        210
   122        200
   123         80
   124         15
   125         10
   127         20
   128         10
   129        220
   130        100
   131        190
   132         40
   133        160
   134         40
   135        130
   136         40
   137         25
   141         40
   142        230
   143        150
   144        999
   145        300
   146        100
   147        300
   148        110
   149        120
   150         20
   151         20
   153         10
   154         10
   155        150
   156        110
   157         50
   158         25
   159        120
   160         60
   161        180
   162         60
   163         50
   164         10
   165         10
   167         10
   168         20
   169        270
   170         50
   171         40
   172         10
   173         90
   174         30
   175         60
   176         10
   177         20
   181         20
   182         20
   183         20
   184         10
   185         40
   186         10
   187         85
   188         40
   189         25
   191         40
   195         20
   196         20
   197         10
   199         50
   200         25
   201         60
   202         20
   203        140
   204         30
   207         10
   209         10
   213         40
   214         20
   215        180
   216         50
   217        230
   218         40
   227         20
   228         10
   229         10
   230         50
   231         10
   235         10
   237         10
   239         20
   240         10
   241        200
   242         40
   243         10
   247         10
   250         10
   255        500
   256        250
   257         60
   258         10
   263         10
   275         10
   277         20
   278         20
   279         10
   289         15
   290         10
   291         10
   305        140
   306         50
   307         15
   317         10
   318         15
   319         10
   320         30
   321         10
   331        160
   332         40
   333         10
   345         90
   346        320
   347         90
   348         20
   379         15
   380         10
   421        500
   422        170
   423         60
   424         10
   435         10
   436        135
   437         50
   438         20