##TITLE=Library Entry 42590
##JCAMP-DX=Revision 4.10 
##DATA TYPE=MASS SPECTRUM
##SAMPLE DESCRIPTION=NIST Mass Spectrometry Data Center
##NAMES=HP
##CAS NAME=3.beta.,4.beta.-Bis(trimethylsiloxy)cholest-5-ene
##MOLFORM=C33H62O2Si2
##CAS REGISTRY NO=33287-25-1
##MP= -300
##BP= -300
##MW= 546
##$RETENTION INDEX=3239
##$CONDENSED SPECTRUM=NO
##NPOINTS= 331
##XYDATA=(XY..XY) 1 
    14          3
    26          3
    27         10
    28         16
    29         30
    39         10
    40          5
    41        100
    42         15
    43        251
    44          8
    45         23
    47          4
    52          2
    53         10
    54          5
    55        155
    56         49
    57        231
    58         15
    59         17
    60          3
    61          7
    65          7
    67         74
    68         12
    69        158
    70         34
    71        127
    72         18
    73        999
    74         83
    75        114
    76          4
    77         23
    78          4
    79         76
    80         11
    81        148
    82         16
    83         84
    84          9
    85         24
    86          4
    87          3
    89          5
    91        102
    92         16
    93        111
    94         25
    95        200
    96         20
    97         47
    98          4
    99          9
   101         13
   102          3
   103        136
   104         24
   105        162
   106         45
   107        112
   108         25
   109         90
   110         10
   111         37
   112          4
   113          9
   114          2
   115         26
   116         17
   117         89
   118         56
   119        137
   120         31
   121         88
   122         19
   123         49
   124         53
   125         19
   126          2
   127         10
   128         16
   129        321
   130         60
   131        150
   132         52
   133        181
   134         46
   135        121
   136         17
   137         26
   138          7
   139          8
   140          2
   141         17
   142         21
   143        194
   144         78
   145        125
   146         37
   147        489
   148         81
   149        112
   150         15
   151         20
   152          4
   153          9
   154         24
   155         39
   156         55
   157        113
   158        145
   159        138
   160         41
   161         51
   162          8
   163         25
   164          6
   165         25
   166          5
   167         32
   168         19
   169        120
   170         31
   171         54
   172         25
   173         67
   174         14
   175         32
   176          6
   177         20
   178          4
   179         48
   180         20
   181         49
   182         28
   183         41
   184         12
   185         29
   186          9
   187         33
   188          7
   189         11
   190          3
   191         66
   192         17
   193        100
   194         47
   195         73
   196         31
   197         35
   198         12
   199         27
   200          7
   201         30
   202          7
   203          7
   204          5
   205         16
   206         12
   207         43
   208         34
   209         30
   210          6
   211         51
   212         18
   213         26
   214          8
   215         29
   216          5
   217         20
   218          6
   219         19
   220          8
   221         13
   222         11
   223          5
   224          2
   225          8
   226         12
   227         18
   228          5
   229         17
   230          6
   231          9
   232          3
   233         16
   234          7
   235          8
   236          3
   237          4
   238          1
   239          7
   240          3
   241          9
   242          2
   243         14
   244          5
   245         13
   246          6
   247         34
   248         17
   249         10
   250          2
   251          4
   252          3
   253         70
   254         19
   255          9
   256          4
   257          8
   258          2
   259         16
   260         13
   261         43
   262         13
   263          5
   269          8
   270         12
   271          8
   273          5
   274          3
   275          6
   276          1
   281          8
   282          5
   283         16
   284          8
   285         15
   286          6
   287          6
   289          5
   291          2
   296          2
   297          6
   298          4
   299          6
   300          3
   301          6
   302          3
   303          4
   304          2
   309          3
   310          2
   311          8
   312          4
   314          2
   315          1
   317          3
   321          1
   325         11
   326         17
   327        106
   328         24
   329          4
   331          2
   338          2
   339          3
   340         15
   341          7
   342          4
   343          9
   346          1
   347          2
   348          1
   349          4
   350          4
   351         25
   352          9
   353         34
   354         11
   357          3
   360          1
   361          1
   362         17
   363          7
   364          1
   365          4
   366        243
   367         84
   368         13
   369          4
   370          2
   371          3
   372          2
   373          2
   374          1
   375          3
   376          7
   377          4
   378          1
   384          7
   388          4
   389          3
   390          1
   399          2
   400          2
   405          2
   413          1
   414          2
   415         22
   416         13
   417        100
   418         35
   419          9
   420          2
   427          2
   428          3
   430         25
   431          7
   432          2
   437          1
   439          2
   441         49
   442         19
   443         17
   444          5
   454          1
   455          6
   456        176
   457         62
   458         22
   459          4
   530          1
   531         18
   532          9
   533          3
   546         30
   547         14
   548          4