##TITLE=Library Entry 44328
##JCAMP-DX=Revision 4.10 
##DATA TYPE=MASS SPECTRUM
##SAMPLE DESCRIPTION=STER ANDR TMSI 00 0000 E M.HORN
##NAMES=HP
##CAS NAME=Androstane-3,11,17-triol, (3.alpha.,5.beta.,11.alpha.,17.beta.)-,
 3TMS derivative
##MOLFORM=C28H56O3Si3
##CAS REGISTRY NO=33287-30-8
##MP= -300
##BP= -300
##MW= 524
##$RETENTION INDEX=0
##$CONDENSED SPECTRUM=NO
##NPOINTS= 210
##XYDATA=(XY..XY) 1 
    41         50
    43         60
    45        100
    47         20
    53         20
    55        110
    57         20
    59         85
    61         70
    67        145
    68         20
    69         65
    72         50
    73        999
    74        240
    75        880
    76         65
    77         90
    79        240
    80         45
    81        350
    82         25
    83         65
    85         30
    87         20
    89         40
    91        310
    92         55
    93        400
    94        105
    95        315
    96         30
    97         30
    99         30
   101        135
   102         20
   103        120
   104         35
   105        350
   106        395
   107        305
   108        140
   109        105
   110         20
   111         20
   113         30
   115        100
   116         75
   117        180
   118        100
   119        310
   120         85
   121        195
   122         35
   123         45
   127         40
   128         30
   129        405
   130        175
   131        270
   132        105
   133        300
   134         85
   135        175
   136         80
   137         40
   141         35
   142        100
   143        470
   144        230
   145        310
   146        245
   147        580
   148        150
   149        325
   150         55
   151         35
   154         20
   155         85
   156        100
   157        150
   158        205
   159        340
   160        130
   161        160
   162         80
   163         50
   165         35
   167         50
   168         55
   169        730
   170        110
   171        170
   172         70
   173        145
   174        110
   175         85
   176         20
   177         20
   179         35
   180         20
   181        255
   182        165
   183        115
   184         55
   185         85
   186         60
   187         95
   188         25
   189         45
   191        295
   192         80
   193         55
   194         45
   195        180
   196        205
   197        195
   198         55
   199        235
   200        140
   201        125
   202         95
   203         25
   204        110
   205         50
   206         20
   207         50
   208         30
   209         25
   210         25
   211         80
   212         50
   213        365
   214         75
   215        135
   216         45
   217         40
   218         15
   219         20
   220         65
   221         25
   222         55
   223         30
   224         45
   225         65
   226         80
   227        315
   228        140
   229         40
   230         20
   235         40
   236         40
   237         45
   238         25
   239        250
   240         80
   242         60
   243         95
   244        105
   245         35
   246         20
   249         75
   250         40
   251         30
   252         25
   253         75
   254        790
   255         40
   256         60
   257         30
   263         45
   271         20
   272         20
   277         30
   285         30
   286        110
   287         30
   288         20
   289         75
   290         40
   291         30
   301         20
   302         20
   303        165
   304         50
   305         25
   317         20
   318         75
   329        170
   330         60
   331         20
   344        970
   345        470
   346         95
   347         30
   379         25
   393         30
   419        105
   420         40
   421        100
   422         55
   434        999
   435        300
   436        110
   437         40
   509         25
   524        275
   525        125
   526         75
   527         20