##TITLE=Library Entry 41403
##JCAMP-DX=Revision 4.10 
##DATA TYPE=MASS SPECTRUM
##SAMPLE DESCRIPTION=Exported from NIST MS Search
##NAMES=HP
##CAS NAME=Androst-5-ene-3,11,17-triol, (3.beta.,11.beta.,17.beta.)-, 3TMS d
erivative
##MOLFORM=C28H54O3Si3
##CAS REGISTRY NO=33287-29-5
##MP= -300
##BP= -300
##MW= 522
##$RETENTION INDEX=2697
##$CONDENSED SPECTRUM=NO
##NPOINTS= 322
##XYDATA=(XY..XY) 1 
    41         17
    43         15
    44          6
    45         36
    46          2
    47          8
    50          2
    51          2
    52          2
    53          6
    54          2
    55         38
    56          2
    57          8
    58          2
    59         25
    60          6
    61         17
    62          2
    63          2
    65          2
    66          2
    67         29
    68          2
    69         17
    70          2
    71          4
    72         13
    73        999
    74         78
    75        272
    76         17
    77         19
    78          2
    79         42
    80         11
    81         32
    82          6
    83          8
    84          2
    85         11
    87          6
    88          2
    89         15
    90          2
    91         86
    92         17
    93         63
    94         13
    95         38
    96          6
    97          6
    98          2
    99          6
   101         38
   102          6
   103         59
   104         11
   105         97
   106         29
   107         82
   108         15
   109         15
   110          2
   111          4
   113          6
   114          2
   115         42
   116         17
   117         55
   118         17
   119         97
   120         36
   121         23
   122          4
   123          4
   124          2
   125          2
   126          2
   127         11
   128         13
   129        211
   130         61
   131        103
   132         42
   133         55
   134         11
   135          8
   136          2
   137          2
   139          2
   140          2
   141         23
   142         21
   143        177
   144         61
   145         91
   146         36
   147         51
   148         15
   149         13
   150          2
   151          6
   152          2
   153          6
   154          6
   155         59
   156         32
   157         88
   158         38
   159         42
   160         13
   161          8
   162          2
   163          4
   164          2
   165         11
   166          6
   167         19
   168         15
   169        160
   170         55
   171        105
   172         38
   173         23
   174          4
   175          4
   176          2
   177          4
   178          2
   179         13
   180          8
   181         63
   182         44
   183         48
   184         27
   185         40
   186         13
   187         17
   188          4
   189          2
   190          2
   191         19
   192          6
   193         17
   194         15
   195         67
   196         42
   197         80
   198         29
   199         38
   200         13
   201          4
   202          2
   203          2
   204          4
   205          6
   206          4
   207         40
   208         13
   209         36
   210         27
   211         91
   212         29
   213        154
   214         32
   215          6
   217          6
   218          2
   219          8
   220          4
   221         19
   222         13
   223         27
   224         32
   225         23
   226         42
   227         11
   228          2
   229          2
   230          2
   231          6
   232          4
   233         11
   234          6
   235         11
   236         11
   237        185
   238         40
   239         15
   240          2
   241          2
   243          2
   244          4
   245          4
   246          4
   247         17
   248          8
   249          8
   250          2
   251         19
   252        133
   253         38
   254          6
   255          4
   256          2
   257          2
   259          4
   260          2
   261          6
   262          8
   263          2
   267          2
   269          4
   270          2
   271          2
   272          2
   273          6
   274          4
   275          6
   276          2
   277          2
   281          6
   282          2
   283          2
   284          2
   285          6
   286          8
   287         15
   288          8
   289          8
   290          6
   291          2
   295          2
   297          2
   299          4
   300          4
   301         25
   302         11
   303         76
   304         17
   305          4
   309          2
   310          2
   311         11
   312          4
   313          6
   314         11
   315         11
   316         13
   317          4
   318          2
   321          2
   323          2
   324          6
   325          6
   326          4
   327        147
   328         46
   329         17
   330          4
   331          2
   337         11
   338          6
   339          4
   340          2
   341          8
   342        131
   343         44
   344         13
   345          2
   355          2
   356          2
   357          2
   358          2
   359          2
   360          2
   363          2
   364          2
   365          2
   375          2
   377         11
   378          6
   379          6
   389          2
   390          4
   391         27
   392         15
   393         13
   394          6
   395          2
   403          2
   404         17
   405          6
   406          6
   407          2
   415          2
   416          2
   417         88
   418         34
   419         15
   420          2
   429          2
   430          2
   431          8
   432        189
   433         76
   434         34
   435          8
   436          2
   493          2
   494          2
   507          6
   508          2
   509          2
   520          4
   521          6
   522         67
   523         40
   524         15
   525          2
   526          2