##TITLE=Library Entry 97117
##JCAMP-DX=Revision 4.10 
##DATA TYPE=MASS SPECTRUM
##SAMPLE DESCRIPTION=STER PREG TMSI L SE30 01 3017 E M.HORN
##NAMES=HP
##CAS NAME=Tris(trimethylsilyl)derivative of 3.beta.,16.alpha.,20.alpha.-tri
hydroxypreg-5-ene
##MOLFORM=C30H58O3Si3
##CAS REGISTRY NO=33287-38-6
##MP= -300
##BP= -300
##MW= 550
##$RETENTION INDEX=0
##$CONDENSED SPECTRUM=NO
##NPOINTS= 157
##XYDATA=(XY..XY) 1 
    41         45
    43         40
    44         17
    45         41
    47         20
    53         15
    55         70
    57         15
    59         40
    61         30
    67         65
    68         10
    69         60
    72         25
    73        990
    74        135
    75        380
    76         30
    77         40
    78         10
    79         60
    80         10
    81         65
    82         15
    83         17
    85         10
    89         17
    91         91
    92         25
    93        110
    94         25
    95         90
    96         15
    97         10
    99         10
   101         40
   103         50
   104         15
   105        120
   106         37
   107         88
   108         21
   109         40
   113         11
   115         30
   116         21
   117        999
   118        150
   119        160
   120         60
   121         51
   122         10
   123         10
   127         10
   128         17
   129        245
   130         60
   131        110
   132         31
   133        117
   134         27
   135         27
   141        281
   142         50
   143        167
   144         40
   145        106
   146         27
   147        330
   148         50
   149         47
   155         37
   156        285
   157        300
   158         95
   159         85
   160         28
   161         35
   167         10
   168         15
   169         45
   170         26
   171         55
   172         22
   173         37
   174         11
   175         30
   181         25
   182         12
   183         78
   184         20
   185         50
   186         18
   187         20
   191         70
   192         15
   193         15
   194         10
   195         30
   196         30
   197         40
   198         20
   199         41
   200         11
   201         10
   207         30
   208         10
   209         20
   211         25
   212         11
   213         30
   214         37
   215         30
   217         50
   218         10
   219         10
   221         15
   223         17
   225         20
   227         15
   231         17
   237         15
   238         10
   239         30
   240         20
   241         30
   253         11
   254         10
   265         40
   266         10
   275         15
   279         10
   280         20
   281         40
   282         10
   303         10
   331         20
   355         37
   356         15
   370         35
   371         16
   372         10
   417         17
   445        165
   446         70
   447         30
   448         10
   460        481
   461        200
   462         80
   463         20
   535          5
   536          2
   537          1
   549          1
   550          2
   551          0