##TITLE=Library Entry 89060
##JCAMP-DX=Revision 4.10 
##DATA TYPE=MASS SPECTRUM
##SAMPLE DESCRIPTION=A.A.Kutin, Moscow, Russia
##NAMES=HP
##CAS NAME=Thiophene-2-carboxamide, N-(4-cyanomethylphenyl)-
##MOLFORM=C13H10N2OS
##CAS REGISTRY NO=332881-01-3
##MP= -300
##BP= -300
##MW= 242
##$RETENTION INDEX=0
##$CONDENSED SPECTRUM=NO
##NPOINTS= 173
##XYDATA=(XY..XY) 1 
    33          0
    34          0
    36          0
    37          1
    38          7
    39         93
    40          7
    41          2
    42          0
    43          1
    44          2
    45         14
    46          1
    47          0
    48          0
    49          0
    50          8
    51         15
    52          8
    53          6
    54          1
    55          1
    56          0
    57         12
    58          5
    59          1
    60          0
    61          0
    62          3
    63         11
    64          7
    65          3
    66          1
    67          0
    69          3
    70          1
    71          2
    72          0
    73          0
    74          1
    75          5
    76         13
    77         29
    78         10
    79          1
    80          0
    81          6
    82         12
    83         74
    84          8
    85          4
    86          1
    87          1
    88          2
    89         12
    90          4
    91          7
    92          1
    93          1
    94          0
    95          0
    96          0
    97          0
    98          1
    99          0
   100          0
   101          1
   102          6
   103          7
   104         13
   105          3
   106          1
   107          1
   108          1
   111        999
   113         69
   114          5
   115          2
   116          5
   117          1
   118          0
   119          0
   120          0
   121          0
   122          0
   123          0
   124          0
   125          0
   126          0
   127          0
   128          2
   129          2
   130          1
   131         11
   132          5
   133          1
   134          0
   135          2
   136          0
   137          0
   138          0
   139          0
   140          0
   141          0
   142          0
   143          0
   144          0
   145          4
   146          0
   147          1
   148          0
   149          0
   150          0
   151          0
   152          0
   153          0
   154          2
   155          0
   156          1
   157          1
   158          0
   159          0
   160          0
   161          0
   167          0
   168          0
   169          0
   170          0
   171          0
   172          1
   173          4
   174          0
   175          0
   176          0
   178          0
   179          0
   180          0
   181          0
   182          0
   183          0
   184          0
   185          0
   186          0
   187          0
   189          0
   191          0
   196          0
   198          0
   201          7
   202          1
   203          0
   209          0
   211          0
   212          0
   213          0
   214          0
   215          0
   216          0
   217          0
   223          0
   225          1
   226          0
   227          0
   228          0
   230          0
   231          0
   233          0
   239          1
   242        276
   243         42
   244         15
   245          2
   246          0