##TITLE=Library Entry 97042
##JCAMP-DX=Revision 4.10 
##DATA TYPE=MASS SPECTRUM
##SAMPLE DESCRIPTION=STER PREG TMSI L SE30 01 2948 E M.HORN
##NAMES=HP
##CAS NAME=5.beta.-Pregnane-3.alpha.,11.beta.,20.beta.-triol, 3TMS derivativ
e
##MOLFORM=C30H60O3Si3
##CAS REGISTRY NO=33287-46-6
##MP= -300
##BP= -300
##MW= 552
##$RETENTION INDEX=2941
##$CONDENSED SPECTRUM=NO
##NPOINTS= 249
##XYDATA=(XY..XY) 1 
    41         15
    43         15
    44          5
    45         25
    47          5
    53          5
    55         50
    56          5
    57          5
    58          5
    59         20
    60          5
    61         25
    67         45
    68          5
    69         25
    70          5
    71          5
    72         15
    73        675
    74         55
    75        265
    76         20
    77         20
    78          5
    79         40
    80         10
    81         75
    82          5
    83         15
    85          5
    87          5
    89         10
    91         55
    92         15
    93         70
    94         30
    95         55
    96          5
    97          5
    99          5
   101         20
   102          5
   103         35
   104         10
   105         60
   106         50
   107         65
   108         30
   109         35
   110          5
   111          5
   113          5
   115         10
   116         15
   117        999
   118        130
   119         90
   120         35
   121         35
   122         10
   123         10
   127         10
   128          5
   129         45
   130         15
   131         40
   132         10
   133         45
   134         15
   135         20
   136          5
   137          5
   141         10
   142         20
   143        130
   144         25
   145         35
   146         10
   147         70
   148         30
   149         35
   150          5
   151          5
   155         15
   156         30
   157         25
   158         10
   159         45
   160         15
   161         20
   162          5
   163         10
   164          5
   165          5
   167          5
   168          5
   169         45
   170         15
   171         20
   172         10
   173         25
   174         35
   175         20
   176          5
   177          5
   179          5
   181         15
   182         20
   183         30
   184         10
   185         15
   186         10
   187         15
   188         20
   189         10
   191         10
   193         10
   194          5
   195         40
   196         30
   197         20
   198          5
   199         15
   200         10
   201         15
   202          5
   205         10
   207         10
   208          5
   209         10
   210          5
   211         15
   212         10
   213         20
   214         10
   215          5
   216          5
   217         15
   218          5
   219          5
   221          5
   223         30
   224         10
   225         10
   226          5
   227         35
   228         25
   229         15
   230          5
   231         15
   232          5
   233          5
   239         10
   240          5
   241         25
   242          5
   243          5
   249         10
   250          5
   251          5
   253         15
   254         10
   255         25
   256         25
   257         20
   258          5
   259          5
   263          5
   264         10
   265          5
   267         35
   268          5
   269          5
   271         30
   272         25
   273         10
   274          5
   281         10
   282        105
   283         45
   284          5
   289          5
   299          0
   300          0
   301          1
   302          0
   303          2
   304          1
   305          1
   313         17
   314          7
   315          5
   316          1
   317          6
   318         11
   319          7
   320          2
   329          2
   330          2
   331          3
   332          1
   339          1
   341          0
   342          0
   344          3
   345          5
   346         10
   347         11
   348          2
   349          0
   354          1
   355          1
   357         13
   358          5
   359          1
   367          0
   371          5
   372         47
   373         20
   374          5
   375          0
   392          0
   393          0
   394          1
   407          5
   408          3
   409          1
   433          2
   434          2
   435         16
   436          5
   437          2
   447         10
   448          3
   449          1
   461          3
   462         22
   463         10
   464          2
   465          0
   537         13
   538          6
   539          2
   540          0
   552         10
   553          4
   554          1
   555          0