##TITLE=Library Entry 114466
##JCAMP-DX=Revision 4.10 
##DATA TYPE=MASS SPECTRUM
##SAMPLE DESCRIPTION=STER CHOL TMSI 00 0000 E M.HORN
##NAMES=HP
##CAS NAME=Cholestane-3,5-diol, (3.beta.,5.alpha.)-, 2TMS derivative
##MOLFORM=C33H64O2Si2
##CAS REGISTRY NO=33283-15-7
##MP= -300
##BP= -300
##MW= 548
##$RETENTION INDEX=0
##$CONDENSED SPECTRUM=NO
##NPOINTS= 146
##XYDATA=(XY..XY) 1 
    41        210
    42         20
    43        360
    44         20
    45         30
    53         30
    55        240
    56         40
    57        370
    58         20
    59         20
    61         20
    67        150
    68         20
    69        190
    70         20
    71        180
    72         20
    73        670
    74         70
    75        510
    76         40
    77         60
    79        150
    80         20
    81        300
    82         40
    83        130
    85         30
    91        150
    92         30
    93        180
    94         40
    95        330
    96         30
    97         90
   101         40
   103         30
   104         20
   105        280
   106         80
   107        340
   108         70
   109        210
   110         30
   111        710
   115         40
   116         40
   117        100
   118         40
   119        290
   120        160
   121        280
   122         40
   123         70
   125         30
   127         20
   128         20
   129        999
   130        170
   131        160
   132         60
   133         50
   134        190
   135         60
   136        150
   137         20
   138         40
   141         20
   142         20
   143        140
   144         50
   145        220
   146         80
   147        190
   148         50
   149         90
   151         30
   155         60
   157         60
   158         50
   159        210
   160        120
   161        150
   162         40
   163        100
   165         40
   169         40
   171         40
   173         80
   174         40
   175         70
   177         40
   179         30
   185         40
   187         40
   189         50
   191         20
   193         30
   196         20
   197         30
   199         30
   201         50
   203         50
   205         30
   206         20
   207         20
   211        130
   212         30
   213         40
   215         70
   217         30
   227         20
   228         20
   229         30
   234         40
   245         20
   246         20
   247        180
   248         40
   265        140
   266         20
   269         20
   270         20
   271         20
   276         20
   277         90
   301         30
   326         20
   327         40
   328        150
   329        760
   330        260
   331         30
   353        270
   354         70
   367         30
   368        600
   369        160
   370         30
   443         70
   444         20
   456         20
   458        280
   459         90
   460         20