##TITLE=Library Entry 41559
##JCAMP-DX=Revision 4.10 
##DATA TYPE=MASS SPECTRUM
##SAMPLE DESCRIPTION=STER ANDR TMSI,00 0000 E,M.HORN
##NAMES=HP
##CAS NAME=Silane, (5.alpha.-androst-2-en-11.beta.,17-ylenedioxy)bis[trimeth
yl-
##MOLFORM=C25H46O2Si2
##CAS REGISTRY NO=33283-02-2
##MP= -300
##BP= -300
##MW= 434
##$RETENTION INDEX=0
##$CONDENSED SPECTRUM=NO
##NPOINTS= 178
##XYDATA=(XY..XY) 1 
    41        130
    43        100
    44         25
    45        150
    47         30
    53         60
    55        170
    57         60
    59        130
    61         60
    65         35
    67        240
    68         25
    69         85
    71         35
    72         50
    73        999
    74        280
    75        999
    76         80
    77        210
    78         50
    79        380
    80         80
    81        390
    82         40
    83         40
    85         30
    89         45
    91        430
    92        280
    93        370
    94        180
    95        250
    96         30
    97         35
    99         25
   101        190
   103        160
   104        100
   105        610
   106        320
   107        430
   108        150
   109        150
   110         25
   111         50
   113         35
   115        150
   116        140
   117        290
   118        180
   119        280
   120        140
   121        140
   122         80
   123        140
   124         70
   125         20
   127         55
   128         35
   129        570
   130        240
   131        320
   132        120
   133        270
   134        120
   135        170
   136        100
   137         80
   141         65
   142         95
   143        550
   144        180
   145        230
   146        470
   147        400
   148        160
   149        270
   150        430
   151         70
   155         70
   156        140
   157        190
   158        160
   159        230
   160        110
   161        110
   162        100
   163        290
   164         35
   165         20
   167         85
   168         60
   169        940
   170        150
   171        110
   172         80
   173        120
   174        140
   175         50
   179         20
   181        120
   182        430
   183        160
   184         40
   185         70
   186         90
   187         80
   191        170
   192         40
   193         40
   194         25
   195        190
   196        160
   197        100
   198         30
   199        170
   200        150
   201         70
   202         50
   204         80
   205         20
   207         30
   208         20
   209         30
   211         60
   212         50
   213        330
   214         80
   215        100
   216         20
   217         20
   221         30
   223         35
   224         20
   225         60
   226         70
   227         50
   228        460
   229         60
   235         50
   236         30
   237         45
   238         30
   239        390
   240         70
   241         40
   243         40
   244         60
   245         25
   249        120
   250         35
   251         20
   252        100
   253        140
   254        470
   255        120
   256         20
   285         20
   286         20
   289         45
   290         50
   303         40
   329        370
   330         90
   331        100
   332         20
   343         40
   344        999
   345        280
   346         60
   419         15
   420          5
   421          2
   434        170
   435         50
   436         20