##TITLE=Library Entry 42541
##JCAMP-DX=Revision 4.10 
##DATA TYPE=MASS SPECTRUM
##SAMPLE DESCRIPTION=STER ANDR TMSI 00 0000 E M.HORN
##NAMES=HP
##CAS NAME=Androst-5-ene-3,4,17-triol, (3.beta.,4.alpha.,17.beta.)-, 3TMS de
rivative
##MOLFORM=C28H54O3Si3
##CAS REGISTRY NO=33287-28-4
##MP= -300
##BP= -300
##MW= 522
##$RETENTION INDEX=0
##$CONDENSED SPECTRUM=NO
##NPOINTS= 162
##XYDATA=(XY..XY) 1 
    41         90
    43         30
    44         30
    45        130
    47         50
    55        115
    59        120
    61         35
    65         20
    67        115
    69        150
    73        999
    74        280
    75        710
    76         50
    77        105
    79        180
    81        220
    85         30
    89         25
    91        130
    92         30
    93        195
    94         30
    95        130
    96         20
    99         40
   101        110
   103        380
   104         35
   105        300
   106         60
   107        120
   108         20
   109         20
   113         20
   115        170
   116         60
   117        180
   118         70
   119        150
   120         25
   121         30
   122         20
   123         20
   127         25
   128         25
   129        440
   130        100
   131        270
   132        100
   133        340
   134         60
   135         30
   141         60
   142         30
   143        180
   144         80
   145        230
   146         80
   147        999
   148         90
   149         50
   150         20
   151         20
   154         20
   155         50
   156        105
   157        310
   158         90
   159        120
   161         40
   167         80
   168         70
   169        320
   170         50
   171         90
   172         50
   173         70
   177         20
   179         30
   180         30
   181        120
   182        165
   183        100
   184         30
   185         60
   187        150
   191        150
   193         70
   194         90
   195        340
   196         85
   197         60
   198         40
   199        120
   200         30
   207         40
   208         20
   209         10
   210         10
   211        150
   212         50
   213        300
   214         60
   215         20
   219         40
   222         40
   223         70
   224         30
   226        100
   227         70
   231         30
   233         20
   234         20
   235         40
   237        230
   238         50
   239         40
   241         20
   245         20
   251         40
   252        440
   253        110
   269         30
   270         20
   281         25
   283         25
   285         50
   288         20
   289         25
   301         40
   302         60
   303        160
   304         60
   305         30
   316         25
   317         30
   327        110
   329         60
   330         30
   342        700
   343        180
   344         25
   391         70
   392         30
   393        350
   394        190
   395         30
   406        100
   417         90
   418         60
   419         50
   432        280
   433        260
   434         90
   507         85
   508         65
   509         10
   522        210
   523        100
   524         20