##TITLE=Library Entry 86758
##JCAMP-DX=Revision 4.10 
##DATA TYPE=MASS SPECTRUM
##SAMPLE DESCRIPTION=A.A.Kutin, Moscow, Russia
##NAMES=HP
##CAS NAME=3-Methyl-furan-2-carboxylic acid naphthalen-2-ylamide
##MOLFORM=C16H13NO2
##CAS REGISTRY NO=332897-09-3
##MP= -300
##BP= -300
##MW= 251
##$RETENTION INDEX=0
##$CONDENSED SPECTRUM=NO
##NPOINTS= 149
##XYDATA=(XY..XY) 1 
    34          0
    37          0
    38          2
    39         15
    40         11
    41          2
    42          1
    43          3
    44          3
    45          0
    50          7
    51         18
    52         20
    53         60
    54          4
    55          1
    57          2
    61          0
    62          4
    63         15
    64          3
    65         19
    66          2
    67          1
    69          2
    70          1
    71          1
    74          4
    75          6
    76          4
    77          8
    78          1
    79          1
    80          3
    81         15
    82          4
    83          1
    84          0
    85          0
    86          3
    87          5
    88          9
    89         20
    90          3
    91          2
    92          0
    93          1
    94          0
    95          1
    97          0
    98          0
    99          0
   100          1
   101          9
   102          2
   103          0
   104          0
   105          1
   106          0
   107          1
   109        999
   110         63
   111          7
   112          1
   113         16
   114         28
   115        175
   116         23
   117          2
   119          0
   120          1
   123          0
   126         18
   127         30
   128          8
   129          1
   131          1
   133          0
   135          0
   138          0
   139          3
   140         26
   141         11
   142         18
   143         61
   144         46
   145          5
   151          2
   152          5
   153          4
   154          2
   155          1
   156          0
   160          0
   161          4
   162          0
   163          0
   164          1
   165          6
   166          2
   167          3
   168          1
   169         16
   170          2
   171          5
   172          0
   173          4
   174          1
   176          0
   177          1
   178          6
   179          7
   180         12
   181          4
   182          9
   183         11
   184          1
   185          3
   186          0
   190          0
   191          1
   192          2
   193          5
   194         47
   195         12
   196          2
   203          0
   204          1
   205          2
   206          5
   207          8
   208         82
   209         15
   210          1
   213          0
   220          3
   221          1
   222         27
   223         33
   224          5
   233          8
   234         34
   235          6
   236          4
   237          0
   251        592
   252        107
   253         12
   254          0