##TITLE=Library Entry 97041
##JCAMP-DX=Revision 4.10 
##DATA TYPE=MASS SPECTRUM
##SAMPLE DESCRIPTION=STER PREG TMSI L SE30 01 2810 E M.HORN
##NAMES=HP
##CAS NAME=Pregn-5-ene-3,20-diol, (3.beta.,20R)-, 2TMS derivative
##MOLFORM=C27H50O2Si2
##CAS REGISTRY NO=33283-11-3
##MP= -300
##BP= -300
##MW= 462
##$RETENTION INDEX=2826
##$CONDENSED SPECTRUM=NO
##NPOINTS= 131
##XYDATA=(XY..XY) 1 
    41         15
    43         10
    44          5
    45         10
    47          5
    53          5
    55         25
    57          5
    59         10
    61         10
    67         20
    68          5
    69         10
    72          5
    73        305
    74         25
    75        140
    76         10
    77         15
    78          5
    79         20
    80          5
    81         30
    82          5
    83          5
    89          5
    91         25
    92          5
    93         25
    94          5
    95         20
    97          5
   101         10
   103         25
   104          5
   105         30
   106         10
   107         25
   108          5
   109         10
   111          5
   115          5
   116          5
   117        999
   118        110
   119         90
   120         25
   121         20
   122          5
   123          5
   129        105
   130         20
   131         20
   132          5
   133         20
   134          5
   135         10
   143         30
   144          5
   145         20
   146          5
   147         15
   148          5
   149          5
   155         10
   156          5
   157         10
   158          5
   159         20
   160         10
   161         20
   162          5
   169          5
   171          5
   172          5
   173         10
   174          5
   175          5
   183          5
   185          5
   187          5
   188          5
   189         10
   197          5
   199          5
   201          5
   207          5
   211          5
   213          5
   215          5
   227          5
   237          0
   239          1
   240          1
   241          2
   242          1
   243         25
   244          5
   251          0
   253          3
   254          1
   255          3
   256          3
   257          0
   267         14
   268          2
   278          0
   281          3
   282         15
   283          4
   284          0
   330          2
   331          2
   332         12
   333          5
   334          1
   344          1
   346          1
   357          9
   358          2
   359          0
   372         37
   373         11
   374          3
   447          5
   448          1
   449          0
   462         20
   463          7
   464          2
   465          0