##TITLE=Library Entry 86783
##JCAMP-DX=Revision 4.10 
##DATA TYPE=MASS SPECTRUM
##SAMPLE DESCRIPTION=A.A.Kutin, Moscow, Russia
##NAMES=HP
##CAS NAME=Indole-3-carboxaldehyde, 1-(4-fluorobenzyl)-2-methyl-
##MOLFORM=C17H14FNO
##CAS REGISTRY NO=332922-15-3
##MP= -300
##BP= -300
##MW= 267
##$RETENTION INDEX=0
##$CONDENSED SPECTRUM=NO
##NPOINTS= 166
##XYDATA=(XY..XY) 1 
    33          1
    34          3
    35          1
    36          2
    37          1
    38          3
    39         23
    40         48
    41          7
    42          4
    43          9
    44         16
    45          3
    46          1
    47          2
    48          1
    49          9
    50          8
    51         17
    52          4
    53          1
    54          0
    55          4
    56          3
    57         16
    59          9
    60          0
    61          1
    62          9
    63         26
    64          4
    65          7
    66          1
    67          1
    68          0
    69          2
    70          2
    71          2
    72          0
    73          1
    74          4
    75         11
    76          8
    77         19
    78          4
    79          1
    80          0
    81          5
    83        100
    84         10
    85          3
    86          5
    87          4
    88          7
    89         26
    90          4
    91          8
    92          2
    93          1
    94          2
    95          3
    96          1
    97          1
    98          1
    99          1
   100          1
   101          9
   102         16
   103         17
   104          4
   105          2
   107         16
   109        999
   110         58
   111          4
   113          3
   114          2
   115         14
   116          4
   117          3
   118          4
   119          2
   120          2
   121          1
   122          1
   123          2
   124          1
   125          1
   126          0
   127          2
   128         14
   129         11
   130         33
   131          3
   132          1
   133          2
   134          1
   135          0
   139          0
   140          1
   141          0
   142          2
   143          6
   144          7
   145          0
   146          0
   149          4
   150          0
   151          0
   152          0
   156          1
   157          5
   158         39
   159          4
   160          0
   161          0
   162          0
   165          0
   170          2
   171         26
   172          3
   173          0
   175          0
   176          0
   179          0
   181          0
   182          0
   183          0
   189          0
   190          0
   193          0
   194          1
   195          0
   196          2
   197          0
   204          0
   205          0
   207          2
   208          1
   209          0
   216          0
   217          0
   218          0
   219          0
   220          0
   222          8
   223          3
   224          4
   225          0
   232          0
   234          3
   235          9
   236          7
   238         14
   239          2
   247          0
   248          1
   249          1
   250          8
   252          8
   253          1
   264          4
   266         73
   267        386
   268         67
   269          5