##TITLE=Library Entry 66867
##JCAMP-DX=Revision 4.10 
##DATA TYPE=MASS SPECTRUM
##SAMPLE DESCRIPTION=Asinex Ltd, Moscow, Russia
##NAMES=HP
##CAS NAME=1-[5-(2-Iodo-phenyl)-[1,3,4]thiadiazol-2-yl]-3-phenyl-urea
##MOLFORM=C15H11IN4OS
##CAS REGISTRY NO=332931-37-0
##MP= -300
##BP= -300
##MW= 422
##$RETENTION INDEX=0
##$CONDENSED SPECTRUM=NO
##NPOINTS= 179
##XYDATA=(XY..XY) 1 
    33          3
    34          1
    36         13
    37        174
    38        300
    39        471
    40        123
    41        127
    42         47
    43         20
    44         35
    45         65
    46         31
    47         33
    48          5
    49         35
    50        221
    51        228
    52        120
    53         20
    54         48
    55          5
    56          1
    57          8
    58         19
    59         18
    60         71
    61         57
    62        123
    63        223
    64        285
    65        219
    66        191
    67         24
    68          9
    69        104
    70         24
    71          6
    72         21
    73         19
    74        308
    75        110
    76        131
    77        183
    78         24
    79          4
    80          3
    81         11
    82          8
    83          4
    84          5
    85          6
    86         40
    87         25
    88         72
    89         41
    90        118
    91        246
    92        137
    93        999
    94        122
    95          8
    96          3
    97          1
    99          5
   100         64
   101         18
   102        108
   103         59
   104         23
   105          8
   106         13
   107         30
   108         17
   109          9
   110          1
   111          0
   115          1
   116          2
   117         38
   118         39
   119        398
   120        281
   121         60
   122         18
   123          4
   124          3
   125          1
   127         96
   128         82
   129          6
   130          2
   132          7
   133         23
   134        288
   135         86
   136         21
   137          3
   139          1
   141          0
   143          7
   144          1
   145          1
   146         12
   147          4
   148          7
   149         41
   150          5
   151          4
   152          3
   155          0
   159          7
   160          5
   161          5
   162          0
   164          3
   165          1
   166          4
   167          1
   169          1
   170          3
   171          4
   174          1
   175          2
   176         13
   177         46
   178          5
   179          2
   180          1
   181          9
   182          3
   183          0
   184          0
   185          3
   194          0
   195          2
   197          0
   200          0
   202          4
   203         39
   204         15
   205          2
   211         10
   212          8
   213          0
   215          2
   227          2
   229         82
   230        111
   231          9
   235          3
   244        211
   245         17
   247         90
   248          7
   249          3
   254          3
   261         39
   262         10
   263          1
   270          1
   271          5
   272          1
   287          3
   296          7
   297          1
   300          3
   303        685
   304         73
   305         44
   306          4
   327          0
   329        194
   330         84
   331         17
   332          3
   422         88
   423         15
   424          4