##TITLE=Library Entry 5161
##JCAMP-DX=Revision 4.10 
##DATA TYPE=MASS SPECTRUM
##SAMPLE DESCRIPTION=Chemical Concepts
##NAMES=HP
##CAS NAME=2,2-Bis(n-propyl)malonodinitrile
##MOLFORM=C10H14N2
##CAS REGISTRY NO=33296-20-7
##MP= -300
##BP= -300
##MW= 162
##$RETENTION INDEX=0
##$CONDENSED SPECTRUM=NO
##NPOINTS= 69
##XYDATA=(XY..XY) 1 
    36          2
    37         36
    38         67
    39        334
    40         75
    42        999
    48          1
    49          7
    50         41
    51         81
    52         74
    56        436
    61          9
    62         21
    63         60
    64         85
    65         90
    66        122
    73          1
    74          5
    75         23
    76         44
    77         91
    78        114
    79        320
    80          9
    81         46
    84         22
    85          2
    86          2
    87          4
    88          9
    89         12
    90         21
    91         61
    92         62
    93         75
   100          2
   101          3
   102          9
   103         13
   104         39
   105        182
   106        210
   107        105
   108         22
   114          1
   115          2
   116          7
   117          9
   118         35
   119        143
   120        187
   121        596
   122         94
   128          1
   129          2
   130          3
   131         11
   132          9
   133        131
   134         24
   143          1
   144          1
   145          2
   147         17
   161         15
   162         89
   163         18