##TITLE=Library Entry 84589
##JCAMP-DX=Revision 4.10 
##DATA TYPE=MASS SPECTRUM
##SAMPLE DESCRIPTION=Asinex Ltd, Moscow, Russia
##NAMES=HP
##CAS NAME=3-Iodo-N-pyridin-2-ylmethyl-benzamide
##MOLFORM=C13H11IN2O
##CAS REGISTRY NO=332943-05-2
##MP= -300
##BP= -300
##MW= 338
##$RETENTION INDEX=0
##$CONDENSED SPECTRUM=NO
##NPOINTS= 120
##XYDATA=(XY..XY) 1 
    38          1
    39          7
    40          2
    41          0
    50         30
    51         19
    52         15
    53          8
    54          0
    62          1
    63          4
    64          3
    65         24
    66          3
    67          0
    74         19
    75         27
    76        114
    77         25
    78         31
    79         44
    80         37
    81          2
    89          1
    90          3
    92        107
    93         20
    94          0
   101          0
   102          2
   103          6
   104         23
   105         34
   107        999
   108         69
   109          5
   115          3
   116          2
   117          0
   118          2
   119          0
   121          0
   125          0
   127         34
   128         17
   129          0
   130          0
   132          0
   133          2
   135         73
   136          4
   139          1
   141         11
   142          1
   143          0
   144          5
   145          0
   152          1
   153          2
   154          8
   155          6
   156          1
   164          0
   165          1
   166         10
   167          7
   168          3
   169          0
   171          1
   176          0
   177          1
   180          0
   181          4
   182          9
   183          1
   184          0
   191          0
   192         13
   193          9
   194          6
   195          0
   197          0
   198          4
   199          0
   201          0
   203        249
   204         19
   205          0
   206          0
   210          1
   211          2
   212          4
   213          0
   229          0
   231        209
   232         20
   233          1
   243         13
   244          0
   245          2
   247          0
   248          0
   254          0
   281          1
   288          3
   289          0
   294         10
   295          8
   296          0
   308          3
   309          2
   310          0
   319          4
   320         11
   321         31
   322          3
   329          0
   338        357
   339         52
   340          3