##TITLE=Library Entry 90201
##JCAMP-DX=Revision 4.10 
##DATA TYPE=MASS SPECTRUM
##SAMPLE DESCRIPTION=Chuck Anderson, Aldrich Chemical Co.
##NAMES=HP
##CAS NAME=Flurothyl
##MOLFORM=C4H4F6O
##CAS REGISTRY NO=333-36-8
##MP= -300
##BP= -300
##MW= 182
##$RETENTION INDEX=0
##$CONDENSED SPECTRUM=NO
##NPOINTS= 48
##XYDATA=(XY..XY) 1 
    14          0
    15          1
    26          1
    28          0
    29         53
    30          8
    31         76
    32         10
    33        215
    34          2
    42          0
    43          4
    44         14
    45         13
    47          1
    49          3
    50         13
    51         35
    60          3
    61        184
    62          5
    63         67
    64         62
    65         16
    68          1
    69         81
    70          0
    78          0
    79          5
    80          2
    81         11
    82         10
    83        641
    84         14
    93          4
   101          3
   111          0
   112         12
   113        999
   114         32
   115          2
   131          9
   162          0
   163         63
   164          2
   181          1
   182          6
   183          0