##TITLE=Library Entry 20140
##JCAMP-DX=Revision 4.10 
##DATA TYPE=MASS SPECTRUM
##SAMPLE DESCRIPTION=NIST Mass Spectrometry Data Center
##NAMES=HP
##CAS NAME=Decyl trifluoroacetate
##MOLFORM=C12H21F3O2
##CAS REGISTRY NO=333-88-0
##MP= -300
##BP= -300
##MW= 254
##$RETENTION INDEX=1247
##$CONDENSED SPECTRUM=NO
##NPOINTS= 88
##XYDATA=(XY..XY) 1 
    15          2
    26          5
    27         92
    28         18
    29        197
    30          6
    33          4
    37          1
    38          3
    39        125
    40         29
    41        682
    42        217
    43        803
    45          3
    46          1
    50          4
    51         10
    52          5
    53         60
    54         95
    55        999
    56        620
    57        563
    58         24
    59          4
    61          2
    63          1
    65         10
    66          8
    67        118
    68        206
    69        866
    70        599
    71        203
    72         10
    73          1
    77          6
    78          8
    79         12
    80          3
    81         39
    82        248
    83        526
    84        341
    85        153
    86          9
    87          1
    91          2
    93          1
    94          1
    95         11
    96         64
    97        406
    98        157
    99         89
   100          2
   101          1
   109          3
   110         22
   111        210
   112        166
   113         16
   114          1
   115          3
   123          1
   125          6
   127         14
   136          1
   137          2
   138          6
   139          2
   140         49
   141          7
   151          1
   152          3
   153          1
   155          4
   165          1
   167          3
   168          1
   179          1
   180          1
   185         38
   186          5
   193          2
   207          1
   236          1