##TITLE=Library Entry 6388
##JCAMP-DX=Revision 4.10 
##DATA TYPE=MASS SPECTRUM
##SAMPLE DESCRIPTION=Exported from NIST MS Search
##NAMES=HP
##CAS NAME=1,3,4-Thiadiazole, 2-amino-5-(hexadecylthio)-
##MOLFORM=C18H35N3S2
##CAS REGISTRY NO=33313-11-0
##MP= -300
##BP= -300
##MW= 357
##$RETENTION INDEX=0
##$CONDENSED SPECTRUM=NO
##NPOINTS= 32
##XYDATA=(XY..XY) 1 
    39         90
    41        890
    42        180
    43        999
    44         30
    55        700
    56        160
    57        530
    60        240
    67         80
    69        270
    70        100
    71        160
    74        110
    83        130
    87         80
    97         60
   102        190
   128         80
   133        890
   134        310
   135         80
   147         70
   282         30
   296         20
   310        120
   311         20
   312         10
   324         20
   357         60
   358         10
   359         10