##TITLE=Library Entry 57942
##JCAMP-DX=Revision 4.10 
##DATA TYPE=MASS SPECTRUM
##SAMPLE DESCRIPTION=R RYHAGE KAROLINSKA INSTITUTET STOCKHOLM SWEDEN
##NAMES=HP
##CAS NAME=Heptanoic acid, 2,6-dimethyl-, methyl ester
##MOLFORM=C10H20O2
##CAS REGISTRY NO=33315-72-9
##MP= -300
##BP= -300
##MW= 172
##$RETENTION INDEX=0
##$CONDENSED SPECTRUM=NO
##NPOINTS= 32
##XYDATA=(XY..XY) 1 
    14         16
    15         39
    27         56
    29         78
    39         44
    40         10
    41        157
    42         50
    43        146
    45         10
    55        129
    56         36
    57        129
    59         75
    69         72
    70         10
    71         65
    73         33
    82         18
    83         31
    87         72
    88        999
    89         42
    97         56
    98         13
   101        213
   102         21
   113         13
   115         17
   129         47
   141         28
   157         13