##TITLE=Library Entry 80014
##JCAMP-DX=Revision 4.10 
##DATA TYPE=MASS SPECTRUM
##SAMPLE DESCRIPTION=A.A.Kutin, Moscow, Russia
##NAMES=HP
##CAS NAME=2-(1H-Benzoimidazol-2-yl)-1-benzoyl-isothiourea
##MOLFORM=C15H12N4OS
##CAS REGISTRY NO=333326-00-4
##MP= -300
##BP= -300
##MW= 296
##$RETENTION INDEX=0
##$CONDENSED SPECTRUM=NO
##NPOINTS= 170
##XYDATA=(XY..XY) 1 
    33          0
    34          1
    35          4
    39         40
    40         26
    41          8
    42         10
    43         98
    44         26
    45         49
    46          2
    47          2
    50         61
    51        216
    52         26
    53         13
    54          3
    55          4
    56          2
    57          7
    58         13
    59          1
    60          1
    61          2
    62          7
    63         31
    64         15
    65         14
    66          3
    67          2
    68          4
    69         67
    70         18
    71          7
    72          1
    73          1
    74         12
    75         19
    76         44
    77        868
    78         95
    79         13
    80          3
    81          5
    82         19
    83          3
    84          3
    85          2
    86          0
    87          1
    88          2
    89          1
    90         22
    91         12
    92          5
    93         85
    94         11
    95         18
    96         28
    97          5
    98          2
    99          0
   100          1
   101          0
   102          2
   103          6
   105        999
   106         78
   107          9
   108         51
   109         12
   110          3
   111          2
   112          1
   113          0
   114          0
   115          0
   116          1
   117          1
   118          2
   119          2
   120          3
   121         10
   122         53
   123         19
   124          6
   125          1
   126          0
   127          0
   128          0
   129          0
   130          2
   131          0
   132          0
   133          3
   134          5
   135          3
   136          2
   137          0
   139          3
   140          0
   141          1
   143          0
   144          0
   145          2
   146          1
   147          9
   148         23
   149         80
   150        322
   151         73
   152         20
   153          3
   154          0
   160          0
   161          4
   162          1
   171          2
   173          1
   174          4
   175         80
   176         64
   177         18
   178          4
   179          0
   182          3
   183          0
   184          0
   190          0
   191          9
   192          4
   193          0
   198          0
   202          4
   203          0
   204          0
   211          1
   212          0
   217          0
   219         48
   220          5
   221          2
   222          0
   225         10
   226         29
   227          5
   228          1
   235          0
   238          0
   243          0
   250          0
   251          9
   252          3
   253          6
   254          5
   255          0
   256          0
   267          5
   268         13
   269          2
   270          0
   277          1
   278          0
   279          0
   295         82
   296        435
   297         84
   298         27
   299          3
   300          0