##TITLE=Library Entry 85965
##JCAMP-DX=Revision 4.10 
##DATA TYPE=MASS SPECTRUM
##SAMPLE DESCRIPTION=Asinex Ltd, Moscow, Russia
##NAMES=HP
##CAS NAME=Pyrazole, 1-(2-fluorobenzyl)-4-nitro-
##MOLFORM=C10H8FN3O2
##CAS REGISTRY NO=333311-67-4
##MP= -300
##BP= -300
##MW= 221
##$RETENTION INDEX=0
##$CONDENSED SPECTRUM=NO
##NPOINTS= 126
##XYDATA=(XY..XY) 1 
    33          4
    38         42
    39         50
    40          9
    41         10
    42          4
    44         38
    46          9
    50         22
    51         30
    52         34
    53          6
    54         20
    55         18
    57         63
    59         24
    61          4
    62         15
    63         44
    65          7
    66          3
    67          2
    68         10
    69          9
    70          9
    71          1
    73          0
    74          9
    75         21
    76          6
    77          4
    78          2
    79          2
    80          4
    81         21
    83        205
    85          1
    86          2
    87          9
    89         30
    90          2
    91          0
    92          0
    93          1
    94          6
    95         11
    96          6
    97          3
    99          2
   100          1
   101          4
   102          5
   103          1
   105          2
   107         55
   109        999
   110         75
   112          0
   113          0
   114          0
   115          0
   116          0
   117          1
   118          0
   119          0
   120          7
   121          5
   122         11
   123          6
   124          1
   125          1
   126          8
   127          1
   128          2
   129          1
   132          0
   133          0
   134          3
   135          5
   136          1
   137          0
   140          0
   145          1
   146         11
   147         13
   148          7
   149          2
   150          1
   151          0
   154          0
   155          3
   156          5
   157          0
   158          0
   160          0
   161          0
   162          1
   163          2
   164          2
   165          3
   173          5
   174         12
   175         11
   176          1
   177          0
   181          0
   183          0
   184          0
   187          0
   189          0
   190          0
   191          5
   192          0
   200          0
   202        114
   203         14
   204         19
   205          5
   206          1
   207          0
   216          0
   218          0
   220         93
   221        185
   222         23
   223          0