##TITLE=Library Entry 70864
##JCAMP-DX=Revision 4.10 
##DATA TYPE=MASS SPECTRUM
##SAMPLE DESCRIPTION=A.A.Kutin, Moscow, Russia
##NAMES=HP
##CAS NAME=Pyrrolidine-2,5-dione, 3-[4-(2-hydroxyethyl)-1-piperazinyl]-1-(4-
fluorophenyl)-
##MOLFORM=C16H20FN3O3
##CAS REGISTRY NO=333398-66-6
##MP= -300
##BP= -300
##MW= 321
##$RETENTION INDEX=0
##$CONDENSED SPECTRUM=NO
##NPOINTS= 180
##XYDATA=(XY..XY) 1 
    33         15
    34          1
    36          2
    37          5
    38         12
    39         30
    40         50
    41        218
    42        683
    43        125
    44        169
    45        115
    46          9
    48          0
    49          1
    50         10
    51         11
    52         17
    54        282
    55        476
    56        472
    57        119
    58        259
    59         14
    60          2
    62         35
    63         25
    64          8
    65          5
    66          3
    67         24
    68         74
    69         71
    70        193
    71         41
    72         60
    73         58
    74        118
    75         29
    76         19
    77          6
    78          3
    79          2
    80         16
    81         48
    82        212
    83        102
    84         58
    85         52
    86         74
    87         13
    88         34
    89         29
    90          5
    91          8
    92          2
    93          4
    94         23
    95         56
    96         51
    97        261
    98        999
    99        119
   100        120
   101         10
   102          5
   103          1
   104          1
   105          1
   107          8
   108         33
   109        157
   110         56
   111         48
   112         14
   113          4
   114          4
   115          2
   116          2
   117          0
   119          1
   121         27
   122         31
   123         18
   125        235
   126         24
   127         19
   128         44
   129         85
   130          8
   131          1
   133          1
   134          6
   135         18
   136         18
   137        171
   138         25
   139          5
   140          0
   141          3
   143          1
   144          2
   145         21
   147         19
   148          3
   149          2
   150          4
   151          4
   152          2
   153          2
   154          2
   155          4
   156          3
   157          1
   160          1
   161          1
   162          5
   163          6
   164          9
   165         14
   166          1
   171          2
   172          0
   173          2
   174         26
   175          3
   176          0
   177          0
   178          0
   179          1
   183          1
   186          1
   187          0
   191         69
   192         18
   193         25
   194          1
   200          1
   201          3
   204          1
   205          4
   206         10
   207          1
   208          0
   219          2
   220          1
   221          1
   228          0
   229          0
   231          0
   233         13
   234          5
   235          4
   236          0
   246          2
   247         21
   248          4
   249          0
   260          0
   261          0
   262          4
   263          0
   271          0
   272          1
   275          2
   285          2
   286         16
   288         43
   290        559
   291         79
   292         10
   293          0
   301          1
   303         40
   304          5
   305          0
   318          0
   319          4
   321         58
   322          7