##TITLE=Library Entry 97988
##JCAMP-DX=Revision 4.10 
##DATA TYPE=MASS SPECTRUM
##SAMPLE DESCRIPTION=A.A.Kutin, Moscow, Russia
##NAMES=HP
##CAS NAME=Benzene, 1,3-dibromo-2-methoxy-5-(2-methylphenyliminomethyl)-
##MOLFORM=C15H13Br2NO
##CAS REGISTRY NO=333394-60-8
##MP= -300
##BP= -300
##MW= 381
##$RETENTION INDEX=0
##$CONDENSED SPECTRUM=NO
##NPOINTS= 229
##XYDATA=(XY..XY) 1 
    33          1
    34          0
    36          2
    37          8
    38         21
    39        141
    40         33
    41         45
    42          3
    43          3
    44          7
    45          0
    49          4
    50         55
    51         93
    52         32
    53         36
    54          2
    55          2
    57          0
    61         21
    62         66
    63        111
    64         43
    65        357
    66         20
    67          1
    68          1
    69          6
    70          2
    73          6
    74         61
    75         90
    76         68
    77        113
    78         26
    79         20
    80         21
    81         12
    82         39
    84         12
    85          4
    86         14
    87         21
    88         30
    89        141
    90        172
    91        481
    92         35
    93          6
    96         36
    97         29
    98          3
    99          6
   100         22
   101         15
   102         14
   103         24
   104         34
   105          9
   106          4
   107          2
   109          1
   110          7
   112         67
   113          5
   114          6
   115         12
   116         32
   117        325
   118        999
   119         89
   120          3
   121          0
   122          1
   123          1
   124          1
   125          2
   126          7
   127         10
   128         13
   129         13
   130         21
   131          9
   132         15
   133          2
   135          3
   136          5
   137          4
   138          4
   139          7
   140          7
   141         17
   142          9
   143         21
   144         31
   149          1
   151         70
   152         70
   153         22
   154         17
   155         10
   156          9
   157          5
   158          1
   162          1
   163          9
   164         12
   165         31
   166         11
   167          8
   168          5
   169          5
   170          9
   171          3
   172          6
   173          1
   175          1
   176          2
   177          8
   178         45
   179         34
   180         95
   181         17
   182          5
   183          2
   184          2
   185          1
   189          1
   190         10
   191         26
   192         38
   193         17
   194          9
   195          7
   196          2
   197          3
   198          1
   199          1
   206          4
   207         12
   208         33
   209          6
   210          2
   220          2
   221         13
   222          9
   223         36
   224          4
   225         11
   232          2
   233          1
   234          1
   235          1
   237          0
   244          1
   245          1
   246          3
   247          1
   248          3
   249          5
   250          2
   251          7
   252          1
   253          2
   256          0
   257          2
   258         16
   259         15
   260         17
   261         13
   262          2
   264          0
   266          1
   270          1
   271          2
   272          4
   273          3
   274          3
   275          1
   276          0
   277          2
   279          1
   286         21
   287         31
   288         21
   289         27
   290          4
   291          0
   292          1
   294          0
   300          3
   301         12
   302         20
   303         16
   304         17
   305          5
   306          0
   316          0
   317          2
   318          1
   319          2
   329          0
   331          0
   338          1
   339          1
   340          1
   342          1
   344          1
   346          1
   350          1
   352          3
   353          0
   354          1
   365          4
   366         15
   367         11
   368         26
   369          8
   370         11
   371          2
   380         71
   381        171
   382        148
   383        284
   384         86
   385        135
   386         22
   387          1