##TITLE=Library Entry 35218
##JCAMP-DX=Revision 4.10 
##DATA TYPE=MASS SPECTRUM
##SAMPLE DESCRIPTION=NIST Mass Spectrometry Data Center, 1998.
##NAMES=HP
##CAS NAME=Tetramethylbutanedinitrile
##MOLFORM=C8H12N2
##CAS REGISTRY NO=3333-52-6
##MP= -300
##BP= -300
##MW= 136
##$RETENTION INDEX=0
##$CONDENSED SPECTRUM=NO
##NPOINTS= 57
##XYDATA=(XY..XY) 1 
    14          1
    15          9
    26         12
    27         55
    28         31
    29          9
    30          1
    37          7
    38         24
    39        176
    40         47
    41        349
    42        235
    43         19
    49          1
    50          6
    51         45
    52        112
    53         56
    54        323
    55         24
    56          1
    62          2
    63          5
    64         26
    65         17
    66         41
    67         44
    68        454
    69        999
    70         48
    71          1
    75          1
    76          3
    77          6
    78          9
    79          6
    80         29
    81          5
    82          2
    90          1
    91          2
    92          2
    93          7
    94         38
    95          3
    96          1
   104          1
   105          4
   106          2
   107          1
   110          1
   119          1
   120          1
   121         34
   122          2
   137          2