##TITLE=Library Entry 97534
##JCAMP-DX=Revision 4.10 
##DATA TYPE=MASS SPECTRUM
##SAMPLE DESCRIPTION=NIST Mass Spectrometry Data Center, 1990.
##NAMES=HP
##CAS NAME=Benzene, 1-methyl-4-(2-propenyl)-
##MOLFORM=C10H12
##CAS REGISTRY NO=3333-13-9
##MP= -300
##BP= -300
##MW= 132
##$RETENTION INDEX=1033
##$CONDENSED SPECTRUM=NO
##NPOINTS= 53
##XYDATA=(XY..XY) 1 
    15         11
    26         13
    27         59
    28         22
    32          4
    37          5
    38         24
    39        134
    40         14
    41         22
    50         65
    51        137
    52         37
    53         43
    58         12
    61         11
    62         39
    63        110
    64         66
    65        132
    66         11
    73          4
    74         28
    75         27
    76         28
    77        181
    78         75
    79         76
    80          5
    86         10
    87         12
    89         58
    91        331
    92         35
    98          4
   101          6
   102         36
   103         80
   104         43
   105        145
   106         13
   115        450
   116        176
   117        999
   118        105
   126          6
   127         29
   128         58
   129         66
   130         18
   131        168
   132        530
   133         58