##TITLE=Library Entry 18238
##JCAMP-DX=Revision 4.10 
##DATA TYPE=MASS SPECTRUM
##SAMPLE DESCRIPTION=A.A.Kutin, Moscow, Russia
##NAMES=HP
##CAS NAME=N-[4-(4-Pyridylmethyl)phenyl]ethanesulfonamide
##MOLFORM=C14H16N2O2S
##CAS REGISTRY NO=333352-34-4
##MP= -300
##BP= -300
##MW= 276
##$RETENTION INDEX=0
##$CONDENSED SPECTRUM=NO
##NPOINTS= 115
##XYDATA=(XY..XY) 1 
    33          3
    35          2
    37         18
    38         91
    39        438
    40        101
    41        141
    42         36
    43         37
    44         22
    45         37
    46         12
    48        127
    50        349
    51        999
    52        389
    53        134
    54        130
    55         18
    56          5
    57          4
    58          4
    59         13
    60         10
    62         62
    63        272
    64        190
    65        325
    66         51
    67         25
    69          3
    70          1
    71          5
    73          1
    74         33
    75         74
    76        123
    77        400
    78        607
    79        129
    80        104
    81          2
    86          1
    87         12
    88         13
    89         72
    90         39
    91        141
    92        123
    93        203
    94         11
    95          1
    98          3
    99          1
   100          5
   101         32
   102         79
   103         60
   104        122
   105         49
   106        235
   107         24
   108         11
   113          4
   114          9
   115         53
   116         41
   117         88
   118         20
   119          9
   120         18
   121          0
   125          0
   126         25
   127        128
   128        178
   129         67
   130         76
   131         16
   132          3
   134          3
   136          1
   139          9
   140         24
   141         22
   142         22
   143         44
   144          4
   149          0
   152          4
   153         15
   154        133
   155         52
   156        472
   157         58
   158          1
   166         27
   167         42
   168         59
   169          8
   171          5
   179          2
   180          1
   181        108
   182        110
   183        817
   184        218
   185         16
   197         21
   198          2
   247         27
   248          2
   276        110
   277         15
   278          4