##TITLE=Library Entry 38276
##JCAMP-DX=Revision 4.10 
##DATA TYPE=MASS SPECTRUM
##SAMPLE DESCRIPTION=Asinex Ltd, Moscow, Russia
##NAMES=HP
##CAS NAME=N-(4-Iodo-phenyl)-N'-(tetrahydro-furan-2-ylmethyl)-oxalamide
##MOLFORM=C13H15IN2O3
##CAS REGISTRY NO=333352-71-9
##MP= -300
##BP= -300
##MW= 374
##$RETENTION INDEX=0
##$CONDENSED SPECTRUM=NO
##NPOINTS= 119
##XYDATA=(XY..XY) 1 
    37          3
    38         34
    39        157
    40         38
    41        414
    42        148
    43        890
    44         33
    45          4
    46          7
    49          0
    50         60
    51         12
    52         16
    53         28
    54         36
    55        159
    56        120
    57         71
    58         29
    59         12
    61          1
    62         18
    63        111
    64        146
    65        122
    66         10
    67         70
    68          7
    69          1
    70         54
    71        999
    72        192
    73          3
    74          5
    75         13
    76         61
    77          3
    80          1
    81          3
    82         51
    83         25
    84        218
    85         28
    86          5
    87          0
    89          1
    90         30
    91         77
    92         35
    93          5
    94          0
    98          2
   100          9
   101          0
   102          0
   103          0
   106          0
   108          0
   109          0
   110          5
   111          0
   112          0
   117          0
   118         12
   119          9
   120          5
   121          0
   127          2
   128         11
   129          0
   132          1
   135          0
   144          0
   145          0
   146          0
   147          0
   148          0
   164          0
   165          2
   172          0
   176          0
   177          1
   183          1
   185          2
   190          0
   191         23
   192          0
   202          1
   203         40
   204          3
   216          0
   217          3
   218        113
   219         81
   220          9
   230          0
   232          2
   244          0
   245         26
   246         18
   247          7
   248          0
   289          1
   290         67
   291          8
   292          0
   302          0
   303          6
   304         24
   305          1
   319          0
   330          0
   332          0
   373         10
   374        252
   375         60
   376         12
   377          0