##TITLE=Library Entry 49378
##JCAMP-DX=Revision 4.10 
##DATA TYPE=MASS SPECTRUM
##SAMPLE DESCRIPTION=A.A.Kutin, Moscow, Russia
##NAMES=HP
##CAS NAME=Penta-2,4-dienenitrile, 2-(2-benzimidazolyl)-5-(5-nitro-2-furyl)-
##MOLFORM=C16H10N4O3
##CAS REGISTRY NO=333342-96-4
##MP= -300
##BP= -300
##MW= 306
##$RETENTION INDEX=0
##$CONDENSED SPECTRUM=NO
##NPOINTS= 125
##XYDATA=(XY..XY) 1 
    37          7
    38         71
    39        133
    44         30
    48          6
    50         62
    51        124
    52         95
    53         22
    54         13
    62         57
    63        210
    64        198
    65         68
    68          1
    74         22
    75         52
    76         77
    77         90
    78         23
    79        999
    80         83
    82          4
    83          3
    84          9
    85          7
    86          2
    87         45
    88         90
    89         56
    90         86
    91         31
    92         38
    93          3
    94          1
    96          6
    97         45
    99          7
   100         16
   101         18
   102        138
   103         79
   104         16
   105         11
   110          5
   112          3
   113         23
   114         78
   115         16
   116         18
   117          1
   118         36
   119          4
   123          6
   124          0
   126          0
   127          4
   128         13
   129         32
   134          0
   139          3
   140          9
   141          6
   142         11
   143         20
   144          1
   149          4
   150          2
   151         10
   152          3
   153         28
   154         16
   155          1
   156          0
   163          2
   164          3
   165          2
   166          5
   167         16
   168         14
   175          0
   176          1
   177          0
   179         10
   180          6
   181         60
   182         18
   183          2
   192          0
   193         59
   194        702
   195        103
   196          0
   202          3
   203         40
   204         49
   205         66
   206          4
   208          1
   215          2
   218         11
   219          3
   220          1
   228          1
   229          3
   230         95
   231        158
   232        102
   233          8
   234         10
   243          0
   244          0
   248          2
   259          4
   260        229
   261         23
   264          0
   272          0
   294          0
   304         72
   305        251
   306        766
   307        104
   308          1
   309          1