##TITLE=Library Entry 2739
##JCAMP-DX=Revision 4.10 
##DATA TYPE=MASS SPECTRUM
##SAMPLE DESCRIPTION=A.A.Kutin, Moscow, Russia
##NAMES=HP
##CAS NAME=1-Cyclohexyl-N-(2,5-dichlorophenyl)-2-oxopyrrolidine-4-carboxamid
e
##MOLFORM=C17H20Cl2N2O2
##CAS REGISTRY NO=333352-33-3
##MP= -300
##BP= -300
##MW= 354
##$RETENTION INDEX=0
##$CONDENSED SPECTRUM=NO
##NPOINTS= 95
##XYDATA=(XY..XY) 1 
    35         12
    36          6
    37          6
    38         19
    39        302
    41        999
    42        168
    43        129
    44         31
    45          1
    49          1
    50         11
    51         13
    52         19
    53         98
    54        204
    55        666
    56        358
    57         31
    61          2
    62         19
    63         44
    64          5
    65         29
    66         13
    67        163
    68        187
    69         72
    70         42
    71          5
    72          0
    73         18
    74         10
    75         12
    76          2
    77         19
    78          4
    79         49
    80         43
    81         96
    82        132
    83         91
    84        307
    85         34
    86          0
    88          3
    89          1
    90         12
    91          2
    93          1
    94         30
    95          9
    96         50
    97         21
    98         38
    99         12
   102          0
   106          0
   108          5
   109         15
   110         41
   111         40
   112        145
   113          5
   122         14
   123          0
   124         33
   125          9
   126         18
   127          4
   130          1
   132          1
   133         30
   135         19
   136          6
   137          1
   138         47
   139          8
   160         13
   161         54
   162         15
   163         30
   164          4
   165          9
   166         60
   167          6
   179          0
   180          7
   188          1
   192          0
   237          1
   244          5
   246          2
   273         12
   275          4