##TITLE=Library Entry 67662
##JCAMP-DX=Revision 4.10 
##DATA TYPE=MASS SPECTRUM
##SAMPLE DESCRIPTION=A.A.Kutin, Moscow, Russia
##NAMES=HP
##CAS NAME=Benzimidazole, 1-(2-furoyl)-
##MOLFORM=C12H8N2O2
##CAS REGISTRY NO=333349-07-8
##MP= -300
##BP= -300
##MW= 212
##$RETENTION INDEX=0
##$CONDENSED SPECTRUM=NO
##NPOINTS= 88
##XYDATA=(XY..XY) 1 
    36          3
    37         41
    38         88
    39        366
    40         19
    41          8
    42          2
    43          2
    44          4
    45          1
    47          0
    49          4
    50         25
    51         31
    52         18
    53         14
    54          2
    55          2
    57          1
    58          0
    59          0
    60          1
    61         10
    62         25
    63         68
    64         54
    65         10
    66         10
    67         52
    68          3
    69          2
    71          1
    72          0
    74          8
    75         12
    76         11
    77          6
    78          2
    79          0
    81          0
    83          1
    84          0
    85          0
    86          1
    87          4
    88          7
    89          9
    90         74
    91         13
    92          3
    93          5
    95        999
    96         54
    97          6
    98          0
    99          0
   100          1
   101          3
   102          7
   103          3
   104          1
   114          0
   115          0
   117          9
   118          7
   119          1
   123          4
   127          2
   128          3
   129          5
   130          1
   135          0
   140          0
   143          0
   145          1
   148          1
   155          6
   156          5
   157          1
   183          1
   184          2
   188          0
   194          0
   209          0
   212        289
   213         39
   214          4
   215          1