##TITLE=Library Entry 9372
##JCAMP-DX=Revision 4.10 
##DATA TYPE=MASS SPECTRUM
##SAMPLE DESCRIPTION=A.A.Kutin, Moscow, Russia
##NAMES=HP
##CAS NAME=N-(2,6-Dimethyl-phenyl)-2-(2-methyl-5-nitro-imidazol-1-yl)-acetam
ide
##MOLFORM=C14H16N4O3
##CAS REGISTRY NO=333414-54-3
##MP= -300
##BP= -300
##MW= 288
##$RETENTION INDEX=0
##$CONDENSED SPECTRUM=NO
##NPOINTS= 100
##XYDATA=(XY..XY) 1 
    38          8
    39         94
    40         72
    41        187
    42        193
    43        999
    44         39
    45          5
    46          3
    51         77
    52        103
    53        115
    54         88
    55         69
    56         85
    57         16
    59          1
    63         29
    64         21
    65        124
    66        160
    67        105
    68         74
    69         89
    70          5
    71          2
    73          1
    74          6
    75          6
    77        259
    78         72
    79        115
    80         28
    81        102
    82         13
    83         29
    84          5
    89         17
    91        256
    92         65
    93         42
    94         14
    95         11
    96          2
    99          3
   102         17
   103         79
   104         52
   105        201
   106         81
   107         13
   111          1
   115          3
   116         12
   117         39
   118         86
   119         69
   120        241
   121        120
   122         20
   124         55
   125          6
   128          1
   130         19
   131         12
   132         81
   133         80
   134         59
   135          1
   141        136
   142         13
   143          9
   144         13
   145          7
   146         47
   147         25
   148        177
   149         16
   157          2
   159          4
   160         14
   161         29
   162          1
   168         10
   171         15
   172          2
   185          1
   197          1
   198          9
   199          1
   200          1
   212          3
   240          1
   241          7
   242          4
   258          1
   271         14
   273          5
   288         51
   289          5