##TITLE=Library Entry 72256
##JCAMP-DX=Revision 4.10 
##DATA TYPE=MASS SPECTRUM
##SAMPLE DESCRIPTION=E.R.J. Wils, A.L. de Long, TNO Report, 1994, TNO Prins
 Maurits Lab
##NAMES=HP
##CAS NAME=Phosphonofluoridic acid, methyl-, trans-4-methylcyclohexyl ester
##MOLFORM=C8H16FO2P
##CAS REGISTRY NO=333416-45-8
##MP= -300
##BP= -300
##MW= 194
##$RETENTION INDEX=0
##$CONDENSED SPECTRUM=NO
##NPOINTS= 42
##XYDATA=(XY..XY) 1 
    27         54
    29         61
    31         14
    39        109
    40         20
    41        124
    42         26
    43         11
    47         35
    50          6
    51         20
    52         14
    53         75
    54        227
    55        208
    56         18
    57         21
    63          6
    65         27
    66         35
    67        187
    68        153
    69         20
    77         44
    78         16
    79         52
    80         64
    81        561
    82         74
    83         57
    91         17
    93         11
    94         11
    95         90
    96        247
    97         66
    98         80
    99        999
   100         24
   101          7
   125         21
   137         18