##TITLE=Library Entry 12347
##JCAMP-DX=Revision 4.10 
##DATA TYPE=MASS SPECTRUM
##SAMPLE DESCRIPTION=A.A.Kutin, Moscow, Russia
##NAMES=HP
##CAS NAME=N-(2,4-Difluoro-phenyl)-2-(2-methyl-5-nitro-imidazol-1-yl)-acetam
ide
##MOLFORM=C12H10F2N4O3
##CAS REGISTRY NO=333415-36-4
##MP= -300
##BP= -300
##MW= 296
##$RETENTION INDEX=0
##$CONDENSED SPECTRUM=NO
##NPOINTS= 102
##XYDATA=(XY..XY) 1 
    37          2
    38         12
    39         63
    40        106
    41        181
    42        164
    43        999
    44         50
    45          4
    46          4
    50         14
    51         48
    52         87
    53         56
    54         56
    55         54
    56         66
    57         42
    62          4
    63         40
    64         11
    65         27
    66        161
    67        155
    68        114
    69         96
    70         14
    71          4
    72          2
    74         11
    75         48
    76          9
    77         17
    78          7
    79          5
    80         17
    81        105
    82         41
    83         50
    84         15
    88          1
    89          4
    91         16
    92          8
    93         11
    94         13
    95         58
    96         10
    97          3
    98          6
    99         24
   100         50
   101        385
   102         49
   105          4
   106          6
   107         10
   108         50
   109         20
   110          8
   111          6
   112          6
   113         27
   114         19
   115          9
   119          3
   120          6
   121          1
   122         15
   123         17
   124         69
   125         15
   126         23
   127        123
   128        390
   129        321
   130         29
   131          7
   139          4
   140         70
   141        371
   142        411
   143         30
   147          2
   150          4
   151         18
   152         19
   153         17
   154         19
   155         31
   156         38
   157          2
   166          4
   168          9
   169          6
   170          7
   171         12
   181          4
   197          8
   280          3
   296        214
   297         24