##TITLE=Library Entry 13505
##JCAMP-DX=Revision 4.10 
##DATA TYPE=MASS SPECTRUM
##SAMPLE DESCRIPTION=Asinex Ltd, Moscow, Russia
##NAMES=HP
##CAS NAME=N-[4-(3-Chloro-4-cyano-phenylsulfamoyl)-phenyl]-acetamide
##MOLFORM=C15H12ClN3O3S
##CAS REGISTRY NO=333442-89-0
##MP= -300
##BP= -300
##MW= 349
##$RETENTION INDEX=0
##$CONDENSED SPECTRUM=NO
##NPOINTS= 149
##XYDATA=(XY..XY) 1 
    33         11
    34          3
    35         14
    36         62
    37         50
    38         94
    39        155
    40         77
    41         71
    43        999
    44         85
    45         20
    46          2
    47          7
    48          9
    49         29
    50         47
    51         55
    52         92
    53         25
    54         12
    55         10
    56          4
    57         14
    58         18
    60         10
    61         32
    62         92
    63        198
    64        198
    65        423
    66         48
    67          7
    68          3
    69          9
    70          7
    71          6
    72          7
    73         25
    74         15
    75         26
    76         40
    77         27
    78         24
    79         53
    80         23
    81          9
    82          7
    83          3
    84          6
    85          6
    86         11
    87         13
    88         40
    89         49
    90        119
    91        146
    92        269
    93        131
    94          9
    95          3
    96          4
    97         16
    98         14
    99         10
   100         12
   101          4
   102          2
   103          3
   104         12
   105         16
   106         26
   108        224
   109         17
   110          2
   111          1
   112          4
   113          1
   114          2
   115         11
   116         34
   117         46
   118         12
   119          3
   120          0
   121          0
   122          2
   124         73
   125         56
   126         21
   127         22
   128          3
   129          1
   134        441
   135         40
   136          4
   137          0
   138          2
   140         33
   141          3
   142          1
   148          1
   150         58
   152        346
   153         42
   154        102
   156        163
   157         14
   158          6
   163          0
   164          0
   166          0
   167          2
   171          1
   173          1
   178          1
   179          6
   180          4
   181          1
   182          4
   183          0
   188          1
   189          1
   191          0
   194          2
   198        776
   199         69
   200         34
   201          3
   205          0
   206          4
   207          6
   208          2
   215          0
   219          0
   240          0
   242         17
   243          4
   244          3
   245          0
   285          5
   287          0
   307          3
   309          0
   349         97
   350         16
   351         26
   352          3
   353          0