##TITLE=Library Entry 62815
##JCAMP-DX=Revision 4.10 
##DATA TYPE=MASS SPECTRUM
##SAMPLE DESCRIPTION=V.Zaikin,Inst.Petrochem.Synth.,RAS,Moscow
##NAMES=HP
##CAS NAME=(4-Chlorophenyl)thioacetamide, N-benzyl-N-methyl
##MOLFORM=C16H16ClNOS
##CAS REGISTRY NO=333451-18-6
##MP= -300
##BP= -300
##MW= 305
##$RETENTION INDEX=0
##$CONDENSED SPECTRUM=NO
##NPOINTS= 139
##XYDATA=(XY..XY) 1 
    25          3
    26         17
    27         16
    30         17
    33          1
    34          2
    35          2
    36         13
    37          4
    38         14
    39         28
    41         13
    42         58
    43         22
    44         37
    45         97
    46          4
    47          5
    48          1
    49          5
    50         32
    51         38
    52         11
    53          2
    54          3
    55          5
    56         51
    57         11
    58         32
    59          2
    60          6
    61          5
    62          8
    63         28
    64          6
    65         79
    66          6
    69         14
    71          1
    72          6
    73         19
    74         16
    75         28
    76         17
    77         67
    78         38
    79         19
    81          3
    82          5
    83          1
    84          2
    85          2
    86          1
    87          1
    89         23
    90         13
    91        999
    92         91
    93          4
    97          1
    99         12
   100          7
   101          4
   102          6
   103         24
   104         51
   105        197
   106         56
   107         25
   108         56
   109         38
   110          6
   111         14
   112         20
   113          6
   114          6
   115          2
   116          2
   117          7
   118         87
   119         34
   120         53
   121         29
   122         15
   123          4
   124          1
   125          6
   127          1
   128          1
   130          1
   131          6
   132         12
   133         10
   134          3
   135          1
   139          2
   142          3
   143         39
   144         83
   145         19
   146         31
   147          4
   148          9
   149          3
   150          1
   151          1
   152          1
   155         14
   156          5
   157        165
   158         18
   159         62
   160         18
   161          8
   162        798
   163        122
   164          8
   165          3
   166          2
   175          1
   176          1
   177         84
   178         10
   179          1
   184          1
   193          1
   197          1
   201          2
   203          1
   207          6
   208          1
   215          1
   217          1
   272          1
   305         89
   306         15
   307         35
   308          5
   309          1