##TITLE=Library Entry 53795
##JCAMP-DX=Revision 4.10 
##DATA TYPE=MASS SPECTRUM
##SAMPLE DESCRIPTION=Chemical Concepts
##NAMES=HP
##CAS NAME=Piperidine, 2-pentyl-
##MOLFORM=C10H21N
##CAS REGISTRY NO=33354-97-1
##MP= -300
##BP= -300
##MW= 155
##$RETENTION INDEX=0
##$CONDENSED SPECTRUM=NO
##NPOINTS= 80
##XYDATA=(XY..XY) 1 
    26          3
    27         49
    28         83
    29         65
    30         66
    31          2
    37          1
    38          1
    39         34
    40          7
    41         83
    42         39
    43         76
    44         39
    45          3
    50          2
    51          3
    52          3
    53         12
    54         19
    55         58
    56        108
    57         26
    58          3
    59          0
    60          1
    63          1
    64          1
    65          3
    66          2
    67         15
    68         17
    69         17
    70         22
    71          7
    72          1
    73          0
    77          3
    78          4
    79          3
    80          4
    81          7
    82         24
    83         11
    84        999
    85         65
    86          2
    91          1
    92          0
    93          4
    94          3
    95          4
    96         14
    97         16
    98         20
    99          4
   100          1
   105          1
   106          1
   107          1
   108          1
   109          1
   110          6
   111          2
   112         13
   113          1
   114          1
   117          0
   120          1
   122          0
   123          1
   124          3
   125          0
   126          8
   127          1
   152          0
   153          1
   154         16
   155          9
   156          1