##TITLE=Library Entry 69050
##JCAMP-DX=Revision 4.10 
##DATA TYPE=MASS SPECTRUM
##SAMPLE DESCRIPTION=Chemical Concepts
##NAMES=HP
##CAS NAME=N-Cyclohexylmethylene-N'-(2,4-dinitrophenyl)-hydrazine
##MOLFORM=C13H16N4O4
##CAS REGISTRY NO=3335-68-0
##MP= -300
##BP= -300
##MW= 292
##$RETENTION INDEX=0
##$CONDENSED SPECTRUM=NO
##NPOINTS= 233
##XYDATA=(XY..XY) 1 
    26          6
    27         97
    28         69
    29        111
    30        196
    31          2
    37          3
    38         23
    39        164
    40         35
    41        443
    42         44
    43         83
    44          9
    45         10
    46          2
    50         20
    51         71
    52         56
    53        127
    54        119
    55        447
    56         54
    57         46
    58          2
    59          4
    60          5
    61          7
    62         40
    63        116
    64         81
    65         60
    66         41
    67        343
    68         72
    69         79
    70         19
    71         30
    72          2
    73          6
    74         22
    75        147
    76         59
    77        144
    78        128
    79        199
    80         80
    81        296
    82        113
    83        108
    84         14
    85         15
    87          3
    88         14
    89         44
    90         66
    91        112
    92         82
    93        257
    94         70
    95        999
    96         88
    97         32
    98          6
    99          5
   100          2
   101          4
   102         15
   103         35
   104         37
   105         28
   106         38
   107         29
   108         31
   109         18
   110         27
   111         48
   112          9
   113         16
   114          6
   115         30
   116         31
   117         30
   118         32
   119         28
   120         11
   121         12
   122        123
   123         13
   124          4
   125          7
   126          3
   127          8
   128         19
   129         29
   130         34
   131         27
   132         13
   133         11
   134          8
   135         19
   136         12
   137         23
   138         16
   139          5
   140          2
   141         10
   142         25
   143         34
   144         18
   145         15
   146          9
   147         17
   148         11
   149          8
   150          5
   151         10
   152        119
   153         39
   154          9
   155         17
   156         26
   157         27
   158         12
   159         25
   160          8
   161          5
   162         10
   163         13
   164         39
   165         65
   166         13
   167         47
   168         33
   169         22
   170         20
   171         19
   172         14
   173          7
   174          5
   175         12
   176         15
   177        115
   178         29
   179         19
   180         91
   181         64
   182         20
   183         89
   184         41
   185         12
   186          5
   187          4
   188          9
   189         37
   190         31
   191         19
   192         13
   193         54
   194         32
   195         13
   196         12
   197         13
   198         12
   199         10
   200          8
   201         27
   202         31
   203        148
   204         29
   205         10
   206        236
   207         27
   208          3
   209          6
   210         92
   211         93
   212         19
   213          4
   214          9
   215         31
   216         33
   217         24
   218          8
   219          5
   220          5
   222          2
   223          4
   224        118
   225         13
   226          5
   227          8
   228         30
   229         20
   230         18
   231         20
   232          8
   233          3
   235         10
   236          3
   237         22
   238          3
   240          5
   241          2
   242          4
   243          3
   244          4
   245         14
   246         11
   247          2
   249          3
   250          4
   251          6
   252         11
   253          2
   255          3
   256          4
   257        362
   258         59
   259          9
   260          2
   262          6
   263          3
   264          1
   274          7
   275         28
   276         22
   277          3
   291          6
   292        762
   293        129
   294         16
   295          2