##TITLE=Library Entry 114696
##JCAMP-DX=Revision 4.10 
##DATA TYPE=MASS SPECTRUM
##SAMPLE DESCRIPTION=T.SUZUKI FAC. OF AGRI., TOHOKU UNIV., SENDAI, JAPAN
##NAMES=HP
##CAS NAME=4-Imidazolidinone, 5-methyl-2-thioxo-
##MOLFORM=C4H6N2OS
##CAS REGISTRY NO=33368-94-4
##MP= -300
##BP= -300
##MW= 130
##$RETENTION INDEX=0
##$CONDENSED SPECTRUM=NO
##NPOINTS= 20
##XYDATA=(XY..XY) 1 
    41        137
    42        271
    43         43
    44        166
    45         51
    56         51
    57         77
    58         45
    59        178
    60        274
    61         71
    69         51
    74         57
    86        152
    89         38
   102        211
   104         38
   130        999
   131         77
   132         70