##TITLE=Library Entry 107422
##JCAMP-DX=Revision 4.10 
##DATA TYPE=MASS SPECTRUM
##SAMPLE DESCRIPTION=V.Zaikin,Inst.Petrochem.Synth.,RAS,Moscow
##NAMES=HP
##CAS NAME=Piperazine, 1-(4-fluorobenzoyl)-4-(4-chlorophenoxyacetyl)-
##MOLFORM=C19H18ClFN2O3
##CAS REGISTRY NO=333756-76-6
##MP= -300
##BP= -300
##MW= 376
##$RETENTION INDEX=0
##$CONDENSED SPECTRUM=NO
##NPOINTS= 102
##XYDATA=(XY..XY) 1 
    27          4
    28          1
    29          3
    39          4
    41          6
    42         29
    43          7
    44          6
    50         10
    51          6
    54          6
    55         24
    56         46
    57         11
    58          3
    62          3
    63          8
    64          4
    65          6
    68          5
    69         58
    70         10
    73          7
    74          8
    75         40
    76         10
    77         11
    82          4
    83         13
    84          6
    85         63
    86          3
    94          8
    95        160
    96         23
    97          6
    98         13
    99         11
   100          3
   101          3
   109          5
   110          4
   111         64
   112         10
   113         31
   114          3
   115          3
   122          5
   123        999
   124         62
   125          8
   126          3
   127          5
   128         28
   129          3
   130          9
   139         13
   140         10
   141         67
   142          8
   143         20
   152          6
   153          3
   164          5
   165          5
   166         15
   167          4
   178         11
   179          3
   180          3
   182          3
   191         23
   192          8
   206         10
   207         29
   208          9
   209          5
   211         14
   212          5
   213          5
   221         40
   222          5
   224          7
   225          3
   235        201
   236         26
   237          9
   239          5
   248          8
   249         64
   250         10
   253         21
   254          3
   255          7
   308          3
   319          3
   361          4
   375          9
   376        104
   377         27
   378         36
   379          8