##TITLE=Library Entry 67419
##JCAMP-DX=Revision 4.10 
##DATA TYPE=MASS SPECTRUM
##SAMPLE DESCRIPTION=V.Zaikin,Inst.Petrochem.Synth.,RAS,Moscow
##NAMES=HP
##CAS NAME=Glycine, N-(p-tolylsulfonyl)-N-(m-methoxyphenyl)-, N-(3-pyridyl)a
mide
##MOLFORM=C21H21N3O4S
##CAS REGISTRY NO=333747-69-6
##MP= -300
##BP= -300
##MW= 411
##$RETENTION INDEX=0
##$CONDENSED SPECTRUM=NO
##NPOINTS= 170
##XYDATA=(XY..XY) 1 
    25          8
    26         53
    27         91
    28          6
    29         16
    30          7
    31          4
    33          3
    34          6
    36          6
    37         28
    38         75
    39        188
    40         42
    41         59
    42         15
    43         24
    44        339
    45         38
    46          9
    47          3
    48         43
    49         12
    50         84
    51        134
    52         58
    53         32
    54          9
    55          8
    57          6
    58          3
    60         10
    61         18
    62         40
    63        144
    64        185
    65        224
    66         71
    67        100
    68         12
    69         21
    70          4
    71          5
    73          7
    74         20
    75         28
    76         63
    77        445
    78        220
    79         93
    80         35
    81          6
    82          5
    84          3
    86          4
    87          3
    89         41
    90         53
    91        803
    92        604
    93        140
    94        999
    95         97
    96          6
    97          9
   102         10
   103         36
   104         69
   105         58
   106         48
   107        589
   108        129
   109         26
   110          5
   111          4
   115          4
   116          3
   117          5
   118         14
   119         26
   120        242
   121        171
   122         87
   123        131
   124        194
   125         19
   126          8
   127         16
   128          7
   129          3
   130          3
   132         11
   133         38
   134        951
   135        561
   136        455
   137         47
   138          3
   139         51
   140         63
   141         11
   142          4
   144          2
   146          4
   147          5
   148          7
   149         10
   150         12
   151         12
   152          4
   154          2
   155        599
   156         89
   157         37
   158          5
   162         10
   163          3
   165          3
   167          4
   168          8
   169          5
   170          3
   171          3
   177         22
   178          3
   180          3
   181          5
   182          6
   183          8
   184          5
   185          4
   194          3
   196          7
   197          3
   198          9
   199          9
   200          7
   202          4
   207          8
   208          5
   209          3
   210          7
   211          7
   212         12
   213         13
   224          9
   225          6
   226        123
   227        194
   228         30
   239          3
   241          3
   254         29
   255        748
   256        126
   257         79
   258          9
   277         82
   278         14
   279          4
   284          3
   290        863
   291        152
   292         54
   293          7
   347         54
   348         12
   411        115
   412         29
   413          8