##TITLE=Library Entry 89332
##JCAMP-DX=Revision 4.10 
##DATA TYPE=MASS SPECTRUM
##SAMPLE DESCRIPTION=R.LARGE BRITISH PETROLEUM CO. LTD., EPSOM, SURREY, UK
##NAMES=HP
##CAS NAME=Cycloheptanepentanoic acid, 2-oxo-
##MOLFORM=C12H20O3
##CAS REGISTRY NO=33371-95-8
##MP= -300
##BP= -300
##MW= 212
##$RETENTION INDEX=0
##$CONDENSED SPECTRUM=NO
##NPOINTS= 61
##XYDATA=(XY..XY) 1 
    27        179
    28         75
    29        157
    39        149
    40         37
    41        418
    42         90
    43        128
    44         15
    45         56
    53         67
    54         90
    55        425
    56         60
    57         39
    58         36
    59         15
    60         75
    65         16
    66         15
    67        127
    68        108
    69        138
    70         75
    71         33
    73         68
    77         19
    78          8
    79         54
    80         29
    81        122
    82         39
    83        119
    84        224
    85         30
    87         10
    91         16
    93         25
    94         37
    95         49
    96         37
    97        121
    98        148
    99         87
   107         16
   109         30
   111         31
   112        999
   113         90
   123         23
   124         14
   125         31
   137         14
   138         13
   148         15
   149         18
   151         17
   166         13
   176          5
   194         12
   212         28