##TITLE=Library Entry 65043
##JCAMP-DX=Revision 4.10 
##DATA TYPE=MASS SPECTRUM
##SAMPLE DESCRIPTION=J. SHAW, BORRISTON RESEARCH, ROCKVILLE, MD, USA
##NAMES=HP
##CAS NAME=Asulam
##MOLFORM=C8H10N2O4S
##CAS REGISTRY NO=3337-71-1
##MP= -300
##BP= -300
##MW= 230
##$RETENTION INDEX=0
##$CONDENSED SPECTRUM=NO
##NPOINTS= 132
##XYDATA=(XY..XY) 1 
    12          4
    13          6
    14         22
    15        248
    16         17
    17         54
    18        187
    19          2
    26          8
    27         33
    28        112
    29        168
    30         36
    31        211
    32        147
    33          5
    34          1
    36          3
    37         13
    38         55
    39        248
    40         28
    41         99
    42         39
    43         67
    44         33
    45         18
    46         16
    47          2
    48         19
    49          3
    50         24
    51         31
    52         83
    53         59
    54         30
    55         14
    56          5
    57         17
    58         28
    59         31
    60          7
    61         12
    62         35
    63        103
    64        111
    65        713
    66         82
    67         13
    68          5
    69         16
    70          7
    71          8
    72          1
    73          5
    74         11
    75         10
    76          9
    77          6
    78         13
    79         23
    80         72
    81         12
    82          4
    83          6
    84          4
    85         26
    86          2
    87          3
    88          2
    90         41
    92        999
    93         70
    94          5
    95          6
    96          6
    97          6
    98          2
    99          2
   101          1
   105         13
   106         13
   108        598
   109        481
   110         34
   111          4
   112          4
   113          1
   115          1
   117          3
   118          1
   119          1
   120          1
   121          2
   122          3
   123         13
   124          6
   125          3
   126          1
   127          6
   128          1
   129          3
   132          1
   134         41
   135          4
   140         36
   141          3
   142          1
   148          1
   149          4
   150          1
   154          2
   156        592
   157         41
   158         28
   159          2
   161          1
   166        104
   167          8
   168          1
   173         31
   174          2
   175          2
   187          4
   198        171
   199         14
   200          8
   223          4
   230        183
   231         17
   232          9
   239          1