##TITLE=Library Entry 37478
##JCAMP-DX=Revision 4.10 
##DATA TYPE=MASS SPECTRUM
##SAMPLE DESCRIPTION=A.A.Kutin, Moscow, Russia
##NAMES=HP
##CAS NAME=Piperazine, 1-(3-chlorobenzoyl)-4-methyl-
##MOLFORM=C12H15ClN2O
##CAS REGISTRY NO=333767-14-9
##MP= -300
##BP= -300
##MW= 238
##$RETENTION INDEX=0
##$CONDENSED SPECTRUM=NO
##NPOINTS= 161
##XYDATA=(XY..XY) 1 
    33          0
    34          1
    35          2
    36         10
    37          2
    38          8
    39          9
    40         28
    41         37
    42        286
    43        226
    44         69
    45          2
    47          0
    49          3
    50         40
    51         30
    52          4
    53          4
    54         30
    55         51
    56        275
    57         82
    58        357
    59         13
    60          0
    61          3
    62          2
    63          4
    64          1
    65          2
    66          0
    67          2
    68          6
    70        999
    71         93
    72         22
    73          5
    74         18
    75         91
    76         24
    77         33
    78          4
    79          2
    80          5
    81          6
    82         25
    83        180
    84         19
    85         15
    86          1
    87          3
    88          1
    89          3
    90          3
    91          6
    92          1
    95          4
    96          2
    97         21
    98         18
    99        188
   100         12
   101          1
   102          2
   103          2
   104          3
   105         23
   106          2
   107          0
   110          9
   111        117
   112         13
   113         57
   114          5
   115          0
   116          0
   117          1
   118          2
   119          2
   120          0
   123          0
   125          6
   126          1
   127          2
   128          1
   129          0
   130          1
   131          1
   132         13
   133          1
   134          1
   135          0
   136          0
   138          9
   139        183
   140         18
   141         57
   142          4
   143          1
   144          1
   145          2
   146         17
   147          2
   148          1
   149          3
   150          0
   151          1
   152          2
   153          1
   154          1
   155          0
   156          1
   158          1
   159          2
   160         41
   161          5
   162          0
   165          0
   166          2
   167          3
   168          2
   169          0
   170          1
   171          1
   172          1
   173          0
   174          0
   175          0
   179          0
   180          5
   181         10
   182         10
   183          4
   184          3
   185          0
   186          0
   188          0
   194         21
   195          2
   196         13
   197          1
   198          1
   199          0
   201          0
   202          3
   203          4
   204          0
   208          0
   209         19
   210          2
   211          6
   212          1
   223          1
   225          0
   237          6
   238         85
   239         15
   240         28
   241          3
   242          0