##TITLE=Library Entry 82204
##JCAMP-DX=Revision 4.10 
##DATA TYPE=MASS SPECTRUM
##SAMPLE DESCRIPTION=V.Zaikin,Inst.Petrochem.Synth.,RAS,Moscow
##NAMES=HP
##CAS NAME=2-Pyrazoline, 5-hydroxy-3-methyl-5-phenyl-1-(3,4-dimethylphenoxya
cetyl)-
##MOLFORM=C20H22N2O3
##CAS REGISTRY NO=333750-75-7
##MP= -300
##BP= -300
##MW= 338
##$RETENTION INDEX=0
##$CONDENSED SPECTRUM=NO
##NPOINTS= 130
##XYDATA=(XY..XY) 1 
    26          6
    27         16
    28          2
    29          9
    31          4
    38          5
    39         31
    40          9
    41         38
    42         31
    43         19
    44         13
    45          8
    50         17
    51         43
    52         13
    53         14
    54          5
    55         13
    56          8
    57         18
    62          4
    63         15
    64          5
    65         23
    66          5
    67          5
    68          4
    69         30
    70          9
    71          7
    74          7
    75          7
    76         13
    77        281
    78         60
    79         66
    80          4
    81          3
    82          4
    83         20
    84         20
    85          4
    89         14
    90          8
    91         96
    92         15
    93         11
    95          4
    97          5
    98          7
    99         19
   101          3
   102         17
   103         65
   104         29
   105        999
   106         87
   107         92
   108          8
   111          9
   113          3
   115         17
   116          8
   117         13
   118          9
   119          7
   120         25
   121         73
   122        192
   123         20
   127         13
   128         31
   129         17
   130         32
   131         24
   132         10
   133         93
   134         23
   135         73
   136         27
   137          3
   142          4
   143          5
   144          9
   145         11
   146         13
   147         16
   148         10
   149          4
   154          3
   155          4
   157         16
   158        107
   159        113
   160        101
   161         38
   162         23
   163          6
   170          4
   171        208
   172         29
   173          3
   174          3
   175         54
   176         13
   177          5
   178          3
   179         24
   180          6
   189         82
   190         11
   198          6
   199          8
   203        154
   204         20
   207          3
   217        149
   218         27
   219         32
   220          5
   262          7
   263          5
   291          3
   320         67
   321         15
   337          6
   338        479
   339        111
   340         15