##TITLE=Library Entry 65784
##JCAMP-DX=Revision 4.10 
##DATA TYPE=MASS SPECTRUM
##SAMPLE DESCRIPTION=TNO Volatile Compounds in Food - Chemical Concepts
##NAMES=HP
##CAS NAME=1,3,6-Octatriene, 3,7-dimethyl-, (Z)-
##MOLFORM=C10H16
##CAS REGISTRY NO=3338-55-4
##MP= -300
##BP= -300
##MW= 136
##$RETENTION INDEX=1038
##$CONDENSED SPECTRUM=NO
##NPOINTS= 61
##XYDATA=(XY..XY) 1 
    26         15
    27        205
    28          6
    29         97
    37          6
    38         14
    39        275
    40         42
    41        356
    42         22
    43        125
    50         24
    51         83
    52         41
    53        165
    54         15
    55        131
    56          8
    57          6
    58          4
    62          6
    63         25
    64          9
    65         72
    66         27
    67        109
    68         61
    69         20
    70          5
    74          5
    75          9
    77        258
    78         52
    79        310
    80        191
    81         75
    82         10
    83          4
    89         11
    90          6
    91        272
    92        255
    93        999
    94         88
    95         14
    97          5
   103         15
   105        134
   106         37
   107         68
   108          8
   109          2
   110          4
   115          6
   117          6
   119         33
   120          8
   121        157
   122         17
   135          6
   136         50