##TITLE=Library Entry 40820
##JCAMP-DX=Revision 4.10 
##DATA TYPE=MASS SPECTRUM
##SAMPLE DESCRIPTION=Chemical Concepts
##NAMES=HP
##CAS NAME=1,3-Dioxolane, 2-(3-bromo-3-buten-1-yl)-
##MOLFORM=C7H11BrO2
##CAS REGISTRY NO=333961-98-1
##MP= -300
##BP= -300
##MW= 206
##$RETENTION INDEX=0
##$CONDENSED SPECTRUM=NO
##NPOINTS= 125
##XYDATA=(XY..XY) 1 
    25          0
    26          6
    27         54
    28          8
    29         25
    30          1
    31         17
    33          0
    36          0
    37          1
    38          4
    39         43
    40          7
    41         16
    42         17
    43         36
    44          6
    45        282
    46          4
    47          0
    49          0
    50          4
    51          7
    52          3
    53         36
    54          5
    55         27
    56          2
    57          8
    58          1
    59          0
    60          0
    61          0
    62          0
    63          2
    64          0
    65          7
    66          2
    67         21
    68          1
    69          3
    70          0
    71          1
    72          0
    73        999
    74         18
    75          2
    76          0
    77          0
    78          0
    79          0
    80          1
    81          3
    82          1
    83         10
    84          0
    85          0
    86         63
    87          3
    88          0
    89          0
    90          0
    91          2
    92          1
    93          1
    94          0
    95          1
    96          0
    97          2
    98          0
    99          1
   100          0
   101          0
   102          0
   103          0
   104          0
   105          1
   106          1
   107          1
   108          0
   109          0
   110          0
   111          0
   112          0
   113          0
   114          0
   115          0
   116          0
   117          0
   118          0
   119          1
   120          0
   121          1
   122          0
   123          0
   124          0
   125          0
   126          0
   127         20
   128          1
   129          0
   130          0
   131          0
   132          0
   133          4
   134          0
   135          4
   136          0
   137          0
   141          0
   142          0
   144          1
   145          0
   146          1
   147          0
   148          0
   149          0
   150          0
   161          0
   162          0
   163          0
   205          3
   206          0
   207          3
   208          0