##TITLE=Library Entry 24770
##JCAMP-DX=Revision 4.10 
##DATA TYPE=MASS SPECTRUM
##SAMPLE DESCRIPTION=J.E. WILKINSON S-CUBED, SAN DIEGO, CA.
##NAMES=HP
##CAS NAME=Dodecane, 1-fluoro-
##MOLFORM=C12H25F
##CAS REGISTRY NO=334-68-9
##MP= -300
##BP= -300
##MW= 188
##$RETENTION INDEX=0
##$CONDENSED SPECTRUM=NO
##NPOINTS= 78
##XYDATA=(XY..XY) 1 
    45          2
    46          2
    47         78
    48          0
    50          0
    51          4
    52          0
    53         41
    54         42
    55        538
    56        261
    57        999
    58         43
    59         25
    61        101
    62          2
    63          0
    65          3
    67         34
    68         31
    69        312
    70        184
    71        382
    72         19
    73          7
    74         13
    75         44
    76          1
    77          1
    79          2
    80          0
    81         13
    82         34
    83        141
    84        104
    85        154
    86          9
    87          2
    88         19
    89         61
    90          2
    95          2
    96         15
    97        103
    98         53
    99         10
   100          0
   101          1
   102         10
   103         29
   104          1
   109          0
   110          4
   111         36
   112         23
   113          4
   114          0
   115          0
   116          7
   117         10
   118          0
   124          1
   125         12
   126         10
   127          1
   130          5
   131          6
   132          0
   138          0
   139          1
   140          8
   141          0
   144          1
   145          2
   158          0
   159          1
   168          0
   188          2