##TITLE=Library Entry 7676
##JCAMP-DX=Revision 4.10 
##DATA TYPE=MASS SPECTRUM
##SAMPLE DESCRIPTION=NIST Mass Spectrometry Data Center, 1998.
##NAMES=HP
##CAS NAME=Decane, 1-fluoro-
##MOLFORM=C10H21F
##CAS REGISTRY NO=334-56-5
##MP= -300
##BP= -300
##MW= 160
##$RETENTION INDEX=0
##$CONDENSED SPECTRUM=NO
##NPOINTS= 82
##XYDATA=(XY..XY) 1 
    15          4
    26         10
    27        183
    28         45
    29        291
    30          7
    31          1
    33         28
    37          1
    39        186
    40         36
    41        733
    42        217
    43        999
    44         34
    45          6
    46         10
    47         90
    48          2
    50          4
    51         14
    52          6
    53         58
    54         45
    55        639
    56        335
    57        736
    58         33
    59         48
    60         10
    61        118
    62          4
    63          2
    65          8
    66          5
    67         46
    68         36
    69        355
    70        267
    71        202
    72         12
    73         13
    74         20
    75         58
    76          3
    77          5
    78          1
    79          5
    80          1
    81         17
    82         43
    83        158
    84        156
    85        169
    86         11
    87          4
    88         26
    89         56
    90          3
    91          1
    95          3
    96         23
    97        197
    98         98
    99         10
   100          1
   101          1
   102         16
   103         10
   104          1
   110          8
   111         96
   112         56
   113          5
   116          9
   117          7
   125          2
   130          5
   131          7
   132          1
   140          3
   160          4