##TITLE=Library Entry 6225
##JCAMP-DX=Revision 4.10 
##DATA TYPE=MASS SPECTRUM
##SAMPLE DESCRIPTION=NIST Mass Spectrometry Data Center
##NAMES=HP
##CAS NAME=trans-2-Decenoic acid
##MOLFORM=C10H18O2
##CAS REGISTRY NO=334-49-6
##MP= -300
##BP= -300
##MW= 170
##$RETENTION INDEX=1392
##$CONDENSED SPECTRUM=NO
##NPOINTS= 104
##XYDATA=(XY..XY) 1 
    15          7
    17          1
    18          6
    20          2
    26         17
    27        273
    29        389
    30         10
    31         18
    36          5
    37          4
    38         15
    39        326
    40         64
    41        730
    42        214
    43        999
    44         46
    45        100
    46          3
    47          2
    50         11
    51         32
    52         18
    53        142
    54        121
    55        534
    56        443
    57        219
    58         28
    59         15
    60         56
    61         10
    62          2
    63          6
    64          2
    65         28
    66         23
    67        148
    68        246
    69        350
    70        233
    71         78
    72          8
    73        601
    74         31
    75          4
    77         22
    78          8
    79         44
    80         16
    81        212
    82        100
    83        119
    84        273
    85         55
    86        243
    87         90
    88         17
    89          2
    91         10
    92          3
    93         11
    94         17
    95        104
    96        123
    97         99
    98        183
    99        201
   100         77
   101         55
   102         33
   103          3
   105          8
   106          3
   107          3
   108         59
   109         57
   110        238
   111         74
   112          7
   113         73
   114         73
   115         20
   116          4
   119          9
   121          3
   122          4
   123        115
   124         34
   125          4
   126          2
   127         51
   128         10
   129          6
   134         17
   135          3
   137         15
   138          2
   141         13
   142          2
   151          5
   152         49
   153         13