##TITLE=Library Entry 9
##JCAMP-DX=Revision 4.10 
##DATA TYPE=MASS SPECTRUM
##SAMPLE DESCRIPTION=Exported from NIST MS Search
##NAMES=HP
##CAS NAME=Methane, diazo-
##MOLFORM=CH2N2
##CAS REGISTRY NO=334-88-3
##MP= -300
##BP= -300
##MW= 42
##$RETENTION INDEX=0
##$CONDENSED SPECTRUM=NO
##NPOINTS= 12
##XYDATA=(XY..XY) 1 
    12        110
    13        220
    14        999
    15         25
    26         12
    27         58
    28        179
    29         20
    40         22
    41        110
    42        425
    43         11