##TITLE=Library Entry 97400
##JCAMP-DX=Revision 4.10 
##DATA TYPE=MASS SPECTRUM
##SAMPLE DESCRIPTION=H.GNICHTEL INST. ORG. CHEM., THE FREE UNIV., BERLIN, F.
R.G.
##NAMES=HP
##CAS NAME=6H-1,2,5-Oxadiazine-6-thione, 4,5-dihydro-3-p-tolyl-
##MOLFORM=C10H10N2OS
##CAS REGISTRY NO=33406-08-5
##MP= -300
##BP= -300
##MW= 206
##$RETENTION INDEX=0
##$CONDENSED SPECTRUM=NO
##NPOINTS= 23
##XYDATA=(XY..XY) 1 
    29        231
    39        138
    43         61
    44         77
    50         77
    51         92
    60        499
    61         62
    62         92
    63        200
    64         92
    65         46
    88         62
    89        277
    90        406
    91         92
   116        693
   117        999
   118        170
   146         35
   158         37
   174         31
   206         31