##TITLE=Library Entry 41569
##JCAMP-DX=Revision 4.10 
##DATA TYPE=MASS SPECTRUM
##SAMPLE DESCRIPTION=STER CHOL TMSI, 00 0000 E, M.HORN
##NAMES=HP
##CAS NAME=Silane, [[(3.beta.,6.beta.)-cholest-4-ene-3,6-diyl]bis(oxy)]bis[t
rimethyl-
##MOLFORM=C33H62O2Si2
##CAS REGISTRY NO=33403-39-3
##MP= -300
##BP= -300
##MW= 546
##$RETENTION INDEX=0
##$CONDENSED SPECTRUM=NO
##NPOINTS= 162
##XYDATA=(XY..XY) 1 
    41        300
    42        100
    43        800
    44        130
    45        130
    47         90
    53         60
    55        600
    56        140
    57        850
    59         60
    61         70
    67        250
    68         70
    69        500
    70         80
    71        450
    72         50
    73        999
    74        330
    75        999
    76         80
    77        210
    78         50
    79        200
    80         50
    81        500
    82         80
    83        250
    84         50
    85         90
    91        210
    92         70
    93        270
    94         70
    95        500
    96        100
    97        130
   103        140
   105        440
   106        100
   107        370
   108         60
   109         22
   111         90
   115         90
   117        190
   118        125
   119        270
   120         80
   121        150
   123        100
   127        100
   128         60
   129        260
   130         50
   131        270
   132         60
   133        300
   134         60
   135        220
   141        110
   142        350
   143        410
   144        180
   145        270
   147        680
   148        100
   149        150
   151         70
   154        120
   155        160
   156         65
   157        230
   158        100
   159        210
   160         50
   161        100
   163        100
   165         70
   167        100
   168        180
   169        230
   171        100
   173        100
   175         50
   177         70
   179        180
   180        210
   181        290
   182        290
   183        240
   184         60
   185         90
   187         50
   191        110
   193        240
   194        530
   195        500
   196        160
   197         80
   198         40
   199         70
   200         50
   201         50
   202         70
   205         50
   206         60
   217        160
   219         80
   221        140
   229         60
   231         60
   233         80
   234         50
   243         60
   247        100
   249         50
   253         70
   255         40
   267         40
   269         60
   275         50
   283        240
   284         80
   285         50
   301         50
   314         70
   320         60
   325         90
   326         40
   337         70
   343         50
   351         50
   355         70
   366        140
   367         85
   368         40
   369         30
   389        120
   390         30
   401         90
   402        150
   403        999
   404        400
   405        130
   441        450
   442        170
   443        100
   444         30
   456        990
   457        400
   458        120
   517        120
   518         40
   519         20
   531        270
   532        140
   533         60
   546        340
   547        130
   548         70