##TITLE=Library Entry 86454
##JCAMP-DX=Revision 4.10 
##DATA TYPE=MASS SPECTRUM
##SAMPLE DESCRIPTION=NIST Mass Spectrometry Data Center, 1994
##NAMES=HP
##CAS NAME=2-Chloro-5-fluorotoluene
##MOLFORM=C7H6ClF
##CAS REGISTRY NO=33406-96-1
##MP= -300
##BP= -300
##MW= 144
##$RETENTION INDEX=0
##$CONDENSED SPECTRUM=NO
##NPOINTS= 80
##XYDATA=(XY..XY) 1 
    13          2
    18          2
    25          3
    26          3
    33         12
    35          7
    36          8
    37         31
    38         39
    39         65
    40          5
    41          1
    43         13
    44         65
    47          4
    48          3
    49         21
    50         64
    51         43
    52          3
    53          1
    54         46
    56         15
    57        130
    58          7
    60         10
    61         47
    62         74
    63         87
    64          9
    65          2
    67          9
    68         17
    69         16
    70          6
    71          4
    72         18
    73         29
    74          3
    75         25
    76          4
    79          2
    80         14
    81         74
    82         19
    83        167
    84         19
    85         19
    86         21
    87         14
    88          7
    89         33
    90          4
    91         13
    92          5
    93         14
    94          8
    95          2
    96          2
    97          4
    99          4
   103          2
   104          3
   105         11
   106          2
   107        235
   108        122
   109        999
   110         74
   111          5
   115          2
   117         28
   119          9
   123          2
   125          2
   143         95
   144        361
   145         56
   146        111
   147          9