##TITLE=Library Entry 36374
##JCAMP-DX=Revision 4.10 
##DATA TYPE=MASS SPECTRUM
##SAMPLE DESCRIPTION=CARL DJERASSI DEPT OF CHEM STANFORD UNIV STANFORD CALIF
 94305
##NAMES=HP
##CAS NAME=Cyclopropanecarboxylic acid, 2,2-dimethyl-3-(2-methylpropyl)-, et
hyl ester
##MOLFORM=C12H22O2
##CAS REGISTRY NO=33419-38-4
##MP= -300
##BP= -300
##MW= 198
##$RETENTION INDEX=0
##$CONDENSED SPECTRUM=NO
##NPOINTS= 74
##XYDATA=(XY..XY) 1 
    41        340
    42         30
    43        160
    44         20
    45         20
    51         10
    52         10
    53         50
    54         20
    55        170
    56         40
    57         60
    59         80
    60         10
    65         20
    66         10
    67        120
    68         70
    69        999
    70         80
    71         20
    73         20
    77         20
    79         20
    80         10
    81         60
    82         60
    83        140
    84         20
    85         20
    86         10
    87         50
    88         30
    91         10
    93         10
    95        140
    96        160
    97         50
    98         10
    99         20
   100         70
   101         50
   102         10
   107         10
   109         90
   110         80
   111         40
   112         10
   113        270
   114         60
   115         30
   116         50
   123         20
   124         20
   125         50
   126         10
   127         30
   128         20
   129         30
   130         10
   137         30
   141        400
   142        840
   143        110
   144         10
   151         10
   152         10
   153        220
   154         30
   155         60
   156         10
   183         30
   198         30
   199         10