##TITLE=Library Entry 85775
##JCAMP-DX=Revision 4.10 
##DATA TYPE=MASS SPECTRUM
##SAMPLE DESCRIPTION=D.HENNEBERG, MAX-PLANCK INSTITUTE, MULHEIM, WEST GERMAN
Y
##NAMES=HP
##CAS NAME=Cyclopropane, 1,1-dimethyl-2-(2-methyl-1-propenyl)-
##MOLFORM=C9H16
##CAS REGISTRY NO=33422-32-1
##MP= -300
##BP= -300
##MW= 124
##$RETENTION INDEX=819
##$CONDENSED SPECTRUM=NO
##NPOINTS= 77
##XYDATA=(XY..XY) 1 
    27         55
    28         10
    29         56
    30          1
    31          6
    37          0
    38          1
    39         76
    40         23
    41        334
    42         24
    43        255
    44          7
    45          0
    49          0
    50          2
    51          8
    52          6
    53         98
    54         15
    55        233
    56         36
    57         10
    58          0
    59         10
    60          0
    61          0
    63          1
    64          0
    65         41
    66         13
    67        867
    68        137
    69        185
    70         11
    71          2
    73          0
    75          0
    77         55
    78          9
    79        110
    80         17
    81        282
    82         45
    83         10
    84         38
    85          4
    87          0
    89          0
    91         52
    92          6
    93         38
    94         36
    95         81
    96         11
    97          3
    98          0
    99          0
   103          1
   104          0
   105          9
   106          1
   107         44
   108          9
   109        999
   110         86
   111          4
   112          0
   113          0
   115          0
   119          0
   121          1
   122          2
   123          6
   124        507
   125         51
   126          2