##TITLE=Library Entry 5470
##JCAMP-DX=Revision 4.10 
##DATA TYPE=MASS SPECTRUM
##SAMPLE DESCRIPTION=Exported from NIST MS Search
##NAMES=HP
##CAS NAME=Hexanoic acid, 2-isopropyl-2-methyl-5-oxo-, methyl ester
##MOLFORM=C11H20O3
##CAS REGISTRY NO=33422-34-3
##MP= -300
##BP= -300
##MW= 200
##$RETENTION INDEX=0
##$CONDENSED SPECTRUM=NO
##NPOINTS= 149
##XYDATA=(XY..XY) 1 
    12          4
    13         10
    14         37
    15        424
    16         13
    17          5
    25          3
    26         25
    27        289
    28        102
    29        237
    30         21
    31        138
    32         27
    33          2
    36          2
    37          7
    38         16
    39        209
    40         41
    41        419
    42         73
    43        999
    44         41
    45         30
    46          3
    47          2
    49          3
    50         13
    51         25
    52         14
    53         80
    54         29
    55        332
    56         38
    57         30
    58         95
    59        106
    60          5
    61          4
    62          3
    63          6
    64          3
    65         13
    66          8
    67         46
    68         15
    69        183
    70         79
    71         74
    72         11
    73         75
    74         11
    75          5
    77         15
    78          5
    79         18
    80          6
    81         40
    82         38
    83        403
    84         63
    85         48
    86          6
    87          8
    88          8
    89          1
    91         11
    92          3
    93          7
    94          4
    95         17
    96         23
    97        137
    98        269
    99         38
   100         48
   101        163
   102         12
   103          3
   104          1
   105          4
   106          2
   107         25
   108          9
   109         14
   110          6
   111         30
   112         20
   113          8
   114         19
   115        114
   116         11
   117          3
   119          2
   120          1
   121          5
   122         32
   123         98
   124         17
   125        102
   126         38
   127         10
   128         21
   129         24
   130        184
   131         15
   132          2
   133          2
   134          1
   135          5
   136          3
   137          2
   138          2
   139          6
   140         29
   141         26
   142         12
   143         31
   144          4
   145          2
   147          1
   149          2
   150          4
   151          2
   152          2
   153          7
   154          4
   155          2
   156          3
   157         65
   158         16
   159          5
   160          4
   161          1
   163          1
   166          1
   167          1
   168         18
   169          7
   170          2
   171          3
   172          2
   173          2
   174          2
   175          1
   182          2
   185          2
   200          1