##TITLE=Library Entry 78805
##JCAMP-DX=Revision 4.10 
##DATA TYPE=MASS SPECTRUM
##SAMPLE DESCRIPTION=J. SHAW, BORRISTON RESEARCH, ROCKVILLE, MD, USA
##NAMES=HP
##CAS NAME=Benzoic acid, 2-(2,4,6-trichlorophenyl)hydrazide
##MOLFORM=C13H9Cl3N2O
##CAS REGISTRY NO=33422-33-2
##MP= -300
##BP= -300
##MW= 314
##$RETENTION INDEX=0
##$CONDENSED SPECTRUM=NO
##NPOINTS= 172
##XYDATA=(XY..XY) 1 
    12          2
    14          1
    15          2
    16          2
    17          4
    18         11
    19          1
    27         93
    29        260
    30         13
    31          2
    35         11
    36         24
    37         38
    38         44
    39        108
    40          6
    41          3
    42          2
    43          5
    44         15
    45          2
    47         10
    50        273
    51        518
    52         78
    53         13
    54          2
    55          1
    60          7
    61         38
    62         60
    63         35
    64         21
    65         19
    66          3
    67          1
    71          5
    72         18
    73         44
    74        141
    75         96
    77        805
    78         84
    79          6
    80          1
    83         13
    84         24
    85         21
    86         13
    87         16
    88         29
    89          6
    90          3
    91          3
    92          3
    94          5
    95          3
    96         10
    97         40
    98         13
    99         14
   100          3
   101          6
   105        999
   106        213
   109        112
   110         25
   111         30
   112         12
   113          2
   114          2
   115          1
   118          1
   119          3
   120          2
   121          2
   122          4
   123          3
   124          8
   125          2
   126          2
   131          6
   132          3
   133          6
   134          2
   135          2
   137          4
   139          4
   140          1
   141          1
   143         12
   145         49
   146         19
   147         21
   148         10
   149          4
   150          4
   151          1
   152          2
   153          1
   154          1
   155          1
   158         10
   159          7
   160          7
   161          4
   162          2
   163          1
   164          1
   167         20
   169         19
   171          7
   173          3
   175          4
   176          3
   177          2
   178          3
   179          5
   181         13
   182          2
   183          1
   186          1
   194         54
   196         59
   197         10
   198         17
   199          3
   200          2
   201          1
   207          1
   209         15
   211         14
   213          5
   214          1
   215          1
   216          1
   235          5
   236          1
   237          2
   243          1
   244          1
   245          1
   246          1
   249          1
   250          1
   251          1
   252          1
   263          8
   265          6
   266          1
   270          4
   272          5
   274          2
   279         29
   281         20
   282          3
   283          2
   297          2
   298          3
   299          2
   300          2
   301          1
   302          1
   314        246
   315        105
   316        220
   317         83
   318         70
   319         27
   320         10
   321          3