##TITLE=Library Entry 99901
##JCAMP-DX=Revision 4.10 
##DATA TYPE=MASS SPECTRUM
##SAMPLE DESCRIPTION=Japan AIST/NIMC Database- Spectrum MS-IW-5047
##NAMES=HP
##CAS NAME=Benzoic acid, 2-(formylamino)-
##MOLFORM=C8H7NO3
##CAS REGISTRY NO=3342-77-6
##MP= -300
##BP= -300
##MW= 165
##$RETENTION INDEX=0
##$CONDENSED SPECTRUM=NO
##NPOINTS= 94
##XYDATA=(XY..XY) 1 
    26          3
    27         11
    28         53
    29         20
    30          1
    31          1
    37         18
    38         37
    39         93
    40         13
    41         24
    42          5
    43          5
    44          9
    45         15
    46          4
    49          4
    50         35
    51         28
    52         43
    53         20
    54          5
    55          5
    56          1
    57          5
    59          3
    60          3
    61         11
    62         28
    63         98
    64        145
    65        168
    66         33
    67          5
    68          2
    69          2
    70          1
    71          3
    73          7
    74         15
    75         13
    76         28
    77         18
    78          4
    79          2
    80          5
    81          4
    82          1
    83          2
    84          1
    85          3
    86          1
    87          2
    88          4
    89          6
    90         99
    91        135
    92        541
    93         62
    94          4
    95          2
    96          1
    97          2
    99          1
   102          4
   103          6
   104          5
   105          7
   106          1
   108          1
   109          1
   110          1
   111          1
   113          1
   117          2
   118         17
   119        999
   120        103
   121          9
   123          1
   125          1
   130          6
   135          1
   136          1
   137        500
   138         42
   139          3
   146        134
   147         92
   148         14
   149          4
   165        417
   166         38
   167          4