##TITLE=Library Entry 59035
##JCAMP-DX=Revision 4.10 
##DATA TYPE=MASS SPECTRUM
##SAMPLE DESCRIPTION=Div. of Experiment Therapeutics WRAIR, WRAMC, Washingto
n DC 20307
##NAMES=HP
##CAS NAME=1-p-Toluenesulfonyl-4-piperidone
##MOLFORM=C12H15NO3S
##CAS REGISTRY NO=33439-27-9
##MP= -300
##BP= -300
##MW= 253
##$RETENTION INDEX=0
##$CONDENSED SPECTRUM=NO
##NPOINTS= 102
##XYDATA=(XY..XY) 1 
    42        824
    43         73
    44          5
    45         20
    47         10
    48          7
    49         41
    50         36
    51         87
    52         25
    53         28
    54         86
    55        155
    56        262
    57         12
    58          3
    60          4
    61          1
    62         14
    63        170
    65        379
    66         20
    67          4
    68         12
    69         21
    70          6
    71         50
    72          2
    74          9
    75          7
    76         16
    77         36
    78         15
    79         13
    80          7
    82         16
    83          1
    84         26
    86         21
    87          5
    88          1
    89        145
    91        999
    92        160
    93         10
    95          3
    96          1
    98        821
    99         38
   101          3
   103          4
   105         34
   106          2
   107         16
   108          9
   109          1
   111          5
   112          5
   114          1
   115          2
   118         47
   119         35
   120          1
   121          6
   122          2
   123          2
   125          1
   130          4
   132         23
   133          4
   134          0
   139         29
   140          5
   141          1
   144          1
   146         32
   147          9
   148          0
   151          0
   153          0
   155        173
   156         18
   157         13
   158          1
   160          3
   162          2
   183          0
   184         15
   185          1
   188         13
   189          5
   196          1
   197          1
   198          0
   210          7
   211          2
   236          1
   252         20
   253        209
   254         27
   255          9
   256          0