##TITLE=Library Entry 48634
##JCAMP-DX=Revision 4.10 
##DATA TYPE=MASS SPECTRUM
##SAMPLE DESCRIPTION=Japan AIST/NIMC Database- Spectrum MS-NW-9057
##NAMES=HP
##CAS NAME=2-Pyridylhydroxymethanesulfonic acid
##MOLFORM=C6H7NO4S
##CAS REGISTRY NO=3343-41-7
##MP= -300
##BP= -300
##MW= 189
##$RETENTION INDEX=0
##$CONDENSED SPECTRUM=NO
##NPOINTS= 46
##XYDATA=(XY..XY) 1 
    16          2
    17          1
    18          3
    24          2
    25          3
    26         29
    27         34
    28         33
    29          9
    32          9
    34          2
    36          2
    37         11
    38         16
    39         39
    40          3
    41          1
    44          8
    48        154
    49         16
    50         88
    51        264
    52        505
    53         55
    54          2
    60          1
    61          3
    62          4
    63          5
    64        545
    65          7
    66         26
    74          1
    75         11
    76         15
    77          7
    78        329
    79        999
    80         57
    81          1
    95          1
   106         18
   107        286
   108         35
   109          2
   123          1