##TITLE=Library Entry 7227
##JCAMP-DX=Revision 4.10 
##DATA TYPE=MASS SPECTRUM
##SAMPLE DESCRIPTION=Chemical Concepts
##NAMES=HP
##CAS NAME=9-Octadecenoic acid (Z)-, 2-hydroxy-3-[(1-oxohexadecyl)oxy]propyl
 ester
##MOLFORM=C37H70O5
##CAS REGISTRY NO=3343-30-4
##MP= -300
##BP= -300
##MW= 594
##$RETENTION INDEX=0
##$CONDENSED SPECTRUM=NO
##NPOINTS= 337
##XYDATA=(XY..XY) 1 
    26         15
    27        127
    28         49
    29        325
    30          8
    31         37
    32          3
    37          3
    39         74
    40         17
    41        635
    42        162
    43        999
    44         55
    45         35
    46          2
    47          2
    49          2
    50          3
    51          4
    52          3
    53         49
    54        205
    55        995
    56        233
    57        987
    58         55
    59         21
    60         88
    61         28
    63          3
    65         12
    66         19
    67        352
    68        166
    69        694
    70        167
    71        471
    72         27
    73        113
    74         63
    75         34
    76          4
    77         12
    78          9
    79         67
    80         50
    81        352
    82        166
    83        552
    84        280
    85        285
    86         25
    87         51
    88          8
    89          3
    91         22
    92         10
    93         64
    94         40
    95        340
    96        149
    97        354
    98        508
    99         89
   100         23
   101         26
   102         10
   103          6
   104          2
   105         14
   106          7
   107         41
   108         36
   109        173
   110         88
   111        164
   112        174
   113         47
   114         14
   115         26
   116        145
   117         91
   118          8
   119         20
   120          9
   121         74
   122         23
   123        110
   124         57
   125         68
   126         44
   127         28
   128          9
   129        274
   130         30
   131          8
   132          4
   133         22
   134         38
   135         59
   136         19
   137        103
   138         43
   139         32
   140         20
   141         20
   142          6
   143         27
   144          4
   145          3
   147         19
   148         11
   149         34
   150         13
   151         72
   152         58
   153         29
   154         22
   155         16
   156          4
   157         16
   158         16
   159          4
   161         11
   162          4
   163         15
   164         13
   165         40
   166         51
   167         17
   168         12
   169         19
   170          3
   171         42
   172         22
   173          5
   175          7
   176          6
   177         11
   178          5
   179         21
   180         22
   181         11
   182         12
   183         15
   184          5
   185         84
   186         12
   187          4
   189          5
   190          2
   191          8
   192          6
   193         11
   194         11
   195         11
   196          9
   197          6
   198          2
   199         17
   200          4
   203          4
   204          2
   205          5
   207         22
   208         10
   209         11
   210          3
   211          6
   213         23
   214          7
   217          4
   219          6
   220         24
   221         35
   222         14
   223          7
   224          2
   225          6
   226          4
   227         28
   228         13
   229          4
   230          3
   231          4
   232          2
   233          3
   234          5
   235         15
   236         15
   237         18
   238         25
   239        446
   240         90
   241         27
   242         19
   243          4
   245         12
   246         24
   247         27
   248          4
   249          5
   250          2
   253         15
   254          5
   255         11
   256         34
   257         26
   258          8
   259          4
   260          3
   262         33
   263         42
   264        458
   265        304
   266         56
   267         13
   268          3
   269         19
   270          7
   278          2
   279          3
   280          7
   281          7
   282          6
   283         13
   284          5
   285          2
   293          2
   295         13
   296          6
   297          8
   298          4
   299         72
   300         14
   301          3
   307          5
   308          3
   309          6
   310          4
   311         29
   312         62
   313        895
   314        194
   315         26
   316          4
   323          5
   325         51
   326         14
   328          1
   330          3
   331         37
   332          6
   333          3
   336          5
   337         26
   338        281
   339        301
   340         69
   341         13
   342          2
   353          3
   354         28
   355         14
   356          6
   357         14
   358          3
   365          2
   367         37
   368          7
   369          3
   377          1
   380         29
   381          9
   382          3
   393         20
   394          5
   395          3
   398          2
   400          3
   407          3
   408          2
   409          3
   410          4
   421          6
   423         16
   424          5
   435          4
   437          3
   449         11
   450          3
   451          3
   452          3
   463          2
   466          2
   477          8
   478          4
   479          6
   480          9
   481          1
   491          3
   493          3
   494          9
   495          4
   496          2
   502          5
   503          7
   504          2
   505          3
   506          3
   507          3
   508          1
   519          2
   521          4
   533          5
   534          2
   547          4
   548          3
   549          4
   550         20
   551         47
   552         22
   553          4
   562          2
   563          7
   564          3
   572          3
   573          3
   574          5
   575         21
   576        259
   577        170
   578         48
   579         13
   580          3
   581          1