##TITLE=Library Entry 35013
##JCAMP-DX=Revision 4.10 
##DATA TYPE=MASS SPECTRUM
##SAMPLE DESCRIPTION=Japan AIST/NIMC Database- Spectrum MS-NW-9923
##NAMES=HP
##CAS NAME=12-Bromo-1-dodecanol
##MOLFORM=C12H25BrO
##CAS REGISTRY NO=3344-77-2
##MP= -300
##BP= -300
##MW= 264
##$RETENTION INDEX=0
##$CONDENSED SPECTRUM=NO
##NPOINTS= 147
##XYDATA=(XY..XY) 1 
    14          1
    15          1
    16          2
    17          2
    18          7
    26          2
    27         70
    28         10
    29        142
    30          4
    31         89
    34          1
    36          1
    38          2
    39         68
    40         14
    41        546
    42        149
    43        351
    44         21
    45         16
    50          2
    51          5
    52          2
    53         36
    54         89
    55        979
    56        293
    57        276
    58         13
    59          4
    60          1
    61          1
    63          2
    64          1
    65         11
    66         10
    67        188
    68        328
    69        999
    70        238
    71         77
    72          5
    73         23
    74          1
    75          1
    76          1
    77          7
    78          2
    79         14
    80         11
    81        148
    82        263
    83        857
    84        129
    85         39
    86          3
    87          3
    89          1
    90          1
    91          5
    92          4
    93          5
    94          3
    95         82
    96         84
    97        740
    98         77
    99          7
   103          3
   104          2
   105          3
   106          1
   107         23
   108          2
   109         61
   110         26
   111        144
   112         23
   113          2
   115          1
   117          1
   118          1
   119          2
   120          7
   121         15
   122          5
   123         44
   124         11
   125         46
   126          5
   128          2
   129          1
   131          6
   132          2
   133          3
   134         35
   135        123
   136         40
   137        119
   138         14
   139         13
   140          3
   141          1
   145          1
   146          3
   147          4
   148        336
   149         43
   150        316
   151         36
   152          1
   153          1
   154          3
   161          9
   162        172
   163         40
   164        169
   165         15
   166          2
   167          1
   168          1
   174          2
   175          9
   176         42
   177         12
   178         39
   179          5
   187          1
   188          2
   189          6
   190         15
   191          8
   192         12
   193          2
   203          3
   204          5
   205         10
   206          4
   207          1
   217          1
   218         24
   219          4
   220         25
   221          3
   247          1
   249          1