##TITLE=Library Entry 1795
##JCAMP-DX=Revision 4.10 
##DATA TYPE=MASS SPECTRUM
##SAMPLE DESCRIPTION=Chemical Concepts
##NAMES=HP
##CAS NAME=Spiropentanoic acid, methyl ester
##MOLFORM=C7H10O2
##CAS REGISTRY NO=33447-49-3
##MP= -300
##BP= -300
##MW= 126
##$RETENTION INDEX=0
##$CONDENSED SPECTRUM=NO
##NPOINTS= 67
##XYDATA=(XY..XY) 1 
    25          5
    26         87
    27        453
    28        142
    29        149
    30         18
    31         38
    32         11
    33          3
    36          3
    37         62
    38        184
    39        999
    40        322
    41        612
    42         56
    43        119
    44          6
    45         74
    49          9
    50         68
    51         87
    52         48
    53        149
    54         57
    55        683
    56         77
    57         12
    58         41
    59        434
    60          9
    61         11
    62         18
    63         32
    65        243
    66        296
    67        786
    68        203
    69         61
    70          6
    71         19
    72         12
    74          5
    77          5
    79         17
    81         40
    82         11
    83        214
    84        726
    85         45
    87        156
    88          5
    93         16
    94        148
    95        345
    96        102
    97        125
    98        112
    99         10
   109          6
   111        336
   112         19
   113          1
   123          2
   125        284
   126         33
   127          5