##TITLE=Library Entry 65161
##JCAMP-DX=Revision 4.10 
##DATA TYPE=MASS SPECTRUM
##SAMPLE DESCRIPTION=Chemical Concepts
##NAMES=HP
##CAS NAME=Borane, dichloro(dibenzylamino)-
##MOLFORM=C14H14BCl2N
##CAS REGISTRY NO=334519-95-8
##MP= -300
##BP= -300
##MW= 277
##$RETENTION INDEX=0
##$CONDENSED SPECTRUM=NO
##NPOINTS= 166
##XYDATA=(XY..XY) 1 
    26          2
    27          9
    29          3
    34          0
    35         10
    36         35
    37          4
    38         28
    39         52
    41         20
    42          2
    43         10
    44          1
    45          1
    46          1
    47          5
    49          2
    50         11
    51         37
    52         10
    53          2
    54          0
    55          2
    56          0
    57          5
    58          1
    60          0
    61          2
    62          6
    63         21
    64          6
    65        142
    66          8
    67          1
    68          0
    69          1
    70          0
    71          4
    72          2
    73          3
    74          6
    75          4
    76          4
    77         23
    78         16
    79          8
    80          6
    81         18
    82          4
    83         13
    84          4
    85          1
    86          1
    87          4
    88          1
    89         24
    90         11
    91        665
    92        999
    93         72
    94          2
    95          1
    96          1
    97          2
    98          1
    99          0
   100          0
   101          1
   102          1
   103          2
   104          3
   105          3
   106         13
   107          4
   108         21
   109          2
   110         14
   111          1
   112          2
   113          0
   114          1
   115          1
   116          2
   117          2
   118          2
   119          0
   120          2
   121          1
   122          6
   123         19
   124          4
   125          9
   126          1
   127         32
   128          3
   129          1
   131          0
   132          0
   134          0
   135          3
   136          3
   137          2
   138          1
   139          1
   141          1
   147          0
   148          0
   149          5
   150         19
   151          4
   152          9
   153          2
   154          0
   156          0
   161          0
   162          3
   163          4
   164          3
   165          7
   166          3
   167          6
   168          2
   169          0
   172          0
   173          0
   174          0
   175          0
   176          0
   177          0
   178          0
   179          0
   183          1
   184          3
   185         34
   186        140
   187         32
   188         91
   189         10
   190         14
   191          1
   193          0
   194          5
   195          5
   196          3
   197          9
   198         42
   199         19
   200         28
   201         11
   202          6
   203          2
   204          2
   205          0
   206          0
   207          0
   221          0
   240          2
   241          0
   242          1
   276         18
   277         76
   278         22
   279         49
   280          9
   281          8
   282          1