##TITLE=Library Entry 17380
##JCAMP-DX=Revision 4.10 
##DATA TYPE=MASS SPECTRUM
##SAMPLE DESCRIPTION=Chemical Concepts
##NAMES=HP
##CAS NAME=1,3,4-Trimethoxy-butan-2-ol
##MOLFORM=C7H16O4
##CAS REGISTRY NO=33469-04-4
##MP= -300
##BP= -300
##MW= 164
##$RETENTION INDEX=0
##$CONDENSED SPECTRUM=NO
##NPOINTS= 92
##XYDATA=(XY..XY) 1 
    27         32
    28         39
    29        142
    30         10
    31        131
    33         69
    39         17
    40          3
    41         42
    42         18
    43        167
    44         25
    45        999
    46         33
    47         27
    50          2
    51          2
    52          1
    53          4
    54          2
    55         18
    56         12
    57         57
    58        710
    59        760
    60         32
    61         23
    66          2
    68          2
    69          9
    70          5
    71         76
    72         23
    73         33
    74        119
    75        186
    76          8
    77          6
    78          1
    79          2
    80          0
    81          1
    82          1
    83          4
    84          1
    85         10
    86         11
    87        486
    88        124
    89        923
    90         50
    91          7
    92          1
    93          1
    94          1
    95          0
    96          1
    97          0
    98          0
    99          2
   100         10
   101        117
   102         28
   103          3
   104         15
   105         32
   106          3
   107          3
   108          0
   109          1
   110          1
   111          0
   112          0
   113          0
   114          1
   115          9
   116          2
   117          2
   118         10
   119        396
   120         21
   121          7
   122          1
   123          1
   124          1
   125          1
   131          0
   132         21
   133          6
   149          7
   150          1
   165          2