##TITLE=Library Entry 48775
##JCAMP-DX=Revision 4.10 
##DATA TYPE=MASS SPECTRUM
##SAMPLE DESCRIPTION=Exported from NIST MS Search
##NAMES=HP
##CAS NAME=2,4-Heptadien-1-ol, (E,E)-
##MOLFORM=C7H12O
##CAS REGISTRY NO=33467-79-7
##MP= -300
##BP= -300
##MW= 112
##$RETENTION INDEX=1682
##$CONDENSED SPECTRUM=NO
##NPOINTS= 68
##XYDATA=(XY..XY) 1 
    14          6
    15          9
    17         17
    18        224
    26         28
    27        222
    28         25
    29        133
    30         32
    31         99
    32         16
    37         16
    38         40
    39        356
    40         77
    41        235
    42         46
    43         57
    44          6
    45         47
    46         13
    47          9
    49          6
    50         93
    51        120
    52         58
    53        167
    54         49
    55        162
    56         63
    57        107
    58          6
    59         40
    61         12
    62         23
    63         50
    64         12
    65        121
    66         88
    67         79
    68         73
    69         40
    70         34
    71        113
    72          7
    74         30
    75         35
    76          7
    77        516
    78         95
    79        999
    80         53
    81        241
    82         18
    83        162
    84         40
    85          6
    86          5
    92         21
    93        100
    94        447
    95         50
    96          8
    97         13
    98          1
   109          7
   111          8
   112         41