##TITLE=Library Entry 25078
##JCAMP-DX=Revision 4.10 
##DATA TYPE=MASS SPECTRUM
##SAMPLE DESCRIPTION=Japan AIST/NIMC Database- Spectrum MS-NW-4018
##NAMES=HP
##CAS NAME=3-Hexen-1-ol, propanoate, (Z)-
##MOLFORM=C9H16O2
##CAS REGISTRY NO=33467-74-2
##MP= -300
##BP= -300
##MW= 156
##$RETENTION INDEX=1100
##$CONDENSED SPECTRUM=NO
##NPOINTS= 58
##XYDATA=(XY..XY) 1 
    15          6
    17          2
    18          7
    26         11
    27        111
    28         26
    29        398
    30          9
    31         19
    32          4
    37          1
    38          4
    39         76
    40         13
    41        156
    42         21
    43         18
    44          2
    45          2
    50          5
    51          9
    52          5
    53         33
    54         70
    55        103
    56         13
    57        999
    58         34
    59          3
    63          2
    65          9
    66          9
    67        743
    68         46
    69         17
    70          2
    71          2
    73          2
    74          2
    75         13
    77          4
    78          1
    79          9
    80          4
    81         58
    82        642
    83         56
    84          4
    85          1
    87         14
    88          1
    91          1
    96          2
    97          2
    98          1
    99          1
   101          1
   111          1