##TITLE=Library Entry 81653
##JCAMP-DX=Revision 4.10 
##DATA TYPE=MASS SPECTRUM
##SAMPLE DESCRIPTION=F. COMPERNOLLE
##NAMES=HP
##CAS NAME=1H-1,2,3-Triazole, 1-benzoyl-4,5-diphenyl-
##MOLFORM=C21H15N3O
##CAS REGISTRY NO=33471-67-9
##MP= -300
##BP= -300
##MW= 325
##$RETENTION INDEX=0
##$CONDENSED SPECTRUM=NO
##NPOINTS= 36
##XYDATA=(XY..XY) 1 
    38         10
    39         40
    44         10
    50         40
    51         90
    52         10
    62         10
    63         60
    64         10
    74         10
    75         10
    76         30
    77        530
    78         50
    89        220
    90         20
    91         10
   103         30
   105        999
   106         70
   163         10
   164         10
   165         80
   166         50
   167         10
   190         10
   191         10
   192        650
   193        110
   194         10
   221         20
   269         20
   297        190
   298         50
   325         70
   326         10