##TITLE=Library Entry 76550
##JCAMP-DX=Revision 4.10 
##DATA TYPE=MASS SPECTRUM
##SAMPLE DESCRIPTION=Chemical Concepts
##NAMES=HP
##CAS NAME=1,3,5,7-Cyclooctatetraene, 1-iodo-
##MOLFORM=C8H7I
##CAS REGISTRY NO=33475-12-6
##MP= -300
##BP= -300
##MW= 230
##$RETENTION INDEX=0
##$CONDENSED SPECTRUM=NO
##NPOINTS= 119
##XYDATA=(XY..XY) 1 
    23          0
    26         11
    27         27
    28          0
    29          2
    36          0
    37         13
    38         21
    39         47
    40          3
    41          2
    42          0
    43          2
    45          0
    46          0
    48          0
    49          8
    50        109
    51        240
    52         39
    53          6
    54          0
    55          2
    56          0
    57          2
    59          0
    60          0
    61         10
    62         22
    63         51
    64          7
    65          4
    66          0
    67          0
    69          0
    70          0
    71          1
    72          0
    73         10
    74         46
    75         45
    76         84
    77        518
    78         33
    79          3
    80          0
    81          0
    82          0
    83          1
    84          0
    85          1
    86          3
    87          7
    88          1
    89          2
    90          0
    91         18
    92          3
    95          0
    97          0
    98          6
    99          3
   100          0
   101         15
   102        137
   103        999
   104         83
   105         10
   106          0
   107          0
   115          7
   116          1
   117          7
   118          1
   119          2
   120          2
   121          1
   122          0
   123          0
   127         39
   128          7
   129          1
   130          0
   131          0
   132          0
   133          2
   137          0
   139          0
   140          0
   142          0
   144          0
   145          0
   152          1
   153          4
   154          2
   155          0
   158          0
   160          1
   161          0
   162          0
   163          1
   164          0
   165          1
   167          0
   176          0
   177          0
   178          1
   179          3
   180          3
   181          2
   183          1
   184          6
   185          1
   186          0
   203          0
   206          0
   230        514
   231         44
   232          2