##TITLE=Library Entry 37272
##JCAMP-DX=Revision 4.10 
##DATA TYPE=MASS SPECTRUM
##SAMPLE DESCRIPTION=Exported from NIST MS Search
##NAMES=HP
##CAS NAME=Virginiamycin S1, 5-(5-hydroxy-4-oxo-L-2-piperidinecarboxylic aci
d)-
##MOLFORM=C43H49N7O11
##CAS REGISTRY NO=33477-39-3
##MP= -300
##BP= -300
##MW= 839
##$RETENTION INDEX=0
##$CONDENSED SPECTRUM=NO
##NPOINTS= 100
##XYDATA=(XY..XY) 1 
    41        242
    42        221
    43        159
    44        604
    49         45
    50         85
    51         45
    52         42
    53         71
    54        119
    55        159
    56        185
    57        204
    65         85
    66        128
    67        123
    68         71
    69         95
    70        999
    71         88
    77        100
    78         85
    79         71
    80         23
    81         54
    83         52
    84         52
    85         42
    91        261
    92         52
    93         95
    94        464
    95        302
    96         47
    97         42
   103         45
   104         69
   105         61
   106        166
   107         40
   121         47
   122        373
   123        161
   134        142
   138         71
   139        252
   140         35
   177        190
   178        142
   179         33
   181        190
   182         38
   204        107
   205        223
   206         47
   209         47
   289         47
   290        119
   291         38
   300          4
   303          8
   306          6
   307          4
   317          7
   343          8
   370          6
   386          4
   387         11
   388          3
   398          4
   399          5
   520          0
   521          1
   522          1
   523          1
   547          4
   548          7
   549          1
   550          1
   592          0
   651          0
   678          0
   683          3
   684          1
   690          0
   706          0
   712          0
   713          0
   725          0
   726          0
   748          0
   795          0
   796          0
   811          0
   821          3
   822          1
   823          1
   839          6
   840          3
   841          1