##TITLE=Library Entry 86950
##JCAMP-DX=Revision 4.10 
##DATA TYPE=MASS SPECTRUM
##SAMPLE DESCRIPTION=A.Pleshkova, Nesmeyanov Inst.Org.Elem.Cpds, Moscow
##NAMES=HP
##CAS NAME=Phosphorodiamidous chloride, tetramethyl-
##MOLFORM=C4H12ClN2P
##CAS REGISTRY NO=3348-44-5
##MP= -300
##BP= -300
##MW= 154
##$RETENTION INDEX=0
##$CONDENSED SPECTRUM=NO
##NPOINTS= 44
##XYDATA=(XY..XY) 1 
    15        542
    16          7
    18         66
    27         35
    28        258
    29          2
    30        126
    31         35
    32         54
    33         66
    36         28
    40         35
    41         60
    42        598
    43         94
    44        521
    45         82
    46         47
    47         63
    58         23
    59         78
    60        473
    61         18
    67         41
    69         22
    74         26
    75        135
    76        588
    77         26
    81         31
    83         10
    94         61
    96         21
   109         54
   110        999
   111         54
   112        325
   113         17
   119        455
   120         26
   154        356
   155         19
   156        116
   157          6