##TITLE=Library Entry 65018
##JCAMP-DX=Revision 4.10 
##DATA TYPE=MASS SPECTRUM
##SAMPLE DESCRIPTION=Humboldt-Universitat zu Berlin, Department of Chemistry
, Analytical Group
##NAMES=HP
##CAS NAME=Benzenecarbohydrazonic acid, N-phenyl-, phenyl ester
##MOLFORM=C19H16N2O
##CAS REGISTRY NO=33491-26-8
##MP= -300
##BP= -300
##MW= 288
##$RETENTION INDEX=0
##$CONDENSED SPECTRUM=NO
##NPOINTS= 141
##XYDATA=(XY..XY) 1 
    12          0
    13          0
    14          0
    15          1
    16          0
    17          2
    18          6
    25          0
    26          5
    27         24
    28         13
    29          3
    30          0
    31          1
    32          0
    37          6
    38         32
    39        240
    40         29
    41         26
    42          2
    43          2
    44          0
    45          0
    50         39
    51        133
    52         32
    53          7
    54          2
    55          7
    56          0
    57          2
    61          2
    62          9
    63         63
    64        118
    65        536
    66         70
    67          3
    68          1
    69          0
    70          0
    71          1
    73          0
    74          6
    75         10
    76         33
    77        223
    78         20
    79          2
    80          3
    81          1
    82          1
    83          0
    84          0
    85          0
    86          0
    87          1
    88          1
    89          3
    91        226
    92        999
    93         81
    94         60
    95          4
    96          0
    97          0
    98          0
    99          0
   100          0
   101          0
   102          2
   103         14
   104         15
   105         84
   106          7
   107          0
   113          0
   114          0
   115          2
   116          0
   117          0
   118          1
   119          0
   120          1
   121          0
   126          1
   127          2
   128          3
   129          3
   130          4
   131          0
   133          0
   138          0
   139          2
   140          1
   141          1
   143          0
   144          2
   149          0
   150          0
   151          1
   152          3
   153          1
   154          1
   155          0
   156         10
   157          3
   158          0
   163          0
   164          0
   165          1
   166          3
   167          6
   168          3
   169          0
   170          0
   178          0
   179          0
   180          0
   181          1
   182          1
   183         24
   184          4
   185          0
   192          0
   193          4
   194         35
   195         81
   196         14
   197          1
   210          0
   211          2
   212          0
   240          0
   286          0
   287          1
   288         68
   289         15
   290          1
   291          0