##TITLE=Library Entry 63311
##JCAMP-DX=Revision 4.10 
##DATA TYPE=MASS SPECTRUM
##SAMPLE DESCRIPTION=A.A.Kutin, Moscow, Russia
##NAMES=HP
##CAS NAME=N1-(1-Benzyl-4-piperidyl)-4-cyanobenzene-1-sulfonamide
##MOLFORM=C19H21N3O2S
##CAS REGISTRY NO=334974-48-0
##MP= -300
##BP= -300
##MW= 355
##$RETENTION INDEX=0
##$CONDENSED SPECTRUM=NO
##NPOINTS= 153
##XYDATA=(XY..XY) 1 
    37          5
    38          3
    39         21
    40          3
    41         22
    42         61
    43         19
    44         45
    45          2
    48          6
    49          1
    50         13
    51         26
    52         10
    53          8
    54         20
    55         23
    56         84
    57         14
    58          8
    59          2
    60          1
    61          2
    62          6
    63         10
    64         18
    65         72
    66          6
    67         19
    68          9
    69         16
    70         43
    71          8
    72          4
    73          2
    74          9
    75         24
    76         19
    77         14
    78          4
    79          8
    80         16
    81          9
    82        238
    83         26
    84         15
    85          6
    86          2
    87          3
    88          3
    89         17
    91        999
    92        151
    93          9
    94          1
    95          0
    96          8
    97         16
    98          5
    99         14
   100          6
   102        123
   103         34
   104         26
   105         19
   106         10
   107          2
   108          5
   109          2
   110         14
   111         16
   112          4
   115          7
   116          6
   117         19
   118         49
   119         30
   120         71
   123          2
   127          3
   128          2
   129          8
   130         13
   131          8
   132        155
   133         24
   134         11
   135         23
   136          1
   137          3
   143          4
   144         13
   145          3
   146        226
   147         28
   148          7
   149          3
   150         11
   151          4
   152          3
   157          0
   158         10
   159         12
   160         57
   161         37
   162          4
   163          0
   165          2
   166         26
   167          4
   168          6
   170         23
   171         20
   172         83
   173         25
   174         57
   175         11
   176          2
   177          3
   178          3
   180          4
   182         14
   185          1
   186          4
   187         18
   189        341
   190         54
   191          4
   192          4
   193          0
   202          0
   203          1
   204          1
   205          2
   206          1
   207          2
   208          0
   209          6
   211          1
   214          7
   235          6
   264        120
   265         20
   266          8
   278         31
   279          5
   281          0
   290          9
   353          2
   354         21
   355         61
   356         15
   357          5