##TITLE=Library Entry 62435
##JCAMP-DX=Revision 4.10 
##DATA TYPE=MASS SPECTRUM
##SAMPLE DESCRIPTION=Exported from NIST MS Search
##NAMES=HP
##CAS NAME=Benzaldehyde, 4-methyl-, O-methyloxime
##MOLFORM=C9H11NO
##CAS REGISTRY NO=33499-39-7
##MP= -300
##BP= -300
##MW= 149
##$RETENTION INDEX=1320
##$CONDENSED SPECTRUM=NO
##NPOINTS= 28
##XYDATA=(XY..XY) 1 
    39        170
    50         80
    51        120
    63        170
    64         10
    65        310
    66         20
    77        170
    78        100
    79        130
    89        190
    90        170
    91        999
    92        240
   103         80
   107         70
   116        160
   117        200
   118        290
   119         80
   120         30
   122        140
   123         15
   133         15
   134         10
   148         20
   149        780
   150         80