##TITLE=Library Entry 58918
##JCAMP-DX=Revision 4.10 
##DATA TYPE=MASS SPECTRUM
##SAMPLE DESCRIPTION=N M M. NIBBERING
##NAMES=HP
##CAS NAME=1-Butanamine, 4-(phenylmethoxy)-3-[(phenylmethoxy)methyl]-
##MOLFORM=C19H25NO2
##CAS REGISTRY NO=33498-87-2
##MP= -300
##BP= -300
##MW= 299
##$RETENTION INDEX=0
##$CONDENSED SPECTRUM=NO
##NPOINTS= 36
##XYDATA=(XY..XY) 1 
    27         10
    28         10
    30        240
    39         30
    41         30
    43         70
    44         20
    45         20
    51         20
    55         20
    56         20
    63         10
    65         60
    70         10
    77         30
    78         10
    79         30
    83         10
    84         30
    85         30
    89         10
    90         10
    91        999
    92        100
   100         30
   101         10
   102         80
   103         20
   105         20
   107         40
   108         10
   143         10
   190        100
   191         20
   208        150
   209         20