##TITLE=Library Entry 33957
##JCAMP-DX=Revision 4.10 
##DATA TYPE=MASS SPECTRUM
##SAMPLE DESCRIPTION=Japan AIST/NIMC Database- Spectrum MS-IW-3327
##NAMES=HP
##CAS NAME=2,2'',4,4',4'',6,6',6''-Octanitro-m-terphenyl
##MOLFORM=C18H6N8O16
##CAS REGISTRY NO=33491-88-2
##MP= -300
##BP= -300
##MW= 590
##$RETENTION INDEX=0
##$CONDENSED SPECTRUM=NO
##NPOINTS= 386
##XYDATA=(XY..XY) 1 
    12          2
    14          4
    16         10
    26          4
    27         21
    28        131
    29         20
    30        884
    31          5
    32          3
    37          3
    38          9
    39         13
    40          2
    41          3
    42          4
    43         11
    44        216
    45          5
    46         48
    47          8
    49          1
    50         31
    51         56
    52         12
    53        105
    54          7
    55          5
    56          2
    57          2
    60          1
    61          6
    62         35
    63         34
    64         56
    65         27
    66         23
    67          9
    68         11
    69        999
    70         36
    71          5
    73          4
    74         97
    75         70
    76         56
    77        145
    78         22
    79         11
    80         22
    81          5
    82          2
    83          2
    84          1
    85          6
    86         58
    87         78
    88         61
    89         22
    90         42
    91         19
    92         30
    93         32
    94         11
    95          3
    96          2
    97          2
    98         66
    99        102
   100         44
   101         36
   102         29
   103         42
   104         64
   105         13
   106          6
   107          5
   108          5
   109          3
   110         41
   111         58
   112         33
   113         23
   114         19
   115         15
   116         75
   117         17
   118          9
   119          9
   120         80
   121          9
   122         32
   123        112
   124         48
   125         20
   126         14
   127         41
   128         19
   129         11
   130         21
   131         18
   132         11
   133         10
   134         24
   135         34
   136         25
   137         14
   138         24
   139         10
   140         17
   141         14
   142         13
   143          9
   144         19
   145          7
   146         20
   147         32
   148         53
   149         35
   150         24
   151         19
   152         19
   153          8
   154          9
   155          8
   156          6
   157          9
   158         16
   159         21
   160         15
   161         25
   162         25
   163         21
   164         26
   165         11
   166         12
   167          8
   168          9
   169          6
   170         22
   171         21
   172         15
   173         31
   174         45
   175         34
   176         25
   177         13
   178         41
   179         54
   180         16
   181          5
   182          7
   183          9
   184          9
   185         70
   186         50
   187         34
   188         37
   189         21
   190         27
   191         14
   192         12
   193          7
   194         34
   195          9
   196          8
   197         28
   198         67
   199         57
   200         30
   201         31
   202         17
   203         28
   204         16
   205          8
   206          9
   207          6
   208         16
   209         49
   210         20
   211         12
   212         15
   213         15
   214         23
   215         12
   216         16
   217         17
   218         13
   219          8
   220         41
   221         11
   222         12
   223          8
   224         18
   225         14
   226         29
   227         13
   228         33
   229         15
   230         13
   231         13
   232         18
   233        266
   234         40
   235          9
   236        354
   237         47
   238         31
   239          8
   240          7
   241          7
   242         15
   243          9
   244         20
   245         15
   246         13
   247          7
   248          7
   249          8
   250          7
   251          2
   252          3
   253          8
   254         43
   255         15
   256         25
   257          9
   258         10
   259          9
   260          8
   261          5
   262          9
   263          6
   264          5
   265          2
   266          2
   267         52
   268         12
   269          8
   270         12
   271          7
   272         11
   273          6
   274          8
   275          8
   276          4
   277          9
   278         11
   279          3
   280          3
   282          1
   283          3
   284         13
   285          5
   286          5
   287          4
   288          6
   289          5
   290          5
   291          6
   292          5
   293          3
   294          1
   296          1
   298          1
   299          3
   300          9
   301          4
   302         11
   303          6
   304          7
   305          4
   306          3
   307          3
   308          2
   309          2
   310          1
   314          2
   315          2
   316          4
   317          4
   318          6
   319          3
   320          4
   321          5
   322          3
   323          1
   324          2
   325          1
   326          1
   329          2
   330          9
   331          4
   332          3
   333          4
   334          3
   335          1
   336          2
   337          7
   338          3
   340          2
   345          4
   346          9
   347          4
   348          7
   349          5
   350          4
   351          2
   353          4
   354          2
   356          3
   360          3
   361          2
   362          4
   363          2
   364          2
   365          3
   366          1
   375          1
   376          7
   377          4
   378          2
   379          4
   383          2
   391          1
   392          2
   393          1
   394          2
   395          2
   396          1
   399          1
   400         35
   401          7
   402         29
   403          5
   404          1
   406          1
   407          1
   408          4
   409          1
   410          1
   411          7
   412          3
   413          3
   421          1
   422          2
   423          2
   424          3
   425          2
   427          2
   429          9
   430          3
   436          7
   437          2
   438          2
   439          2
   440          1
   441          1
   452          7
   453          2
   454          1
   457          7
   458          1
   459          5
   461          1
   467          1
   468         33
   469          4
   470        173
   471         36
   472          8
   482          2
   484          2
   498          7
   499          2
   513          1
   514          2
   528         15
   529          3
   530          1
   532          2
   544         83
   545         17
   546          5
   560          1
   574          4