##TITLE=Library Entry 63428
##JCAMP-DX=Revision 4.10 
##DATA TYPE=MASS SPECTRUM
##SAMPLE DESCRIPTION=N M M. NIBBERING
##NAMES=HP
##CAS NAME=2,4(1H,3H)-Pyrimidinedione, 1-[4-(phenylmethoxy)-3-[(phenylmethox
y)methyl]butyl]-
##MOLFORM=C23H26N2O4
##CAS REGISTRY NO=33498-86-1
##MP= -300
##BP= -300
##MW= 394
##$RETENTION INDEX=0
##$CONDENSED SPECTRUM=NO
##NPOINTS= 43
##XYDATA=(XY..XY) 1 
    18         20
    27         20
    28         30
    29         20
    39         40
    41         50
    42         10
    43         20
    51         20
    53         10
    54         10
    55         40
    57         20
    63         10
    65         80
    67         20
    68         10
    69         20
    70         10
    77         50
    78         20
    79         50
    82        120
    83         20
    85         30
    89         20
    90         10
    91        999
    92        100
    96         10
   105         20
   107         30
   112         20
   113         50
   125         40
   126         10
   136         20
   154         10
   167         20
   179         30
   197        180
   198         20
   303         30