##TITLE=Library Entry 1500
##JCAMP-DX=Revision 4.10 
##DATA TYPE=MASS SPECTRUM
##SAMPLE DESCRIPTION=NIST Mass Spectrometry Data Center, 1994
##NAMES=HP
##CAS NAME=1H,1H,7H-Dodecafluoro-1-heptanol
##MOLFORM=C7H4F12O
##CAS REGISTRY NO=335-99-9
##MP= -300
##BP= -300
##MW= 332
##$RETENTION INDEX=857
##$CONDENSED SPECTRUM=NO
##NPOINTS= 82
##XYDATA=(XY..XY) 1 
     4          0
    14          1
    28          7
    29         95
    31        999
    32         18
    33         32
    42          5
    43          1
    44          2
    45          4
    47          2
    49         89
    51        217
    52          2
    61         62
    62         13
    63          6
    64          8
    65          1
    67          3
    69        109
    70          1
    71          1
    74          3
    75         12
    79          5
    80         11
    81         32
    82         20
    83          6
    91          5
    93         18
    94          3
    95         12
    97          3
   100         54
   101         36
   109          2
   111         14
   112          7
   113         46
   114          2
   117          1
   119         12
   124          1
   125          2
   129          2
   131        141
   132          5
   133          2
   141          2
   143          2
   144          3
   145          4
   151          4
   157          2
   161          4
   162          3
   163         14
   169          2
   173          2
   175         10
   181          7
   193          1
   195          3
   201          1
   211          3
   213          2
   223          9
   229          1
   231          1
   243          3
   245         22
   246          2
   249          1
   263          2
   282         18
   283          1
   293          1
   312          1
   313          4