##TITLE=Library Entry 31579
##JCAMP-DX=Revision 4.10 
##DATA TYPE=MASS SPECTRUM
##SAMPLE DESCRIPTION=ASES Database, Dalian Institute, P.R. China
##NAMES=HP
##CAS NAME=Perfluorooctanoyl chloride
##MOLFORM=C8ClF15O
##CAS REGISTRY NO=335-64-8
##MP= -300
##BP= -300
##MW= 432
##$RETENTION INDEX=0
##$CONDENSED SPECTRUM=NO
##NPOINTS= 19
##XYDATA=(XY..XY) 1 
    31        131
    50         78
    63        999
    65        327
    69        784
    85        138
    87         40
    93         80
   100        269
   109         68
   119        338
   131        300
   135         39
   169        298
   181         79
   219         89
   231         29
   281         30
   369        229