##TITLE=Library Entry 36667
##JCAMP-DX=Revision 4.10 
##DATA TYPE=MASS SPECTRUM
##SAMPLE DESCRIPTION=Chemical Concepts
##NAMES=HP
##CAS NAME=Butanoyl fluoride, heptafluoro-
##MOLFORM=C4F8O
##CAS REGISTRY NO=335-42-2
##MP= -300
##BP= -300
##MW= 216
##$RETENTION INDEX=0
##$CONDENSED SPECTRUM=NO
##NPOINTS= 26
##XYDATA=(XY..XY) 1 
    50         91
    55          5
    62          5
    69        999
    70          5
    74          5
    78         55
    81         14
    89          5
    93         35
    97          9
   100         25
   109          5
   112          5
   119         40
   128         40
   131        286
   132          5
   135          5
   169         19
   181         19
   185          5
   197        358
   198          9
   216        112
   217          5