##TITLE=Library Entry 36185
##JCAMP-DX=Revision 4.10 
##DATA TYPE=MASS SPECTRUM
##SAMPLE DESCRIPTION=NIST Mass Spectrometry Data Center, 1998.
##NAMES=HP
##CAS NAME=Heptane, hexadecafluoro-
##MOLFORM=C7F16
##CAS REGISTRY NO=335-57-9
##MP= -300
##BP= -300
##MW= 388
##$RETENTION INDEX=282
##$CONDENSED SPECTRUM=NO
##NPOINTS= 38
##XYDATA=(XY..XY) 1 
    31         24
    50         16
    55          1
    62          2
    69        999
    70         11
    74          4
    81          6
    93         32
    94          1
   100         96
   101          2
   105          1
   112          7
   117          1
   119        295
   120          6
   124          2
   131        202
   132          7
   135          3
   143          4
   150          9
   162          4
   169        217
   170          7
   181         48
   182          2
   193          1
   200          3
   219         98
   220          4
   231         12
   232          1
   269         16
   270          1
   282          2
   369          1