##TITLE=Library Entry 55245
##JCAMP-DX=Revision 4.10 
##DATA TYPE=MASS SPECTRUM
##SAMPLE DESCRIPTION=ASES Database, Dalian Institute, P.R. China
##NAMES=HP
##CAS NAME=Butane,1,2,4-trichloro-heptafluoro-
##MOLFORM=C4Cl3F7
##CAS REGISTRY NO=335-45-5
##MP= -300
##BP= -300
##MW= 286
##$RETENTION INDEX=0
##$CONDENSED SPECTRUM=NO
##NPOINTS= 33
##XYDATA=(XY..XY) 1 
    31         54
    44         14
    47         17
    66         17
    69        281
    85        999
    87        319
    93         39
   101         76
   103         48
   116         52
   131         40
   135        165
   137         52
   147         62
   151        312
   153        199
   155         31
   163         53
   165         33
   166         66
   201         24
   203         16
   213          9
   217          7
   219          8
   251         10
   253          5
   263          3
   265          1
   267          0
   282          2
   284          1