##TITLE=Library Entry 36281
##JCAMP-DX=Revision 4.10 
##DATA TYPE=MASS SPECTRUM
##SAMPLE DESCRIPTION=Chemical Concepts
##NAMES=HP
##CAS NAME=Hexane, 1-bromo-1,1,2,2,3,3,4,4,5,5,6,6,6-tridecafluoro-
##MOLFORM=C6BrF13
##CAS REGISTRY NO=335-56-8
##MP= -300
##BP= -300
##MW= 398
##$RETENTION INDEX=0
##$CONDENSED SPECTRUM=NO
##NPOINTS= 64
##XYDATA=(XY..XY) 1 
    31        204
    43          2
    50         84
    51          2
    55          5
    62         12
    69        999
    70         22
    74         21
    75          1
    79         39
    81         69
    82          2
    85         10
    86          2
    91          5
    93        137
    94          3
   100        508
   101          8
   105          3
   110         15
   112         50
   113          1
   119        736
   120         14
   122          1
   124          9
   125          1
   129        587
   131        769
   132         23
   141          3
   143         10
   150         23
   153          1
   155          2
   160         27
   162         35
   163          1
   169        466
   170         10
   179         74
   181        144
   182          4
   191         46
   193         45
   194          1
   212          1
   219          8
   229          9
   231        128
   232          6
   241         16
   243         15
   244          1
   291         13
   293         13
   294          1
   319        406
   320         24
   321          1
   379          3
   381          2