##TITLE=Library Entry 614
##JCAMP-DX=Revision 4.10 
##DATA TYPE=MASS SPECTRUM
##SAMPLE DESCRIPTION=Exported from NIST MS Search
##NAMES=HP
##CAS NAME=Octanal, pentadecafluoro-
##MOLFORM=C8HF15O
##CAS REGISTRY NO=335-60-4
##MP= -300
##BP= -300
##MW= 398
##$RETENTION INDEX=0
##$CONDENSED SPECTRUM=NO
##NPOINTS= 123
##XYDATA=(XY..XY) 1 
    15          3
    16          3
    17          1
    19          2
    20          3
    25          1
    26          1
    27          3
    28         24
    29        999
    30         13
    31         84
    32         13
    37          1
    39          2
    40          2
    41          4
    42          2
    43          5
    44          7
    45          7
    46          1
    47          3
    48          1
    50         24
    51        163
    52          3
    53          1
    55          4
    56          3
    57          3
    58          3
    59          5
    60          2
    62          6
    63          6
    64          2
    65          1
    67          2
    69        566
    70         11
    71          3
    72          1
    73          2
    74          9
    75          9
    76          2
    77          1
    78          4
    79         95
    80          4
    81         19
    82         12
    83          2
    84          1
    85          1
    86          2
    87          1
    88          2
    89          2
    90          2
    91          2
    92          1
    93         61
    94          7
    95          2
    97          6
    98          2
    99          1
   100        199
   101         31
   102          2
   105          3
   106          1
   108          1
   109          5
   110          2
   112          8
   113          8
   114          1
   117          2
   119         56
   120          2
   124          3
   125          1
   129          2
   131        295
   132         11
   133          1
   141          2
   143          5
   144          1
   147          1
   150          4
   151          5
   152          1
   155          2
   162          9
   163          3
   169         22
   170          2
   179          5
   181         30
   182          2
   191          1
   193          4
   197          1
   201          1
   212          2
   219          4
   229          2
   231         15
   232          2
   241          2
   243          2
   269          1
   281          5
   291          2
   329          1
   331         19
   350         31
   358          1
   379          5