##TITLE=Library Entry 52075
##JCAMP-DX=Revision 4.10 
##DATA TYPE=MASS SPECTRUM
##SAMPLE DESCRIPTION=Japan AIST/NIMC Database- Spectrum MS-NW-7788
##NAMES=HP
##CAS NAME=3,3-Dimethylacryloyl chloride
##MOLFORM=C5H7ClO
##CAS REGISTRY NO=3350-78-5
##MP= -300
##BP= -300
##MW= 118
##$RETENTION INDEX=0
##$CONDENSED SPECTRUM=NO
##NPOINTS= 69
##XYDATA=(XY..XY) 1 
    12          1
    13          2
    14          4
    15         10
    18          1
    25          4
    26         27
    27        182
    28         28
    29        328
    30          8
    35          8
    36         25
    37         28
    38         52
    39        282
    40         35
    41         30
    42         13
    43          6
    44          2
    47          2
    48          3
    49         15
    50         41
    51         39
    52         15
    53        112
    54         31
    55        503
    56         25
    57          1
    60          1
    61          3
    62          3
    63         14
    64          1
    65          5
    66          3
    67         18
    68          5
    69          1
    72          1
    73          2
    75         11
    76          2
    77         20
    78          3
    79          7
    81          1
    82         38
    83        999
    84         56
    85          5
    86          2
    89          2
    90         14
    91         21
    92          6
    93          7
    97          1
    99          1
   100          3
   103          3
   105          1
   118          6
   119         13
   120          2
   121          4