##TITLE=Library Entry 34449
##JCAMP-DX=Revision 4.10 
##DATA TYPE=MASS SPECTRUM
##SAMPLE DESCRIPTION=D.HENNEBERG, MAX-PLANCK INSTITUTE, MULHEIM, WEST GERMAN
Y
##NAMES=HP
##CAS NAME=1,5-Heptadiene, 2,3,6-trimethyl-
##MOLFORM=C10H18
##CAS REGISTRY NO=33501-88-1
##MP= -300
##BP= -300
##MW= 138
##$RETENTION INDEX=1055
##$CONDENSED SPECTRUM=NO
##NPOINTS= 65
##XYDATA=(XY..XY) 1 
    24          0
    25          1
    26          5
    27         95
    28         47
    29         67
    30          1
    31         13
    32          7
    33          0
    36          0
    38          5
    39        119
    40         26
    41        892
    42         59
    43         45
    44          1
    45          4
    49          0
    50          4
    51         15
    52          6
    53         66
    54         14
    55         98
    56         10
    57          7
    59          4
    62          0
    63          4
    64          0
    65         14
    66          8
    67         99
    68         55
    69        999
    70        143
    71         12
    72          0
    74          2
    75          0
    77         13
    78          2
    79         12
    80          2
    81         29
    82         36
    83          6
    91          8
    92          1
    93          5
    94         29
    95        265
    96         28
    97          1
   105          2
   107          2
   109          5
   110          1
   121          0
   123         30
   124          2
   138         12
   139          0