##TITLE=Library Entry 71138
##JCAMP-DX=Revision 4.10 
##DATA TYPE=MASS SPECTRUM
##SAMPLE DESCRIPTION=Darrick Lee, Cayman Chemical, Ann Arbor, MI
##NAMES=HP
##CAS NAME=AM1248
##MOLFORM=C26H34N2O
##CAS REGISTRY NO=335160-66-2
##MP= -300
##BP= -300
##MW= 390
##$RETENTION INDEX=0
##$CONDENSED SPECTRUM=NO
##NPOINTS= 163
##XYDATA=(XY..XY) 1 
    41         18
    42         30
    43          4
    44          8
    45          1
    50          1
    51          2
    52          1
    53          5
    54          3
    55         18
    56          5
    57          4
    58          4
    59          1
    62          1
    63          1
    64          1
    65          5
    66          2
    67         19
    68          9
    69          7
    70         90
    71          5
    73          1
    74          1
    75          2
    76          2
    77         20
    78          6
    79         45
    80          6
    81         14
    82         12
    83          6
    84          3
    85          1
    87          1
    88          1
    89          2
    90          1
    91         17
    93         35
    94          8
    96         28
    98        999
    99         69
   100          3
   101          5
   102         11
   103          5
   104          1
   105          3
   107         15
   108          2
   109          1
   110          7
   111          3
   112         16
   113          2
   114          1
   115          7
   116          2
   117          2
   118          1
   119          1
   120          1
   121          1
   126          1
   127          2
   128         10
   129         27
   130          9
   131          1
   132          1
   133          1
   135         50
   136          7
   139          1
   140          1
   141          1
   142          1
   143          5
   144          4
   145          1
   147          1
   151          1
   152          1
   153          1
   154          3
   155          2
   156          2
   157          6
   158          8
   159          1
   165          1
   166          1
   167          2
   168          2
   169          1
   170          1
   171          1
   172          1
   177          1
   178          1
   179          1
   180          1
   181          1
   182          1
   183          1
   184          1
   189          1
   191          1
   192          1
   193          1
   194          1
   195          1
   196          1
   197          1
   198          1
   199          1
   202          1
   203          1
   204          1
   205          1
   206          1
   208          1
   209          1
   211          1
   212          1
   217          1
   218          1
   219          1
   220          1
   221          1
   223          1
   225          1
   226          1
   227          1
   232          1
   238          1
   239          1
   248          1
   251          1
   253          3
   254          1
   255          1
   256          1
   263          2
   264          1
   266          1
   268          1
   282          1
   283          1
   292         10
   293          3
   295          1
   327          1
   341          1
   388          1
   389          1
   390          1