##TITLE=Library Entry 15292
##JCAMP-DX=Revision 4.10 
##DATA TYPE=MASS SPECTRUM
##SAMPLE DESCRIPTION=KC69-432
##NAMES=HP
##CAS NAME=Fucoxanthin
##MOLFORM=C42H58O6
##CAS REGISTRY NO=3351-86-8
##MP= -300
##BP= -300
##MW= 658
##$RETENTION INDEX=0
##$CONDENSED SPECTRUM=NO
##NPOINTS= 370
##XYDATA=(XY..XY) 1 
    40        112
    42        777
    43        114
    44        999
    46        352
    50         57
    51        114
    52         55
    53        192
    54         38
    55        476
    56         99
    57        304
    58         19
    59         60
    60        243
    61         21
    62         28
    63         60
    64         40
    65        137
    66         47
    67        308
    68        123
    69        638
    70        209
    71        116
    73         38
    75         38
    76        278
    77        272
    78        289
    79         66
    81        304
    82         81
    83        348
    84         76
    85        209
    86         21
    87         66
    89         45
    91        693
    92        171
    93        382
    94         93
    95        409
    96        116
    97        112
    98        342
    99         55
   102         21
   103         91
   104         40
   105        647
   106        171
   107        380
   108        127
   109        685
   110         95
   111        169
   112         34
   113         38
   114        194
   115         89
   116        161
   117         59
   118        657
   119        131
   121        466
   122        133
   123        228
   124         55
   125        266
   126         59
   127        167
   128        240
   129        266
   130        114
   131        329
   132         95
   133        331
   134         95
   135        190
   136         57
   137         97
   138         21
   141        266
   142        209
   143        352
   144        156
   145        390
   146        190
   147        228
   148         95
   149        361
   150         81
   151        167
   152        152
   153        142
   154         95
   155        329
   156        344
   157        428
   158        150
   159        342
   160        106
   161        175
   162         74
   163        135
   164         66
   165        289
   166        114
   167        146
   168         93
   169        302
   170        211
   171        291
   172        152
   173        276
   174         85
   175        152
   176         57
   177         91
   178        114
   179        253
   180        171
   181        306
   182        154
   183        300
   184        123
   185        226
   186         78
   187        129
   188         47
   189        133
   190         93
   191        137
   192        114
   193        264
   194        135
   195        304
   196        152
   197        761
   198        192
   199        175
   200         76
   201         81
   202         76
   203        133
   204         59
   205        106
   206        133
   207        323
   208        276
   209        339
   210        142
   211        257
   212        247
   213        133
   214         36
   215         97
   216         68
   217         87
   218         47
   219        133
   220         95
   221        580
   222        144
   223        247
   224        104
   225        152
   226         76
   227         89
   228         21
   229         91
   230         60
   231         97
   232         78
   233        154
   234        180
   235        207
   236         85
   237        285
   238        118
   239        167
   240         76
   241         76
   242         38
   243         76
   244         53
   245        100
   246         76
   247        228
   248         76
   249        137
   250         95
   251        133
   252         95
   253         81
   254         28
   255         59
   256         36
   257         72
   258         55
   259        102
   260         74
   261         76
   262        152
   263         74
   264        104
   265         40
   266         57
   267         38
   268         57
   269         38
   270         78
   271         49
   272        114
   273         66
   274        114
   275         85
   276        104
   277         38
   278         59
   280         36
   281         59
   282         22
   283        104
   284         53
   285         76
   286         49
   287        114
   288         57
   289         80
   290         47
   291         59
   292         40
   293         40
   294         19
   295         38
   296         19
   297         66
   298         81
   299        114
   300         60
   301         68
   302         45
   303         76
   305         28
   306         38
   307         28
   308         19
   309         57
   310         26
   311        154
   312         89
   313         89
   314         38
   315         74
   316         38
   317         47
   318         28
   319         38
   321         36
   323         55
   324         38
   325         76
   326         38
   327         66
   328         47
   329         59
   330         28
   331         30
   332         21
   333         36
   335         34
   337         40
   338         40
   339         80
   340         41
   341         62
   342         38
   343         43
   344         19
   346         21
   349         28
   350         38
   351         57
   352         38
   353         57
   354         66
   355         57
   358         21
   361         19
   362         17
   363         47
   364         38
   365         36
   366         28
   367         47
   368         49
   369         38
   370         24
   380         19
   381         38
   382         47
   383         95
   384         38
   385         38
   389         32
   390         28
   391         28
   393         21
   395         28
   399         22
   401         19
   405         15
   409         19
   410         19
   411         28
   415         21
   417         41
   418         11
   419         22
   425         19
   426         34
   427         34
   428         21
   429         19
   432         26
   441         19
   442         22
   443         38
   444         19
   455         22
   469         26
   470         21
   471         21
   473         28
   484         38
   485         19
   486         21
   488         38
   530         28
   544         36
   545         22
   546         38
   547         38
   549         22
   561         76
   562         38
   563         38
   564         40
   565         26
   566         19
   570         95
   571         38
   572         21
   573         36
   622         95
   623         57
   624         38
   625         28
   626         30
   640        186
   641         95
   642         47
   643         26
   658         38
   659         19