##TITLE=Library Entry 42498
##JCAMP-DX=Revision 4.10 
##DATA TYPE=MASS SPECTRUM
##SAMPLE DESCRIPTION=A.A.Kutin, Moscow, Russia
##NAMES=HP
##CAS NAME=5-Allylsulfanyl-1-(4-methoxy-phenyl)-1H-tetrazole
##MOLFORM=C11H12N4OS
##CAS REGISTRY NO=335221-72-2
##MP= -300
##BP= -300
##MW= 248
##$RETENTION INDEX=0
##$CONDENSED SPECTRUM=NO
##NPOINTS= 130
##XYDATA=(XY..XY) 1 
    33          1
    34          4
    36          2
    37          8
    38         28
    39        147
    40         79
    41        115
    42         10
    43          7
    44         22
    45        249
    46         19
    47         29
    48          2
    50         22
    51         40
    52         45
    53         23
    54         12
    55          8
    56          2
    57          4
    58          6
    59          3
    60          1
    61          2
    62         12
    63         54
    64         62
    65         38
    66         13
    67         14
    68          2
    69          9
    70          3
    71         13
    73        999
    75         90
    76         18
    77        111
    78         76
    79         16
    80         31
    81          5
    82          5
    83          4
    84          1
    85          0
    86          0
    87          0
    88          1
    89          5
    90         38
    91         19
    92         75
    93         15
    94          2
    95         29
    96          4
    97          0
   102          8
   103         27
   104         19
   105         31
   106         32
   107         49
   108         12
   109          2
   110          0
   112          1
   113          1
   114          2
   115          0
   116          1
   117          2
   118         11
   119          3
   120          7
   121         28
   122         16
   123          3
   124          1
   125          2
   126          0
   127          5
   128         10
   129          0
   130          0
   131          1
   132          7
   133        117
   134         17
   135          7
   136          1
   138          0
   139          1
   143          0
   144          0
   145          2
   147        318
   148         64
   149         10
   150         17
   151          1
   152          1
   153          1
   155          1
   156          0
   159          4
   160          1
   161          7
   162          0
   165         21
   166          1
   167          0
   171          0
   172          3
   174         58
   175          6
   176          0
   179          3
   180          0
   187          2
   188          2
   205          2
   219          0
   220          1
   248         13
   249          1