##TITLE=Library Entry 93415
##JCAMP-DX=Revision 4.10 
##DATA TYPE=MASS SPECTRUM
##SAMPLE DESCRIPTION=NIST Mass Spectrometry Data Center, 1994
##NAMES=HP
##CAS NAME=Dodecanamide, N,N-diethyl-
##MOLFORM=C16H33NO
##CAS REGISTRY NO=3352-87-2
##MP= -300
##BP= -300
##MW= 255
##$RETENTION INDEX=0
##$CONDENSED SPECTRUM=NO
##NPOINTS= 100
##XYDATA=(XY..XY) 1 
    14          1
    15          3
    16          0
    18          3
    26          4
    27         49
    28         33
    29        155
    30         26
    31          0
    32          0
    37          0
    39         25
    41        162
    42         62
    43        169
    44        130
    45          3
    46          4
    51          1
    52          1
    53          9
    54         13
    55        125
    56         46
    57         80
    58        385
    59         14
    65          1
    66          1
    67         13
    68          7
    69         30
    70         16
    71         35
    72        234
    73         66
    74         48
    75          2
    77          1
    78          0
    79          3
    80          1
    81          8
    82          3
    83         14
    84          8
    85         14
    86         83
    87         51
    88          3
    91          0
    93          1
    95          7
    96          2
    97          7
    98          7
    99          0
   100        413
   101         29
   102          3
   107          1
   108          0
   109          3
   110          0
   111          2
   112          7
   115        999
   116         67
   117          4
   123          0
   126          5
   128        258
   129         38
   130          3
   140          2
   142         43
   143          8
   144          0
   154          1
   156         15
   157          5
   168          1
   170         24
   171          4
   183          1
   184         15
   185          2
   198          9
   199          2
   212          9
   213          2
   226         10
   227          1
   240          4
   241          1
   254          7
   255         32
   256          5
   257          0