##TITLE=Library Entry 13673
##JCAMP-DX=Revision 4.10 
##DATA TYPE=MASS SPECTRUM
##SAMPLE DESCRIPTION=Japan AIST/NIMC Database- Spectrum MS-NW-8799
##NAMES=HP
##CAS NAME=3,5-Diacetyltetrahydropyran-2,4,6-trione
##MOLFORM=C9H8O6
##CAS REGISTRY NO=33524-89-9
##MP= -300
##BP= -300
##MW= 212
##$RETENTION INDEX=0
##$CONDENSED SPECTRUM=NO
##NPOINTS= 118
##XYDATA=(XY..XY) 1 
    14          2
    15         37
    25          1
    26          6
    27         24
    28         31
    29         14
    30          1
    31          8
    32          1
    37          5
    38          9
    39         27
    40          7
    41         17
    42         41
    43        999
    44         36
    45         10
    49          2
    50          4
    51          8
    52          4
    53         25
    54          8
    55         32
    56          5
    58          1
    59          1
    60          2
    61         50
    62          2
    63          2
    64          1
    65          4
    66         14
    67         56
    68         13
    69        132
    70          9
    71          7
    72         11
    73          1
    77          2
    78          1
    79          2
    80          3
    81          1
    82         15
    83          4
    84         59
    85         41
    86          6
    87         18
    91          1
    92          2
    93          7
    94          2
    95          3
    96         13
    97          4
    98         11
    99          3
   100          5
   108          2
   109          1
   110         13
   111        132
   112          8
   113         10
   114          8
   115          1
   122         22
   123          3
   124         99
   125         17
   126          4
   127          6
   128          3
   129         47
   130          2
   136          4
   137          2
   138         28
   139          2
   140          5
   141          2
   142         21
   143          1
   148          1
   150          2
   151        137
   152         19
   153         10
   154          1
   155          5
   156          1
   166        291
   167         26
   168         19
   169          9
   170          1
   177          1
   179        281
   180         24
   181          4
   184         20
   185          2
   193          1
   194        344
   195         35
   196          5
   197        171
   198         14
   199          2
   212        381
   213         49
   214          7