##TITLE=Library Entry 82778
##JCAMP-DX=Revision 4.10 
##DATA TYPE=MASS SPECTRUM
##SAMPLE DESCRIPTION=V.Zaikin,Inst.Petrochem.Synth.,RAS,Moscow
##NAMES=HP
##CAS NAME=2-Pyrazoline, 3-ethyl-5-hydroxy-5-(3-pyridinyl)-1-(2-methylphenox
yacetyl)-
##MOLFORM=C19H21N3O3
##CAS REGISTRY NO=335206-30-9
##MP= -300
##BP= -300
##MW= 339
##$RETENTION INDEX=0
##$CONDENSED SPECTRUM=NO
##NPOINTS= 201
##XYDATA=(XY..XY) 1 
    26         18
    27         43
    28          4
    29         54
    30          9
    37          6
    38         13
    39         86
    40         16
    41         49
    42         27
    43         36
    44          9
    45          4
    49          6
    50         48
    51        136
    52         58
    53         42
    54         25
    55         45
    56         51
    57         22
    58          5
    59          4
    61          3
    62         11
    63         44
    64         19
    65        175
    66         22
    67          9
    68         11
    69         25
    70         13
    71         20
    72          3
    73          4
    74         10
    75         12
    76         21
    77        139
    78        481
    79        188
    80         41
    81          9
    82          7
    83         81
    84         11
    85         11
    86          3
    87          6
    89         49
    90         44
    91        790
    92        132
    93        143
    94         18
    95          4
    96          3
    97         35
    98         33
    99          5
   102         11
   103         22
   104         67
   105         72
   106        999
   107        215
   108        166
   109         23
   110          4
   111          6
   112         22
   113         34
   114          4
   115         18
   116         15
   117         48
   118         56
   119        144
   120        154
   121        462
   122        121
   123         17
   125         19
   126          4
   127          9
   128         10
   129         22
   130         29
   131         64
   132         57
   133         87
   134         91
   135         63
   136         79
   137         12
   141         10
   142          8
   143         13
   144         19
   145         24
   146         77
   147        133
   148        170
   149        102
   150         20
   151          3
   154          3
   156          4
   157          8
   158         41
   159         25
   160         64
   161         52
   162        115
   163         36
   164          9
   165         11
   166          5
   167          4
   168          4
   170          5
   171         10
   172         39
   173        170
   174        421
   175        338
   176        158
   177         81
   178         49
   179          6
   183          3
   184          6
   185          9
   186        159
   187         50
   188         30
   189         24
   190        136
   191        245
   192         44
   193          5
   198          4
   199         20
   200          8
   201          4
   202         15
   203         21
   204        150
   205         25
   206          5
   207          4
   212          3
   213          8
   214         27
   215         29
   216         38
   217          9
   218        174
   219         86
   220         11
   221          3
   222          3
   225          4
   226          4
   231          5
   232         60
   233        156
   234         23
   235          6
   236          5
   248         20
   249          5
   262          3
   263          4
   264          4
   265          3
   268         16
   269          3
   279          3
   283         33
   284          7
   292          5
   293          3
   294          5
   296          3
   297         38
   298          8
   310         21
   311          5
   321         35
   322         47
   323          9
   324          3
   325          7
   338          8
   339        564
   340        135
   341         20