##TITLE=Library Entry 10950
##JCAMP-DX=Revision 4.10 
##DATA TYPE=MASS SPECTRUM
##SAMPLE DESCRIPTION=NIST Mass Spectrometry Data Center, 1998.
##NAMES=HP
##CAS NAME=6.beta.-Hydroxymethandienone
##MOLFORM=C20H28O3
##CAS REGISTRY NO=33526-41-9
##MP= -300
##BP= -300
##MW= 316
##$RETENTION INDEX=0
##$CONDENSED SPECTRUM=NO
##NPOINTS= 224
##XYDATA=(XY..XY) 1 
    15          4
    27         46
    29         85
    31         14
    39        104
    40         25
    41        311
    42         30
    43        999
    44         24
    45         40
    50          5
    51         49
    52         40
    53        182
    54         43
    55        336
    56         21
    57        125
    58        116
    59         38
    63         19
    64         12
    65        118
    66         34
    67        242
    68         91
    69        122
    70         13
    71        191
    72         29
    76          8
    77        347
    78         95
    79        548
    80        105
    81        234
    82         40
    83         71
    84         13
    85         38
    86          5
    87          3
    89         20
    90         27
    91        517
    92         77
    93        312
    94        111
    95        205
    96         28
    97         34
    98         21
    99         15
   100          9
   101          6
   102         11
   103         63
   104         33
   105        312
   106        171
   107        589
   108        354
   109        492
   110         54
   111         83
   112         21
   113          7
   114          5
   115        133
   116         39
   117        125
   118         43
   119        286
   120        125
   121        410
   122        187
   123         80
   124         27
   125         39
   126          7
   127         48
   128         94
   129        124
   130         43
   131        158
   132         63
   133        201
   134        224
   135        211
   136        114
   137        194
   138        128
   139         30
   140          5
   141         62
   142         46
   143        115
   144         76
   145        190
   146        113
   147        288
   148         68
   149         52
   150         30
   151         26
   152         23
   153         29
   154         17
   155         51
   156         27
   157        295
   158        124
   159        272
   160         94
   161         86
   162         71
   163         57
   164         36
   165         70
   166         24
   167         21
   168         17
   169         41
   170         45
   171        224
   172        170
   173        117
   174         54
   175         31
   176         13
   177         51
   178         20
   179         22
   180          7
   181         36
   182         19
   183         62
   184         40
   185         86
   186        112
   187         36
   188         26
   189         28
   190         29
   191         25
   192          6
   193         10
   194          8
   195         54
   196         29
   197        127
   198         57
   199        176
   200         39
   201         29
   202         16
   203         19
   204          9
   205          7
   206          6
   207         22
   208          7
   209         79
   210         43
   211         71
   212         82
   213         80
   214         79
   215         27
   216          5
   217         13
   221          9
   222         65
   223         85
   224         43
   225        219
   226         83
   227        117
   228         36
   229         26
   230          7
   231         11
   237         33
   238         38
   239         33
   240        105
   241         68
   242         41
   243         95
   244         41
   245         26
   246          5
   247          5
   251         12
   252         16
   253         36
   254         15
   255         36
   256         50
   257         13
   258         93
   259         25
   263         11
   265        150
   266         29
   267          9
   269          4
   270         24
   271          9
   272          6
   273          5
   280         22
   282          4
   283        146
   284         29
   285          6
   287          4
   298         97
   299         19
   300          2
   301         10
   316         25
   317          9