##TITLE=Library Entry 78890
##JCAMP-DX=Revision 4.10 
##DATA TYPE=MASS SPECTRUM
##SAMPLE DESCRIPTION=Exported from NIST MS Search
##NAMES=HP
##CAS NAME=2-Cyclohexen-1-ol, benzoate
##MOLFORM=C13H14O2
##CAS REGISTRY NO=3352-93-0
##MP= -300
##BP= -300
##MW= 202
##$RETENTION INDEX=0
##$CONDENSED SPECTRUM=NO
##NPOINTS= 19
##XYDATA=(XY..XY) 1 
    39        190
    40        100
    41        230
    51        240
    52         70
    53        180
    77        540
    78         40
    79        520
    80        240
    81        400
    91         40
    97        150
   105        999
   106         90
   157         30
   158         20
   202         90
   203         13