##TITLE=Library Entry 80131
##JCAMP-DX=Revision 4.10 
##DATA TYPE=MASS SPECTRUM
##SAMPLE DESCRIPTION=Asinex Ltd, Moscow, Russia
##NAMES=HP
##CAS NAME=Cyclopropane-1,1-dicarboxylic acid, 2-benzoyl-2-ethyl-3-(4-nitrop
henyl)-, dimethyl ester
##MOLFORM=C22H21NO7
##CAS REGISTRY NO=335211-15-9
##MP= -300
##BP= -300
##MW= 411
##$RETENTION INDEX=0
##$CONDENSED SPECTRUM=NO
##NPOINTS= 230
##XYDATA=(XY..XY) 1 
    33          4
    38          3
    39         41
    40         16
    41         21
    42          6
    43         18
    44         12
    45         15
    46          3
    50         41
    51        161
    52         17
    53         19
    54          3
    55          7
    56          2
    57         30
    59        264
    60         19
    62         12
    63         39
    64          8
    65         19
    66          4
    67          5
    68          4
    69         13
    70          5
    71          2
    74         13
    75         33
    77        960
    78         74
    79         10
    80          3
    81          6
    82          2
    83          3
    84          1
    85          1
    86          3
    87          8
    88         10
    89         33
    90         13
    91         38
    92         10
    93          2
    94          2
    97          1
    98          1
    99          2
   100          5
   101         22
   102         21
   103         21
   105        999
   106         68
   107          7
   108          8
   109          1
   110          3
   111          2
   112          2
   113         14
   114         19
   115        110
   116         20
   117         19
   118          6
   119          8
   120         20
   121          5
   122          1
   125          2
   126         13
   127         33
   128         54
   129         38
   130         11
   131         18
   132          3
   133          2
   134          2
   135          1
   136          4
   137          4
   138          2
   139         34
   140         20
   141         72
   142         27
   143         11
   144          7
   145         16
   146         10
   147          3
   148          1
   149          2
   150         79
   151         10
   152          7
   153          5
   154          4
   155         13
   156          7
   157         13
   158          7
   159          3
   160          6
   161          1
   163          3
   164          2
   165          9
   166         28
   167          8
   168         14
   169         13
   170          7
   171          9
   172         12
   173          6
   174          7
   175          3
   176          6
   177          3
   178          4
   179          1
   183          2
   184          4
   185         11
   186          9
   187         13
   188          7
   189         14
   190          7
   191          5
   192          1
   195          1
   196          7
   197          7
   198          3
   199          6
   200         10
   201          7
   202         35
   203         23
   204         11
   205          5
   206          3
   212          2
   213         14
   214          9
   215         16
   216          9
   217         12
   218         20
   219          7
   220          1
   226          2
   227          3
   228          9
   229          8
   230          9
   231         13
   232          8
   233          4
   234          6
   235          2
   242         18
   243          7
   244          5
   245         13
   246         16
   247         28
   248          7
   249          2
   250          1
   257          1
   258          3
   259          7
   260         23
   261          8
   262         16
   263         11
   264         11
   265          3
   266          1
   273          3
   274          7
   275          5
   276          4
   277         32
   278         21
   279         11
   280          6
   290          8
   291          6
   292         22
   293         43
   294         10
   295          1
   296          5
   302          1
   304          5
   306         31
   307          5
   308          2
   318          2
   320         47
   321         10
   322          2
   324          1
   336          8
   337          1
   338          1
   346          1
   347          5
   348          7
   349         10
   350         12
   351         34
   352        286
   353         60
   354         10
   380          6
   381          1
   411         10
   412          1