##TITLE=Library Entry 40689
##JCAMP-DX=Revision 4.10 
##DATA TYPE=MASS SPECTRUM
##SAMPLE DESCRIPTION=LAC, NIDDK, NIH, Bethesda, MD 20892
##NAMES=HP
##CAS NAME=d-Gala-l-ido-octonic amide
##MOLFORM=C8H17NO8
##CAS REGISTRY NO=33535-07-8
##MP= -300
##BP= -300
##MW= 255
##$RETENTION INDEX=0
##$CONDENSED SPECTRUM=NO
##NPOINTS= 121
##XYDATA=(XY..XY) 1 
    41        146
    42        232
    43        528
    44        562
    45        226
    46         20
    47         43
    48         13
    49         11
    50         19
    51          6
    52         25
    53         70
    54         47
    55        329
    56        128
    57        198
    58         62
    59         37
    60        281
    61        423
    62         21
    63         11
    64          8
    65         30
    66         26
    67         29
    68         56
    69        117
    70         47
    71        171
    72         55
    73        999
    74        110
    75        153
    76         62
    77         23
    78         16
    79         22
    80         41
    81         56
    82         28
    83         60
    84         21
    85        195
    86         92
    87         84
    88         40
    89         31
    91         44
    92         14
    93         50
    94         28
    95         61
    96         43
    97        136
    98         44
    99         40
   100         50
   101         39
   102         18
   103         87
   104         29
   105         20
   106         24
   107         11
   108         17
   109         20
   110         21
   111         59
   112        161
   113         40
   114         21
   115         36
   116         13
   117         18
   118          8
   119         12
   120          4
   121         12
   122         19
   123         35
   124         33
   125         40
   126         17
   127         65
   128         15
   129         11
   130         14
   131         35
   132         11
   133         19
   134         30
   137         11
   139         21
   140         42
   141         60
   142        104
   143         53
   144          8
   145         16
   146         25
   147         11
   148         11
   149         10
   153          9
   159         34
   160         28
   161         20
   163          9
   166          4
   172          8
   175         13
   176          4
   177         12
   183          8
   189         25
   193          4
   206          8
   224          9
   225          4