##TITLE=Library Entry 90301
##JCAMP-DX=Revision 4.10 
##DATA TYPE=MASS SPECTRUM
##SAMPLE DESCRIPTION=RADIAN CORP
##NAMES=HP
##CAS NAME=Silane, 1,2-ethanediylbis[dichloromethyl-
##MOLFORM=C4H10Cl4Si2
##CAS REGISTRY NO=3353-69-3
##MP= -300
##BP= -300
##MW= 254
##$RETENTION INDEX=0
##$CONDENSED SPECTRUM=NO
##NPOINTS= 124
##XYDATA=(XY..XY) 1 
    15          7
    26          3
    27         13
    29          7
    35          1
    39         12
    41         13
    42         23
    43         65
    44          6
    45          9
    47          2
    49          1
    53         21
    54          4
    55         13
    56          2
    58          2
    59         13
    63        475
    64         33
    65        187
    66         17
    67         14
    69          4
    70          3
    71          8
    75          1
    76          9
    77         53
    78        490
    79        226
    80        188
    81         76
    82         10
    83          3
    85         10
    88          3
    89          5
    90         12
    91         28
    92         16
    93         37
    94          7
    95         11
    98         90
    99         50
   100         64
   101         33
   102         15
   103         20
   104          1
   105         77
   106        935
   107        128
   108        372
   109         55
   110         17
   111         10
   112         13
   113        999
   114         67
   115        667
   116         50
   117        110
   118          7
   119          5
   123          5
   125        117
   126         28
   127         79
   128         17
   129         15
   130          3
   133          5
   135          5
   137          3
   139          4
   141         64
   142          5
   143         42
   144          4
   145          8
   156          3
   157         13
   158          2
   159         10
   161          2
   172          9
   174          6
   175          1
   176          3
   178          1
   185          3
   187          2
   190          2
   191          2
   192          3
   193          1
   207          2
   209          2
   211          6
   213          5
   215          2
   218          4
   219         24
   220          7
   221         27
   222          5
   223         10
   235          2
   237          2
   239        135
   240         10
   241        181
   242         20
   243         85
   244         11
   245         23
   246          2
   247          1
   254          6
   256          8
   258          4