##TITLE=Library Entry 68799
##JCAMP-DX=Revision 4.10 
##DATA TYPE=MASS SPECTRUM
##SAMPLE DESCRIPTION=D.F.ZINKEL US FOREST PRODUCTS LAB., MADISON, WISCONSIN,
 USA
##NAMES=HP
##CAS NAME=1H-Cyclohepta[a]naphthalene-4-carboxylic acid, tetradecahydro-4,8
,9,11b-tetramethyl-, methyl ester
##MOLFORM=C21H36O2
##CAS REGISTRY NO=33536-88-8
##MP= -300
##BP= -300
##MW= 320
##$RETENTION INDEX=0
##$CONDENSED SPECTRUM=NO
##NPOINTS= 141
##XYDATA=(XY..XY) 1 
    77        270
    78         70
    79        560
    80        160
    81        930
    82        380
    83        310
    84         40
    85         40
    87         20
    88        150
    89         10
    91        400
    92         90
    93        550
    94        180
    95        999
    96        240
    97        330
    98         30
    99         20
   100         10
   101        860
   102         60
   103         30
   104         20
   105        260
   106         70
   107        550
   108        240
   109        960
   110        120
   111        180
   112         20
   113         20
   114         40
   115         40
   116         20
   117         60
   119        130
   120         50
   121        550
   122        260
   123        960
   124        160
   125        240
   126         30
   127         50
   128         20
   129         20
   130         10
   131         40
   132         10
   133        950
   134         30
   135        260
   136        150
   137        290
   138         50
   139         20
   141         20
   143         10
   145         30
   146         10
   147         90
   148         30
   149        180
   150        110
   151        180
   152         30
   153         20
   155         20
   157         10
   159         20
   160         10
   161         60
   162        780
   163        999
   164        580
   165        130
   166         20
   167         30
   168         20
   169         10
   173         20
   175         30
   176         10
   177         70
   178         20
   179        240
   180         40
   181         30
   182         20
   183         20
   187         20
   189         40
   190         20
   191        260
   192         80
   193         20
   195         10
   196         20
   197         10
   203         30
   204         10
   205         50
   206         10
   217         20
   218         10
   220         20
   221         10
   229         20
   231         10
   232         10
   233         10
   236        110
   237         20
   243         30
   245        100
   246         20
   249        190
   250         40
   258         10
   259         40
   260        150
   261        590
   262        110
   263        380
   264         80
   265         10
   288         20
   289         60
   290         10
   291         10
   303         30
   304         10
   305         40
   306         10
   320        800
   321        180
   322         30