##TITLE=Library Entry 54450
##JCAMP-DX=Revision 4.10 
##DATA TYPE=MASS SPECTRUM
##SAMPLE DESCRIPTION=A.A.Kutin, Moscow, Russia
##NAMES=HP
##CAS NAME=3H-1,2-Dithiole-4-carboxylic acid, 5-amino-3-thioxo-, ethyl ester
##MOLFORM=C6H7NO2S3
##CAS REGISTRY NO=3354-38-9
##MP= -300
##BP= -300
##MW= 221
##$RETENTION INDEX=0
##$CONDENSED SPECTRUM=NO
##NPOINTS= 172
##XYDATA=(XY..XY) 1 
    33         13
    34         12
    35          2
    36          5
    37          1
    38         11
    39         12
    40         41
    41         16
    42         14
    43         33
    44        110
    45        139
    46         20
    47         15
    48          4
    49          1
    50          4
    51          9
    52         20
    53          7
    54          2
    55          7
    56         46
    57        231
    58         51
    59         35
    60        176
    61         10
    62          9
    64         83
    65         12
    66         16
    68        160
    69         27
    70         17
    71         26
    72        131
    73         19
    74         11
    76         43
    77         13
    78          7
    79          3
    80          3
    82         39
    83        167
    84        999
    85        184
    86         54
    87         12
    88         61
    89         21
    90         15
    91         28
    92         22
    93          7
    94          4
    95          3
    96          9
    97          3
    98          2
    99          9
   100         42
   101         26
   102         34
   103          4
   104          5
   105          6
   106          2
   107          1
   108          6
   109          7
   110         48
   111         13
   112         14
   113          4
   114          2
   115          3
   116         15
   117         31
   118          4
   119          3
   120          2
   121          3
   122          2
   123          1
   124          3
   125          0
   126          2
   128        162
   129         12
   130          9
   131          2
   132          6
   133          6
   134          5
   135          2
   136          3
   137          2
   138          2
   139          1
   140          0
   142          1
   143          2
   144          7
   145          2
   146          3
   147         12
   149        612
   150         43
   151         82
   152          5
   153          4
   154          0
   155          1
   156         14
   157          2
   158          1
   159          3
   160         31
   161          3
   162          6
   163          3
   164          2
   165          2
   166          0
   171          1
   172          0
   173          1
   175         37
   176         41
   177        192
   178         22
   179         25
   180          2
   181          1
   182          0
   183          0
   185          0
   186          1
   187          0
   188          4
   189          2
   190          1
   192         18
   193         20
   194          4
   195          3
   196          0
   199          0
   200          1
   203          0
   204          3
   205          2
   206          0
   207          1
   209          0
   213          0
   215          6
   216          6
   217          2
   218          5
   219         16
   221        651
   222         61
   223         89
   224          8
   225          5
   226          2
   227          0
   228          0