##TITLE=Library Entry 30715
##JCAMP-DX=Revision 4.10 
##DATA TYPE=MASS SPECTRUM
##SAMPLE DESCRIPTION=Asinex Ltd, Moscow, Russia
##NAMES=HP
##CAS NAME=Acetic acid, 2-(2-methoxycarbonylamino-5-nitrophenylthio)-, methy
l ester
##MOLFORM=C11H12N2O6S
##CAS REGISTRY NO=335434-41-8
##MP= -300
##BP= -300
##MW= 300
##$RETENTION INDEX=0
##$CONDENSED SPECTRUM=NO
##NPOINTS= 207
##XYDATA=(XY..XY) 1 
    33         24
    34          7
    35          1
    36          2
    37          9
    38         36
    39         83
    40         58
    41         26
    42        172
    43        165
    44         75
    45        361
    46         47
    47         38
    48          6
    50         47
    51        147
    52         99
    53         29
    54         14
    55         10
    56          4
    57         33
    58         36
    59        999
    61         74
    62         58
    63        140
    64         54
    65         73
    66         39
    67         13
    68          9
    69        118
    70         47
    71         22
    72          7
    73          7
    74         38
    75         82
    76         44
    77         73
    78        208
    79         59
    80         33
    81         16
    82         35
    83         24
    84         19
    85          9
    86          6
    87          5
    88         20
    89         29
    90         36
    91         73
    92         44
    93         73
    94         58
    95        172
    96         46
    97         32
    98          7
    99          4
   100          1
   101          1
   102          8
   103         56
   104         42
   105         27
   106         63
   107         28
   108         72
   109         97
   110         40
   111         19
   112          5
   113          1
   116          5
   117         24
   118         10
   119         15
   120         58
   121         96
   122        108
   123         68
   124         28
   125         12
   126          3
   127          1
   128          0
   130          0
   131          6
   132          3
   133         16
   134         68
   135        612
   136        358
   137        131
   138         50
   139         12
   140          3
   141          0
   142          0
   144          0
   145          6
   146          6
   147          6
   148         27
   149        134
   150        130
   151         73
   152         45
   153         13
   154          5
   155          1
   159          0
   160          1
   161          6
   162         25
   163         83
   164         49
   165         98
   166        222
   167         44
   168         16
   169         11
   170          1
   171          1
   175          0
   176          2
   177         15
   178         70
   179         54
   180         53
   181        418
   182        103
   183         34
   184          6
   185          1
   188          0
   189          0
   190          2
   191         35
   192         85
   193         93
   194         41
   195        223
   196         70
   197         20
   198          3
   204          1
   205          2
   206          3
   207         21
   208         15
   209        781
   210         88
   211         80
   212         10
   213          4
   219          1
   220          0
   221          3
   222          4
   223        203
   224        127
   225         71
   226         40
   227         11
   228          7
   229          0
   235          1
   236         10
   237          3
   238          7
   239         12
   240         38
   241         76
   242         12
   243         15
   244          1
   251          3
   252         25
   253          6
   254          2
   255          0
   257          0
   262          0
   264          0
   266          0
   268        754
   269        133
   270         55
   271          8
   272          0
   281          0
   283          8
   284          6
   285          1
   286          0
   298          0
   300        342
   301         49
   302         23
   303          1