##TITLE=Library Entry 58863
##JCAMP-DX=Revision 4.10 
##DATA TYPE=MASS SPECTRUM
##SAMPLE DESCRIPTION=Asinex Ltd, Moscow, Russia
##NAMES=HP
##CAS NAME=2H-1,4-Benzothiazin-3(4H)-one, 7-nitro-2-phenyl-, 1,1-dioxide
##MOLFORM=C14H10N2O5S
##CAS REGISTRY NO=335434-47-4
##MP= -300
##BP= -300
##MW= 318
##$RETENTION INDEX=0
##$CONDENSED SPECTRUM=NO
##NPOINTS= 124
##XYDATA=(XY..XY) 1 
    33        130
    38         55
    39        239
    40        228
    41         64
    42         30
    43        105
    44        146
    45        162
    50         69
    51        210
    52        111
    53         37
    54          7
    55         41
    56         27
    57         18
    58         27
    59          5
    62        167
    63        495
    64        214
    65         89
    66         18
    69         32
    70         25
    71          5
    73          9
    74         32
    75         72
    76        110
    77        307
    78        141
    79        113
    80         30
    82         20
    83         50
    84         11
    87         18
    88          9
    89        770
    90        999
    91        516
    92         45
    93          6
    94          4
    95         34
   101          8
   102         68
   103        136
   104        139
   105        363
   106         87
   107        885
   108         69
   109         37
   110         21
   111          5
   115         57
   116         18
   117         24
   118        244
   119         36
   120          9
   121         19
   123         14
   126         29
   127         30
   128         29
   129         13
   131          6
   138          9
   139         43
   140         17
   141          4
   142          5
   143          6
   149         11
   150         50
   151        108
   152        263
   153        140
   154         33
   163         30
   164         35
   165        106
   166         51
   167        145
   168         54
   169          7
   170         23
   171          5
   177         28
   178        193
   179        989
   180        368
   181         75
   182          7
   183          5
   195         59
   196         28
   197         11
   198          5
   206         17
   207        183
   208        625
   209        121
   211         24
   212        148
   213          6
   225        565
   226         84
   237        147
   238          7
   251         14
   254        361
   255         50
   256          3
   288         33
   289         59
   302         15
   318        470
   319         75
   320         16