##TITLE=Library Entry 86436
##JCAMP-DX=Revision 4.10 
##DATA TYPE=MASS SPECTRUM
##SAMPLE DESCRIPTION=A.A.Kutin, Moscow, Russia
##NAMES=HP
##CAS NAME=Tetrazole, 5-(2-fluorobenzylthio)-1-(3,4-methylenedioxyphenyl)-
##MOLFORM=C15H11FN4O2S
##CAS REGISTRY NO=335402-63-6
##MP= -300
##BP= -300
##MW= 330
##$RETENTION INDEX=0
##$CONDENSED SPECTRUM=NO
##NPOINTS= 185
##XYDATA=(XY..XY) 1 
    33          3
    34          1
    36          0
    37          6
    38         17
    39         51
    40          7
    41          2
    42          3
    43          1
    44          6
    45        270
    47         26
    48          0
    49          2
    50         42
    51         88
    52         24
    53         73
    54         12
    55          5
    56          3
    57         43
    59         23
    61         12
    62         52
    63        127
    64         20
    65         98
    66          8
    67          3
    68          8
    69         15
    70         11
    71          5
    72          1
    73          0
    74          5
    75         18
    76         42
    77        136
    78         22
    79         33
    80         15
    81         25
    82         10
    83        177
    84         10
    85          2
    86          2
    87          4
    88          5
    89         33
    90          8
    91         22
    92          4
    93         10
    94          7
    95         20
    96         14
    97         19
    98          3
    99          0
   100          0
   101          1
   102          2
   103         67
   104         20
   105         55
   106         13
   107         48
   108         19
   109        999
   110         82
   111          4
   112          1
   113          0
   114          0
   115          1
   116          0
   117          4
   118          1
   119          2
   120          4
   121        123
   122         13
   123          5
   124          1
   125          0
   126          1
   128          3
   129          0
   131         16
   132          3
   133          4
   134          2
   135         46
   136         11
   137          3
   138          1
   139         36
   140         12
   141        669
   142         62
   143         33
   144          2
   146        120
   147        116
   148         13
   149          9
   150          1
   151          0
   152          1
   153          4
   154          1
   155          0
   157          0
   158          0
   159          0
   160          6
   161        493
   162        198
   163         22
   164          5
   165          1
   166          2
   167         21
   168          2
   169          1
   170          1
   171          1
   172          0
   173          0
   175        145
   176         16
   177          1
   178         14
   179         41
   180          5
   181          2
   182          0
   183          0
   184          0
   185          0
   186          0
   192          2
   193         29
   194          5
   195          1
   196          0
   198          0
   199          0
   207          0
   210          0
   211          0
   222          4
   223          0
   224          0
   229          1
   230          2
   239          0
   242          0
   243          2
   244          1
   245          0
   255          0
   256         10
   257          1
   261          0
   268          0
   269          3
   270          1
   271          1
   272          1
   281          0
   282          0
   283          0
   302        215
   303         37
   304         13
   305          1
   330         10
   331          1
   332          0
   333          0