##TITLE=Library Entry 72910
##JCAMP-DX=Revision 4.10 
##DATA TYPE=MASS SPECTRUM
##SAMPLE DESCRIPTION=Chemical Concepts
##NAMES=HP
##CAS NAME=2(5H)-Thiophenone
##MOLFORM=C4H4OS
##CAS REGISTRY NO=3354-32-3
##MP= -300
##BP= -300
##MW= 100
##$RETENTION INDEX=0
##$CONDENSED SPECTRUM=NO
##NPOINTS= 33
##XYDATA=(XY..XY) 1 
    26         35
    27         48
    29         21
    34         37
    36         24
    37         32
    38         76
    39        285
    40         35
    41         61
    42         27
    43         68
    44        448
    45        200
    46        128
    53         20
    54         26
    55        203
    56         23
    57         81
    60         67
    64         31
    67         21
    68         27
    69         50
    70         23
    71        274
    72        374
    73         32
    74         22
   100        999
   101         54
   102         48