##TITLE=Library Entry 10185
##JCAMP-DX=Revision 4.10 
##DATA TYPE=MASS SPECTRUM
##SAMPLE DESCRIPTION=Chemical Concepts
##NAMES=HP
##CAS NAME=4-Hydroxy-3-(4-hydroxy-3-nitrocinnamoyl)-6-methyl-2H-pyran-2-one
##MOLFORM=C15H11NO7
##CAS REGISTRY NO=335590-57-3
##MP= -300
##BP= -300
##MW= 317
##$RETENTION INDEX=0
##$CONDENSED SPECTRUM=NO
##NPOINTS= 170
##XYDATA=(XY..XY) 1 
    33         20
    34          8
    37         30
    38         79
    39        327
    40        117
    41        132
    43        999
    44         75
    45         20
    46         12
    47          9
    49         15
    50         92
    51        242
    52        146
    53        159
    55        126
    56         23
    57         23
    58         10
    59         10
    60         28
    62         90
    63        366
    64         60
    65         71
    67         72
    69        372
    71         21
    73         14
    74         30
    75         88
    76         63
    77        143
    79        146
    80         13
    81         10
    82         12
    83         16
    85        367
    86         26
    87         44
    89        409
    90         84
    91         41
    92         30
    93         15
    94          6
    95          8
    96          7
    97          8
    98         28
    99         11
   101         43
   102        114
   103         45
   104         20
   105         35
   106         15
   107         11
   108          9
   109          9
   110          9
   111         14
   112         16
   113         14
   115         56
   116         40
   118        315
   119         45
   121         26
   122          9
   123         13
   125        114
   126         20
   127         16
   128         12
   129         26
   130         37
   131         50
   132         23
   133         14
   134         14
   135         30
   136          6
   140          7
   142         35
   144         64
   146        280
   147         83
   148         22
   149          9
   150          9
   152         28
   153        106
   154          9
   156          7
   157         19
   158         29
   159         45
   160         13
   161         15
   162          7
   164         78
   165         43
   166         33
   167         14
   168         14
   169          7
   170          9
   171         26
   172         29
   173         31
   175         34
   176         11
   179        268
   180         21
   181          6
   184          8
   185         14
   186         64
   187         56
   189         12
   192        389
   193         35
   197          6
   198          9
   199         10
   200         13
   201         10
   203         22
   204          6
   205         19
   211          6
   212          8
   213          9
   214          8
   215         19
   216         10
   225          8
   226          8
   227         11
   228          9
   229         15
   230          7
   231          7
   232         11
   241         12
   242         13
   243          9
   246          9
   254          9
   257         15
   260          7
   269         21
   270         22
   271         22
   272         10
   274         13
   282          9
   288          9
   299        110
   300         31
   301          7
   314         11
   316        192
   317        376
   318         66
   319         11