##TITLE=Library Entry 35406
##JCAMP-DX=Revision 4.10 
##DATA TYPE=MASS SPECTRUM
##SAMPLE DESCRIPTION=Exported from NIST MS Search
##NAMES=HP
##CAS NAME=2,6,10,14,18,22,26,30-Dotriacontaoctaen-1-ol, 3,7,11,15,19,23,27,
31-octamethyl-, (all-E)-
##MOLFORM=C40H66O
##CAS REGISTRY NO=33569-79-8
##MP= -300
##BP= -300
##MW= 562
##$RETENTION INDEX=0
##$CONDENSED SPECTRUM=NO
##NPOINTS= 137
##XYDATA=(XY..XY) 1 
    39         28
    40         15
    41        230
    42         17
    43         95
    44         13
    51          4
    53         47
    54         13
    55        317
    56         19
    57         63
    65         15
    66          8
    67         13
    68         17
    69        999
    70         65
    71         34
    77         30
    78          6
    79         86
    80         43
    81        673
    82         76
    83         71
    84         17
    85         15
    91         56
    92         28
    93        282
    94         78
    95        260
    96         30
    97         50
    98         13
    99          2
   107         73
   108         19
   109        189
   110         58
   111        186
   112         17
   113         32
   114          6
   117          6
   119        119
   120         47
   121         15
   122         63
   123        147
   124         17
   125         13
   131          8
   132         13
   133         91
   134        150
   135        297
   136        104
   137        169
   138         17
   139          6
   144          4
   145         30
   146         17
   147         84
   148         50
   149          4
   150         17
   151         17
   152          4
   157          4
   159         41
   160         15
   161        126
   162         23
   163         50
   164          4
   165          4
   171          4
   173         21
   174          4
   175         39
   176         10
   177         39
   178          6
   179          6
   185          4
   187         34
   188         10
   189         65
   190         26
   191         39
   192          4
   193          2
   199          4
   201         32
   202         32
   203         80
   204         45
   205         23
   215         17
   216          8
   217         17
   228          4
   229         17
   255          8
   256          6
   257         21
   258         13
   259         15
   260          6
   269          8
   270         12
   271         34
   272         23
   273         14
   325          8
   326          7
   327          8
   339         23
   340         16
   341          8
   394          6
   395          6
   407         18
   408         13
   409          6
   475         11
   476          8
   543          6
   544         65
   545         30
   546          8
   560          6
   562         13
   563          6