##TITLE=Library Entry 77056
##JCAMP-DX=Revision 4.10 
##DATA TYPE=MASS SPECTRUM
##SAMPLE DESCRIPTION=Chemical Concepts
##NAMES=HP
##CAS NAME=2-Methylenetricyclo[4.3.1.0(3,8)]dec-4-ene
##MOLFORM=C11H14
##CAS REGISTRY NO=33566-64-2
##MP= -300
##BP= -300
##MW= 146
##$RETENTION INDEX=0
##$CONDENSED SPECTRUM=NO
##NPOINTS= 90
##XYDATA=(XY..XY) 1 
    26          7
    27        112
    28         11
    29         14
    37          3
    38         17
    39        238
    40         34
    41        120
    42          6
    43          1
    44          0
    49          1
    50         42
    51        145
    52         62
    53        103
    54         13
    55         45
    56          2
    57          3
    58         14
    59          2
    61          3
    62         15
    63         64
    64         30
    65        140
    66         40
    67         65
    68         55
    69          4
    70          3
    71         13
    72          3
    73          0
    74         12
    75         14
    76         12
    77        363
    78        168
    79        393
    80         68
    81         11
    82          0
    85          0
    86          2
    87          4
    88          1
    89         24
    90         13
    91        930
    92        561
    93         49
    94          3
   101          4
   102         17
   103        121
   104        999
   105        654
   106         51
   107          2
   113          1
   114          2
   115         97
   116         53
   117        391
   118        192
   119         22
   120          1
   126          1
   127         14
   128         39
   129         46
   130         21
   131        376
   132         37
   133          2
   137          0
   139          1
   140          0
   141          5
   142          1
   143          5
   144          2
   145         48
   146        477
   147         54
   148          3
   149          0