##TITLE=Library Entry 49504
##JCAMP-DX=Revision 4.10 
##DATA TYPE=MASS SPECTRUM
##SAMPLE DESCRIPTION=F. TURECEK,HEYROVSKY INST PHYS CHEM & ELECTROCHEM,PRAGU
E,CZECH
##NAMES=HP
##CAS NAME=trans-5-Hydroxytricyclo[4.4.0.0(3,8)]-4-carboxylic acid
##MOLFORM=C11H16O3
##CAS REGISTRY NO=33569-84-5
##MP= -300
##BP= -300
##MW= 196
##$RETENTION INDEX=0
##$CONDENSED SPECTRUM=NO
##NPOINTS= 84
##XYDATA=(XY..XY) 1 
    27        230
    29        180
    31         40
    39        310
    40         60
    41        410
    42         40
    43        140
    44        100
    45         40
    50         40
    51        110
    52         50
    53        160
    54        100
    55        210
    56         50
    57        150
    60         60
    64         10
    65        130
    66        160
    67        370
    68        110
    69         70
    70         40
    71         40
    72         10
    73         40
    77        310
    78        170
    79        710
    80        999
    81        250
    82         50
    83         50
    84         10
    85         40
    87         30
    89         60
    91        520
    92        240
    93        420
    94         90
    95        160
    96        110
    97         40
    99         50
   100         20
   103         20
   104         70
   105        130
   106         70
   107        110
   108        270
   109        160
   110         30
   111         70
   115         30
   116         10
   117         90
   118         90
   119        100
   120         30
   121         60
   122         40
   123         30
   124         10
   131         40
   132         90
   133        170
   134         60
   135         40
   136         70
   137         40
   149        190
   150        440
   151         50
   160         60
   168        290
   169         40
   178        190
   179         30
   196         15