##TITLE=Library Entry 24018
##JCAMP-DX=Revision 4.10 
##DATA TYPE=MASS SPECTRUM
##SAMPLE DESCRIPTION=V.Zaikin,Topchiev Inst.Petrochem.Synth.,Moscow
##NAMES=HP
##CAS NAME=Trichloroacetic acid 2-methylpropyl ester
##MOLFORM=C6H9Cl3O2
##CAS REGISTRY NO=33560-15-5
##MP= -300
##BP= -300
##MW= 218
##$RETENTION INDEX=1106
##$CONDENSED SPECTRUM=NO
##NPOINTS= 107
##XYDATA=(XY..XY) 1 
    25          1
    26         12
    27         99
    28         12
    29        300
    30          7
    31          9
    33          1
    35         10
    36         50
    37          3
    38         17
    39        105
    40         19
    41        583
    42         71
    43        650
    44          6
    45          2
    47         30
    48          5
    49         13
    50          6
    51          8
    52         10
    53         10
    54          3
    55        124
    56        401
    57        999
    58         41
    59          3
    61          2
    63          7
    65          2
    71          1
    72          3
    73         29
    74          2
    75          3
    76          7
    77          3
    78          3
    79         16
    80          2
    82         91
    83         20
    84         56
    85         13
    86         10
    87          2
    89          1
    91         14
    92          6
    93          2
    96          2
    98          1
    99          4
   101          2
   103          2
   104          3
   110        158
   111          9
   112         98
   113          7
   114         16
   115          2
   117        260
   118          3
   119        243
   120          3
   121         74
   122          2
   123          8
   127         23
   128          2
   129         15
   130          2
   131          3
   140          4
   141         11
   142         11
   143          8
   144          5
   145         10
   146         12
   147         12
   148         11
   149          6
   150          4
   151          1
   163          2
   165          2
   175          3
   176         60
   177         13
   178         57
   179         11
   180         18
   181          3
   182          2
   183         11
   185          7
   187          1
   203          2
   205          2
   207          1