##TITLE=Library Entry 71566
##JCAMP-DX=Revision 4.10 
##DATA TYPE=MASS SPECTRUM
##SAMPLE DESCRIPTION=Institute of Organic Chemistry, Novosibirsk, USSR 1988
##NAMES=HP
##CAS NAME=Methyl 4-oxododecanoate
##MOLFORM=C13H24O3
##CAS REGISTRY NO=33566-59-5
##MP= -300
##BP= -300
##MW= 228
##$RETENTION INDEX=0
##$CONDENSED SPECTRUM=NO
##NPOINTS= 60
##XYDATA=(XY..XY) 1 
    38         18
    41        143
    42         30
    43        303
    44          6
    45         22
    53         16
    54         15
    55        162
    56         39
    57        353
    58          5
    59         59
    67         57
    68         17
    69         19
    70         30
    71        320
    72         15
    75          4
    77          6
    81         85
    82          9
    83         35
    85         13
    87        112
    93        113
    94          7
    95         29
    96         23
    98        999
    99         89
   100         13
   103          6
   109          5
   111        149
   115        438
   116         29
   119          9
   121          7
   122         15
   123         38
   124         25
   130        810
   131         65
   132          7
   135          5
   136          6
   137         11
   140          9
   141        228
   142         28
   143         45
   153          5
   154          6
   179         10
   196          8
   197         72
   198         14
   228         12