##TITLE=Library Entry 14741
##JCAMP-DX=Revision 4.10 
##DATA TYPE=MASS SPECTRUM
##SAMPLE DESCRIPTION=Patti Price, Georgia Bureau of Investigation, Decatur,
 Georgia
##NAMES=HP
##CAS NAME=Diflorasone diacetate
##MOLFORM=C26H32F2O7
##CAS REGISTRY NO=33564-31-7
##MP= -300
##BP= -300
##MW= 494
##$RETENTION INDEX=0
##$CONDENSED SPECTRUM=NO
##NPOINTS= 341
##XYDATA=(XY..XY) 1 
    31          4
    42         12
    43        999
    47          1
    53          2
    59          3
    63          1
    65          6
    66          1
    67         16
    68          1
    69         13
    73         83
    74          1
    75          3
    77         39
    78          7
    79         51
    80          7
    81         32
    82          2
    83         12
    85          5
    86          4
    87          2
    89          1
    90          1
    91        102
    92         11
    93         62
    94          9
    95         52
    96         18
    97         27
    98          4
    99         21
   100          3
   101         94
   102          8
   103         21
   104          3
   105         62
   106         13
   107        105
   108         29
   109        180
   110         35
   111         43
   112          4
   113         12
   114          3
   115         28
   116          3
   117         28
   118          5
   119         31
   120         17
   121        246
   122         42
   123         57
   124         15
   125         62
   126          8
   127         43
   128         24
   129         31
   130         10
   131         37
   132         14
   133        103
   134        221
   135        192
   136         25
   137         47
   138         21
   139        619
   140        161
   141         46
   142         11
   143         20
   144         10
   145         79
   146         36
   147         66
   148         20
   149         35
   150         20
   151         49
   152         36
   153         46
   154          8
   155         19
   156          5
   157         33
   158         23
   159         93
   160         25
   161         54
   162         15
   163         53
   164         10
   165         59
   166         14
   167         21
   168          8
   169         41
   170         16
   171         52
   172         10
   173         33
   174          6
   175         34
   176         16
   177         65
   178         45
   179        130
   180         21
   181         50
   182         13
   183         30
   184          8
   185         41
   186         11
   187         44
   188          8
   189         38
   190          7
   191         21
   192          7
   193         25
   194         15
   195         46
   196         21
   197         55
   198         13
   199         36
   200          7
   201         12
   202          9
   203         23
   204          7
   205         56
   206         20
   207         50
   208         16
   209         36
   210         16
   211         36
   212         12
   213         21
   214          5
   215         12
   216          6
   217         12
   219          2
   220          9
   221        118
   222         31
   223         36
   224         15
   225         29
   226         14
   227         14
   228          6
   229          9
   230          5
   231          8
   232          5
   233         12
   234          8
   235         39
   236         19
   237         28
   238         12
   239         48
   240         12
   241         25
   242          7
   243          7
   244          4
   245         12
   246          7
   247         14
   248          1
   249         19
   250         10
   251         29
   252         11
   253         38
   254         14
   255         19
   256         11
   257         17
   258          8
   259         15
   260         17
   261         10
   262          5
   263         11
   264          5
   265         56
   266         15
   267         17
   268          5
   269          9
   270          4
   271         11
   272          6
   273          6
   274          5
   275         70
   276         19
   277         18
   278         10
   279          8
   280          7
   281          7
   282          4
   283          9
   284          4
   285         13
   286          5
   287          5
   288          3
   289          2
   290          1
   291          7
   292          6
   293        126
   294         45
   295         87
   296         18
   297          8
   298          3
   299          5
   300         31
   301          9
   302          3
   303          3
   304          1
   305          2
   306          2
   307          1
   308          2
   309          4
   310          1
   311         42
   312         14
   313        144
   314         30
   315         25
   316          6
   317          4
   318          1
   319          3
   320          1
   321         13
   322          7
   323          3
   324          1
   325          1
   326          3
   327          1
   328          1
   329          3
   330          2
   331         14
   332          6
   333        715
   334        147
   335         29
   336          5
   337          5
   338          1
   339          8
   340          2
   341          7
   342          2
   343          1
   344          1
   345          1
   346          1
   347          9
   348          1
   349          7
   350          4
   351         48
   352         11
   353          4
   354         15
   355          7
   356          1
   357          2
   358          1
   359          2
   360          1
   361        132
   362         35
   363          4
   364          1
   365          1
   366          1
   367          1
   369          1
   371          1
   372          4
   373          1
   374          2
   375          1
   376          1
   377          2
   379         14
   380          5
   381          2
   386          1
   390          1
   392          8
   393          6
   394          3
   395          1
   396          1
   399          1
   403          1
   410          1
   412          1
   414         24
   415          5
   416          1
   419          1
   421         32
   422          7
   423          1
   431          1
   432          1
   434          3
   435          1
   452          1
   474          3
   475          1
   494          1
   495          1