##TITLE=Library Entry 59697
##JCAMP-DX=Revision 4.10 
##DATA TYPE=MASS SPECTRUM
##SAMPLE DESCRIPTION=K. Kirk, LBC, NIDDK, NIH, Bethesda, MD 20892
##NAMES=HP
##CAS NAME=Benzaldehyde, 4,5-dibenzyloxy-2-chloro-
##MOLFORM=C21H17ClO3
##CAS REGISTRY NO=33584-91-7
##MP= -300
##BP= -300
##MW= 352
##$RETENTION INDEX=0
##$CONDENSED SPECTRUM=NO
##NPOINTS= 112
##XYDATA=(XY..XY) 1 
    41         11
    42          1
    43          3
    44          1
    49          2
    50          9
    51         20
    52          4
    53          2
    55          2
    56          1
    57          3
    60          0
    61          0
    62          5
    63         24
    64          7
    65        121
    66          7
    67          0
    69          2
    70          1
    71          2
    73          2
    74          1
    75          2
    76          1
    77         10
    78          3
    79          7
    80          0
    81          0
    82          0
    83          1
    84          1
    85          3
    86          4
    87          2
    88          1
    89         27
    90         13
    91        999
    92        117
    93          3
    95          0
    97          3
    98          0
    99          3
   101          1
   103          0
   104          0
   105          6
   106          1
   107          2
   108          0
   111          1
   113         10
   114          4
   115          5
   116          2
   119          0
   125          1
   126          1
   127          1
   128          0
   129          0
   135          2
   139          3
   140          0
   141          4
   142          2
   144          0
   149          4
   150          1
   151          0
   152          3
   153          2
   154          0
   155          1
   157          0
   165          2
   166          0
   167          2
   168          1
   169          2
   170          1
   173          0
   178          0
   179          1
   180          3
   181         59
   182          9
   183          4
   184          0
   185          1
   197          0
   211          1
   215          1
   227          1
   232          0
   233          0
   259          2
   260          2
   261         70
   262         11
   263         23
   264          3
   265          0
   352         22
   353          5
   354          8
   355          2