##TITLE=Library Entry 72326
##JCAMP-DX=Revision 4.10 
##DATA TYPE=MASS SPECTRUM
##SAMPLE DESCRIPTION=Exported from NIST MS Search
##NAMES=HP
##CAS NAME=11.beta.,19-Cyclopregn-5-ene-3,20-dione, 11-hydroxy-, cyclic bis(
ethylene acetal)
##MOLFORM=C25H36O5
##CAS REGISTRY NO=33585-92-1
##MP= -300
##BP= -300
##MW= 416
##$RETENTION INDEX=0
##$CONDENSED SPECTRUM=NO
##NPOINTS= 317
##XYDATA=(XY..XY) 1 
    26          5
    27         21
    29         41
    30         10
    31          9
    33          2
    39         17
    40         20
    41         57
    42         26
    43        467
    44        133
    45         60
    46          3
    50          2
    51          7
    52          4
    53         30
    54          4
    55        176
    56         12
    57         11
    58          7
    59         12
    63          4
    64          2
    65         22
    66          6
    67         37
    68          6
    69         27
    70          7
    71         65
    72          5
    73         42
    74          2
    75          2
    76          3
    77         56
    78         17
    79         64
    80         13
    81        109
    82         11
    83         13
    84          6
    85         79
    86         89
    87        576
    88         27
    89         13
    90          4
    91        124
    92         19
    93         50
    94         14
    95         51
    96          8
    97         22
    98          8
    99        999
   100         67
   101         11
   102          7
   103         18
   104         18
   105         61
   106         14
   107         55
   108         13
   109         23
   110          6
   111         24
   112         25
   113         12
   114          4
   115         79
   116         25
   117         77
   118         26
   119         39
   120         19
   121         38
   122         18
   123         31
   124         33
   125         27
   126          6
   127         25
   128         53
   129        145
   130         33
   131         55
   132         20
   133         38
   134         12
   135         30
   136         24
   137         19
   138         10
   139         13
   140          5
   141         36
   142         24
   143         42
   144         32
   145         76
   146         44
   147        139
   148         24
   149         17
   150          5
   151         11
   152         20
   153         27
   154         19
   155         42
   156         17
   157         42
   158         19
   159         34
   160         22
   161         16
   162          7
   163         13
   164         16
   165         32
   166         20
   167         31
   168         25
   169         43
   170         21
   171         41
   172         20
   173         35
   174         11
   175         24
   176          9
   177         16
   178         15
   179         26
   180         34
   181         33
   182         23
   183         50
   184         21
   185         48
   186         17
   187         12
   188         10
   189          9
   190         91
   191         85
   192         25
   193         25
   194         15
   195         30
   196         16
   197         36
   198         15
   199         16
   200          6
   201         18
   202         12
   203         22
   204         31
   205         15
   206          8
   207         38
   208         19
   209         37
   210         22
   211         25
   212          8
   213         11
   214         10
   215         26
   216         24
   217         36
   218         15
   219         12
   220          6
   221         18
   222         14
   223         32
   224         23
   225         74
   226         19
   227         23
   228         14
   229         24
   230         15
   231         10
   232          6
   233          9
   234         10
   235         21
   236          9
   237         17
   238          7
   239         20
   240         11
   241         16
   242          9
   243         11
   244          6
   245          5
   246          6
   247          6
   248          5
   249         22
   250         16
   251         27
   252         25
   253         22
   254          9
   255         19
   256         10
   257          9
   258          5
   259          3
   260          2
   261          3
   262          2
   263          6
   264          4
   265         11
   266          8
   267         41
   268         70
   269        164
   270         50
   271         48
   272         11
   273          5
   274          3
   275          8
   276          3
   277          7
   278          2
   279          6
   280          4
   281         17
   282         13
   283         21
   284         19
   285         12
   286          6
   287          5
   288          4
   289          2
   290          1
   291          7
   292         25
   293         33
   294         14
   295         12
   296         15
   297          9
   298          3
   299          3
   300          3
   301          4
   302          2
   307          5
   308          8
   309         47
   310         38
   311         35
   312         27
   313         15
   314         19
   315          3
   321          7
   322          2
   323          2
   324          2
   325          8
   326          9
   327         25
   328         20
   329         15
   330          4
   336         12
   337          9
   338          4
   339         21
   340          6
   341          2
   342          2
   343          2
   344          2
   350          3
   351          2
   352         25
   353         31
   354        242
   355         61
   356         19
   357          9
   358          5
   359          2
   370          5
   371          5
   372         79
   373         22
   374          6
   383          7
   384          2
   396          5
   397          5
   398         47
   399         14
   400          4
   401          4
   416         11
   417          3