##TITLE=Library Entry 76440
##JCAMP-DX=Revision 4.10 
##DATA TYPE=MASS SPECTRUM
##SAMPLE DESCRIPTION=D.HENNEBERG, MAX-PLANCK INSTITUTE, MULHEIM, WEST GERMAN
Y
##NAMES=HP
##CAS NAME=1,2,4-Butanetriol, 3TMS derivative
##MOLFORM=C13H34O3Si3
##CAS REGISTRY NO=33581-75-8
##MP= -300
##BP= -300
##MW= 322
##$RETENTION INDEX=1354
##$CONDENSED SPECTRUM=NO
##NPOINTS= 125
##XYDATA=(XY..XY) 1 
    25          0
    26          1
    27         16
    28          7
    29         12
    30          6
    31          2
    33          1
    34          1
    39          6
    40          4
    41         48
    42          5
    43         18
    44          7
    45         79
    47         20
    48          2
    49          5
    51          3
    52         17
    55          6
    56         11
    57          1
    58         10
    59         40
    60         11
    61          7
    62          1
    65          1
    66          8
    67          3
    69          8
    71         14
    72         20
    73        689
    74         57
    75         67
    76          6
    80          4
    81          5
    84          2
    88          2
    89          7
    91          4
    92          1
    95          3
    96          8
    99          4
   100          3
   101         11
   102          7
   103        999
   104        100
   105         39
   111          3
   112          3
   113          5
   114          4
   115          7
   116          6
   117         26
   118          9
   119          8
   120          1
   123          0
   124          1
   127          0
   128          0
   129        108
   130         11
   131         17
   132          6
   133         41
   134          7
   136          1
   141          4
   142         13
   143         53
   144          7
   145         10
   146          2
   147        241
   148         39
   149         25
   151          3
   155          2
   156          2
   157          1
   160          4
   161          1
   162          0
   165          1
   166          2
   167          3
   170          4
   173          0
   177         18
   179          2
   189         65
   190         10
   191          3
   192          4
   193          3
   195          4
   201          1
   204          0
   205          9
   211          4
   217         30
   218         12
   219        241
   220         44
   221         32
   223          4
   231          2
   232         12
   235          1
   245          1
   262          1
   267          3
   268          3
   271          0
   298          0
   307          3