##TITLE=Library Entry 8004
##JCAMP-DX=Revision 4.10 
##DATA TYPE=MASS SPECTRUM
##SAMPLE DESCRIPTION=Exported from NIST MS Search
##NAMES=HP
##CAS NAME=Octadecanoic acid, 2,3-bis(acetyloxy)propyl ester
##MOLFORM=C25H46O6
##CAS REGISTRY NO=33599-07-4
##MP= -300
##BP= -300
##MW= 442
##$RETENTION INDEX=2993
##$CONDENSED SPECTRUM=NO
##NPOINTS= 197
##XYDATA=(XY..XY) 1 
    26         10
    27        100
    28         50
    29        270
    30         10
    31         20
    39         80
    40         20
    41        540
    42        140
    43        999
    44         50
    45        170
    46         10
    50         10
    51         10
    52         10
    53         40
    54         60
    55        590
    56        160
    57        640
    58         60
    59        120
    60         30
    61         30
    65         20
    66         10
    67        130
    68         70
    69        350
    70        100
    71        290
    72         60
    73        290
    74          6
    75          1
    76          3
    77         50
    78         10
    79         50
    80         30
    81        140
    82         70
    83        260
    84        230
    85        180
    86         40
    87          4
    88          0
    89         10
    91         30
    92         10
    93         40
    94         20
    95        120
    96         60
    97        200
    98        310
    99        110
   100         20
   101        330
   102         30
   103         60
   104         40
   105         30
   106         10
   107         30
   108         10
   109         70
   110         30
   111        110
   112        120
   113         40
   114         40
   115         60
   116        170
   117        180
   118         20
   119         10
   120         10
   121         40
   122         20
   123         40
   124         20
   125         40
   126         40
   127         20
   128         10
   129        170
   130         30
   131         10
   132         10
   133         40
   134         10
   135         30
   136         10
   137         20
   138         10
   139         20
   140         20
   141         40
   142         10
   143         10
   144         10
   145         60
   146         10
   147         10
   148         10
   149        310
   150         30
   151         20
   152         10
   153         20
   154         20
   155         30
   156         10
   157         20
   158        180
   159        630
   160         60
   161         10
   163         10
   164         10
   165         10
   166         10
   167         10
   168         10
   169         10
   170         10
   171        160
   172         20
   173         10
   177         60
   178         10
   179         10
   180         10
   181         10
   182         10
   183         20
   184         10
   185         10
   186         10
   191         10
   193         10
   194         10
   195         10
   196         10
   197         10
   199         10
   200         10
   205         10
   207         20
   209         10
   210         10
   211         10
   213         30
   214         10
   218         10
   219         10
   220         10
   221         10
   222         10
   223         10
   224         10
   225         10
   227         40
   228         10
   237         10
   239         10
   241         20
   242         10
   258         40
   259         10
   263         40
   264         20
   265         10
   266         20
   267        210
   268         40
   269         20
   270         10
   283         10
   284         10
   297         20
   298         10
   299         10
   311         10
   312         10
   339         20
   340         30
   341         20
   369         10
   382         20
   383        270
   384         60
   385         10