##TITLE=Library Entry 89879
##JCAMP-DX=Revision 4.10 
##DATA TYPE=MASS SPECTRUM
##SAMPLE DESCRIPTION=Exported from NIST MS Search
##NAMES=HP
##CAS NAME=Hydantoin, 1-butyl-
##MOLFORM=C7H12N2O2
##CAS REGISTRY NO=33599-32-5
##MP= -300
##BP= -300
##MW= 156
##$RETENTION INDEX=0
##$CONDENSED SPECTRUM=NO
##NPOINTS= 23
##XYDATA=(XY..XY) 1 
    41        100
    42        690
    43         80
    44         20
    53         10
    54         10
    55         40
    56         60
    57         40
    70         40
    72         10
    73         10
    84         20
    85         60
   100         20
   101         50
   113        999
   114        140
   115         20
   127         40
   141         10
   156        340
   157         40