##TITLE=Library Entry 22204
##JCAMP-DX=Revision 4.10 
##DATA TYPE=MASS SPECTRUM
##SAMPLE DESCRIPTION=NIST Mass Spectrometry Data Center
##NAMES=HP
##CAS NAME=Heptafluorobutyric acid, n-hexyl ester
##MOLFORM=C10H13F7O2
##CAS REGISTRY NO=336-65-2
##MP= -300
##BP= -300
##MW= 298
##$RETENTION INDEX=940
##$CONDENSED SPECTRUM=NO
##NPOINTS= 86
##XYDATA=(XY..XY) 1 
    15          4
    20          1
    26         10
    27        151
    28         57
    29        213
    30          6
    31         15
    32          1
    33          3
    37          1
    38          5
    39        136
    40         33
    41        584
    42        365
    43        908
    44         37
    45         17
    47          6
    50         14
    51         14
    52         10
    53         35
    54         58
    55        611
    56        999
    57        159
    58          6
    59          2
    61          3
    62          2
    63          1
    64          1
    65          5
    66          2
    67         35
    68         15
    69        690
    70         25
    71          6
    74          1
    75          1
    77          2
    78          8
    79         14
    80          2
    81         11
    82          5
    83         17
    84        152
    85        113
    86          7
    90          1
    93          7
    95          1
    97          1
   100         99
   101          3
   109         27
   110          1
   111          1
   112          1
   113          1
   119         76
   120          2
   127          1
   128          1
   129         13
   130          1
   131         14
   132          1
   147          3
   150         25
   151          1
   159          1
   169        269
   170          7
   178          1
   197         17
   198          1
   199          1
   215          1
   227          1
   241          2
   255          6