##TITLE=Library Entry 33951
##JCAMP-DX=Revision 4.10 
##DATA TYPE=MASS SPECTRUM
##SAMPLE DESCRIPTION=NIST Mass Spectrometry Data Center, 1994
##NAMES=HP
##CAS NAME=Ethyl heptafluorobutanoylacetate
##MOLFORM=C8H7F7O3
##CAS REGISTRY NO=336-62-9
##MP= -300
##BP= -300
##MW= 284
##$RETENTION INDEX=0
##$CONDENSED SPECTRUM=NO
##NPOINTS= 122
##XYDATA=(XY..XY) 1 
    12          5
    13         20
    14         39
    15         70
    16          4
    17          2
    18          4
    19         14
    20          4
    24          1
    25          9
    26         45
    27        232
    28         67
    29        686
    30         29
    31        197
    32          5
    33          7
    37          3
    39          1
    40          8
    41        166
    42        192
    43        233
    44         22
    45        148
    46         17
    47         13
    49          2
    50         20
    51         11
    52          2
    53         11
    55          4
    56          7
    57          4
    59          4
    60          5
    61          5
    62          4
    63         12
    64          9
    67          7
    69        999
    70         30
    71         16
    72          1
    73          9
    74          6
    75         38
    76          4
    77          2
    78          2
    79          0
    81          8
    82          2
    83          1
    85          1
    87        437
    88         16
    89          5
    90          0
    91         80
    92          5
    93         27
    94          6
    95          7
   100         57
   101          1
   103          1
   105          1
   106          2
   107          1
   109         15
   111          2
   112          1
   113         10
   114          1
   115        371
   116         19
   117          3
   118          1
   119         41
   120         16
   121          1
   122          7
   123          3
   125          5
   131          6
   141         18
   143          1
   147          2
   150          2
   151          4
   153          1
   159          1
   161          2
   163         10
   169        130
   170          3
   173          3
   189          4
   191         65
   192          3
   193          1
   195          2
   197         18
   209         24
   210          1
   211          2
   212          2
   217          8
   219         30
   220          3
   237         21
   239        260
   240         19
   241          2
   257          2
   284         28
   285          4