##TITLE=Library Entry 1111
##JCAMP-DX=Revision 4.10 
##DATA TYPE=MASS SPECTRUM
##SAMPLE DESCRIPTION=Chuck Anderson, Aldrich Chemical Co.
##NAMES=HP
##CAS NAME=1,3-Propanediamine, N-(1-methylethyl)-
##MOLFORM=C6H16N2
##CAS REGISTRY NO=3360-16-5
##MP= -300
##BP= -300
##MW= 116
##$RETENTION INDEX=0
##$CONDENSED SPECTRUM=NO
##NPOINTS= 40
##XYDATA=(XY..XY) 1 
    15         17
    26          8
    27         95
    28        179
    29         33
    30        999
    31         21
    38          1
    39         40
    40          9
    41        158
    42        113
    43        138
    44        334
    45         24
    54         10
    55          6
    56        180
    57         78
    58        922
    59         39
    60         60
    67          3
    68          7
    69          3
    70         50
    71         36
    72        404
    73         77
    74          4
    82          4
    84        214
    85         15
    86         17
    98         13
    99         95
   100          7
   101         61
   102          2
   116          3