##TITLE=Library Entry 77069
##JCAMP-DX=Revision 4.10 
##DATA TYPE=MASS SPECTRUM
##SAMPLE DESCRIPTION=Japan AIST/NIMC Database- Spectrum MS-NW-5588
##NAMES=HP
##CAS NAME=Benzenebutanol
##MOLFORM=C10H14O
##CAS REGISTRY NO=3360-41-6
##MP= -300
##BP= -300
##MW= 150
##$RETENTION INDEX=0
##$CONDENSED SPECTRUM=NO
##NPOINTS= 83
##XYDATA=(XY..XY) 1 
    15          3
    18          2
    26          3
    27         30
    28         11
    29         11
    30          1
    31         64
    32          2
    37          2
    38          6
    39         64
    40          6
    41         48
    42          3
    43          6
    44          9
    45          3
    50         16
    51         50
    52         13
    53          9
    54          7
    55          5
    56          1
    57          9
    58          2
    59          2
    61          2
    62          7
    63         28
    64          8
    65        120
    66          9
    67          1
    71          2
    73          1
    74          5
    75          5
    76          5
    77         59
    78         65
    79         42
    80          4
    81          1
    86          1
    87          2
    88          1
    89         21
    90         11
    91        811
    92        109
    93         10
    94          4
    95          1
   101          1
   102          6
   103         35
   104        999
   105        120
   106         14
   107          6
   108          1
   115         35
   116         13
   117        244
   118         24
   119          3
   121          1
   122          1
   127          1
   128          4
   129          5
   130          3
   131         40
   132        123
   133         13
   134          1
   148          1
   149          1
   150        191
   151         21
   152          1