##TITLE=Library Entry 66232
##JCAMP-DX=Revision 4.10 
##DATA TYPE=MASS SPECTRUM
##SAMPLE DESCRIPTION=A.A.Kutin, Moscow, Russia
##NAMES=HP
##CAS NAME=Prop-2-en-1-thiocarbamide, 2-cyano-3-(5-methylpyrid-2-ylamino)-
##MOLFORM=C10H10N4S
##CAS REGISTRY NO=336180-91-7
##MP= -300
##BP= -300
##MW= 218
##$RETENTION INDEX=0
##$CONDENSED SPECTRUM=NO
##NPOINTS= 174
##XYDATA=(XY..XY) 1 
    33         27
    34         25
    35          3
    36          4
    37         34
    38         98
    39        490
    40        150
    41        111
    42         32
    43         46
    44         40
    45         84
    46          7
    47          5
    48          4
    49          7
    50         71
    51        173
    52        270
    53        161
    54         41
    55         33
    56         12
    57         27
    58         10
    59         25
    60        218
    61         25
    62         36
    63         74
    64         97
    65        686
    66        343
    67        163
    68         13
    69         30
    70         19
    71         20
    72         23
    73         11
    74          7
    75         15
    76         33
    77         80
    78         62
    79         39
    80         68
    81         36
    82         20
    83         17
    84         25
    85          7
    86          2
    87          5
    88          4
    89          5
    90         18
    91         54
    92        692
    93        999
    94         92
    95          9
    96          6
    97          9
    98          6
    99         11
   100          4
   101          4
   102          9
   103         15
   104         24
   105         24
   106          8
   107         44
   108         48
   109         19
   110          4
   111         14
   112          4
   113          2
   114          1
   115          2
   116          4
   117         10
   118         12
   119        112
   120         12
   121          5
   122          2
   123          1
   124          3
   125         16
   126         16
   127          3
   128          2
   129         10
   130          9
   131         23
   132         13
   133         30
   134          6
   135          2
   136          2
   137          2
   138          0
   139          0
   140          0
   141          2
   142          5
   143         10
   144          6
   145          1
   146          1
   147          1
   148          1
   149          5
   150          2
   151         18
   152          1
   153          1
   154          0
   155          2
   156         21
   157         64
   158        349
   159         40
   160          3
   161          0
   162          0
   163          2
   164          1
   165          0
   166          0
   168          1
   169          2
   170          5
   171          3
   172          0
   173          1
   174          0
   175          3
   176          0
   177          0
   178          0
   182          1
   183          4
   184         43
   185        513
   186         63
   187          4
   188          0
   189          0
   190         12
   191          2
   192          1
   193          0
   197          0
   198          0
   199          0
   200          3
   201          2
   202          4
   203          0
   205          0
   210          0
   211          0
   214          0
   216          1
   217         14
   218        274
   219         39
   220         17
   221          1