##TITLE=Library Entry 19452
##JCAMP-DX=Revision 4.10 
##DATA TYPE=MASS SPECTRUM
##SAMPLE DESCRIPTION=Chemical Concepts
##NAMES=HP
##CAS NAME=(-)-trans-Pinane
##MOLFORM=C10H18
##CAS REGISTRY NO=33626-25-4
##MP= -300
##BP= -300
##MW= 138
##$RETENTION INDEX=988
##$CONDENSED SPECTRUM=NO
##NPOINTS= 87
##XYDATA=(XY..XY) 1 
    26         15
    27        350
    28         45
    29        234
    30          4
    31          2
    32          2
    36          6
    37          4
    38         13
    39        366
    40         61
    41        865
    42         61
    43        163
    44          5
    45          1
    46          2
    47          2
    48          1
    49          1
    50         18
    51         62
    52         30
    53        197
    54         65
    55        999
    56         81
    57         67
    58          5
    59          1
    61          1
    62          3
    63         15
    64          3
    65         58
    66         30
    67        576
    68        350
    69        535
    70         83
    71         10
    72          1
    74          1
    75          2
    76          1
    77         84
    78         20
    79        118
    80         90
    81        549
    82        652
    83        773
    84        104
    85          7
    86          1
    89          2
    90          1
    91         47
    92         10
    93         48
    94         98
    95        857
    96        394
    97         87
    98          5
   103          2
   104          1
   105          8
   106          1
   107          8
   108          5
   109         85
   110         47
   111          5
   115          1
   117          1
   119          1
   121          4
   122          2
   123        233
   124         25
   125          2
   136          1
   137          3
   138         67
   139          9