##TITLE=Library Entry 48500
##JCAMP-DX=Revision 4.10 
##DATA TYPE=MASS SPECTRUM
##SAMPLE DESCRIPTION=D.HENNEBERG, MAX-PLANCK INSTITUTE, MULHEIM, WEST GERMAN
Y
##NAMES=HP
##CAS NAME=1-Decen-3-yne
##MOLFORM=C10H16
##CAS REGISTRY NO=33622-26-3
##MP= -300
##BP= -300
##MW= 136
##$RETENTION INDEX=0
##$CONDENSED SPECTRUM=NO
##NPOINTS= 93
##XYDATA=(XY..XY) 1 
    23          1
    24          0
    25          4
    26         25
    27        347
    28         38
    29        377
    30          7
    32          0
    33          1
    34          2
    35          5
    36          3
    37         15
    38         41
    39        583
    40        106
    41        641
    42        103
    43        612
    44          8
    45          0
    46          0
    47          1
    48          1
    49          4
    50         44
    51        125
    52         92
    53        109
    54         36
    55        199
    56         69
    57          9
    59          2
    61          7
    62         25
    63         90
    64         37
    65        302
    66        292
    67        324
    68         75
    69        137
    70         11
    71          4
    73          2
    74         10
    75         24
    76          9
    77        432
    78        146
    79        999
    80        294
    81         70
    82         40
    83          3
    84          3
    85          0
    86          0
    87          2
    88          0
    89         13
    90          5
    91        314
    92         43
    93        304
    94         62
    95         77
    96          5
   101          1
   102          1
   103          6
   104          3
   105         50
   106         10
   107        371
   108         66
   109          6
   115          5
   116          1
   117          4
   119          3
   121         77
   122          6
   128          3
   129          3
   130          1
   132          0
   134          8
   135          3
   136         11
   137          1