##TITLE=Library Entry 87032
##JCAMP-DX=Revision 4.10 
##DATA TYPE=MASS SPECTRUM
##SAMPLE DESCRIPTION=A.A.Kutin, Moscow, Russia
##NAMES=HP
##CAS NAME=2(1H)-Pyridinone, 3-amino-
##MOLFORM=C5H6N2O
##CAS REGISTRY NO=33630-99-8
##MP= -300
##BP= -300
##MW= 110
##$RETENTION INDEX=0
##$CONDENSED SPECTRUM=NO
##NPOINTS= 45
##XYDATA=(XY..XY) 1 
    33          4
    34          5
    36         15
    37         32
    38         64
    39         79
    40        128
    41         99
    42         13
    43         24
    44         18
    45          0
    49          1
    50          7
    51         27
    52        138
    54        505
    55        429
    57          2
    62          1
    63          3
    64         10
    65         15
    66         10
    67          4
    68          2
    69          2
    70          1
    76          0
    77          4
    78          2
    79          4
    81        201
    82        262
    83         10
    92          1
    93          0
    94          1
    95          5
    96          0
    98          0
    99          0
   110        999
   111         51
   112          3