##TITLE=Library Entry 79797
##JCAMP-DX=Revision 4.10 
##DATA TYPE=MASS SPECTRUM
##SAMPLE DESCRIPTION=Japan AIST/NIMC Database- Spectrum MS-IW-3605
##NAMES=HP
##CAS NAME=1,1'-(p-Phenylene)bis(2-phenylethanedione)
##MOLFORM=C22H14O4
##CAS REGISTRY NO=3363-97-1
##MP= -300
##BP= -300
##MW= 342
##$RETENTION INDEX=0
##$CONDENSED SPECTRUM=NO
##NPOINTS= 33
##XYDATA=(XY..XY) 1 
    27          2
    28          1
    39          1
    50         17
    51         45
    52          2
    63          1
    74          3
    75          6
    76         39
    77        254
    78         17
   103          1
   104         44
   105        999
   106         83
   107          5
   132          9
   133          1
   151          1
   152          4
   153          2
   181          1
   208          1
   209         25
   210          4
   223          1
   237        129
   238         21
   239          3
   342        119
   343         28
   344          4