##TITLE=Library Entry 76453
##JCAMP-DX=Revision 4.10 
##DATA TYPE=MASS SPECTRUM
##SAMPLE DESCRIPTION=Exported from NIST MS Search
##NAMES=HP
##CAS NAME=D-Arabino-Hexitol, 2-deoxy-1,3,4,5,6-pentakis-O-(trimethylsilyl)-
##MOLFORM=C21H54O5Si5
##CAS REGISTRY NO=33648-64-5
##MP= -300
##BP= -300
##MW= 526
##$RETENTION INDEX=0
##$CONDENSED SPECTRUM=NO
##NPOINTS= 77
##XYDATA=(XY..XY) 1 
    29         45
    42         16
    44          7
    45         50
    47          2
    55          9
    59         38
    67          4
    69         11
    72         21
    73        988
    74         97
    75         69
    76          2
    77          4
    87          4
    89          4
    95          4
   101         26
   102          2
   103        999
   104         92
   105         40
   115         61
   116         14
   117         47
   119          4
   129         90
   130         16
   131         30
   132          2
   133         42
   134          4
   141          2
   143         16
   147        197
   148         30
   149         23
   155         16
   159         16
   164         16
   167         21
   169          2
   189         64
   190         11
   191         23
   203          7
   204         19
   205         80
   206         19
   207         14
   217        114
   218         78
   219        342
   220         71
   221         42
   222         11
   231        109
   232         26
   233          9
   243         11
   257         19
   277         11
   305          2
   306          9
   307         57
   308         19
   309         16
   310          2
   320          2
   321         64
   322         21
   323         14
   331          4
   333         30
   334          2
   335          2