##TITLE=Library Entry 32753
##JCAMP-DX=Revision 4.10 
##DATA TYPE=MASS SPECTRUM
##SAMPLE DESCRIPTION=KONINKLIJKE SHELL LABORATORIUM AMSTERDAM
##NAMES=HP
##CAS NAME=Bicyclo[2.2.2]octane, 2-chloro-
##MOLFORM=C8H13Cl
##CAS REGISTRY NO=33649-79-5
##MP= -300
##BP= -300
##MW= 144
##$RETENTION INDEX=1163
##$CONDENSED SPECTRUM=NO
##NPOINTS= 98
##XYDATA=(XY..XY) 1 
    35          3
    36         11
    37          9
    38         32
    39        432
    40         66
    41        382
    42         24
    43         16
    44          1
    45          4
    46          1
    47          1
    48          0
    49         22
    50         39
    51        106
    52         56
    53        168
    54        274
    55        103
    56         10
    57          3
    58          2
    59          0
    60          1
    61          7
    62         17
    63         23
    64          7
    65         74
    66        370
    67        999
    68         86
    69         38
    70          2
    71          0
    72          0
    73          6
    74          4
    75         41
    76          4
    77        114
    78         82
    79        377
    80        453
    81        390
    82        360
    83         22
    84          0
    85          0
    86          0
    87          2
    88         36
    89          8
    90         14
    91         38
    92          7
    93         75
    94          8
    95         55
    96          4
    97          0
    98          0
    99          0
   100          0
   101          7
   102          8
   103          7
   104          3
   105          5
   106          1
   107         10
   108        340
   109        279
   110         23
   111          1
   112          0
   113          1
   114          0
   115          7
   116         45
   117          6
   118         15
   119          1
   129          3
   130          0
   131          1
   133          0
   134          0
   135          0
   136          1
   137          0
   143          1
   144         38
   145          4
   146         12
   147          1