##TITLE=Library Entry 42591
##JCAMP-DX=Revision 4.10 
##DATA TYPE=MASS SPECTRUM
##SAMPLE DESCRIPTION=James Shoemaker, St. Louis Online Library of Metabolic
 Mass Spectra
##NAMES=HP
##CAS NAME=D-2-Deoxyribose, 3TMS derivative
##MOLFORM=C14H34O4Si3
##CAS REGISTRY NO=33648-76-9
##MP= -300
##BP= -300
##MW= 350
##$RETENTION INDEX=0
##$CONDENSED SPECTRUM=NO
##NPOINTS= 116
##XYDATA=(XY..XY) 1 
    51          0
    52          0
    53          5
    54          7
    55         32
    56         15
    57          7
    58         13
    59         98
    60          8
    61         16
    63          0
    66          2
    67          0
    68          0
    69          8
    70          2
    71          4
    72         23
    73        999
    74         80
    75        164
    76          8
    77         10
    78          0
    79          0
    81         18
    82          0
    83          0
    84          0
    85          7
    86          4
    87          5
    88          1
    89          9
    91          0
    97          0
    98          0
    99          6
   101         47
   102         12
   103        261
   104         21
   105         10
   111          1
   113         16
   114          1
   115          7
   116         11
   117         22
   118          1
   119          5
   127          6
   129        361
   130         39
   131         76
   132          8
   133         69
   134          7
   135          4
   142         24
   143          9
   144          1
   145         12
   147        379
   148         53
   149         47
   150          3
   151          1
   155         25
   156          7
   157        135
   158         15
   159         10
   160          0
   161          0
   163         19
   164          1
   165          0
   169          2
   170          1
   171          3
   172          0
   173          1
   174          1
   175          8
   177         32
   178          3
   179          1
   187          0
   189         63
   190          9
   191        213
   192         34
   193         13
   194          0
   203         21
   204          5
   205          1
   207          0
   215          1
   217        102
   218        205
   219         57
   220         18
   221          3
   231          5
   232          0
   245         16
   246          2
   247         63
   248         10
   249          4
   259          0
   260          0
   288          1