##TITLE=Library Entry 56221
##JCAMP-DX=Revision 4.10 
##DATA TYPE=MASS SPECTRUM
##SAMPLE DESCRIPTION=A.A.Kutin, Moscow, Russia
##NAMES=HP
##CAS NAME=Thiazolidin-4-one, 3-hydroxymethyl-5-isopropylidene-2-thioxo-
##MOLFORM=C7H9NO2S2
##CAS REGISTRY NO=33656-52-9
##MP= -300
##BP= -300
##MW= 203
##$RETENTION INDEX=0
##$CONDENSED SPECTRUM=NO
##NPOINTS= 112
##XYDATA=(XY..XY) 1 
    33         25
    34         18
    36         15
    37         61
    38        103
    39        345
    40        125
    41        160
    42         32
    43         32
    44         89
    45        330
    46         42
    47         20
    49         20
    50         68
    51         68
    52         32
    53        103
    54         13
    55         21
    56         11
    58        168
    59        330
    60         47
    61         19
    62          4
    64         36
    65          8
    66         22
    67         53
    69        157
    71        759
    72         51
    73         35
    74          5
    76         45
    77         12
    78         14
    79          4
    81         22
    82         26
    83         17
    85        272
    86        999
    87         75
    88         51
    89          4
    90          2
    91          4
    92          2
    93          1
    95          3
    96          2
    97          2
    98          2
    99          1
   100          8
   101          1
   102          2
   103          0
   104          0
   105          0
   106          0
   107          0
   108          1
   109          0
   110          0
   111          1
   112          2
   114        116
   115          9
   116          7
   117          0
   118          0
   119          0
   120          0
   121          0
   126          0
   127          0
   129          1
   131          0
   132          0
   135          1
   139          0
   140          0
   141          2
   142          1
   144          0
   145          0
   148          0
   149          0
   153          0
   155          0
   157          1
   169          0
   170          1
   171          4
   173        287
   174         30
   175         24
   176          2
   177          0
   184          0
   185         14
   186          1
   187          1
   199          0
   200          0
   203         24
   204          2
   205          2