##TITLE=Library Entry 15148
##JCAMP-DX=Revision 4.10 
##DATA TYPE=MASS SPECTRUM
##SAMPLE DESCRIPTION=A.Pleshkova, Nesmeyanov Inst.Org.Elem.Cpds, Moscow
##NAMES=HP
##CAS NAME=1-Sec-butyldiaziridine
##MOLFORM=C5H12N2
##CAS REGISTRY NO=33657-34-0
##MP= -300
##BP= -300
##MW= 100
##$RETENTION INDEX=0
##$CONDENSED SPECTRUM=NO
##NPOINTS= 31
##XYDATA=(XY..XY) 1 
    27        195
    28        456
    29        655
    30        766
    31        188
    32          9
    39         59
    40         15
    41        624
    42        459
    43        212
    44        999
    45        585
    46         62
    47          5
    55         91
    56        599
    57        455
    58         71
    59          6
    70        124
    71        762
    72        244
    73         19
    74          4
    85        354
    86         61
    87          5
   100        126
   101         16
   102          4