##TITLE=Library Entry 15718
##JCAMP-DX=Revision 4.10 
##DATA TYPE=MASS SPECTRUM
##SAMPLE DESCRIPTION=A.Pleshkova, Nesmeyanov Inst.Org.Elem.Cpds, Moscow
##NAMES=HP
##CAS NAME=1-Isopropyldiaziridine
##MOLFORM=C4H10N2
##CAS REGISTRY NO=33657-26-0
##MP= -300
##BP= -300
##MW= 86
##$RETENTION INDEX=0
##$CONDENSED SPECTRUM=NO
##NPOINTS= 26
##XYDATA=(XY..XY) 1 
    26         36
    27        233
    28        461
    29         95
    30        311
    31         31
    32         32
    39         93
    40         49
    41        311
    42        345
    43        363
    44        999
    45         10
    54         25
    55         29
    56        159
    57         51
    58         40
    59          5
    71        471
    72         31
    73          5
    86        165
    87         18
    88          5