##TITLE=Library Entry 65204
##JCAMP-DX=Revision 4.10 
##DATA TYPE=MASS SPECTRUM
##SAMPLE DESCRIPTION=Exported from NIST MS Search
##NAMES=HP
##CAS NAME=Phosphonic acid, tricyclo[2.2.1.0(2,6)]heptyl-, dimethyl ester
##MOLFORM=C9H15O3P
##CAS REGISTRY NO=33660-88-7
##MP= -300
##BP= -300
##MW= 202
##$RETENTION INDEX=0
##$CONDENSED SPECTRUM=NO
##NPOINTS= 26
##XYDATA=(XY..XY) 1 
    51         50
    53         60
    63         50
    65        180
    66        100
    77        200
    78         50
    79        260
    80        150
    91        700
    92        999
    93        290
    94         70
    95         70
   105         50
   109        120
   110        460
   111        370
   112         30
   137        180
   138         20
   174         50
   187         30
   201         90
   202        550
   203         70