##TITLE=Library Entry 41681
##JCAMP-DX=Revision 4.10 
##DATA TYPE=MASS SPECTRUM
##SAMPLE DESCRIPTION=ATLAS OF MASS SPECTRA OF ORGANIC COMPOUNDS, V. A. KOPTY
UG, ED.
##NAMES=HP
##CAS NAME=Hydrazine, 1-methyl-1-(1-methylethyl)-
##MOLFORM=C4H12N2
##CAS REGISTRY NO=33668-54-1
##MP= -300
##BP= -300
##MW= 88
##$RETENTION INDEX=694
##$CONDENSED SPECTRUM=NO
##NPOINTS= 29
##XYDATA=(XY..XY) 1 
    26         15
    27        123
    28        260
    29        115
    30        119
    31        115
    38         10
    39         78
    40         18
    41        137
    42        151
    43        161
    44        151
    45        411
    46        164
    54         18
    55         19
    56        384
    57         55
    58         32
    59         21
    70         27
    71          9
    72         16
    73        999
    74         51
    87         14
    88        479
    89         47