##TITLE=Library Entry 38603
##JCAMP-DX=Revision 4.10 
##DATA TYPE=MASS SPECTRUM
##SAMPLE DESCRIPTION=Chemical Concepts
##NAMES=HP
##CAS NAME=1,2-Cyclohexanediol, 1-methyl-4-(1-methylethyl)-
##MOLFORM=C10H20O2
##CAS REGISTRY NO=33669-76-0
##MP= -300
##BP= -300
##MW= 172
##$RETENTION INDEX=1378
##$CONDENSED SPECTRUM=NO
##NPOINTS= 125
##XYDATA=(XY..XY) 1 
    26          5
    27        132
    28         29
    29        128
    30          5
    31         39
    37          3
    38          4
    39         99
    40         22
    41        363
    42         52
    43        712
    44         72
    45         74
    46          3
    47          7
    48          1
    49          2
    50          3
    51         12
    52          5
    53         62
    54         20
    55        363
    56        285
    57        100
    58        301
    59         51
    60          3
    61          7
    62          1
    63          4
    64          2
    65         18
    66          9
    67        147
    68         50
    69        278
    70         73
    71        999
    72        144
    73         25
    74         27
    75          3
    76          1
    77         30
    78          8
    79         34
    80         10
    81        126
    82         57
    83        307
    84        235
    85         68
    86         10
    87         34
    88          8
    89          8
    90          1
    91         25
    92         11
    93        147
    94         27
    95        101
    96         84
    97        120
    98         24
    99         74
   100         15
   101         27
   102          3
   103          2
   104          1
   105          8
   106          5
   107         56
   108         87
   109         57
   110         32
   111        570
   112        159
   113         50
   114         50
   115         41
   116          4
   117          1
   119          5
   120          3
   121         58
   122          8
   123         17
   124          9
   125         41
   126         60
   127         12
   128          9
   129        152
   130         13
   131          1
   132          0
   133          0
   134          3
   135          6
   136        101
   137         31
   138          8
   139         80
   140         10
   141          1
   142         15
   143          2
   145          1
   147          0
   151          1
   152         22
   153          7
   154         45
   155         17
   157         37
   158          4
   170          1
   172        138
   173         15
   174          1