##TITLE=Library Entry 71259
##JCAMP-DX=Revision 4.10 
##DATA TYPE=MASS SPECTRUM
##SAMPLE DESCRIPTION=A.Pleshkova, Nesmeyanov Inst.Org.Elem.Cpds, Moscow
##NAMES=HP
##CAS NAME=N-Isopropyl-2-benzyloxycarbonylazetidine
##MOLFORM=C14H19NO2
##CAS REGISTRY NO=33667-56-0
##MP= -300
##BP= -300
##MW= 233
##$RETENTION INDEX=0
##$CONDENSED SPECTRUM=NO
##NPOINTS= 21
##XYDATA=(XY..XY) 1 
    28         59
    29          7
    39         14
    41         36
    42         14
    43         78
    44          8
    55         22
    56         27
    57         17
    91        288
    92        174
    93          9
    98        999
    99         46
   100          5
   142          8
   218         64
   219          9
   233         14
   234          2