##TITLE=Library Entry 71312
##JCAMP-DX=Revision 4.10 
##DATA TYPE=MASS SPECTRUM
##SAMPLE DESCRIPTION=A.ROSENTHAL, UNIVERSITY OF BRITISH COLUMBIA, VANCOUVER,
 CANADA
##NAMES=HP
##CAS NAME=.alpha.-D-Erythro-Hex-2-enopyranose, 3-deoxy-, tetraacetate
##MOLFORM=C14H18O9
##CAS REGISTRY NO=3366-49-2
##MP= -300
##BP= -300
##MW= 330
##$RETENTION INDEX=0
##$CONDENSED SPECTRUM=NO
##NPOINTS= 28
##XYDATA=(XY..XY) 1 
    54         50
    60        350
    69        320
    81        190
    96        130
    97        800
    98        999
    99        200
   100         50
   102        150
   109        450
   113        100
   126        250
   127        120
   139        150
   143         50
   144        250
   145         90
   155         60
   168        150
   169        300
   185         30
   186        120
   210        100
   211         40
   228        350
   271         50
   288         50