##TITLE=Library Entry 5719
##JCAMP-DX=Revision 4.10 
##DATA TYPE=MASS SPECTRUM
##SAMPLE DESCRIPTION=Exported from NIST MS Search
##NAMES=HP
##CAS NAME=Disulfide, 1-methylethyl propyl
##MOLFORM=C6H14S2
##CAS REGISTRY NO=33672-51-4
##MP= -300
##BP= -300
##MW= 150
##$RETENTION INDEX=1071
##$CONDENSED SPECTRUM=NO
##NPOINTS= 79
##XYDATA=(XY..XY) 1 
    12          1
    13          1
    14          7
    15         33
    16          2
    25          1
    26         15
    27        260
    28         38
    29         22
    30          1
    32          4
    33          4
    34          4
    35          2
    36          1
    37          6
    38         15
    39        147
    40         21
    41        302
    42         28
    43        999
    44         36
    45         76
    46         26
    47         45
    48          3
    49          7
    50          1
    51          1
    55          1
    56          1
    57          5
    58         18
    59         48
    60         10
    61          7
    62          1
    63          1
    64         25
    65          7
    66        109
    67          3
    68         10
    69          3
    70          1
    71          4
    72          1
    73         20
    74         27
    75         12
    76         12
    77          2
    78          5
    79         20
    80          2
    81          2
    90          1
    91          1
    92          1
    93          7
    94          1
    95          1
   103          1
   106          1
   107          5
   108        221
   109         12
   110         20
   111          1
   112          1
   121          1
   135          1
   150        210
   151         18
   152         20
   153          2
   154          1