##TITLE=Library Entry 61254
##JCAMP-DX=Revision 4.10 
##DATA TYPE=MASS SPECTRUM
##SAMPLE DESCRIPTION=Chemical Concepts
##NAMES=HP
##CAS NAME=Phenol, 3-(2-phenylethyl)-
##MOLFORM=C14H14O
##CAS REGISTRY NO=33675-75-1
##MP= -300
##BP= -300
##MW= 198
##$RETENTION INDEX=0
##$CONDENSED SPECTRUM=NO
##NPOINTS= 94
##XYDATA=(XY..XY) 1 
    27         29
    28          3
    29          2
    38          6
    39         82
    40          4
    41         19
    42          2
    43          2
    44          1
    46          1
    50         11
    51         52
    52         18
    53         26
    54          2
    55         17
    56          0
    58          1
    59          1
    62          6
    63         30
    64          8
    65        106
    66         10
    67          2
    68          1
    70          1
    74          3
    75          8
    76          9
    77        118
    78         25
    79         16
    80          1
    81          6
    82          2
    84          1
    87          2
    88          4
    89         18
    91        999
    92         70
    93          3
    94         12
    97          2
    98          2
    99          8
   101          2
   102          4
   103          9
   104         18
   105          4
   107        697
   108         49
   109          3
   115         10
   116          1
   118          1
   119          2
   120         13
   121          1
   126          1
   127          3
   128          6
   129          2
   131          1
   139          3
   141          4
   151          2
   152          8
   153          5
   154          2
   155          1
   163          1
   164          2
   165          9
   166          2
   167          2
   168          1
   176          3
   177          6
   178         13
   179         10
   180          2
   181          6
   182          5
   183          1
   194          1
   195          2
   196          2
   198        288
   199         43
   200          3