##TITLE=Library Entry 54198
##JCAMP-DX=Revision 4.10 
##DATA TYPE=MASS SPECTRUM
##SAMPLE DESCRIPTION=Insect Chem. Ecol. Lab., USDA, Beltsville, MD 20705
##NAMES=HP
##CAS NAME=3-Piperidinecarboxamide, N,N-diethyl-
##MOLFORM=C10H20N2O
##CAS REGISTRY NO=3367-95-1
##MP= -300
##BP= -300
##MW= 184
##$RETENTION INDEX=0
##$CONDENSED SPECTRUM=NO
##NPOINTS= 119
##XYDATA=(XY..XY) 1 
    41         78
    42        199
    43         63
    44        205
    45          8
    46         11
    47          3
    49          3
    50          1
    51          3
    52          4
    53         30
    54         48
    55        220
    56        232
    57        174
    58        168
    59          9
    60         15
    61          2
    62          1
    63          1
    64          1
    65          5
    66          2
    67         28
    68         83
    69         41
    70        110
    71        126
    72        532
    73         39
    74        163
    75          7
    76          1
    77          7
    78          5
    79          2
    80         20
    81         19
    82        143
    83        360
    84        999
    85        211
    86         67
    87          7
    88         20
    89          1
    90          1
    91         11
    92          3
    93          2
    94         11
    95          9
    96        206
    97         41
    98        192
    99         18
   100        135
   101         11
   102         75
   103          4
   106          5
   107          1
   108          7
   109          4
   110         87
   111        412
   112        581
   113         75
   114         12
   115         15
   116         19
   117          3
   118          1
   120          0
   121          0
   122          2
   123          1
   124         17
   125          6
   126         82
   127         16
   128        364
   129         72
   130          5
   136          1
   137          1
   138         30
   139          9
   140         67
   141         27
   142         59
   143         14
   144          1
   147          0
   148          1
   149          3
   150          3
   151          3
   152          2
   153          5
   154         31
   155         14
   156         21
   157          4
   165          2
   166          1
   167          4
   168          5
   169         73
   170         17
   171          2
   181          1
   182          2
   183         34
   184        290
   185         34
   186          2