##TITLE=Library Entry 64042
##JCAMP-DX=Revision 4.10 
##DATA TYPE=MASS SPECTRUM
##SAMPLE DESCRIPTION=Japan AIST/NIMC Database- Spectrum MS-NW-9537
##NAMES=HP
##CAS NAME=4-Benzyloxy-3-methoxybenzyl alcohol
##MOLFORM=C15H16O3
##CAS REGISTRY NO=33693-48-0
##MP= -300
##BP= -300
##MW= 244
##$RETENTION INDEX=0
##$CONDENSED SPECTRUM=NO
##NPOINTS= 85
##XYDATA=(XY..XY) 1 
    15          1
    17          1
    18          3
    27          3
    28          5
    29          1
    31          1
    38          1
    39         15
    40          1
    41         10
    43          3
    45          2
    50          2
    51          9
    52          3
    53          7
    54          3
    55          4
    57          1
    59          5
    62          1
    63          7
    64          2
    65         68
    66          7
    67         10
    68          1
    69          1
    76          1
    77         10
    78          3
    79          7
    80          1
    81          4
    82          5
    89          9
    90          4
    91        999
    92         81
    93         20
    94          3
    95          9
    96          1
    97         25
    98          1
   105          6
   106          3
   107         21
   108          7
   109          2
   110          2
   115          1
   121         24
   122          4
   123          9
   124          1
   125          3
   128          1
   135          7
   136         97
   137         12
   138         10
   139          1
   141          1
   151          3
   152          7
   153         42
   154          6
   155          1
   165          1
   167          1
   181          1
   199          2
   211          1
   213          1
   214          3
   226          1
   227          2
   228          3
   242          5
   243          1
   244        275
   245         45
   246          5