##TITLE=Library Entry 36773
##JCAMP-DX=Revision 4.10 
##DATA TYPE=MASS SPECTRUM
##SAMPLE DESCRIPTION=D.G.Hayward MS, Center for Food Safety and Applied Nutr
ition, FDA, College Park MD.
##NAMES=HP
##CAS NAME=Endosulfan ether
##MOLFORM=C9H6Cl6O
##CAS REGISTRY NO=3369-52-6
##MP= -300
##BP= -300
##MW= 340
##$RETENTION INDEX=0
##$CONDENSED SPECTRUM=NO
##NPOINTS= 255
##XYDATA=(XY..XY) 1 
    41         40
    42         16
    43          3
    44         73
    45          4
    46          1
    47          4
    48          1
    49         23
    50         14
    51         24
    52          3
    53          2
    54          2
    55          3
    56          1
    57          1
    60          9
    61         21
    62         12
    63         18
    64          1
    65          7
    66         11
    67         11
    68          8
    69        999
    70         52
    71          8
    72         10
    73         34
    74         38
    75         37
    76          3
    77          8
    78          4
    79        140
    80          5
    81         45
    82          3
    83         20
    84         41
    85         73
    86         37
    87         21
    88          3
    89          8
    90          3
    93          4
    94          3
    95         22
    96         21
    97         35
    98         42
    99         56
   100         14
   102         97
   103         90
   104         31
   105         11
   107         34
   108         40
   109         56
   110         17
   111         22
   112          4
   113          6
   114          3
   115          2
   117         43
   119         77
   120         88
   121        111
   123         25
   124          4
   125          9
   126          2
   127          1
   128          1
   130         28
   131         18
   132         25
   133         63
   134         30
   135         58
   136         54
   137         27
   138         27
   139         15
   141         52
   143         66
   144         11
   145         38
   146         13
   147         13
   148          6
   149          3
   150          1
   151          1
   152          3
   154          3
   155          8
   156          5
   157         30
   158         10
   159         22
   160          6
   161          5
   162          1
   163          1
   165         28
   166          2
   167         45
   168         15
   169         61
   170        185
   171         69
   172        120
   173         34
   174         22
   175          5
   177          4
   178          5
   179         13
   180         16
   181         15
   182         13
   183          8
   184          4
   185          3
   186          2
   187          2
   188          2
   189          1
   190          2
   191         30
   192          8
   193        133
   194         18
   195        116
   196         12
   197         37
   198          4
   199          9
   200          3
   201         23
   202          5
   203         35
   204        150
   205        143
   206        159
   207        132
   208         70
   209         50
   210         15
   211          8
   212          2
   213          3
   214         16
   215          9
   216         19
   217          7
   218         10
   219          3
   220          3
   221         11
   222          2
   223         10
   225          8
   226          8
   227         21
   228         14
   229         22
   230         11
   231         10
   232          4
   233         12
   234          5
   235        152
   236         25
   237        240
   238         45
   239        382
   240        126
   241        419
   242        138
   243        241
   244         70
   245         76
   246         18
   247         11
   248         16
   249          3
   250         21
   251          5
   252         14
   253          4
   254          5
   255          2
   256          1
   257          1
   258          1
   260          1
   261         69
   262          8
   263        109
   264         11
   265         72
   266          8
   267         24
   268          3
   269         23
   270        143
   271         26
   272        272
   273         28
   274        226
   275        196
   276        116
   277        287
   278         53
   279        190
   280         24
   281         60
   282          7
   283         10
   284          1
   285          1
   295          1
   297          1
   299          1
   301          1
   304          1
   305        158
   306         16
   307        258
   308         27
   309        161
   310         19
   311         51
   312          6
   313          9
   314          1
   315          1
   340         60
   341          7
   342        118
   343         12
   344         97
   345          8
   346         40
   347          4
   348         10
   349          1
   350          1