##TITLE=Library Entry 66198
##JCAMP-DX=Revision 4.10 
##DATA TYPE=MASS SPECTRUM
##SAMPLE DESCRIPTION=D.HENNEBERG, MAX-PLANCK INSTITUTE, MULHEIM, WEST GERMAN
Y
##NAMES=HP
##CAS NAME=Benzenamine, N-[(2-methoxyphenyl)methylene]-
##MOLFORM=C14H13NO
##CAS REGISTRY NO=3369-37-7
##MP= -300
##BP= -300
##MW= 211
##$RETENTION INDEX=0
##$CONDENSED SPECTRUM=NO
##NPOINTS= 123
##XYDATA=(XY..XY) 1 
    26          8
    28         36
    29          2
    30          1
    31          0
    32          1
    34          0
    37          0
    38          1
    39         25
    40          2
    41          5
    42          1
    43          1
    44          1
    47          0
    48          0
    49          0
    50          9
    51        119
    52         12
    53          2
    54          0
    55          1
    57          0
    62          1
    63         10
    64         11
    65         43
    66         13
    67          1
    69          0
    74          0
    75          3
    76         16
    77        382
    78         55
    79          9
    80          0
    81          0
    85          0
    88          0
    89         14
    90         22
    91        403
    92         41
    93        999
    94         72
    95          2
    98          0
   101          1
   102          6
   103          5
   104         44
   105         11
   106          8
   107         11
   108          4
   109          0
   113          0
   114          2
   115          9
   116          6
   117          3
   118         56
   119        367
   120         34
   121          2
   125          0
   126          1
   127          3
   128          3
   129          1
   130          0
   132          8
   133          2
   134          6
   135          0
   136          0
   138          0
   139          9
   140          7
   141          7
   142          1
   143          1
   144          0
   145          0
   149          0
   150          1
   151          9
   152         18
   153          6
   154          1
   155          1
   156          0
   164          0
   165          6
   166         13
   167         52
   168         10
   169          1
   170          0
   176          0
   177          4
   178          7
   179          5
   180         51
   181         11
   182          6
   183          1
   192          1
   193          1
   194          4
   195         27
   196         21
   197          3
   198          0
   208          0
   209          2
   210         28
   211        118
   212         16
   213          1