##TITLE=Library Entry 114540
##JCAMP-DX=Revision 4.10 
##DATA TYPE=MASS SPECTRUM
##SAMPLE DESCRIPTION=Japan AIST/NIMC Database- Spectrum MS-IW-4788
##NAMES=HP
##CAS NAME=Ethyl 2-ethyl-2-methyl-3-oxobutyrate
##MOLFORM=C9H16O3
##CAS REGISTRY NO=33697-53-9
##MP= -300
##BP= -300
##MW= 172
##$RETENTION INDEX=0
##$CONDENSED SPECTRUM=NO
##NPOINTS= 105
##XYDATA=(XY..XY) 1 
    14          5
    15         41
    16          2
    17          1
    18          3
    24          1
    25          3
    26         31
    27        137
    28         71
    29        257
    30          6
    31         16
    37          2
    38          4
    39         68
    40         11
    41        166
    42         25
    43        901
    44         90
    45         72
    46          4
    49          1
    50          7
    51         12
    52          7
    53         31
    54         16
    55        147
    56         37
    57         96
    58          5
    59         26
    60          1
    61          5
    62          1
    63          2
    65          9
    66          3
    67         37
    68          4
    69        199
    70         24
    71         26
    72         17
    73         57
    74         21
    75          2
    77          8
    78          3
    79         17
    80          8
    81          9
    82         17
    83         64
    84        158
    85         54
    86          4
    87        880
    88         39
    89          5
    90          1
    91          3
    92          1
    93          1
    94          1
    95          6
    96          1
    97          5
    98         34
    99         84
   100         20
   101         72
   102        352
   103         26
   104          2
   107          1
   108          3
   109          1
   110          3
   111          2
   112          1
   113          6
   114          1
   115        523
   116         39
   117          3
   118          1
   121          1
   126          1
   127        176
   128         15
   129         32
   130        999
   131         80
   132          7
   141          3
   143          1
   144         28
   145          2
   155          1
   157          1
   172          6
   173          2