##TITLE=Library Entry 78635
##JCAMP-DX=Revision 4.10 
##DATA TYPE=MASS SPECTRUM
##SAMPLE DESCRIPTION=Asinex Ltd, Moscow, Russia
##NAMES=HP
##CAS NAME=Benzoic acid, 3-formylphenyl ester
##MOLFORM=C14H10O3
##CAS REGISTRY NO=33696-06-9
##MP= -300
##BP= -300
##MW= 226
##$RETENTION INDEX=0
##$CONDENSED SPECTRUM=NO
##NPOINTS= 71
##XYDATA=(XY..XY) 1 
    37          2
    38          8
    39         21
    40          0
    43          0
    44          0
    50         31
    51         69
    53          5
    54          0
    55          0
    61          1
    62          6
    63         24
    64         17
    65         33
    66          3
    67          0
    74         13
    75          9
    77        324
    78         15
    79          0
    81          0
    87          0
    88          0
    89          0
    90          0
    92         12
    93          3
    94          0
   102          0
   105        999
   106         62
   107          3
   108          0
   109          1
   110          0
   112          0
   113          0
   115          5
   116          0
   119          0
   120          1
   121         10
   122          1
   123          0
   125          3
   127          1
   137          0
   138          0
   139          2
   140          0
   141          2
   142          0
   151          0
   152          0
   153          0
   168          0
   169          0
   171          0
   181          0
   182          0
   197          0
   210          0
   224          0
   225          1
   226         49
   227          7
   228          0
   229          0