##TITLE=Library Entry 21396
##JCAMP-DX=Revision 4.10 
##DATA TYPE=MASS SPECTRUM
##SAMPLE DESCRIPTION=Exported from NIST MS Search
##NAMES=HP
##CAS NAME=1,3-Oxathiane, 2-isopropyl-6-methyl-
##MOLFORM=C8H16OS
##CAS REGISTRY NO=33709-60-3
##MP= -300
##BP= -300
##MW= 160
##$RETENTION INDEX=0
##$CONDENSED SPECTRUM=NO
##NPOINTS= 36
##XYDATA=(XY..XY) 1 
    26         30
    27        230
    28         60
    29        140
    39        180
    40         30
    41        270
    42         60
    43        320
    45        170
    46        280
    47        240
    53         60
    54        260
    55        999
    56         80
    57         40
    58         20
    59         80
    60        470
    61         40
    62         20
    71         70
    72         60
    73        140
    85         20
    87         40
    88        180
    89         90
   101         20
   117        999
   118         80
   119         60
   160        210
   161         20
   162         10