##TITLE=Library Entry 19785
##JCAMP-DX=Revision 4.10 
##DATA TYPE=MASS SPECTRUM
##SAMPLE DESCRIPTION=Exported from NIST MS Search
##NAMES=HP
##CAS NAME=1,3-Oxathiane, 2,6-dimethyl-
##MOLFORM=C6H12OS
##CAS REGISTRY NO=33709-58-9
##MP= -300
##BP= -300
##MW= 132
##$RETENTION INDEX=0
##$CONDENSED SPECTRUM=NO
##NPOINTS= 38
##XYDATA=(XY..XY) 1 
    26         60
    27        320
    28         90
    29        170
    39        220
    40         30
    41        220
    42        100
    43        470
    44         70
    45        380
    46        700
    47        390
    48         40
    53         80
    54        480
    55        999
    56         80
    58         80
    59        230
    60        320
    61        110
    62         60
    71         30
    73        240
    75         30
    76         30
    85         20
    87         40
    88        520
    89         90
    90         30
   117        430
   118         30
   119         20
   131         10
   132         70
   133         10