##TITLE=Library Entry 90344
##JCAMP-DX=Revision 4.10 
##DATA TYPE=MASS SPECTRUM
##SAMPLE DESCRIPTION=Exported from NIST MS Search
##NAMES=HP
##CAS NAME=Pyrrolidine, 1-(1-oxooctadecyl)-
##MOLFORM=C22H43NO
##CAS REGISTRY NO=33707-76-5
##MP= -300
##BP= -300
##MW= 337
##$RETENTION INDEX=2742
##$CONDENSED SPECTRUM=NO
##NPOINTS= 49
##XYDATA=(XY..XY) 1 
    41         76
    42         21
    43        160
    44         28
    67         21
    68          7
    69         48
    70        104
    71        104
    72         59
    81         21
    82          7
    83         21
    84          3
    85         38
    95          7
    96          7
    97         21
    98         59
    99          7
   109          7
   110          7
   111          7
   112          7
   113        999
   114         90
   115          7
   125          7
   126        167
   127         42
   140         28
   141          7
   154          7
   155          7
   168         24
   169          7
   182         21
   196          7
   210          3
   224          7
   238          7
   252          3
   266          3
   280          3
   294          7
   308          7
   336         21
   337         55
   338          7