##TITLE=Library Entry 11993
##JCAMP-DX=Revision 4.10 
##DATA TYPE=MASS SPECTRUM
##SAMPLE DESCRIPTION=Exported from NIST MS Search
##NAMES=HP
##CAS NAME=1,3-Oxathiane, 2-isopropyl-2,6-dimethyl-
##MOLFORM=C9H18OS
##CAS REGISTRY NO=33709-61-4
##MP= -300
##BP= -300
##MW= 174
##$RETENTION INDEX=0
##$CONDENSED SPECTRUM=NO
##NPOINTS= 33
##XYDATA=(XY..XY) 1 
    26         30
    27        210
    28         60
    29        110
    39        190
    40         30
    41        360
    42         70
    43        999
    44         30
    45        120
    46        180
    47        130
    53         70
    54        240
    55        580
    56         80
    59        120
    60        410
    67         50
    69        180
    71        140
    73         70
    85         30
    86        130
    87        390
    88        320
    89        150
   101         30
   131        610
   132         50
   133         30
   174         21