##TITLE=Library Entry 22481
##JCAMP-DX=Revision 4.10 
##DATA TYPE=MASS SPECTRUM
##SAMPLE DESCRIPTION=CARL DJERASSI DEPT OF CHEM STANFORD UNIV STANFORD CALIF
 94305
##NAMES=HP
##CAS NAME=1-Octene, 2,7-dimethyl-
##MOLFORM=C10H20
##CAS REGISTRY NO=33718-03-5
##MP= -300
##BP= -300
##MW= 140
##$RETENTION INDEX=0
##$CONDENSED SPECTRUM=NO
##NPOINTS= 23
##XYDATA=(XY..XY) 1 
    39         70
    41        370
    42         50
    43        290
    55        240
    56        999
    57        280
    58         10
    67         40
    68         40
    69        660
    70         60
    71         10
    82         20
    83         70
    84         90
    85         20
    95         20
    97         30
   112         30
   125         10
   140        140
   141         20