##TITLE=Library Entry 79406
##JCAMP-DX=Revision 4.10 
##DATA TYPE=MASS SPECTRUM
##SAMPLE DESCRIPTION=TAT 0683
##NAMES=HP
##CAS NAME=Morphinan-3,6,14-triol, 7,8-didehydro-4,5-epoxy-17-methyl-, (5.al
pha.,6.alpha.)-
##MOLFORM=C17H19NO4
##CAS REGISTRY NO=3371-56-0
##MP= -300
##BP= -300
##MW= 301
##$RETENTION INDEX=0
##$CONDENSED SPECTRUM=NO
##NPOINTS= 90
##XYDATA=(XY..XY) 1 
    41        100
    42        110
    43         80
    44        120
    45         40
    50        200
    51        310
    52         70
    53         60
    54         40
    55        130
    56         40
    57         80
    58        110
    59         10
    63         40
    65         90
    66         50
    67         60
    68         70
    69         70
    70        520
    71         50
    72         10
    73         30
    74         90
    75         80
    76         80
    77        640
    78         80
    79         10
    81         30
    82         30
    83         30
    84         60
    91         40
    92         50
    93         50
    96         30
   103         30
   104         30
   105        999
   106         80
   107         20
   109        100
   110         60
   115         60
   120         80
   121        130
   122        200
   123         90
   124         50
   128         30
   129         30
   131         30
   137        120
   138        110
   139         30
   140         30
   149         40
   150        580
   151        270
   152         50
   161         50
   164         50
   165         60
   167        150
   168         20
   169         30
   171         30
   173         30
   174         70
   175         40
   176         30
   178         90
   179        460
   180         60
   214         40
   215        130
   216         80
   217         30
   229         30
   244         30
   273         30
   284         40
   299        100
   300         40
   301        370
   302         70
   303         10