##TITLE=Library Entry 24915
##JCAMP-DX=Revision 4.10 
##DATA TYPE=MASS SPECTRUM
##SAMPLE DESCRIPTION=CARL DJERASSI DEPT OF CHEM STANFORD UNIV STANFORD CALIF
 94305
##NAMES=HP
##CAS NAME=1-Hexene, 2-isopentyl-5-methyl-
##MOLFORM=C12H24
##CAS REGISTRY NO=33717-92-9
##MP= -300
##BP= -300
##MW= 168
##$RETENTION INDEX=0
##$CONDENSED SPECTRUM=NO
##NPOINTS= 24
##XYDATA=(XY..XY) 1 
    39         80
    40         20
    41        400
    42         30
    43        240
    53         30
    54         10
    55        340
    56        950
    57        999
    58        100
    67         30
    68         70
    69        450
    70        120
    71         70
    81         20
    83         70
    84         10
    97         70
   112        360
   113         60
   168        160
   169         10