##TITLE=Library Entry 79807
##JCAMP-DX=Revision 4.10 
##DATA TYPE=MASS SPECTRUM
##SAMPLE DESCRIPTION=A.A.Kutin, Moscow, Russia
##NAMES=HP
##CAS NAME=Acetic acid, 2-[2-benzoylamino)-3-(2-furyl)-1oxo-2-propenyl]-, et
hyl ester
##MOLFORM=C18H18N2O5
##CAS REGISTRY NO=337347-42-9
##MP= -300
##BP= -300
##MW= 342
##$RETENTION INDEX=0
##$CONDENSED SPECTRUM=NO
##NPOINTS= 131
##XYDATA=(XY..XY) 1 
    33          2
    37          0
    38          3
    39          7
    40          6
    41          3
    42          6
    43         20
    44          2
    45          3
    46          0
    51        119
    52         51
    53         14
    54          4
    56         18
    57          1
    59          0
    60          1
    62          2
    63          5
    64          1
    65          2
    66          0
    68          2
    69          0
    74         17
    77        401
    79         69
    80         19
    81          6
    82          1
    83          1
    85          0
    86          3
    89          1
    90          0
    91          1
    92          0
    94          0
    95          0
   102          4
   103          2
   105        999
   107        155
   108         28
   109          2
   114          3
   115          8
   116          1
   117          1
   118          2
   119          1
   120          3
   121          1
   126          0
   127          4
   128          2
   129          0
   132          0
   134          3
   135          7
   136          2
   140          1
   141          2
   142          0
   143         23
   144          2
   145          0
   148          0
   149          0
   154          2
   156          1
   157          0
   161          3
   162          7
   163         15
   164         10
   165          1
   166          0
   167          0
   168          1
   169          1
   173          1
   175          0
   182          6
   183          2
   184          2
   185          0
   186          0
   190         19
   191          5
   192          2
   194          2
   195          0
   196          0
   209          2
   210          1
   211         13
   212          5
   213          1
   220         18
   221          5
   222          0
   230          0
   232          0
   236          0
   237         13
   239        332
   240        138
   241         20
   242          1
   251          2
   261          1
   267          0
   268          2
   274          0
   283          1
   296          0
   297         41
   298          6
   299          0
   313          1
   315          3
   324         53
   325         11
   326          1
   342        256
   343         49
   344          7
   345          0