##TITLE=Library Entry 11493
##JCAMP-DX=Revision 4.10 
##DATA TYPE=MASS SPECTRUM
##SAMPLE DESCRIPTION=A.A.Kutin, Moscow, Russia
##NAMES=HP
##CAS NAME=Propenamide, 2-acetamido-3-phenyl-N-(2-hydroxyethyl)-
##MOLFORM=C13H16N2O3
##CAS REGISTRY NO=337347-37-2
##MP= -300
##BP= -300
##MW= 248
##$RETENTION INDEX=0
##$CONDENSED SPECTRUM=NO
##NPOINTS= 115
##XYDATA=(XY..XY) 1 
    33         34
    34          2
    38         21
    39         80
    40         51
    41         39
    43        999
    44        158
    45        113
    46         11
    47          5
    49          1
    50         28
    51         66
    52         17
    53          4
    54         10
    55         22
    56         12
    57         11
    58         11
    59         15
    60         83
    62        111
    63         75
    64         34
    65         56
    66          5
    67          0
    68          1
    69          4
    70         38
    72         85
    73          5
    74          9
    75         15
    76         19
    77         84
    78         11
    79          4
    82          1
    83          5
    84          1
    85          1
    86         14
    87         11
    89        188
    90        183
    91        282
    92         28
    93          1
    97          2
    98          1
    99          3
   101          5
   102         17
   103         15
   104         38
   105        115
   106         19
   107          5
   108          4
   109         10
   114          1
   115        109
   116         74
   117        312
   118        419
   119        132
   120         18
   121          2
   129         21
   130         25
   131          8
   132         24
   133          4
   134          5
   135          6
   136          0
   142          0
   144         20
   145         22
   146         24
   147         40
   148          9
   149         10
   150         31
   151          2
   159         15
   160         11
   161         16
   162         18
   163         23
   164          8
   173          2
   174          0
   175          7
   176          6
   186          6
   187         68
   188         50
   189        128
   190         14
   191          1
   203          0
   205         19
   206        187
   207         21
   208          1
   218          8
   230         17
   231          0
   247          9
   248         46
   249          6