##TITLE=Library Entry 78794
##JCAMP-DX=Revision 4.10 
##DATA TYPE=MASS SPECTRUM
##SAMPLE DESCRIPTION=A.A.Kutin, Moscow, Russia
##NAMES=HP
##CAS NAME=Pyrimidine-2,4,6(1H,3H,5H)-trione, 5-amino(benzoylamino)methylene
-1,3-dimethyl-
##MOLFORM=C14H14N4O4
##CAS REGISTRY NO=337340-14-4
##MP= -300
##BP= -300
##MW= 302
##$RETENTION INDEX=0
##$CONDENSED SPECTRUM=NO
##NPOINTS= 229
##XYDATA=(XY..XY) 1 
    33          2
    34          3
    36          1
    38         10
    39         29
    40         48
    41         29
    42         63
    43        138
    44         29
    45          2
    50         48
    51        166
    52         21
    53         17
    54         10
    55         28
    56         39
    57         22
    58         99
    59          2
    60          0
    61          0
    62          3
    63          9
    64          5
    65         12
    66         11
    67         29
    68         76
    69         39
    70         15
    71          5
    72          1
    74         10
    75         15
    76         42
    77        622
    78         46
    79          9
    80          8
    81          6
    82         11
    83         12
    84         11
    85          3
    86          0
    87          1
    88          1
    89          6
    90          5
    91          7
    92          6
    93          7
    94         11
    95          2
    96          4
    97          2
    98          0
    99          1
   100          0
   101          1
   102          5
   103          8
   105        999
   106         73
   107          6
   108          1
   109          1
   110          1
   111         11
   112          7
   113          2
   114          2
   115          4
   116          2
   117          3
   118          7
   119          4
   120          1
   121          1
   122          2
   123          4
   124          3
   125          2
   126          1
   127          2
   128          3
   129          3
   130          3
   131          3
   132          3
   133          1
   134          0
   135          0
   138          0
   140         24
   141          2
   142          5
   143          4
   144          2
   145          2
   146          1
   147          0
   148          0
   150          0
   151          1
   152          1
   153          1
   154          2
   155          3
   156          2
   157          1
   158          1
   159          0
   160          1
   165          0
   166          0
   167          1
   168          3
   169          3
   170          3
   171          2
   172          0
   173          1
   174          0
   178          0
   179          1
   180          3
   181          4
   182          9
   183          3
   184          2
   185          1
   187         13
   188          2
   189          0
   190          0
   191          0
   192          1
   193          3
   194          2
   195          5
   196          4
   197         57
   198          6
   199          1
   200          0
   201          0
   204          0
   205          0
   206          1
   207          1
   208          1
   209          1
   210          0
   211          0
   212          0
   215          1
   216          1
   217          0
   218          1
   219          1
   220          0
   221          1
   222          1
   223          2
   224          3
   225          6
   226          1
   227          0
   228          0
   230          0
   231          0
   232          0
   233          0
   234          0
   235          1
   236          1
   237          0
   238          0
   239          5
   240          1
   241          2
   242          0
   244          1
   245          0
   246          0
   247          0
   248          0
   249          3
   250          1
   251          1
   252          0
   253          0
   255          0
   256          0
   257          3
   258          1
   259          0
   263          1
   264          1
   265          3
   266          2
   267          1
   268          0
   272          0
   273          5
   274          8
   275          2
   276          0
   277          0
   278          0
   279          2
   280          0
   281          0
   283          2
   289          0
   290          0
   291          3
   292         15
   293          4
   294          0
   301         22
   302        143
   303         24
   304          3
   305          0
   306          0