##TITLE=Library Entry 39567
##JCAMP-DX=Revision 4.10 
##DATA TYPE=MASS SPECTRUM
##SAMPLE DESCRIPTION=Asinex Ltd, Moscow, Russia
##NAMES=HP
##CAS NAME=1-(4-Iodo-phenyl)-3-(tetrahydro-furan-2-yl)-pyrrolidine-2,5-dione
##MOLFORM=C14H14INO3
##CAS REGISTRY NO=337496-74-9
##MP= -300
##BP= -300
##MW= 371
##$RETENTION INDEX=0
##$CONDENSED SPECTRUM=NO
##NPOINTS= 197
##XYDATA=(XY..XY) 1 
    38          2
    39         31
    40         20
    41         73
    42         25
    43        127
    44         10
    50          6
    51          4
    52          2
    53         14
    54         14
    55        108
    56         16
    57          5
    62          5
    63         37
    64         23
    65         13
    66          4
    67         24
    68         14
    69         21
    70         14
    71        999
    72         48
    73          4
    74          6
    75          7
    76         29
    77         18
    78          5
    79         13
    80          7
    81         15
    82         11
    83         49
    84         12
    85          2
    87          1
    88          3
    89         11
    90        182
    91         43
    92         18
    93         19
    94          7
    95         14
    96         13
    97         59
    98         15
    99          2
   101          6
   102         12
   103         11
   104         10
   105          9
   106          2
   107          5
   108          3
   109          6
   110          2
   111        153
   112         13
   113          2
   114          1
   115          9
   116         17
   117         32
   118        125
   119         66
   120         10
   121          5
   122          5
   123          7
   124         13
   125         21
   127        176
   128        240
   129         22
   130         16
   131         10
   132         52
   133         10
   134          2
   135          6
   136          3
   137          1
   138          3
   139          3
   140          1
   141          5
   142          9
   143         13
   144         22
   145         32
   146         78
   147         18
   148          3
   149          9
   150          2
   151          1
   152          5
   153         35
   154         25
   155          5
   156          3
   157          6
   158          6
   159          5
   160          3
   161          8
   162          3
   163          5
   164          3
   165          1
   166          1
   167          5
   168          4
   169          2
   170          8
   171         12
   172         16
   173         44
   174         40
   175         83
   176         11
   181          0
   182          1
   183          2
   184          5
   185          8
   186          8
   187          9
   188          5
   189          2
   191          2
   198          2
   199          5
   200          2
   201         13
   202         28
   203         37
   204         13
   212          0
   213          5
   214          3
   215          2
   216          3
   217         12
   218         17
   219        123
   220          8
   229          4
   230         12
   231          3
   243          3
   244         14
   245        193
   246         26
   247          2
   254          5
   255          3
   256          7
   257          1
   270          2
   271          2
   272         10
   273         34
   274          2
   277          5
   287          1
   298          0
   299         15
   300         17
   301        309
   302         36
   303          2
   313          1
   314          4
   315          2
   327         40
   328        138
   329         27
   330          1
   340          2
   341          7
   342          1
   343         27
   344          2
   345          4
   347          1
   348          2
   369          1
   371        354
   372         63
   373          5