##TITLE=Library Entry 10666
##JCAMP-DX=Revision 4.10 
##DATA TYPE=MASS SPECTRUM
##SAMPLE DESCRIPTION=Chemical Concepts
##NAMES=HP
##CAS NAME=3-(Acetylhydrazono)-3',4'-dichlorobutyranilide
##MOLFORM=C12H13Cl2N3O2
##CAS REGISTRY NO=337490-87-6
##MP= -300
##BP= -300
##MW= 301
##$RETENTION INDEX=0
##$CONDENSED SPECTRUM=NO
##NPOINTS= 198
##XYDATA=(XY..XY) 1 
    33          1
    34          1
    35         12
    36         64
    37         11
    38         40
    39        125
    40         59
    41        268
    42        155
    43        999
    44         84
    45         13
    46          2
    47          2
    49          9
    50          9
    51          9
    52         12
    53          7
    54         50
    55         71
    56         44
    57        126
    58         21
    59          7
    60          5
    61         15
    62         33
    63         58
    64         15
    65          9
    66          4
    67         18
    68         11
    69         45
    70         53
    71        302
    72        718
    73        744
    74         52
    75         38
    76          5
    77          4
    78          3
    79          2
    80          4
    81          9
    82         13
    83         15
    84         53
    85         17
    86          5
    87          7
    88         12
    89         13
    90         43
    91         10
    92          2
    93          3
    94          2
    95          3
    96          9
    97         75
    98        187
    99        893
   100         53
   101         14
   102          4
   103          2
   104          3
   105          2
   106          1
   107          7
   108          4
   109         43
   110         15
   111         23
   112         11
   113         33
   114        266
   115         18
   116          3
   117          2
   118          1
   119          2
   120          1
   121          2
   122          1
   123          6
   124         40
   125         48
   126         39
   127         31
   128         10
   129          8
   130          2
   131          2
   132          4
   133         49
   134         12
   135         28
   136          9
   137          7
   138          7
   139          9
   140         39
   141        285
   142         19
   143          4
   145         45
   146          7
   147         26
   148          4
   149          5
   150          2
   151          3
   152          3
   153          6
   154          2
   155          2
   157          2
   158          3
   159         22
   160        105
   161        823
   162        116
   163        479
   164         41
   165         84
   166          9
   167          8
   168          3
   169          3
   170          1
   171          8
   172          5
   173          3
   174         10
   175          3
   176          6
   177          1
   178          2
   179          2
   180          1
   181          1
   182          1
   183          1
   184          1
   185          3
   186         11
   187         27
   188         21
   189         19
   190         10
   191          4
   192          2
   193          2
   194          1
   196          2
   198          1
   199          2
   200          2
   201          2
   202          3
   203          4
   204          2
   205          2
   206          1
   207          2
   208          1
   210          1
   212          2
   213          1
   214          2
   215          1
   216          1
   221          1
   228          5
   229          1
   230          3
   240          3
   241          9
   242          4
   243          7
   244          3
   245         12
   246          2
   247          7
   249          1
   283          3
   284          1
   286          2
   301         19
   302          3
   303         11
   304          2
   305          2