##TITLE=Library Entry 44420
##JCAMP-DX=Revision 4.10 
##DATA TYPE=MASS SPECTRUM
##SAMPLE DESCRIPTION=Exported from NIST MS Search
##NAMES=HP
##CAS NAME=Estrone, bis(trimethylsilyl) phosphate
##MOLFORM=C24H39O5PSi2
##CAS REGISTRY NO=33745-62-9
##MP= -300
##BP= -300
##MW= 494
##$RETENTION INDEX=0
##$CONDENSED SPECTRUM=NO
##NPOINTS= 244
##XYDATA=(XY..XY) 1 
    41         80
    42          3
    43         29
    44         25
    45         72
    46          3
    47          3
    53         25
    55         94
    56          3
    57          3
    59          3
    61          3
    63          3
    65         18
    67         54
    68          3
    69         14
    72         18
    73        999
    74         72
    75         54
    76          3
    77         29
    78          3
    79         25
    80          3
    81         36
    82          3
    89          3
    90          3
    91         36
    92          3
    93         21
    94          3
    95         21
    96          3
    97         43
    98          3
   102          3
   103          7
   104          3
   105         21
   107          7
   109          3
   110          3
   115        130
   116         36
   117         29
   119         25
   121         25
   123          7
   127         29
   128        105
   129         58
   130         25
   131         25
   133        152
   134          7
   135         72
   136          7
   137         25
   139          7
   140         21
   141         72
   142         72
   143         25
   144          3
   145         14
   147        145
   148         25
   149         32
   151         14
   152         29
   153         36
   154         43
   155         36
   156         47
   157         21
   158          3
   159          3
   161          3
   163          3
   164          3
   165         36
   166         21
   167         36
   168         18
   169          3
   171          3
   177         18
   178         18
   179         47
   180         14
   181         43
   182         14
   183         25
   184          3
   185          3
   186          3
   187          3
   189          3
   191         18
   192         18
   193         18
   194         25
   195         80
   196         47
   197         43
   198          3
   199          3
   202          3
   203          3
   205          3
   208          3
   209         14
   210         21
   211        356
   212         58
   213         36
   215          3
   218          3
   219         14
   223          7
   224          3
   225         72
   226         25
   227        258
   228         36
   229         29
   230          3
   231          3
   232          3
   234          3
   235          3
   236          3
   237         21
   243        232
   244         29
   245         25
   251          3
   252         25
   253          3
   254          3
   257          3
   263          3
   265          3
   267          3
   269          3
   270          3
   271          3
   299         36
   300         25
   301          3
   302          3
   308         29
   309          3
   311          3
   313         14
   314          7
   315         14
   321         14
   322         14
   323          3
   324          3
   325         32
   326          3
   327          3
   329          3
   332          3
   334          3
   335         14
   337         29
   338          3
   339         29
   340          3
   341          3
   342          3
   346          3
   347          3
   349         25
   350         29
   351         25
   352         10
   353         32
   354          7
   357         29
   358          3
   362         25
   363          7
   365          7
   367         21
   368          7
   369         29
   370         83
   371         40
   372         25
   373          3
   381         21
   382         21
   383         29
   384         61
   385         32
   386          3
   388          7
   389          7
   395          3
   396         36
   397         54
   398         21
   399          7
   409         61
   410         36
   411         21
   412          3
   435          3
   436          3
   437         58
   438         72
   439         32
   440          7
   449          3
   450          3
   451          7
   452          3
   461          7
   463         29
   464         10
   465         21
   466         10
   467          7
   477          7
   478         29
   479        538
   480        181
   481         72
   482         18
   492          3
   493        101
   494        970
   495        436
   496        174
   497         32
   498          3