##TITLE=Library Entry 78737
##JCAMP-DX=Revision 4.10 
##DATA TYPE=MASS SPECTRUM
##SAMPLE DESCRIPTION=A.A.Kutin, Moscow, Russia
##NAMES=HP
##CAS NAME=Benz[b]1,4-oxazin-3(2H)-one, 4-benzoyl-
##MOLFORM=C15H11NO3
##CAS REGISTRY NO=337470-63-0
##MP= -300
##BP= -300
##MW= 253
##$RETENTION INDEX=0
##$CONDENSED SPECTRUM=NO
##NPOINTS= 52
##XYDATA=(XY..XY) 1 
    34          0
    37          2
    38          8
    39         26
    40         15
    42         10
    44          5
    50         31
    51        119
    52         16
    53          4
    55          0
    56          0
    61          0
    62          4
    63         19
    64         17
    65         22
    66          3
    73          0
    74          5
    75          9
    77        455
    78         29
    79          3
    87          0
    88          1
    89          2
    90         31
    91         13
    92          6
    93          8
    94          0
   102          1
   105        999
   106         65
   107          4
   108          0
   114          0
   119          1
   120         16
   121          1
   122          1
   135          1
   139          1
   140          0
   148          2
   149          3
   239          1
   253         50
   254          8
   255          0