##TITLE=Library Entry 43845
##JCAMP-DX=Revision 4.10 
##DATA TYPE=MASS SPECTRUM
##SAMPLE DESCRIPTION=O A MAMER, MCGILL UNIVERSITY, MONTRE
##NAMES=HP
##CAS NAME=Vanillyl alcohol, 2TMS derivative
##MOLFORM=C14H26O3Si2
##CAS REGISTRY NO=33740-07-7
##MP= -300
##BP= -300
##MW= 298
##$RETENTION INDEX=1633
##$CONDENSED SPECTRUM=NO
##NPOINTS= 93
##XYDATA=(XY..XY) 1 
    14         13
    15         59
    16          7
    26          8
    27          8
    28         37
    29         11
    31          8
    32          7
    39         12
    43         35
    44         26
    45        179
    46         12
    47         15
    50          6
    51         19
    52         13
    55          7
    57         10
    58         21
    59        104
    60          9
    61         13
    63          6
    65         15
    72         14
    73        999
    74         89
    75         84
    76          8
    77         29
    78         15
    79         18
    82          7
    83          9
    89         38
    90         12
    91         22
    93          6
   103         21
   104         21
   105         32
   106         12
   107         18
   111          7
   119         52
   120         11
   121          8
   127         19
   133         20
   134         59
   135         32
   136         15
   137          9
   147        143
   148         26
   149         82
   150         14
   151         16
   161         12
   162         12
   163         29
   164         12
   165         20
   166         15
   167          9
   177         18
   179        248
   180         46
   181         19
   191         14
   193         56
   194         28
   195         20
   207         22
   209        612
   210        110
   211         33
   223         18
   244         73
   253        147
   255         50
   267        248
   268        357
   269        109
   283        263
   284         66
   285         28
   298        643
   299        176
   300         67
   301         12