##TITLE=Library Entry 78970
##JCAMP-DX=Revision 4.10 
##DATA TYPE=MASS SPECTRUM
##SAMPLE DESCRIPTION=A.A.Kutin, Moscow, Russia
##NAMES=HP
##CAS NAME=Benzenacetamide, 2-hydroxy-2-phenyl-N-(4-pyridyl)-
##MOLFORM=C19H16N2O2
##CAS REGISTRY NO=337492-75-8
##MP= -300
##BP= -300
##MW= 304
##$RETENTION INDEX=0
##$CONDENSED SPECTRUM=NO
##NPOINTS= 90
##XYDATA=(XY..XY) 1 
    33         13
    36        115
    38         79
    39        131
    40         61
    41         26
    42         54
    44         11
    45          0
    51        364
    52         51
    53         14
    54          4
    55          1
    56          0
    57          0
    58          0
    61          1
    62          8
    63         23
    64         13
    65         26
    66         50
    67         41
    68          3
    70          3
    74         14
    75         19
    77        803
    78        165
    79         11
    80          1
    81          1
    82          4
    83          2
    86          7
    87          6
    88          3
    89          9
    91         13
    94        623
    95         25
    97          0
    98          2
    99          0
   100          0
   101          3
   102          5
   105        999
   106         47
   107          3
   110          0
   111          0
   113          4
   114          2
   115         12
   116          0
   122        354
   124         13
   126          6
   127          7
   128          5
   129          1
   137          1
   138          1
   139         11
   140          0
   150          2
   151          9
   152         28
   153         13
   154          3
   155          1
   162          0
   163         11
   164         13
   165         61
   166         18
   167          3
   168          1
   171          0
   181         29
   183        506
   184         63
   185          4
   209          1
   211          1
   257          0
   276         14
   277          2