##TITLE=Library Entry 100795
##JCAMP-DX=Revision 4.10 
##DATA TYPE=MASS SPECTRUM
##SAMPLE DESCRIPTION=A.A.Kutin, Moscow, Russia
##NAMES=HP
##CAS NAME=Methanone, (5-cyclohexyl-5-hydroxy-3-methyl-2-pyrazolin-1-yl)(4-m
ethylphenyl)-
##MOLFORM=C18H24N2O2
##CAS REGISTRY NO=337497-68-4
##MP= -300
##BP= -300
##MW= 300
##$RETENTION INDEX=0
##$CONDENSED SPECTRUM=NO
##NPOINTS= 107
##XYDATA=(XY..XY) 1 
    39          9
    40          5
    41         17
    42          5
    43          3
    44          0
    51          1
    52          0
    53          2
    54          2
    55         23
    56          2
    57          0
    63          1
    64          0
    65         18
    66          0
    67          3
    68          0
    69          1
    70          1
    71          0
    77          4
    78          0
    79          3
    80          0
    81          4
    82          1
    83         27
    84          7
    89          6
    90          8
    91        106
    92          9
    93          0
    95          3
    96          2
    98          0
    99          2
   105          8
   106          0
   107          0
   108          0
   109          7
   110          1
   111          1
   117          3
   119        999
   120         98
   121          7
   122          1
   123          0
   133          1
   134          0
   135          7
   136          4
   139          0
   147          2
   148          3
   149          0
   150          0
   151          1
   160          0
   161          1
   162         23
   163         94
   164         13
   165          1
   166          3
   167          1
   173          0
   175         35
   176          5
   178          0
   185          0
   186          0
   187          0
   189          7
   190         21
   191          3
   199          0
   203          9
   204          0
   214          5
   215          1
   216         12
   217        935
   218        133
   219         13
   226          3
   227          3
   229          0
   240          0
   241          2
   253          1
   254          6
   255          0
   267          0
   268          1
   280          0
   281          5
   282         64
   283         15
   284          1
   294          0
   300          7
   301          0