##TITLE=Library Entry 90180
##JCAMP-DX=Revision 4.10 
##DATA TYPE=MASS SPECTRUM
##SAMPLE DESCRIPTION=Exported from NIST MS Search
##NAMES=HP
##CAS NAME=Pyrrolidine, 1-[3.alpha.,7.alpha.,12.alpha.-tris(trimethylsiloxy)
-5.beta.-cholan-24-oyl]-
##MOLFORM=C37H71NO4Si3
##CAS REGISTRY NO=33745-60-7
##MP= -300
##BP= -300
##MW= 677
##$RETENTION INDEX=0
##$CONDENSED SPECTRUM=NO
##NPOINTS= 132
##XYDATA=(XY..XY) 1 
    41         62
    42         21
    43        104
    44         10
    45         31
    47          7
    55        167
    56         42
    57         24
    59         21
    61         21
    67         48
    68         21
    69         55
    70        167
    71         66
    72        160
    73        611
    74         62
    75        276
    76         21
    77         21
    79         38
    81         59
    83         28
    84          7
    85         76
    91         52
    93         59
    94         21
    95         48
    96          3
    97          3
    98        146
    99         21
   101         28
   103         28
   105         59
   106          7
   107         52
   109         21
   110          7
   111          7
   112         21
   113        999
   114        122
   115         21
   116          7
   117         38
   118          7
   119         52
   120          7
   121         31
   126        377
   127         59
   128          3
   129         66
   130         24
   131         52
   132          7
   133         42
   134          7
   135          7
   141          7
   142         21
   143         52
   144         21
   145         55
   146          7
   147         87
   148          7
   149         31
   153         21
   154        136
   155         38
   156         21
   157         38
   158          7
   159         42
   161          7
   166          3
   167          3
   168          3
   169         28
   170          7
   171         31
   172          7
   173         21
   180         28
   181         28
   182         21
   183         28
   184          7
   185         48
   186         21
   187         31
   188          7
   193         21
   194         24
   195         31
   196          7
   197         21
   198         31
   199         31
   200         24
   201         14
   209          7
   211         21
   213         24
   251          7
   252          7
   253        111
   254         31
   406          7
   407         21
   408         10
   497         21
   498         10
   587         28
   588         21
   589          7
   620          2
   621          0
   622          0
   662        237
   663        139
   664         69
   665         21
   666          7
   676          7
   677          7
   678          7