##TITLE=Library Entry 92832
##JCAMP-DX=Revision 4.10 
##DATA TYPE=MASS SPECTRUM
##SAMPLE DESCRIPTION=Exported from NIST MS Search
##NAMES=HP
##CAS NAME=2-Oxazolidinone, 3-(2-hydroxypropyl)-5-methyl-
##MOLFORM=C7H13NO3
##CAS REGISTRY NO=3375-84-6
##MP= -300
##BP= -300
##MW= 159
##$RETENTION INDEX=0
##$CONDENSED SPECTRUM=NO
##NPOINTS= 73
##XYDATA=(XY..XY) 1 
    14          4
    15         46
    16          1
    17          6
    18         26
    19          9
    26          7
    27         52
    28        109
    29         61
    30         43
    32          6
    38          4
    39         45
    40         12
    41        231
    42        446
    43        146
    44         25
    45        158
    46          4
    51          1
    52          2
    53          1
    54         13
    55         15
    56         71
    57         21
    58         26
    59         18
    60          1
    67          2
    68         17
    69          6
    70        256
    71         18
    72         20
    73          8
    74        848
    75         23
    76          4
    77          2
    80          1
    81          1
    82          5
    83          1
    84         18
    85          2
    86          9
    87          6
    88          2
    96          2
    97          1
    98         11
    99          1
   100         15
   101         36
   102         29
   103          3
   113          3
   114         73
   115        999
   116         63
   117          6
   126          3
   128         15
   129          3
   140          3
   141          2
   142          2
   144         12
   159          2
   160          4