##TITLE=Library Entry 81210
##JCAMP-DX=Revision 4.10 
##DATA TYPE=MASS SPECTRUM
##SAMPLE DESCRIPTION=Japan AIST/NIMC Database- Spectrum MS-NW-6491
##NAMES=HP
##CAS NAME=1,6-Hexanedione, 1,6-diphenyl-
##MOLFORM=C18H18O2
##CAS REGISTRY NO=3375-38-0
##MP= -300
##BP= -300
##MW= 266
##$RETENTION INDEX=0
##$CONDENSED SPECTRUM=NO
##NPOINTS= 93
##XYDATA=(XY..XY) 1 
    18          1
    26          1
    27         11
    28          7
    29          3
    32          1
    38          1
    39         13
    40          1
    41          9
    42          1
    43          4
    50         16
    51         76
    52          6
    53          3
    55         15
    56          1
    57          1
    62          1
    63          3
    64          1
    65          6
    66          1
    67          1
    68          1
    69          2
    74          3
    75          4
    76         12
    77        400
    78         48
    79          5
    81          1
    83          1
    89          2
    90          1
    91         20
    92          4
    96          1
   102          1
   103          4
   104          4
   105        999
   106         82
   107          5
   115          8
   116          3
   117          6
   118          2
   119         21
   120        350
   121         40
   122          3
   127          2
   128         11
   129          5
   131          9
   132          3
   133         31
   134         34
   135          4
   141          2
   142          4
   143         10
   144         11
   145         55
   146        598
   147        136
   148         11
   149          2
   152          1
   153          1
   159          1
   160          7
   161         17
   162          2
   171          3
   181          1
   215          1
   219          1
   220          2
   229          1
   230          1
   232          1
   238         30
   239          5
   247         14
   248         23
   249          5
   266         28
   267          6
   268          1