##TITLE=Library Entry 78407
##JCAMP-DX=Revision 4.10 
##DATA TYPE=MASS SPECTRUM
##SAMPLE DESCRIPTION=A.A.Kutin, Moscow, Russia
##NAMES=HP
##CAS NAME=Pyrrol-2(5H)-one, 4-benzoyl-3-hydroxy-5-(4-hydroxy-3-methoxypheny
l)-1-(2-methoxyethyl)-
##MOLFORM=C21H21NO6
##CAS REGISTRY NO=337506-57-7
##MP= -300
##BP= -300
##MW= 383
##$RETENTION INDEX=0
##$CONDENSED SPECTRUM=NO
##NPOINTS= 217
##XYDATA=(XY..XY) 1 
    33          3
    39         20
    40         32
    41         21
    42         16
    43         46
    44         22
    45        245
    46          3
    47          0
    50         15
    51         66
    52         18
    53         22
    54          4
    55         18
    56          7
    57         10
    58         31
    59         21
    60          5
    61          1
    62          4
    63         17
    65         20
    66          4
    67          5
    68          3
    69         18
    70         10
    71          4
    72          1
    73          7
    74          7
    75         11
    76         25
    77        347
    78         45
    79         14
    80          7
    81          9
    82          6
    83          6
    84          3
    85          2
    86          0
    87          3
    88          5
    89         25
    90          9
    91         18
    92          6
    93          7
    94          6
    95          4
    96          2
    97          3
    98          1
    99          0
   100          0
   101          4
   102         13
   103          9
   105        999
   106         75
   107          9
   108          5
   109         13
   110          2
   111          4
   112          3
   113          2
   115         13
   116          6
   117         16
   118          8
   119          7
   120          5
   121          3
   122          5
   123          4
   124         20
   125          2
   126          2
   127          4
   128          5
   129         13
   130          9
   131          9
   132          9
   133         20
   134         15
   135          7
   136          3
   137         29
   138          3
   139          8
   140          3
   141          3
   142          0
   143          2
   144          4
   145         13
   146          8
   147          8
   148         10
   149         16
   150         15
   151         13
   152         18
   153         10
   154          3
   155          4
   156          0
   157          4
   158          6
   159          4
   160          9
   161         13
   162         12
   163          9
   164          9
   165         43
   166          8
   167          5
   168          2
   169          0
   171          4
   172          1
   173          4
   174          4
   175         19
   176         15
   177         22
   178         12
   179          3
   180          2
   181         12
   182          4
   183          4
   184          0
   185          1
   186          0
   187          1
   188          2
   189          4
   190         20
   191          6
   192          9
   193          6
   194          8
   195          4
   196          0
   201          0
   202          2
   203          2
   204          3
   205          4
   206          2
   207          3
   208          2
   209          1
   210          3
   211          2
   213          2
   217          1
   218          3
   219          3
   220         13
   221          4
   222          3
   223          4
   224          1
   225          1
   226          0
   232          2
   233          0
   235          0
   236          0
   237          4
   238          3
   239          2
   240          0
   242          0
   245          1
   246          3
   247          2
   248          1
   249          0
   250         40
   251          8
   252          3
   253          7
   254          3
   256          0
   262          1
   264          1
   265          1
   266          1
   267          2
   268         40
   269         36
   270          5
   278         14
   279          4
   280          5
   281         54
   282         12
   283          1
   296          2
   325          4
   351          0
   352          1
   382          4
   383         56
   384         13
   385          1