##TITLE=Library Entry 23835
##JCAMP-DX=Revision 4.10 
##DATA TYPE=MASS SPECTRUM
##SAMPLE DESCRIPTION=Japan AIST/NIMC Database- Spectrum MS-NW-7176
##NAMES=HP
##CAS NAME=2-Propanamine, 2-methyl-N-(phenylmethylene)-, N-oxide
##MOLFORM=C11H15NO
##CAS REGISTRY NO=3376-24-7
##MP= -300
##BP= -300
##MW= 177
##$RETENTION INDEX=0
##$CONDENSED SPECTRUM=NO
##NPOINTS= 64
##XYDATA=(XY..XY) 1 
    15          5
    26          1
    27         22
    28          9
    29        152
    30          4
    37          1
    38          5
    39         50
    40          8
    41        208
    42         10
    43          3
    50         10
    51         27
    52          6
    53          4
    54          2
    55         14
    56         16
    57        999
    58         44
    59          2
    61          1
    62          5
    63         18
    64          9
    65         36
    66         14
    67          5
    74          2
    75          4
    76          6
    77         44
    78         34
    79          4
    87          1
    89         30
    90         15
    91          6
    92          9
    93         10
    94         17
    95          1
   102          3
   103          5
   104         23
   105          5
   106          3
   115          1
   116          1
   120         36
   121        121
   122         21
   123          1
   130          2
   131          2
   146          9
   147          1
   161          1
   176          1
   177        159
   178         20
   179          1