##TITLE=Library Entry 12656
##JCAMP-DX=Revision 4.10 
##DATA TYPE=MASS SPECTRUM
##SAMPLE DESCRIPTION=Exported from NIST MS Search
##NAMES=HP
##CAS NAME=Decanoic acid, 2-hydroxy-1-(hydroxymethyl)ethyl ester
##MOLFORM=C13H26O4
##CAS REGISTRY NO=3376-48-5
##MP= -300
##BP= -300
##MW= 246
##$RETENTION INDEX=0
##$CONDENSED SPECTRUM=NO
##NPOINTS= 109
##XYDATA=(XY..XY) 1 
    26         20
    27        290
    28        130
    29        520
    30         20
    31        230
    32         20
    38         10
    39        160
    40         30
    41        690
    42        230
    43        999
    44        110
    45        170
    46         10
    47         10
    51         10
    52         10
    53         40
    54         50
    55        550
    56        260
    57        620
    58         30
    59         30
    60        140
    61        110
    62         10
    65         10
    66         10
    67         70
    68         60
    69        230
    70         70
    71        480
    72         30
    73        180
    74        130
    75        150
    76         10
    77         20
    78         10
    79         20
    80         10
    81         80
    82         30
    83        100
    84        250
    85        240
    86         20
    87        110
    88         10
    89         20
    91         20
    93         30
    94         10
    95         80
    96         10
    97         70
    98        260
    99         20
   100         20
   101         30
   102         10
   103         10
   105         40
   106         10
   107         10
   109         10
   110         20
   111         30
   112         90
   113         20
   115         20
   116        130
   117         20
   121         10
   125         10
   126         20
   127         10
   129         70
   130         10
   134        210
   135         20
   136         10
   137         10
   139         10
   143         30
   144         10
   147         20
   153         10
   154         40
   155        940
   156        110
   157         10
   162         10
   171         10
   172         30
   173        180
   174         20
   185         10
   186         40
   187         10
   212         10
   215         90
   216         10
   229         10
   246         10