##TITLE=Library Entry 19199
##JCAMP-DX=Revision 4.10 
##DATA TYPE=MASS SPECTRUM
##SAMPLE DESCRIPTION=Chemical Concepts
##NAMES=HP
##CAS NAME=N-Ethylidenecyclohexaneamine, N-oxide-
##MOLFORM=C8H15NO
##CAS REGISTRY NO=3376-30-5
##MP= -300
##BP= -300
##MW= 141
##$RETENTION INDEX=0
##$CONDENSED SPECTRUM=NO
##NPOINTS= 92
##XYDATA=(XY..XY) 1 
    25          5
    26         55
    27        304
    28         53
    29        165
    30         96
    31         15
    33          4
    36          4
    37         12
    38         28
    39        321
    40         73
    41        686
    42        158
    43        123
    44        128
    45         27
    46          3
    48          2
    49          4
    50         28
    51         52
    52         31
    53        133
    54        311
    55        999
    56        107
    57         26
    58         19
    59        112
    60        348
    61         15
    62          5
    63         12
    64          4
    65         31
    66         21
    67        458
    68         58
    69         35
    70         21
    71          8
    72         11
    73          5
    74          7
    75          6
    76          6
    77         38
    78         10
    79         57
    80         20
    81        157
    82        210
    83        394
    84         40
    85          6
    86          5
    87          6
    88          6
    89          6
    91          2
    92          3
    93          5
    94          6
    95          7
    96         19
    97          6
    98        164
    99         31
   100          8
   101          2
   102          4
   107          2
   108          4
   109          7
   110         19
   111          3
   112         21
   113          7
   118          5
   122          3
   123          5
   124         57
   125         10
   126        130
   127         12
   138          3
   140          9
   141        370
   142         43
   143          4