##TITLE=Library Entry 60673
##JCAMP-DX=Revision 4.10 
##DATA TYPE=MASS SPECTRUM
##SAMPLE DESCRIPTION=Yu.Nekrasov
##NAMES=HP
##CAS NAME=c-Phenyl-N-benzylnitrone
##MOLFORM=C14H13NO
##CAS REGISTRY NO=3376-26-9
##MP= -300
##BP= -300
##MW= 211
##$RETENTION INDEX=0
##$CONDENSED SPECTRUM=NO
##NPOINTS= 13
##XYDATA=(XY..XY) 1 
    77         26
    91        999
    92        216
   103         26
   104         29
   105         54
   106         29
   181         48
   193         26
   194        149
   195        209
   196         31
   211        102