##TITLE=Library Entry 89975
##JCAMP-DX=Revision 4.10 
##DATA TYPE=MASS SPECTRUM
##SAMPLE DESCRIPTION=Exported from NIST MS Search
##NAMES=HP
##CAS NAME=Cyclohexanone, O-ethyloxime
##MOLFORM=C8H15NO
##CAS REGISTRY NO=3376-38-3
##MP= -300
##BP= -300
##MW= 141
##$RETENTION INDEX=0
##$CONDENSED SPECTRUM=NO
##NPOINTS= 84
##XYDATA=(XY..XY) 1 
    15         36
    16          2
    17         14
    18         68
    19          7
    26         26
    27        228
    28        133
    29        218
    30         51
    31         43
    32          4
    37          6
    38         17
    39        241
    40         62
    41        585
    42        451
    43         86
    44         37
    45         35
    46         64
    47          6
    50         12
    51         27
    52         27
    53        106
    54        418
    55        776
    56         69
    57         36
    58          8
    59        257
    60          9
    61          2
    62          2
    63          5
    64          5
    65         22
    66         28
    67        264
    68        209
    69        405
    70         82
    71         15
    72        201
    73         11
    74          7
    77         22
    78          6
    79         98
    80         59
    81        385
    82         75
    83         28
    84         83
    85        191
    86         11
    87         26
    93          4
    94         34
    95         12
    96        466
    97         45
    98        194
    99         17
   100         46
   101          4
   109          2
   110          2
   111          7
   112         94
   113        999
   114         77
   115          4
   124          2
   125          7
   126          4
   127          4
   139          7
   140          6
   141        421
   142         48
   143          3