##TITLE=Library Entry 57266
##JCAMP-DX=Revision 4.10 
##DATA TYPE=MASS SPECTRUM
##SAMPLE DESCRIPTION=Exported from NIST MS Search
##NAMES=HP
##CAS NAME=2-Propanone, O-methyloxime
##MOLFORM=C4H9NO
##CAS REGISTRY NO=3376-35-0
##MP= -300
##BP= -300
##MW= 87
##$RETENTION INDEX=0
##$CONDENSED SPECTRUM=NO
##NPOINTS= 19
##XYDATA=(XY..XY) 1 
    29        210
    30        100
    31         80
    38         20
    39         80
    40         60
    41        110
    42        150
    43        150
    45         40
    54        130
    55        110
    56        720
    57         30
    58         60
    72        150
    73         10
    87        999
    88         50