##TITLE=Library Entry 9816
##JCAMP-DX=Revision 4.10 
##DATA TYPE=MASS SPECTRUM
##SAMPLE DESCRIPTION=NIST Mass Spectrometry Data Center, 1992
##NAMES=HP
##CAS NAME=Hexane, 2-bromo-
##MOLFORM=C6H13Br
##CAS REGISTRY NO=3377-86-4
##MP= -300
##BP= -300
##MW= 164
##$RETENTION INDEX=941
##$CONDENSED SPECTRUM=NO
##NPOINTS= 72
##XYDATA=(XY..XY) 1 
    12          0
    14          1
    15         29
    24          0
    26         38
    27        280
    28         44
    29        194
    30          4
    31          1
    37          6
    38         23
    39        215
    40         49
    41        467
    42        168
    43        999
    44         34
    45          0
    48          0
    49          1
    50         12
    51         16
    52          8
    53         33
    54         17
    55        177
    56         67
    57        162
    58          7
    59          0
    61          0
    62          1
    63          3
    64          0
    65          5
    66          1
    67         10
    68          0
    69         40
    70          2
    71          0
    73          0
    74          1
    77          1
    78          0
    79          4
    80          4
    81          4
    82          4
    83          5
    84          0
    85        630
    86         41
    87          1
    93          2
    94          0
    95          2
   104          0
   105          1
   106          1
   107          9
   108          1
   109          8
   119          0
   120          0
   121          3
   122          1
   123          2
   135          0
   164          0
   166          0