##TITLE=Library Entry 23244
##JCAMP-DX=Revision 4.10 
##DATA TYPE=MASS SPECTRUM
##SAMPLE DESCRIPTION=Chemical Concepts
##NAMES=HP
##CAS NAME=Pivalic acid vinyl ester
##MOLFORM=C7H12O2
##CAS REGISTRY NO=3377-92-2
##MP= -300
##BP= -300
##MW= 128
##$RETENTION INDEX=0
##$CONDENSED SPECTRUM=NO
##NPOINTS= 44
##XYDATA=(XY..XY) 1 
    25          1
    26         17
    27        131
    28         17
    29        308
    30          4
    31          3
    37          1
    38          6
    39        107
    40         39
    41        409
    42         37
    43         20
    44         10
    45          5
    50          1
    51          3
    52          0
    53          6
    54          1
    55         24
    56         41
    57        999
    58         41
    59         11
    60          0
    67          3
    68          0
    69         16
    70          5
    71          3
    72          1
    73          0
    79          0
    82          0
    83          1
    85        168
    86          8
    87          0
   100          0
   113          0
   128          4
   129          0