##TITLE=Library Entry 9818
##JCAMP-DX=Revision 4.10 
##DATA TYPE=MASS SPECTRUM
##SAMPLE DESCRIPTION=Japan AIST/NIMC Database- Spectrum MS-NW-8664
##NAMES=HP
##CAS NAME=Hexane, 3-bromo-
##MOLFORM=C6H13Br
##CAS REGISTRY NO=3377-87-5
##MP= -300
##BP= -300
##MW= 164
##$RETENTION INDEX=951
##$CONDENSED SPECTRUM=NO
##NPOINTS= 57
##XYDATA=(XY..XY) 1 
    15          6
    26          9
    27        126
    28         21
    29        113
    30          3
    37          2
    38          8
    39         98
    40         16
    41        282
    42         78
    43        999
    44         32
    49          1
    50          6
    51          9
    52          4
    53         23
    54          9
    55        173
    56         56
    57        155
    58          7
    62          1
    63          2
    65          3
    66          1
    67          7
    68          2
    69         40
    70          5
    71          5
    77          1
    79          2
    80          5
    81          2
    82          5
    83          6
    84         10
    85        777
    86         51
    87          1
    93          2
    95          2
   105          1
   106          2
   107          6
   108          2
   109          4
   112          1
   113          1
   119          1
   121          2
   123          1
   135          2
   137          2