##TITLE=Library Entry 41007
##JCAMP-DX=Revision 4.10 
##DATA TYPE=MASS SPECTRUM
##SAMPLE DESCRIPTION=Div. of Experiment Therapeutics WRAIR, WRAMC, Washingto
n DC 20307
##NAMES=HP
##CAS NAME=aS-Triazine-3,5(2H,4H)-dione, 2-.beta.-D-ribofuranosyl-5-thio-
##MOLFORM=C8H11N3O5S
##CAS REGISTRY NO=33782-14-8
##MP= -300
##BP= -300
##MW= 261
##$RETENTION INDEX=0
##$CONDENSED SPECTRUM=NO
##NPOINTS= 112
##XYDATA=(XY..XY) 1 
    42        366
    43        428
    44        207
    45        401
    46         56
    47         46
    49         29
    50          4
    51         21
    52          5
    53         28
    54         30
    55        237
    56         53
    57        902
    58        280
    59        269
    60        254
    61        259
    62         20
    63         16
    64         19
    65          4
    67          4
    68        106
    69        224
    70        111
    71        365
    72        185
    73        999
    74         89
    75         48
    76         10
    77         36
    78         18
    82         17
    83         44
    84         81
    85        255
    86        501
    87        133
    88         54
    89         42
    90         10
    91         13
    96         70
    97         97
    98         24
    99         56
   100         37
   101         41
   102         47
   103        169
   104         42
   105         33
   106          5
   109         15
   111          6
   112         19
   113         43
   114         94
   115        148
   116         31
   121         15
   125          8
   127         71
   129        770
   130        802
   131        272
   132        493
   133        325
   134         24
   135          8
   136         25
   138          4
   140          8
   141          5
   142        108
   143         17
   154         11
   156         38
   158        189
   159         55
   160         18
   163          4
   164          4
   169         90
   170        107
   171         64
   172         83
   173         17
   177         22
   184         98
   185          4
   186          4
   188        101
   189         15
   196         15
   200         20
   202         24
   212         65
   213         16
   214          4
   215         10
   222          4
   230         37
   231         28
   233          4
   243         41
   261        322
   262         46
   263         22