##TITLE=Library Entry 4261
##JCAMP-DX=Revision 4.10 
##DATA TYPE=MASS SPECTRUM
##SAMPLE DESCRIPTION=Div. of Experiment Therapeutics WRAIR, WRAMC, Washingto
n DC 20307
##NAMES=HP
##CAS NAME=N-[4-Chloro-2-nitrophenyl]piperidine
##MOLFORM=C11H13ClN2O2
##CAS REGISTRY NO=33784-44-0
##MP= -300
##BP= -300
##MW= 240
##$RETENTION INDEX=0
##$CONDENSED SPECTRUM=NO
##NPOINTS= 83
##XYDATA=(XY..XY) 1 
    41        999
    42        303
    43         90
    44         16
    46         97
    49         34
    50        115
    51        171
    52        106
    53        190
    54        149
    55        632
    56         20
    62         83
    63        239
    64         51
    65        113
    67         95
    73        104
    74        182
    75        557
    76        200
    77         97
    78         63
    82         35
    84         50
    85         34
    86         14
    89         76
    90        102
    91         62
    99         91
   101         74
   102        143
   103        174
   104         36
   105        130
   110         58
   111        358
   112        112
   113        182
   114         43
   115         76
   116         54
   117         89
   124         76
   125        148
   126         91
   127        146
   129         76
   130        146
   131         51
   137         33
   138        250
   139         78
   140        146
   141         58
   142         34
   143         45
   151         56
   152         62
   153        159
   154         79
   155         74
   164        203
   165         71
   166        198
   167         56
   176         15
   178        120
   180         14
   181         25
   192        209
   193        282
   194        122
   195        147
   205         82
   207         34
   223        881
   225        313
   226         16
   240        129
   242         45