##TITLE=Library Entry 62396
##JCAMP-DX=Revision 4.10 
##DATA TYPE=MASS SPECTRUM
##SAMPLE DESCRIPTION=Japan AIST/NIMC Database- Spectrum MS-NW-5996
##NAMES=HP
##CAS NAME=Benzenemethanamine, N-(1,1-dimethylethyl)-
##MOLFORM=C11H17N
##CAS REGISTRY NO=3378-72-1
##MP= -300
##BP= -300
##MW= 163
##$RETENTION INDEX=0
##$CONDENSED SPECTRUM=NO
##NPOINTS= 71
##XYDATA=(XY..XY) 1 
    15          3
    26          1
    27         10
    28         10
    29         24
    30         22
    38          3
    39         34
    40          3
    41         45
    42         24
    43          3
    44          1
    50          9
    51         24
    52          8
    53          3
    54          2
    55          5
    56          7
    57         37
    58          4
    59          1
    62          3
    63         14
    64          5
    65         73
    66          6
    67          1
    69          1
    70          4
    71          1
    72          2
    73          3
    74         16
    75          2
    76          3
    77         31
    78         11
    79         22
    80          2
    86          2
    89         17
    90          9
    91        999
    92         77
    93          3
   102          1
   103          3
   104         13
   105          6
   106         46
   107          6
   108          2
   115          1
   116          1
   117          1
   118          1
   120          1
   129          1
   130          2
   131          1
   132          2
   144          1
   146         17
   147          5
   148        472
   149         55
   150          3
   162          1
   163          5