##TITLE=Library Entry 72767
##JCAMP-DX=Revision 4.10 
##DATA TYPE=MASS SPECTRUM
##SAMPLE DESCRIPTION=NIST Mass Spectrometry Data Center, 1990.
##NAMES=HP
##CAS NAME=6-Undecylamine
##MOLFORM=C11H25N
##CAS REGISTRY NO=33788-00-0
##MP= -300
##BP= -300
##MW= 171
##$RETENTION INDEX=0
##$CONDENSED SPECTRUM=NO
##NPOINTS= 44
##XYDATA=(XY..XY) 1 
    15          5
    27         51
    28         46
    29        109
    30        370
    31          6
    32          1
    39         29
    41        106
    42         44
    43        119
    44         51
    45          1
    51          2
    52          1
    53          8
    54         14
    55        103
    56         65
    57         33
    58          5
    65          2
    66          1
    67          6
    68          4
    69         12
    70         12
    71          5
    72          2
    77          1
    79          1
    81          2
    82          4
    83         25
    84          2
    86          1
    97          2
   100        999
   101         60
   102          2
   114          1
   126          3
   170          5
   171          2