##TITLE=Library Entry 13000
##JCAMP-DX=Revision 4.10 
##DATA TYPE=MASS SPECTRUM
##SAMPLE DESCRIPTION=AU18-236-A
##NAMES=HP
##CAS NAME=Glucopyranoside, D-erythro-2,3-dihydroxy-1-(1-phenyl-1H-pyrazolo[
3,4-b]quinoxalin-3-yl)propyl, hexaacetate (ester), .alpha.-D-
##MOLFORM=C36H38N4O14
##CAS REGISTRY NO=33796-99-5
##MP= -300
##BP= -300
##MW= 750
##$RETENTION INDEX=0
##$CONDENSED SPECTRUM=NO
##NPOINTS= 105
##XYDATA=(XY..XY) 1 
    41          7
    42         30
    43        999
    44         69
    45         46
    51         30
    55         61
    56          7
    57         53
    58          7
    60         46
    61         30
    69         50
    74         46
    75          3
    77         84
    78          3
    81         69
    82          7
    84         30
    97         57
    98          7
   103         38
   109        315
   110         34
   115         53
   116          7
   127        192
   128         15
   139         50
   140          3
   145         61
   146         11
   169        903
   170         57
   171         11
   187         26
   211         30
   220         69
   221          7
   229         26
   231         23
   245        100
   246         46
   247         53
   257         15
   259          7
   260         61
   261         15
   271         69
   272         30
   273        180
   274         88
   275        138
   276         34
   285        100
   286         30
   287         53
   288         69
   289         76
   290         19
   300          7
   301        369
   302        207
   303         34
   317         30
   318         30
   319         30
   331         43
   332         73
   333          7
   343         76
   344        165
   345         61
   358          7
   359         30
   360         53
   361         26
   403        223
   404         53
   418         45
   419         53
   420         25
   421          3
   432          0
   449          0
   460          0
   461          0
   586          0
   587          0
   605          3
   607          2
   631          2
   636          1
   648          0
   649          0
   690          4
   691          3
   692          1
   707          0
   708          0
   709          0
   750         35
   751         15
   752          6