##TITLE=Library Entry 67036
##JCAMP-DX=Revision 4.10 
##DATA TYPE=MASS SPECTRUM
##SAMPLE DESCRIPTION=MUS311 A. Mujsce, AT&T Bell Labs., Murray Hill, N.J., U
SA
##NAMES=HP
##CAS NAME=Phosphonic acid, (p-hydroxyphenyl)-
##MOLFORM=C6H7O4P
##CAS REGISTRY NO=33795-18-5
##MP= -300
##BP= -300
##MW= 174
##$RETENTION INDEX=0
##$CONDENSED SPECTRUM=NO
##NPOINTS= 74
##XYDATA=(XY..XY) 1 
    15          1
    16          1
    17          3
    18          6
    25          2
    26          9
    27         14
    28          3
    29         11
    31          7
    32          2
    33          2
    36          4
    37         28
    38         53
    39        150
    40         62
    41          5
    42          7
    43          4
    44          0
    45          0
    46          2
    47         18
    48          2
    49          9
    50         45
    51         36
    52          6
    53         25
    54          4
    55         51
    56          2
    60          5
    61         24
    62         36
    63         63
    64         18
    65        207
    66        321
    67         22
    68          9
    72          1
    73          8
    74         23
    75         10
    76          6
    77          9
    78          1
    79         11
    80          1
    81          9
    82          4
    92          3
    94        999
    95         63
    96          3
    98          2
   109          1
   110          4
   128          0
   129          0
   138          0
   139          0
   141          0
   142          0
   153          0
   156          3
   157          0
   158          4
   159          0
   172          0
   174         14
   175          1