##TITLE=Library Entry 71735
##JCAMP-DX=Revision 4.10 
##DATA TYPE=MASS SPECTRUM
##SAMPLE DESCRIPTION=A.A.Kutin, Moscow, Russia
##NAMES=HP
##CAS NAME=Benzonitrile, 6-chloro-2-[4-(3-dimethylamino-1-oxo-2-propenyl)phe
noxy]-
##MOLFORM=C18H15ClN2O2
##CAS REGISTRY NO=337920-48-6
##MP= -300
##BP= -300
##MW= 326
##$RETENTION INDEX=0
##$CONDENSED SPECTRUM=NO
##NPOINTS= 242
##XYDATA=(XY..XY) 1 
    35          0
    37          6
    38         25
    39         36
    40          5
    41         41
    42        484
    43         66
    44         85
    45         30
    46         12
    47          1
    48          1
    49          8
    50        125
    51         39
    52         13
    53         39
    54         51
    55        350
    56         23
    58          5
    61         12
    62         36
    63         94
    64         82
    65         25
    66          8
    67          1
    68         45
    69         21
    70        480
    71         22
    72         11
    73          6
    74         38
    75         93
    76        132
    77         52
    78         13
    79          5
    80          4
    81          5
    82        101
    83          7
    84         16
    85          5
    86          6
    87         11
    88         20
    89         35
    90         21
    91         25
    92         57
    93          9
    94          6
    95          0
    96          2
    98        999
    99         73
   100         78
   101         27
   102         25
   103         29
   104         24
   105          7
   106          2
   107          8
   108          2
   109          6
   110          5
   111          4
   112          2
   113          3
   114          9
   115         15
   116         11
   117         17
   118         17
   119          7
   120          4
   121          4
   122          0
   123          3
   124         12
   125          8
   126         11
   127          6
   128         11
   129          8
   130         23
   131         60
   132         17
   133          3
   134          4
   135          5
   136         49
   137         14
   138         36
   139         14
   140          7
   141          5
   142          5
   143          4
   144         17
   145          7
   146          6
   147          4
   149         87
   150         34
   151          5
   152          5
   153          4
   154          4
   155          3
   156          0
   157        267
   158         38
   159          7
   160          5
   162         44
   163         11
   164         94
   165         34
   166          7
   167          1
   171          0
   172          0
   173        130
   174         86
   175         18
   176          9
   177          3
   178          5
   179          8
   180          4
   181          1
   182          0
   183          1
   185          0
   187          0
   188          0
   189          1
   190         15
   191          4
   193        131
   194         20
   195          3
   198          3
   199         12
   200         15
   201          8
   202          8
   203          1
   204          1
   205          0
   206          7
   210          0
   211          0
   213          2
   214          4
   215          2
   216          1
   217          2
   218          3
   219          5
   220          6
   221          3
   222          1
   225          1
   226          1
   227          7
   228          9
   229         11
   230          6
   231          4
   232          2
   233          1
   235          2
   236          1
   239          1
   240          4
   242         91
   243         22
   244         32
   245          7
   246          2
   247          1
   248          0
   249          1
   251          0
   252          0
   253          0
   254         33
   256        191
   257         32
   258         62
   259         10
   260          1
   265          2
   266          4
   267          6
   268          7
   269          6
   270          3
   271          2
   272          0
   273          5
   274         13
   275          4
   276          0
   280          0
   281          3
   282         25
   283         20
   284         24
   285          9
   286          6
   287          1
   289          0
   291          0
   292          0
   293          2
   294          7
   295         11
   296          8
   297          7
   298          3
   299          1
   307          1
   309        819
   310        175
   311        304
   312         60
   313         15
   314          1
   325         31
   326        176
   327         45
   328         60
   329         12
   330          1