##TITLE=Library Entry 89567
##JCAMP-DX=Revision 4.10 
##DATA TYPE=MASS SPECTRUM
##SAMPLE DESCRIPTION=A.A.Kutin, Moscow, Russia
##NAMES=HP
##CAS NAME=Propanamide, 3-(4-methylpiperidinyl)-N-(4-methoxyphenyl)-
##MOLFORM=C16H24N2O2
##CAS REGISTRY NO=337918-75-9
##MP= -300
##BP= -300
##MW= 276
##$RETENTION INDEX=0
##$CONDENSED SPECTRUM=NO
##NPOINTS= 91
##XYDATA=(XY..XY) 1 
    33          2
    39         19
    41        132
    42        130
    44        136
    50          5
    52         22
    53         19
    55        124
    56         61
    57         18
    58          5
    63          6
    64          7
    65         10
    67         13
    69         81
    70         62
    71          3
    72          0
    75          0
    76          1
    77         11
    78          6
    79         10
    80         12
    82         22
    84         27
    85          0
    89          1
    91          4
    92          9
    93          3
    95         26
    96         23
    98        320
    99         31
   103          2
   105          2
   106          8
   108         35
   110         67
   112        999
   113         55
   114          1
   117          1
   118          0
   119          0
   120          3
   122         61
   123         40
   124          7
   125          9
   126         28
   127          2
   128          0
   130          0
   132          1
   134         11
   136         16
   138          6
   147          1
   149          7
   150          1
   151          0
   152          3
   153          1
   154          2
   155          0
   160          0
   163          0
   164          1
   165          3
   166          0
   177          7
   178          2
   179          3
   180          0
   193          1
   207          0
   219          2
   220          0
   221          0
   233          0
   247          1
   261          0
   274          1
   275          5
   276        106
   277         17
   278          2