##TITLE=Library Entry 17517
##JCAMP-DX=Revision 4.10 
##DATA TYPE=MASS SPECTRUM
##SAMPLE DESCRIPTION=A.A.Kutin, Moscow, Russia
##NAMES=HP
##CAS NAME=Pyridine-3-carboxylic acid, 2,4,6-trichloro-5-nitro-
##MOLFORM=C6HCl3N2O4
##CAS REGISTRY NO=337925-33-4
##MP= -300
##BP= -300
##MW= 270
##$RETENTION INDEX=0
##$CONDENSED SPECTRUM=NO
##NPOINTS= 140
##XYDATA=(XY..XY) 1 
    33        230
    34         18
    35         94
    36        231
    37         74
    38        182
    40        421
    41         23
    42         24
    43          9
    44        144
    45        999
    46        284
    47        282
    48         91
    49        133
    50         29
    52         47
    53         18
    54         16
    56          7
    59         12
    60         77
    62        363
    63        463
    64         78
    65        136
    66          8
    70         17
    71        197
    72        117
    73        101
    74        306
    75        234
    76         34
    78         47
    82          7
    83        205
    84        323
    85        188
    86        191
    87        223
    88         35
    89         56
    90          9
    94         12
    95         14
    96          8
    97        127
    98         63
    99        122
   100         83
   101         19
   102         18
   106        159
   107        172
   109        955
   110        328
   111        360
   112         62
   113         41
   114         47
   116         19
   117         10
   118        416
   119        197
   120        372
   121        129
   122         80
   123         23
   125          7
   126         14
   128          6
   132         70
   133         14
   134         54
   135         24
   141         84
   143         98
   144        539
   146        536
   147         80
   148        144
   150         62
   151         11
   153         23
   155         68
   156         18
   160         63
   161         37
   162         54
   164          7
   168        180
   169         14
   170        177
   172        128
   174         23
   176        119
   177         35
   178         48
   179         65
   180         55
   181         69
   182         62
   183         69
   184         75
   186         37
   188        222
   190        135
   196         22
   197          8
   198         33
   199        114
   201         30
   207         56
   209         50
   211         11
   212        571
   214        621
   216        220
   218         10
   224         22
   226         47
   228         38
   240        374
   242        423
   243         15
   244        116
   246          7
   253         26
   254         13
   255         15
   256          8
   261         18
   270        583
   271         34
   272        630
   273         45
   274        178
   276         18