##TITLE=Library Entry 13001
##JCAMP-DX=Revision 4.10 
##DATA TYPE=MASS SPECTRUM
##SAMPLE DESCRIPTION=AU18-237-F
##NAMES=HP
##CAS NAME=.alpha.-D-Galactopyranoside, 2,3-bis(acetyloxy)-3-(1-phenyl-1H-py
razolo[3,4-b]quinoxalin-3-yl)propyl, 2,3,4,6-tetraacetate, [R-(R*,S*)]-
##MOLFORM=C36H38N4O14
##CAS REGISTRY NO=33797-01-2
##MP= -300
##BP= -300
##MW= 750
##$RETENTION INDEX=0
##$CONDENSED SPECTRUM=NO
##NPOINTS= 93
##XYDATA=(XY..XY) 1 
    41         26
    42         15
    43        999
    44         30
    45         19
    55         15
    57         23
    60         19
    69         26
    73         23
    77         30
    78         11
    81         30
    83         19
    85         11
    97         19
    98         23
    99          7
   102         15
   103         15
   109        192
   110         19
   115         34
   127         30
   139         19
   141          7
   145         11
   157          7
   169        446
   170         53
   187          7
   211          7
   220          3
   229         11
   245         61
   246         34
   247         50
   259         15
   271         11
   272         19
   273         65
   274         30
   275        200
   276         69
   284          3
   285         50
   286         30
   287         23
   288         30
   289         30
   300         30
   301        230
   302        103
   303          7
   315          7
   316         23
   317        111
   318         61
   319         15
   331        130
   332         26
   343         46
   344         19
   345         19
   346         15
   347          7
   358          7
   359         19
   360         15
   361         15
   377          7
   389         11
   403         61
   404         23
   415          1
   418          0
   419          2
   420          2
   620          2
   632          1
   648          6
   649          3
   650          2
   690          3
   691          2
   692          2
   707          4
   708         10
   709          3
   710          3
   750         22
   751         11
   752          3