##TITLE=Library Entry 15100
##JCAMP-DX=Revision 4.10 
##DATA TYPE=MASS SPECTRUM
##SAMPLE DESCRIPTION=Japan AIST/NIMC Database- Spectrum MS-NW- 240
##NAMES=HP
##CAS NAME=D-Alanine
##MOLFORM=C3H7NO2
##CAS REGISTRY NO=338-69-2
##MP= -300
##BP= -300
##MW= 89
##$RETENTION INDEX=0
##$CONDENSED SPECTRUM=NO
##NPOINTS= 41
##XYDATA=(XY..XY) 1 
    13          1
    14          7
    15         34
    16          2
    17          5
    18         16
    25          3
    26         12
    27         44
    28        128
    29         14
    30          8
    31          1
    38          6
    39          6
    40         19
    41         33
    42        114
    43         37
    44        999
    45         34
    46         18
    47          1
    53          2
    54          1
    55          9
    56          3
    57          5
    60          1
    67          2
    69          5
    70          2
    71          3
    72          2
    73          4
    74         24
    75          1
    84          1
    85          2
    88          2
    89          1