##TITLE=Library Entry 114622
##JCAMP-DX=Revision 4.10 
##DATA TYPE=MASS SPECTRUM
##SAMPLE DESCRIPTION=Exported from NIST MS Search
##NAMES=HP
##CAS NAME=Propane, 2,3-dichloro-1,1,1-trifluoro-
##MOLFORM=C3H3Cl2F3
##CAS REGISTRY NO=338-75-0
##MP= -300
##BP= -300
##MW= 166
##$RETENTION INDEX=0
##$CONDENSED SPECTRUM=NO
##NPOINTS= 96
##XYDATA=(XY..XY) 1 
    14          1
    15          2
    24          2
    25         10
    26         56
    27         93
    28          7
    31         50
    32          4
    33          6
    35         14
    36          8
    37          8
    38          4
    43          3
    44         10
    45         19
    46         33
    47         16
    48         19
    49        675
    50         27
    51        298
    52          4
    55          9
    56         13
    57          6
    59          3
    60         28
    61        263
    62         31
    63         87
    64         11
    65          5
    66          3
    67        272
    68          4
    69        364
    70          4
    74          6
    75         59
    76          9
    77         32
    78          3
    79          4
    80         39
    81         24
    82         17
    83        196
    84          4
    85        245
    86          3
    87         59
    91          2
    93          7
    94          5
    95        213
    96         20
    97        199
    98        503
    99        131
   100        149
   101         32
   103          6
   109          5
   111         47
   112          2
   113         15
   114          8
   116          6
   117         32
   118          2
   119         11
   121          3
   129         39
   130        999
   131        288
   132        351
   133        113
   134         13
   135         14
   136          2
   137          2
   145          8
   147         18
   149         10
   151         11
   153          6
   163          3
   164         15
   165         11
   166        225
   167         14
   168        136
   169          6
   170         22