##TITLE=Library Entry 43974
##JCAMP-DX=Revision 4.10 
##DATA TYPE=MASS SPECTRUM
##SAMPLE DESCRIPTION=WASHINGTON UNIVERSITY MEDICAL SCHOOL W.R. SHERMAN
##NAMES=HP
##CAS NAME=Inositol, 1,2,4,5,6-pentakis-O-(trimethylsilyl)-, bis(trimethylsi
lyl) phosphate, L-myo-
##MOLFORM=C27H69O9PSi7
##CAS REGISTRY NO=33800-38-3
##MP= -300
##BP= -300
##MW= 764
##$RETENTION INDEX=0
##$CONDENSED SPECTRUM=NO
##NPOINTS= 188
##XYDATA=(XY..XY) 1 
    55          6
    59          8
    72          9
    73        999
    74         76
    75         49
    81          8
   101          6
   103         21
   109          3
   113          6
   116          4
   117          6
   119          3
   127         11
   129         62
   130          7
   131         19
   132          3
   133         56
   134          8
   135          8
   142          4
   143         29
   145          4
   147        346
   148         56
   149         34
   150          3
   151          5
   153          4
   155          6
   156          6
   157          9
   161          7
   169          5
   175          3
   177          3
   181          5
   183          3
   189         10
   190         16
   191        146
   192         27
   193         18
   195          5
   201          5
   203          5
   204         43
   205         14
   206          5
   207         26
   208          5
   209          5
   211         33
   212          5
   213          4
   215          9
   216          4
   217        169
   218         36
   219         15
   221         22
   222          4
   223          3
   225         17
   226          3
   227         15
   228          6
   229          5
   230         25
   231         12
   232          3
   239          6
   241          3
   242          3
   243         50
   244         11
   245         14
   246         13
   254          3
   255         51
   256         11
   257          9
   265         24
   266          6
   267          5
   269          9
   270         11
   271         23
   272          6
   283         17
   284         11
   285         22
   286          6
   287          3
   291         14
   292          5
   293         14
   294          4
   299        726
   300        182
   301         99
   302         18
   303          7
   304          7
   305         46
   306         20
   307          7
   313         30
   314         26
   315        735
   316        187
   317        123
   318        683
   319        209
   320         96
   321         20
   322          5
   327          3
   328          3
   329          6
   331         10
   332          4
   341          6
   342         22
   343        107
   344         42
   345         41
   346         12
   347          4
   357          6
   359          6
   360          6
   367          3
   369         13
   370          3
   371          3
   373         30
   374          9
   375          6
   387        109
   388         43
   389        261
   390         83
   391         49
   392         12
   393          3
   417         19
   418          7
   419          8
   429         25
   430          9
   431         11
   432        118
   433        176
   434         77
   435         36
   436         10
   446          4
   458          4
   461          7
   466          4
   470         37
   471         16
   472          8
   497          3
   507         16
   508          7
   509          3
   529          3
   557          4
   569         12
   570          5
   571          4
   584         11
   585          8
   586          4
   587          3
   631          3
   659          6
   660          3
   661          3
   749        109
   750         72
   751         49
   752         20
   753          8