##TITLE=Library Entry 43971
##JCAMP-DX=Revision 4.10 
##DATA TYPE=MASS SPECTRUM
##SAMPLE DESCRIPTION=WASHINGTON UNIVERSITY MEDICAL SCHOOL W.R. SHERMAN
##NAMES=HP
##CAS NAME=Fructose, 3,4,5-tris-O-(trimethylsilyl)-, 1,6-bis[bis(trimethylsi
lyl) phosphate], D-
##MOLFORM=C27H70O12P2Si7
##CAS REGISTRY NO=33800-33-8
##MP= -300
##BP= -300
##MW= 844
##$RETENTION INDEX=0
##$CONDENSED SPECTRUM=NO
##NPOINTS= 234
##XYDATA=(XY..XY) 1 
    53          5
    59         12
    61          6
    67          8
    68          5
    69          6
    72         17
    73        999
    74         75
    81          8
    89          3
    99          7
   101         16
   102          6
   103         11
   104          3
   109         16
   111          4
   113         10
   115          9
   116          6
   119          5
   121          5
   125          5
   127         12
   128          5
   129        117
   130         20
   131         14
   132          4
   133         47
   134          8
   135          5
   136          3
   137          5
   139          4
   140         28
   141         18
   142         18
   143         30
   144          4
   145          9
   147        229
   148         34
   149         34
   150          4
   151         10
   153          4
   155         14
   156         16
   157         24
   158          6
   159          5
   167          4
   169         15
   170          4
   171          4
   173          3
   177         20
   178          3
   179          5
   181         10
   182          8
   183         15
   184          5
   185          4
   187          3
   189          5
   191         11
   192          3
   193          7
   194          3
   195         21
   196         18
   199          8
   201         10
   204         18
   205         16
   206          4
   207         19
   208          9
   209         11
   210          6
   211         91
   212         18
   213         13
   215        156
   216         36
   217        125
   218         30
   219         13
   223          3
   225         76
   226         16
   227         60
   228         12
   229         30
   230        389
   231         90
   232         38
   233          7
   239          3
   240          4
   241         19
   242          5
   243         36
   244          8
   245          7
   246          3
   253          7
   255         15
   256          8
   257         49
   258         13
   259          7
   267          3
   269         14
   270         35
   271         99
   272         28
   273         17
   274          4
   275          5
   283         25
   284         18
   285         38
   286         12
   287          8
   297         10
   299        459
   300        108
   301         71
   302         11
   303          8
   305          3
   311          4
   313         31
   314          8
   315        949
   316        238
   317        135
   318         28
   319         10
   328        137
   329         43
   330         21
   331          8
   341         10
   343         50
   344         16
   345         29
   346          8
   347          6
   355          5
   356         29
   357         69
   358         20
   359         16
   360          8
   361          5
   369         19
   370         11
   371         12
   372          6
   373         43
   374         17
   375         10
   381          3
   382          5
   383          9
   385          8
   387        124
   388         43
   389         35
   390         10
   391          4
   399          8
   407          3
   409          4
   422         12
   423         31
   424         11
   425         15
   426          4
   431          4
   437          5
   443         16
   445        205
   446         75
   447         44
   448         13
   449          5
   451         24
   452          8
   453         10
   454          3
   455          5
   457         12
   458          8
   459          6
   461          3
   469          7
   471          6
   472          9
   473          4
   497         12
   498          5
   499         10
   500          3
   501          6
   511          4
   512          6
   513         20
   514          9
   515         16
   516          6
   517          4
   525          6
   526          3
   541         21
   542          8
   543          5
   587         31
   588         18
   589        110
   590         53
   591         30
   592         10
   593          4
   599          7
   600          3
   739         11
   741          6
   829         72