##TITLE=Library Entry 44220
##JCAMP-DX=Revision 4.10 
##DATA TYPE=MASS SPECTRUM
##SAMPLE DESCRIPTION=BAY 0322
##NAMES=HP
##CAS NAME=Glucitol, 1,2,3,4,5-pentakis-O-(trimethylsilyl)-, bis(trimethylsi
lyl) phosphate, D-
##MOLFORM=C27H71O9PSi7
##CAS REGISTRY NO=33800-35-0
##MP= -300
##BP= -300
##MW= 766
##$RETENTION INDEX=0
##$CONDENSED SPECTRUM=NO
##NPOINTS= 227
##XYDATA=(XY..XY) 1 
    73        999
    74         91
    75         91
    77          4
    87          4
    89         13
    99          5
   101         53
   102          6
   103        126
   104         13
   105          6
   113          7
   115          8
   116         46
   117         79
   118         12
   119          9
   127          5
   129         80
   130         11
   131         26
   133         69
   134         11
   135         10
   142          3
   143         19
   145          4
   147        269
   148         49
   149         36
   150          4
   151          4
   155          8
   157         33
   158          5
   159          4
   161          5
   163          5
   167          3
   169         10
   173          4
   175         10
   183         14
   187          4
   189         26
   190          7
   191         44
   192          9
   193         10
   195          7
   203         14
   204         89
   205        135
   206         30
   207         31
   208          5
   211         37
   212          6
   215         15
   216          5
   217        180
   218         77
   219         24
   220          5
   221         10
   225         16
   227         19
   228          8
   229         14
   230         25
   231         33
   232         10
   233          4
   243         17
   244          9
   253          4
   254          4
   255         21
   256          7
   257         13
   258          4
   259         21
   260          5
   269         10
   271          4
   272         12
   273          9
   274          4
   277          8
   278          4
   279          4
   283         13
   284          9
   285         16
   286          7
   287          4
   291         14
   292          7
   297          4
   298         13
   299        362
   300        102
   301         55
   302          9
   303          6
   305         19
   306         11
   307         20
   308          7
   309          4
   313         16
   314         39
   315        287
   316         80
   317         48
   318         13
   319         54
   320         19
   321          7
   328         32
   329         18
   330          8
   331         30
   332         10
   333          6
   341         11
   342          5
   343          5
   344         15
   345         30
   346         11
   347          8
   348          4
   349         11
   350          3
   351          4
   356          4
   357        170
   358         47
   359         28
   360          8
   361          4
   362          9
   363          5
   364          3
   369          7
   370         31
   371         14
   372          7
   373         15
   374          5
   375          5
   383          4
   384          7
   385         10
   386         26
   387        476
   388        167
   389        106
   390         31
   391         13
   392          4
   415          7
   416          3
   417          2
   419          4
   420          2
   421          4
   422          1
   429          5
   430          2
   431          7
   432          2
   433          2
   434          4
   435          2
   436          2
   437          2
   438          1
   442          5
   443          5
   444          3
   445          3
   446          2
   447          2
   448          1
   449          1
   452          2
   457          4
   458          2
   459         18
   460          9
   461         12
   462          5
   463          4
   471         79
   472         32
   473         20
   474          7
   475          3
   481          1
   483          2
   484          2
   485          2
   517          3
   518          1
   561         12
   562          6
   563          4
   564          2
   573          5
   574          3
   575          2
   587          2
   588          1
   589          2
   590          1
   663          3
   664          2
   665          2
   666          1
   751         17
   752         12
   753          9
   754          3
   755          3