##TITLE=Library Entry 44222
##JCAMP-DX=Revision 4.10 
##DATA TYPE=MASS SPECTRUM
##SAMPLE DESCRIPTION=BAY 0319
##NAMES=HP
##CAS NAME=Mannitol, 1,2,3,4,5-pentakis-O-(trimethylsilyl)-, bis(trimethylsi
lyl) phosphate, D-
##MOLFORM=C27H71O9PSi7
##CAS REGISTRY NO=33800-37-2
##MP= -300
##BP= -300
##MW= 766
##$RETENTION INDEX=0
##$CONDENSED SPECTRUM=NO
##NPOINTS= 272
##XYDATA=(XY..XY) 1 
    41         18
    42          7
    43         14
    44         25
    45         54
    46          4
    47         11
    50          4
    51          4
    53          7
    54          4
    55         11
    56          7
    57          7
    58          7
    59         36
    60          4
    61         11
    63          4
    65          4
    66          7
    67          7
    68          4
    69         14
    70          4
    71          4
    72         21
    73        999
    74        107
    75        121
    76         11
    77         18
    78         11
    79          4
    81          7
    83          4
    85          7
    87          7
    88          4
    89         18
    91          4
    93          7
    95          4
    96          4
    97          4
    99         11
   101         68
   102          7
   103        171
   104         14
   105         11
   111          4
   113          7
   114          4
   115         11
   116         64
   117         93
   118         14
   119         11
   121          4
   127         11
   128          4
   129        107
   130         18
   131         25
   132          7
   133         61
   134         14
   135         14
   137          4
   141          7
   142          4
   143         21
   144          4
   145          7
   146          4
   147        293
   148         68
   149         43
   150          7
   151          7
   153          4
   155         14
   156          7
   157         50
   158         11
   159          7
   161          7
   163          7
   167          7
   169         11
   170          4
   173          4
   175         11
   177          7
   181          4
   183         18
   184          4
   185          4
   187          4
   189         25
   190         11
   191         57
   192         11
   193         18
   194          4
   195         11
   201          4
   203         21
   204        114
   205        150
   206         43
   207         21
   208          7
   209          7
   211         50
   212          7
   213          4
   215         21
   216         11
   217        314
   218         93
   219         43
   220         11
   221         18
   222          7
   223          4
   225         21
   226          4
   227         21
   228         11
   229         18
   230         50
   231         39
   232         11
   233          7
   239          4
   241          7
   243         25
   244         11
   245          4
   246          4
   247          4
   253          4
   255         43
   256         11
   257         21
   258          7
   259         29
   260         11
   261          7
   269         11
   271          4
   272          4
   273          7
   274          4
   277         11
   278          4
   283         18
   284          7
   285         21
   286          7
   287          4
   291         18
   292          7
   293          4
   297          4
   298         21
   299        443
   300        157
   301         79
   302         14
   303          7
   305         29
   306         14
   307         21
   308          7
   309          4
   313         18
   314         50
   315        507
   316        100
   317         86
   318         21
   319         54
   320         21
   321         11
   328         46
   329         25
   330         11
   331         32
   332         14
   333          7
   334          4
   341         18
   342          4
   343          7
   344         18
   345         32
   346         18
   347         14
   348          4
   349         18
   350          7
   351          4
   357        200
   358         79
   359         32
   360          7
   362          7
   369         11
   370         39
   371         14
   372          7
   373         21
   374          7
   375          7
   387        714
   388        250
   389        143
   390         50
   391         21
   392          4
   415          7
   417          4
   419          7
   421          4
   429          4
   431          7
   432          4
   434          4
   442          4
   443          7
   444          4
   457          7
   458          4
   459         21
   460         14
   461         21
   462          7
   463          7
   471        114
   472         46
   473         25
   474          7
   475          4
   483          4
   484          1
   485          1
   517          3
   518          1
   545          1
   561         10
   562          5
   563          4
   564          1
   571          2
   572          1
   573          6
   574          2
   575          1
   587          1
   661          1
   662          1
   663          3
   664          2
   665          1
   751         23
   752         15
   753         10
   754          4
   755          1