##TITLE=Library Entry 39761
##JCAMP-DX=Revision 4.10 
##DATA TYPE=MASS SPECTRUM
##SAMPLE DESCRIPTION=Japan AIST/NIMC Database- Spectrum MS-NW-7842
##NAMES=HP
##CAS NAME=(R)-(-)-N-Ethyl-alpha-methylphenethylamine
##MOLFORM=C11H17N
##CAS REGISTRY NO=33817-12-8
##MP= -300
##BP= -300
##MW= 163
##$RETENTION INDEX=0
##$CONDENSED SPECTRUM=NO
##NPOINTS= 65
##XYDATA=(XY..XY) 1 
    15          5
    17          1
    26          2
    27         14
    28         21
    29         20
    30          9
    32          1
    38          2
    39         18
    40          3
    41         15
    42         29
    43          6
    44        255
    45          9
    50          5
    51         12
    52          4
    53          2
    54          2
    56         21
    57          3
    58          2
    62          2
    63          8
    64          3
    65         25
    66          2
    68          1
    70         17
    71          5
    72        999
    73         49
    74          2
    75          2
    76          2
    77         12
    78          5
    79          3
    86          1
    89          6
    90          3
    91         87
    92         24
    93          3
   102          2
   103          7
   104          3
   105          4
   115          9
   116          3
   117         10
   118          6
   119          9
   120          6
   130          2
   132          2
   133          1
   134          1
   146          2
   147          1
   148         15
   149          2
   162          6