##TITLE=Library Entry 10438
##JCAMP-DX=Revision 4.10 
##DATA TYPE=MASS SPECTRUM
##SAMPLE DESCRIPTION=NIST Mass Spectrometry Data Center, 1994
##NAMES=HP
##CAS NAME=11-Heneicosanol
##MOLFORM=C21H44O
##CAS REGISTRY NO=3381-26-8
##MP= -300
##BP= -300
##MW= 312
##$RETENTION INDEX=0
##$CONDENSED SPECTRUM=NO
##NPOINTS= 76
##XYDATA=(XY..XY) 1 
    27        108
    28         11
    29        358
    30         13
    39         92
    40         29
    41        731
    42        151
    43        999
    44         89
    45          2
    53         39
    54         73
    55        718
    56        151
    57        716
    58        225
    59         49
    65          9
    66         16
    67        151
    68         85
    69        583
    70        130
    71        466
    72         42
    79         25
    80         10
    81        117
    82        152
    83        666
    84         88
    85        211
    86         28
    93          7
    95        156
    96        134
    97        852
    98         96
    99         34
   100         26
   109         48
   110         63
   111        259
   112         31
   113         27
   114         24
   123         21
   124         87
   125         48
   126         41
   127         47
   128         19
   137          7
   138         12
   139         19
   140          9
   141         25
   142         12
   152         17
   153         20
   155          7
   166         17
   167         11
   169        300
   170         46
   171        267
   172         35
   184         40
   185         64
   186          8
   197         29
   211         16
   253          8
   294         31
   295          6