##TITLE=Library Entry 28742
##JCAMP-DX=Revision 4.10 
##DATA TYPE=MASS SPECTRUM
##SAMPLE DESCRIPTION=NIST Mass Spectrometry Data Center
##NAMES=HP
##CAS NAME=(-)-Deoxyephedrine
##MOLFORM=C10H15N
##CAS REGISTRY NO=33817-09-3
##MP= -300
##BP= -300
##MW= 149
##$RETENTION INDEX=1204
##$CONDENSED SPECTRUM=NO
##NPOINTS= 82
##XYDATA=(XY..XY) 1 
    15          4
    26          1
    27          8
    28         24
    29         11
    30         54
    31          1
    32          2
    37          1
    38          4
    39         35
    40          4
    41         24
    42         52
    43         22
    44          5
    50         13
    51         33
    52         10
    53          4
    54          5
    55          3
    56         75
    57         26
    58        999
    59         55
    61          2
    62          8
    63         28
    64          8
    65         84
    66          7
    67          4
    68          1
    70          3
    71          1
    73          1
    74          5
    75          5
    76          5
    77         31
    78         16
    79          6
    80          1
    85          1
    86          2
    87          2
    88          1
    89         29
    90         13
    91        199
    92         19
    93          4
    94          1
   101          1
   102          6
   103         14
   104         10
   105          9
   106          3
   107          1
   113          1
   114          1
   115         34
   116         10
   117         34
   118         19
   119         30
   120          3
   129          1
   130          6
   131          3
   132         17
   133         12
   134         55
   135          6
   144          1
   146          4
   147          2
   148         15
   149          2
   150          3