##TITLE=Library Entry 46772
##JCAMP-DX=Revision 4.10 
##DATA TYPE=MASS SPECTRUM
##SAMPLE DESCRIPTION=Chemical Concepts
##NAMES=HP
##CAS NAME=Benzene, [(2-methoxyethenyl)sulfonyl]-, (E)-
##MOLFORM=C9H10O3S
##CAS REGISTRY NO=33823-31-3
##MP= -300
##BP= -300
##MW= 198
##$RETENTION INDEX=0
##$CONDENSED SPECTRUM=NO
##NPOINTS= 112
##XYDATA=(XY..XY) 1 
    26         29
    27        282
    28         17
    29        182
    30         22
    31        175
    33          4
    35          1
    37          4
    38         16
    39        102
    40         47
    41         11
    42        178
    43         15
    44          3
    45        618
    46         26
    47         76
    48          8
    49          9
    50        191
    51        687
    52         48
    53         31
    54          0
    55         10
    56         11
    57        283
    58         16
    59         29
    60          0
    61          7
    62         14
    63         38
    64         10
    65         99
    66         19
    67          7
    69         15
    70          4
    71          5
    73        936
    74         77
    75        179
    76         47
    77        999
    78        230
    79         36
    80          1
    81         17
    82          4
    87          6
    88         18
    89         29
    90         48
    91        545
    92         47
    93          9
    94         42
    95          5
    97        120
    98          9
    99          9
   102          6
   103         25
   104          8
   105        385
   106         16
   107         18
   108          9
   109         83
   110         10
   111          5
   115          4
   116          9
   118         11
   119         78
   120          9
   121        167
   122          9
   123         10
   125        288
   126         30
   127         16
   131          0
   133         12
   134        109
   135         17
   136          1
   137         14
   138          1
   140         30
   141         40
   142         22
   143         63
   144          5
   145          3
   153          3
   163         31
   164          4
   165          2
   167          3
   169        192
   170         15
   171          9
   181         10
   183         11
   198        566
   199         76
   200         37
   201          4