##TITLE=Library Entry 46276
##JCAMP-DX=Revision 4.10 
##DATA TYPE=MASS SPECTRUM
##SAMPLE DESCRIPTION=A.A.Kutin, Moscow, Russia
##NAMES=HP
##CAS NAME=Aniline, 4-iodo-N-(3-phenylpropenylideno)-
##MOLFORM=C15H12IN
##CAS REGISTRY NO=3382-77-2
##MP= -300
##BP= -300
##MW= 333
##$RETENTION INDEX=0
##$CONDENSED SPECTRUM=NO
##NPOINTS= 185
##XYDATA=(XY..XY) 1 
    33         12
    34         23
    35          2
    36          7
    37         67
    38        202
    39        449
    40        262
    41        111
    42         33
    43         80
    44         97
    45          7
    48          1
    49         22
    50        694
    51        506
    52        157
    53         35
    55         53
    56         15
    57         41
    59         20
    61         51
    62        183
    63        506
    64        146
    65        148
    66         17
    67         10
    68          7
    69         21
    70         11
    71         14
    73         31
    74        207
    75        230
    76        999
    77        506
    78        159
    79         21
    80         12
    81         12
    82         14
    83         13
    84          6
    85         10
    86         20
    87         42
    88         52
    89        180
    90         83
    91         84
    92         21
    93          7
    94          3
    95         12
    96          8
    97          6
    98          8
    99         11
   100         13
   101         39
   102        282
   103        320
   104         72
   105         27
   106          6
   107          7
   108          2
   109          4
   110          3
   111         13
   112          5
   113         24
   114         32
   115        458
   116         65
   117         16
   118          6
   119         36
   120          9
   121          8
   122          4
   123          4
   124          2
   125          3
   127        165
   128         84
   129         79
   130         99
   131         13
   132          4
   133          3
   134          6
   135          5
   136          2
   137          4
   139         29
   140         20
   141          9
   142          2
   143          3
   144          1
   145          7
   146         11
   147          4
   148          5
   149          8
   150         11
   151         18
   152         37
   153         10
   154          6
   155          2
   156          0
   157          1
   159          1
   161          1
   162          2
   163          8
   165         26
   166          8
   167          5
   168          1
   170          1
   171          6
   172          0
   173          0
   174          1
   175          3
   176         29
   177         27
   178         53
   179         13
   180          3
   181          0
   183          0
   187          0
   189          2
   190          9
   191         11
   192          1
   197          0
   198          2
   199          1
   200          2
   201          5
   203        213
   204        292
   205        416
   206        143
   207         20
   208          1
   216          2
   217          0
   218          2
   219          6
   229          3
   230         13
   231          0
   238          0
   239          0
   240          0
   254          1
   255          0
   256          4
   275          0
   282          1
   283          0
   306          1
   307          1
   320          0
   324          2
   325          3
   326          0
   327          2
   328          7
   329          9
   330         21
   331         18
   332        580
   333        272
   334         36
   335          4