##TITLE=Library Entry 48514
##JCAMP-DX=Revision 4.10 
##DATA TYPE=MASS SPECTRUM
##SAMPLE DESCRIPTION=Chemical Concepts
##NAMES=HP
##CAS NAME=1,7-Octadiene, 3,6-dimethylene-
##MOLFORM=C10H14
##CAS REGISTRY NO=3382-59-0
##MP= -300
##BP= -300
##MW= 134
##$RETENTION INDEX=0
##$CONDENSED SPECTRUM=NO
##NPOINTS= 68
##XYDATA=(XY..XY) 1 
    26         32
    27        407
    28         29
    29         33
    37         13
    38         45
    39        632
    40         96
    41        758
    42         32
    43          7
    44          2
    50         94
    51        199
    52        114
    53        219
    54         44
    55         31
    56          6
    57          6
    58          1
    61          5
    62         21
    63         48
    64         17
    65        234
    66         81
    67        217
    68         11
    69          4
    74          9
    75          5
    77        333
    78        149
    79        999
    80        297
    81         22
    82          1
    83          2
    85          1
    86          3
    87          4
    88          3
    89          5
    91        702
    92        219
    93        195
    94         19
    95          2
    96          3
    97          2
   101          2
   102          9
   103         50
   104         27
   105        259
   106        175
   107         25
   108          1
   115         33
   116          6
   117         45
   119        183
   120         28
   121          3
   133         10
   134         27
   135          3