##TITLE=Library Entry 21219
##JCAMP-DX=Revision 4.10 
##DATA TYPE=MASS SPECTRUM
##SAMPLE DESCRIPTION=C.J.W.BROOKS CHEM. DEPT., THE UNIVERSITY GLASGOW, U.K.
##NAMES=HP
##CAS NAME=Hydracrylic acid, monoanhydride with 1-butaneboronic acid, cyclic
 ester
##MOLFORM=C7H13BO3
##CAS REGISTRY NO=33823-94-8
##MP= -300
##BP= -300
##MW= 156
##$RETENTION INDEX=0
##$CONDENSED SPECTRUM=NO
##NPOINTS= 58
##XYDATA=(XY..XY) 1 
    31         15
    38          7
    39         60
    40         15
    41        150
    42        165
    43        215
    44         58
    45        150
    51          7
    52          7
    53         28
    54         40
    55        999
    56        285
    57         60
    58         15
    59         20
    67         15
    68         10
    69         65
    70         30
    71         60
    72        165
    73        140
    74          5
    75          5
    77          5
    79          8
    81         10
    82        250
    83        100
    84        160
    85         60
    86         30
    87         10
    97         14
    98         85
    99        360
   100        210
   101        170
   102         10
   110          5
   111          7
   112         15
   113         40
   114         50
   115          5
   126         40
   127        195
   128        202
   129        200
   130         10
   139          5
   140         25
   141         10
   155          5
   156         16