##TITLE=Library Entry 46240
##JCAMP-DX=Revision 4.10 
##DATA TYPE=MASS SPECTRUM
##SAMPLE DESCRIPTION=A.A.Kutin, Moscow, Russia
##NAMES=HP
##CAS NAME=Benzene, 1-iodo-4-(4-nitrobenzylidenamino)-
##MOLFORM=C13H9IN2O2
##CAS REGISTRY NO=3382-81-8
##MP= -300
##BP= -300
##MW= 352
##$RETENTION INDEX=0
##$CONDENSED SPECTRUM=NO
##NPOINTS= 215
##XYDATA=(XY..XY) 1 
    34          3
    36          4
    37         88
    38        177
    39        363
    40         78
    41         49
    42         14
    43         25
    44         37
    45         10
    46         41
    48          5
    50        823
    51        455
    52         86
    53         16
    54          8
    55         12
    56          4
    57          8
    58          3
    59          1
    60          7
    61         63
    62        188
    63        431
    64        135
    65        272
    66         31
    67          4
    68          2
    69          7
    70          4
    71          5
    73         36
    74        212
    75        301
    76        999
    77        291
    78         25
    79          8
    80          3
    81          3
    82          4
    83          6
    84          6
    85          9
    86         26
    87         39
    88         41
    89        139
    90         54
    91         29
    92        104
    93         28
    94          2
    95          2
    97          4
    98          8
    99         16
   100         14
   101         19
   102         79
   103         48
   104         23
   105         16
   106          2
   107          1
   108          1
   110         12
   111          3
   112          2
   113         11
   114         12
   115         11
   116          3
   117          2
   118          5
   119          1
   120          4
   121          1
   122          2
   123          3
   124          3
   125         15
   126         32
   127         97
   128         38
   129          5
   130          0
   131          0
   132          0
   133          0
   134          0
   135          1
   136          0
   137          1
   138          3
   139         27
   140         21
   141          5
   142          0
   143          0
   144          0
   145          0
   146          0
   147          1
   148          2
   149          9
   150         76
   151        146
   152        155
   153         49
   154          5
   155          1
   157          0
   160          0
   161          0
   162          0
   163          0
   164          5
   165          6
   166         30
   167         82
   168         13
   169          2
   170          1
   171          1
   173          0
   175          5
   176         21
   177         53
   178        178
   179         80
   180         11
   181          1
   182          0
   184          0
   185          0
   189          0
   191          3
   192          1
   193          2
   194          5
   195         17
   196          3
   197          1
   198          0
   199          0
   200          2
   201          5
   202          9
   203        127
   204          8
   205          0
   206          0
   207          0
   208          3
   209          0
   210          0
   213          0
   214          0
   216          2
   217          4
   219         58
   220          3
   221          0
   222          0
   223          0
   224          2
   225          5
   226          5
   227          3
   228          5
   229          8
   230         70
   231          5
   232          0
   238          0
   254          0
   279          0
   292          0
   293          3
   294          0
   298          0
   299          0
   300          1
   301          3
   302          8
   303         11
   304         19
   305        108
   306         15
   307          1
   319          1
   321          3
   322          3
   323          0
   334          0
   336          0
   341          0
   342          0
   343          0
   344          1
   345          1
   347          9
   348         25
   349         44
   350         47
   351         79
   352        210
   353         25
   354          2
   355          0