##TITLE=Library Entry 25424
##JCAMP-DX=Revision 4.10 
##DATA TYPE=MASS SPECTRUM
##SAMPLE DESCRIPTION=NIST Mass Spectrometry Data Center, 1990.
##NAMES=HP
##CAS NAME=1-Bromo-3,7-dimethyloctane
##MOLFORM=C10H21Br
##CAS REGISTRY NO=3383-83-3
##MP= -300
##BP= -300
##MW= 220
##$RETENTION INDEX=0
##$CONDENSED SPECTRUM=NO
##NPOINTS= 53
##XYDATA=(XY..XY) 1 
    15          8
    27        189
    28         30
    29        179
    39        257
    40         74
    41        758
    42        203
    43        770
    44         27
    51         20
    52         13
    53        105
    54         13
    55        880
    56        270
    57        999
    58         44
    65         16
    67         59
    69        454
    70        252
    71        906
    72         45
    79         20
    81         20
    82         20
    83        156
    84         46
    85        130
    93         13
    95         16
    97        112
    98         13
    99         21
   107         38
   109         40
   111         25
   113        211
   114         17
   125         11
   135         27
   137         27
   140         15
   149        252
   150         23
   151        246
   152         13
   163         30
   165         26
   177         79
   178          9
   179         78