##TITLE=Library Entry 19677
##JCAMP-DX=Revision 4.10 
##DATA TYPE=MASS SPECTRUM
##SAMPLE DESCRIPTION=J.R.DIXON GLAMORGAN POLYTECHNIC, PONTYPRIDD, GLAMORGAN,
 UK
##NAMES=HP
##CAS NAME=Bicyclo[3.3.1]nonan-9-ol, 9-methyl-
##MOLFORM=C10H18O
##CAS REGISTRY NO=33832-25-6
##MP= -300
##BP= -300
##MW= 154
##$RETENTION INDEX=0
##$CONDENSED SPECTRUM=NO
##NPOINTS= 37
##XYDATA=(XY..XY) 1 
    39        240
    41        520
    42         90
    43        880
    53        150
    54        150
    55        999
    56        140
    57        210
    67        600
    68        210
    69        230
    71        280
    77        120
    79        300
    80        150
    81        440
    82        320
    83        110
    85        120
    91        170
    93        360
    94        250
    95        440
    96        170
    97        380
   105        100
   108        500
   109        400
   111        130
   119        140
   123        100
   136        270
   138         50
   139        140
   154        100
   155         10