##TITLE=Library Entry 71728
##JCAMP-DX=Revision 4.10 
##DATA TYPE=MASS SPECTRUM
##SAMPLE DESCRIPTION=A.A.Kutin, Moscow, Russia
##NAMES=HP
##CAS NAME=Cyclohexane-1,3-dione, 5-(4-chlorophenyl)-2-dimethylaminomethylid
ene-
##MOLFORM=C15H16ClNO2
##CAS REGISTRY NO=338399-40-9
##MP= -300
##BP= -300
##MW= 277
##$RETENTION INDEX=0
##$CONDENSED SPECTRUM=NO
##NPOINTS= 100
##XYDATA=(XY..XY) 1 
    39         39
    40         20
    41        158
    42        382
    43        270
    44        105
    45         19
    46          6
    50         12
    51         25
    53         69
    54         18
    55         69
    56         15
    57         11
    58         39
    63         14
    65          9
    66          7
    67         22
    68        163
    69        178
    70         26
    71         20
    72          6
    73          9
    74          7
    75         24
    76          9
    77         34
    80          8
    81         34
    82        132
    83         84
    84         20
    85          6
    89         12
    91          9
    94         23
    95         24
    96         48
    97        268
    98        999
    99         67
   101         29
   102         26
   103         46
   106          8
   108         11
   110         26
   111         95
   112         22
   113         10
   115         58
   116         23
   117         19
   121         15
   122          7
   124        465
   125         52
   126         30
   127         13
   128          8
   136          6
   137         17
   138         68
   139        117
   140         21
   141          9
   148          6
   149          8
   151          9
   152         36
   153          7
   165         16
   166          8
   167          6
   171          6
   194          6
   205          7
   206          9
   208         25
   210          7
   218         23
   220         13
   221          6
   234         17
   236          7
   248         10
   249         14
   250          6
   260         72
   261         13
   262         84
   263         15
   264         21
   277        558
   278        100
   279        178
   280         28