##TITLE=Library Entry 8446
##JCAMP-DX=Revision 4.10 
##DATA TYPE=MASS SPECTRUM
##SAMPLE DESCRIPTION=Exported from NIST MS Search
##NAMES=HP
##CAS NAME=Glycine, N-acetyl-N-(trifluoroacetyl)-, methyl ester
##MOLFORM=C7H8F3NO4
##CAS REGISTRY NO=33845-37-3
##MP= -300
##BP= -300
##MW= 227
##$RETENTION INDEX=0
##$CONDENSED SPECTRUM=NO
##NPOINTS= 122
##XYDATA=(XY..XY) 1 
    12          5
    13          3
    14         17
    15        136
    16          8
    17          8
    18         27
    19         16
    20          6
    24          1
    25          2
    26         11
    27         25
    28         77
    29         39
    30          6
    31         55
    32          8
    33          3
    35          1
    37          1
    38          1
    39          3
    40          6
    41          7
    42         87
    43        999
    44         21
    45        103
    46          2
    47          5
    50         29
    51         48
    52          4
    53          2
    54         17
    55          8
    56         41
    57          3
    58          2
    59         30
    60          2
    61          1
    62          1
    64          1
    65          1
    66          2
    67          2
    68          1
    69        157
    70          6
    71          1
    72          2
    73          3
    74         13
    75          1
    76          1
    77          1
    78          9
    79          1
    81          1
    82          1
    83          1
    84          1
    85          3
    86          2
    87          1
    88          6
    89          1
    90          1
    91          1
    94          1
    95          8
    96          3
    97          6
    98          1
    99          1
   100          2
   101          1
   102          4
   103          1
   104          1
   105          1
   106          1
   107          1
   108          1
   109          2
   110          3
   111          1
   113          7
   114          2
   115          1
   116          2
   118          1
   125          2
   126         31
   127          3
   128          1
   130          1
   138          1
   140          4
   141          1
   153          2
   154          3
   155          1
   156          1
   158         14
   159          1
   160          1
   166          6
   167          2
   168          7
   169          1
   184          1
   185         24
   186          3
   187          1
   196         16
   197          2
   199          1
   227         10
   228          1