##TITLE=Library Entry 13274
##JCAMP-DX=Revision 4.10 
##DATA TYPE=MASS SPECTRUM
##SAMPLE DESCRIPTION=Exported from NIST MS Search
##NAMES=HP
##CAS NAME=Dodecanamide, N-dodecyl-N-(trifluoroacetyl)-
##MOLFORM=C26H48F3NO2
##CAS REGISTRY NO=33845-35-1
##MP= -300
##BP= -300
##MW= 463
##$RETENTION INDEX=0
##$CONDENSED SPECTRUM=NO
##NPOINTS= 277
##XYDATA=(XY..XY) 1 
    12          2
    13          1
    14          3
    15          8
    16          5
    17         45
    18        168
    19          3
    20          6
    24          2
    25          3
    26         17
    27        118
    28         61
    29        303
    30         29
    31          4
    32         10
    33          1
    36          1
    37          2
    38          3
    39         59
    40         17
    41        538
    42        134
    43        999
    44         40
    45         29
    46          2
    47          2
    48          1
    49          1
    50         10
    51         17
    52          3
    53         25
    54         62
    55        513
    56        151
    57        756
    58         35
    59          5
    60          3
    61          1
    62          1
    63          1
    64          1
    65          5
    66          5
    67         89
    68         61
    69        269
    70         76
    71        303
    72         18
    73          6
    74          1
    75          1
    77          3
    78          5
    79         15
    80         12
    81         74
    82         40
    83        176
    84        134
    85        185
    86         16
    87          4
    88          1
    89          1
    91          3
    92          2
    93         10
    94          5
    95         97
    96         31
    97        104
    98        210
    99         34
   100         11
   101          2
   102          1
   105          1
   106          1
   107          7
   108          3
   109         50
   110         14
   111         39
   112         51
   113         13
   114         19
   115          1
   116          1
   119          1
   120          1
   121          8
   122          3
   123         14
   124          8
   125         13
   126         30
   127         22
   128          8
   129          1
   133          1
   135          3
   136          2
   137         10
   138         10
   139          6
   140         12
   141          6
   142          4
   143          1
   147          1
   148          1
   149          3
   150          7
   151         36
   152          6
   153          3
   154          9
   155          5
   156         10
   157          1
   158          1
   162          1
   163          5
   164          4
   165          5
   166         10
   167          3
   168         34
   169          6
   170          3
   171          1
   173          1
   178          3
   179          2
   180          4
   181          8
   182         27
   183        807
   184        109
   185          9
   186          1
   190          1
   191          1
   192          3
   193          3
   194          8
   195          3
   196          7
   197          6
   198          4
   199          1
   200          1
   204          1
   205          1
   206          2
   207          2
   208          1
   209          1
   210          7
   211         78
   212        104
   213         15
   214          1
   218          1
   220          1
   221          1
   222          1
   223          1
   224         13
   225         10
   226          6
   227          3
   228          1
   232          1
   234          1
   235          2
   236          2
   237          1
   238          5
   239          3
   240          4
   241          2
   248          1
   249          1
   250          2
   251          1
   252          6
   253          6
   254         59
   255         10
   256          2
   261          3
   262          5
   263         39
   264         86
   265         14
   266          6
   267          3
   268          3
   269          1
   276          1
   277          1
   278          2
   279          3
   280         37
   281         13
   282         58
   283          9
   284          1
   288          1
   290          1
   294          4
   295          2
   296        185
   297         27
   298          3
   304          1
   305          1
   306          1
   308         31
   309          8
   310          4
   311          1
   318          1
   322          3
   323         89
   324         20
   325          3
   333          1
   336         11
   337          6
   338          2
   350         27
   351         45
   352         10
   353          1
   364         12
   365          8
   366          4
   367          3
   368          1
   378          6
   379          3
   380          3
   381          1
   392          5
   393          3
   394        114
   395         34
   396          6
   397          1
   406          2
   407          1
   420          2
   421          1
   434          2
   435          2
   436          1
   443          1
   444          2
   445          1
   448          2
   449          3
   461          1
   462          3
   463        134
   464         35
   465          3
   466          1