##TITLE=Library Entry 30898
##JCAMP-DX=Revision 4.10 
##DATA TYPE=MASS SPECTRUM
##SAMPLE DESCRIPTION=A.A.Kutin, Moscow, Russia
##NAMES=HP
##CAS NAME=1,4-Thiazine-3,5-dione, perhydro-4-(4-chlorophenyl)-
##MOLFORM=C10H8ClNO2S
##CAS REGISTRY NO=338409-06-6
##MP= -300
##BP= -300
##MW= 241
##$RETENTION INDEX=0
##$CONDENSED SPECTRUM=NO
##NPOINTS= 72
##XYDATA=(XY..XY) 1 
    38         84
    39        136
    40         54
    41         25
    42        223
    43        106
    44        173
    45        669
    46        425
    47         41
    48          9
    49         14
    50         78
    51         73
    52         16
    55          8
    57         15
    59        622
    60        999
    61         87
    62        110
    63        281
    64        126
    65         13
    73         61
    74         40
    75        157
    76         19
    77         67
    80          8
    82         12
    87         76
    88         29
    89        115
    90        260
    91         35
    98         14
    99         53
   102         18
   104         14
   105         16
   111        148
   112          7
   113         40
   125        200
   126         99
   127        470
   128         48
   129        137
   133         10
   138        208
   139        175
   140        436
   141         74
   142        109
   144         25
   151        458
   152         99
   153        357
   154         84
   155         49
   157         59
   159         38
   169         48
   171        101
   173         24
   213        126
   215         36
   241        422
   242         61
   243        181
   244         12