##TITLE=Library Entry 31054
##JCAMP-DX=Revision 4.10 
##DATA TYPE=MASS SPECTRUM
##SAMPLE DESCRIPTION=A.A.Kutin, Moscow, Russia
##NAMES=HP
##CAS NAME=1,3,4-Thiadiazol-2-amine, 5-(2,2-dichlorocyclopropylmethyl)thio-
##MOLFORM=C6H7Cl2N3S2
##CAS REGISTRY NO=338407-70-8
##MP= -300
##BP= -300
##MW= 255
##$RETENTION INDEX=0
##$CONDENSED SPECTRUM=NO
##NPOINTS= 99
##XYDATA=(XY..XY) 1 
    33         25
    34          9
    35         13
    36         47
    37         15
    38         40
    39        126
    40         19
    41         79
    42         65
    43        288
    44         39
    45        239
    46         89
    47         64
    48         11
    49         40
    50         72
    51        466
    52         64
    53        152
    54         25
    55         25
    57        304
    58         86
    59        205
    60        999
    61        141
    62         65
    63         60
    64         37
    65         10
    66          8
    68          7
    70        231
    71         26
    72         22
    73         72
    74        457
    75         52
    76         91
    77         72
    78          9
    79         15
    81         10
    82         11
    83        111
    84         33
    85         45
    87        667
    88         64
    89        195
    90         33
    91          7
    96         18
    97         10
    98         14
    99          6
   100         32
   101          6
   102         29
   103          5
   104         11
   105          4
   109         18
   111         10
   115          5
   117        115
   118         10
   119         28
   120          5
   121          8
   122         21
   123        120
   124         16
   125         79
   126          4
   127         15
   133        953
   134         52
   135         77
   136          5
   138          4
   140          7
   144          9
   146        119
   147          7
   148          9
   158        316
   159        593
   160         64
   161         51
   174          8
   184          7
   186          7
   220         21
   222         10
   255         14
   257         10