##TITLE=Library Entry 12822
##JCAMP-DX=Revision 4.10 
##DATA TYPE=MASS SPECTRUM
##SAMPLE DESCRIPTION=Exported from NIST MS Search
##NAMES=HP
##CAS NAME=Alanine, N-acetyl-3-phenyl-N-(trifluoroacetyl)-, methyl ester, L-
##MOLFORM=C14H14F3NO4
##CAS REGISTRY NO=33858-09-2
##MP= -300
##BP= -300
##MW= 317
##$RETENTION INDEX=0
##$CONDENSED SPECTRUM=NO
##NPOINTS= 205
##XYDATA=(XY..XY) 1 
    12          6
    13          3
    14         10
    15        134
    16          9
    17         14
    18         39
    19          2
    20          6
    24          2
    25          2
    26          8
    27         23
    28         60
    29         34
    30          7
    31         23
    32          3
    33          7
    37          2
    38          8
    39         56
    40         13
    41         28
    42         33
    43        999
    44         26
    45         73
    46          1
    47          4
    48          1
    49          2
    50         39
    51         83
    52         18
    53          6
    54          2
    55          5
    56          2
    57          5
    58          2
    59         44
    60          3
    61          3
    62          7
    63         33
    64         10
    65         95
    66          6
    67          2
    68          1
    69        134
    70          5
    71          1
    72          1
    73          1
    74          8
    75          8
    76         11
    77         80
    78         30
    79          6
    80          1
    81          1
    82          1
    83          1
    84          1
    85          3
    86          3
    87          2
    88         36
    89         29
    90         23
    91        438
    92         58
    93          5
    94          1
    95          8
    96          9
    97          5
    98          1
    99          1
   100          1
   101          4
   102         33
   103         85
   104         48
   105         11
   106          2
   107          3
   108          1
   109          2
   110          1
   111          1
   112          3
   113          1
   114          3
   115          5
   116         11
   117         29
   118         20
   119         28
   120         20
   121         30
   122          3
   123          1
   124          1
   125          1
   126          1
   127          2
   128         11
   129          4
   130         10
   131        225
   132         28
   133          5
   134          6
   135          3
   136          1
   137          1
   138          1
   139          1
   140          1
   141          1
   142          1
   143          4
   144         18
   145          5
   146          7
   147          6
   148          2
   149          1
   150          1
   151          1
   152          1
   153          1
   154          1
   155          1
   156          1
   157          1
   158          1
   159          1
   160          6
   161         73
   162        600
   163         65
   164          8
   165          1
   166          1
   167          1
   168          1
   169          1
   170          1
   171          1
   172          1
   173          1
   174          1
   175          1
   176          1
   177          1
   178          3
   179          1
   180          1
   184          2
   185          1
   186          1
   187          1
   188          1
   189          1
   190          1
   191          1
   192          1
   194          1
   195          1
   196          1
   197          1
   198          3
   199          1
   202          1
   203          5
   204          1
   205          1
   206          1
   207          1
   208          1
   214          3
   215          8
   216         23
   217          3
   221          3
   222          1
   224          1
   228          1
   242          1
   243          1
   244          5
   245          1
   256          1
   274          1
   275          1
   276          1
   286          7
   287          1
   317          1
   318          1