##TITLE=Library Entry 42914
##JCAMP-DX=Revision 4.10 
##DATA TYPE=MASS SPECTRUM
##SAMPLE DESCRIPTION=NIST Mass Spectrometry Data Center, 2008
##NAMES=HP
##CAS NAME=Disilathiane, hexamethyl-
##MOLFORM=C6H18SSi2
##CAS REGISTRY NO=3385-94-2
##MP= -300
##BP= -300
##MW= 178
##$RETENTION INDEX=993
##$CONDENSED SPECTRUM=NO
##NPOINTS= 80
##XYDATA=(XY..XY) 1 
    15          3
    27          3
    28          4
    29         13
    30          1
    31          8
    41          1
    42          8
    43         68
    44         26
    45        149
    46         10
    47          5
    53          5
    54          2
    55         12
    56          3
    57         15
    58         22
    59         66
    60          8
    61         11
    62          1
    63          2
    66          2
    67          1
    69          2
    70          4
    71         11
    73        999
    74         92
    75         82
    76          6
    77         14
    78          1
    79          1
    81          1
    83          1
    85          6
    86          1
    87          2
    88          2
    89          4
    90         19
    91          5
    92          2
    99          1
   101          2
   102          1
   103          3
   104          1
   105          2
   113          4
   114          1
   115          1
   117          6
   118          2
   119          3
   120          1
   121          1
   131         14
   132          4
   133         14
   134          2
   135          2
   147         42
   148          7
   149          6
   150          1
   161          1
   163        927
   164        162
   165        120
   166         15
   167          5
   178        149
   179         26
   180         18
   181          2
   182          1