##TITLE=Library Entry 11635
##JCAMP-DX=Revision 4.10 
##DATA TYPE=MASS SPECTRUM
##SAMPLE DESCRIPTION=NIST Mass Spectrometry Data Center, 1994
##NAMES=HP
##CAS NAME=2H-Pyran-5-carboxylic acid, 4,6-dimethyl-2-oxo-, ethyl ester
##MOLFORM=C10H12O4
##CAS REGISTRY NO=3385-34-0
##MP= -300
##BP= -300
##MW= 196
##$RETENTION INDEX=0
##$CONDENSED SPECTRUM=NO
##NPOINTS= 87
##XYDATA=(XY..XY) 1 
    15        156
    17          0
    18          6
    26         70
    27        365
    28         74
    29        310
    30         25
    31         10
    37         29
    38         49
    39        176
    40         41
    41         69
    42         10
    43        999
    44         36
    45         17
    49         15
    50        112
    51        177
    52        211
    53        337
    54         25
    55         38
    56          6
    57         10
    61          7
    62         13
    63         21
    64         12
    65         65
    66         72
    67         84
    68         19
    69         61
    70         12
    74          5
    75          2
    76          2
    77         15
    78          7
    79         31
    80         59
    81         37
    82         12
    83         39
    84         15
    85          4
    93         51
    94        103
    95         69
    96         50
    97         75
    98        134
    99          9
   107          7
   108         56
   109        163
   110         17
   111         27
   112         27
   122        380
   123        215
   124         38
   125        172
   126         47
   127          3
   135          4
   137          2
   139        282
   140        356
   141         29
   142          2
   150        102
   151        360
   152         40
   153         85
   154         26
   155          3
   168        346
   169         38
   170          4
   181          7
   196        211
   197         25
   198          3