##TITLE=Library Entry 24372
##JCAMP-DX=Revision 4.10 
##DATA TYPE=MASS SPECTRUM
##SAMPLE DESCRIPTION=Japan AIST/NIMC Database- Spectrum MS-NW-1570
##NAMES=HP
##CAS NAME=Octadecane, 1-chloro-
##MOLFORM=C18H37Cl
##CAS REGISTRY NO=3386-33-2
##MP= -300
##BP= -300
##MW= 288
##$RETENTION INDEX=2070
##$CONDENSED SPECTRUM=NO
##NPOINTS= 161
##XYDATA=(XY..XY) 1 
    15          1
    26          2
    27         60
    28         11
    29        170
    30          4
    36          7
    38          2
    39         38
    40          8
    41        352
    42         90
    43        727
    44         23
    49          3
    51          1
    52          1
    53         17
    54         32
    55        396
    56        160
    57        999
    58         44
    59          1
    63          8
    65          3
    66          3
    67         34
    68         34
    69        303
    70        137
    71        595
    72         33
    75          2
    77          9
    79          3
    80          1
    81         17
    82         40
    83        209
    84         94
    85        365
    86         23
    89          1
    90          2
    91        334
    92         13
    93        107
    94          5
    95          9
    96         20
    97        153
    98         63
    99         95
   100          7
   103          1
   104         15
   105        111
   106         12
   107         36
   108          2
   109          5
   110          9
   111         65
   112         46
   113         58
   114          5
   117          1
   118          7
   119         49
   120          5
   121         16
   122          1
   123          2
   124          5
   125         26
   126         33
   127         38
   128          4
   131          2
   132          5
   133         39
   134          4
   135         12
   136          1
   137          3
   138          3
   139         10
   140         23
   141         26
   142          3
   145          2
   146          5
   147         33
   148          4
   149         10
   150          1
   152          2
   153          6
   154         14
   155         17
   156          2
   159          1
   160          5
   161         24
   162          4
   163          8
   164          1
   166          1
   167          3
   168          9
   169         14
   170          1
   173          1
   174          6
   175         19
   176          4
   177          7
   178          1
   181          2
   182          5
   183          9
   184          1
   188          6
   189         15
   190          4
   191          5
   195          1
   196          3
   197          5
   202          6
   203         14
   204          4
   205          5
   209          1
   210          1
   211          2
   216          5
   217         13
   218          4
   219          5
   224          2
   230          5
   231         11
   232          3
   233          4
   244          3
   245          9
   246          3
   247          3
   252          9
   253          2
   258          2
   259          6
   260          2
   261          2
   286          1
   288         20
   289          4
   290          7
   291          1