##TITLE=Library Entry 40136
##JCAMP-DX=Revision 4.10 
##DATA TYPE=MASS SPECTRUM
##SAMPLE DESCRIPTION=NIST Mass Spectrometry Data Center
##NAMES=HP
##CAS NAME=1-Butene, 4-isothiocyanato-
##MOLFORM=C5H7NS
##CAS REGISTRY NO=3386-97-8
##MP= -300
##BP= -300
##MW= 113
##$RETENTION INDEX=983
##$CONDENSED SPECTRUM=NO
##NPOINTS= 56
##XYDATA=(XY..XY) 1 
    26          8
    27         50
    28         17
    29         39
    30          1
    32          6
    36          1
    37          8
    38         16
    39        122
    40         15
    41         52
    42          3
    43          3
    44         14
    45         44
    49          3
    50         21
    51         30
    52         14
    53         57
    54         23
    55        184
    56         10
    57          7
    58         27
    59         31
    60         36
    61          2
    62          1
    67          6
    68          3
    69          4
    70         19
    71         19
    72        999
    73         38
    74         45
    75          2
    76          1
    78          5
    80          5
    81          1
    82          1
    83          3
    84         11
    85         90
    86          7
    87          4
    98          3
    99          2
   112         46
   113        781
   114         54
   115         36
   116          2