##TITLE=Library Entry 11811
##JCAMP-DX=Revision 4.10 
##DATA TYPE=MASS SPECTRUM
##SAMPLE DESCRIPTION=Div. of Experiment Therapeutics WRAIR, WRAMC, Washingto
n DC 20307
##NAMES=HP
##CAS NAME=1-[2,4-Diamino-5-nitro-6-pyrimidinyl]amino-4-[3,4,5-trimethoxyphe
nyl]-2-butanone
##MOLFORM=C17H22N6O6
##CAS REGISTRY NO=33866-17-0
##MP= -300
##BP= -300
##MW= 406
##$RETENTION INDEX=0
##$CONDENSED SPECTRUM=NO
##NPOINTS= 111
##XYDATA=(XY..XY) 1 
    41        103
    43        999
    44         20
    45        107
    46         14
    50         11
    51         60
    52         20
    53        175
    55        204
    56         24
    57         41
    59         25
    60         14
    63         31
    64          5
    65        105
    66         84
    68        313
    69        166
    70         98
    71         24
    75          6
    77        137
    78         77
    79         89
    80         46
    81         46
    82         84
    83         56
    84         28
    85         21
    86         21
    89         24
    90         18
    91         97
    92         38
    93         21
    94         24
    95         93
    96        107
    98        200
   103         27
   105         54
   106         34
   107         57
   108         49
   109         54
   110         97
   111         58
   112         37
   113         19
   118          8
   119         21
   120         30
   121         56
   122         56
   123         48
   125        574
   126         35
   133         25
   134         54
   135         10
   136         98
   137        103
   138        101
   139         66
   140         28
   148         76
   149         64
   150        101
   151        274
   152         70
   154        180
   155        135
   161          3
   162          4
   163         24
   164         17
   165         72
   167        420
   168         37
   170         41
   177         16
   179         96
   181        527
   183        476
   184         32
   190          4
   193         15
   194         31
   195        129
   196         47
   197          9
   205         36
   207         10
   210          5
   211         60
   212         37
   221         41
   223         29
   225         48
   235         11
   236         10
   240         42
   252         20
   371         28
   372          7
   389         11
   406        130
   407         28