##TITLE=Library Entry 18774
##JCAMP-DX=Revision 4.10 
##DATA TYPE=MASS SPECTRUM
##SAMPLE DESCRIPTION=Japan AIST/NIMC Database- Spectrum MS-NW-1107
##NAMES=HP
##CAS NAME=3,3'-(Ethylenedioxy)dipropionitrile
##MOLFORM=C8H12N2O2
##CAS REGISTRY NO=3386-87-6
##MP= -300
##BP= -300
##MW= 168
##$RETENTION INDEX=0
##$CONDENSED SPECTRUM=NO
##NPOINTS= 65
##XYDATA=(XY..XY) 1 
    14          5
    15         23
    17          1
    18          3
    26         30
    27         84
    28         75
    29         44
    30          5
    31        141
    32          6
    38          3
    39          6
    40         13
    41         27
    42         16
    43         36
    44         26
    45        188
    46          5
    49          1
    50          1
    51          8
    52         29
    53         20
    54        999
    55         70
    56          8
    57         13
    58          6
    59          2
    61          1
    67          1
    68         27
    69          6
    70         14
    71          4
    72         17
    73          3
    84        413
    85         35
    86          4
    87          1
    97        117
    98        145
    99         35
   100          2
   101          1
   107          2
   108          3
   109          2
   110          1
   111          2
   114          3
   115          2
   125          2
   128         13
   129          1
   138         15
   139          4
   141         65
   142          5
   151          7
   167          2
   168          1