##TITLE=Library Entry 39914
##JCAMP-DX=Revision 4.10 
##DATA TYPE=MASS SPECTRUM
##SAMPLE DESCRIPTION=Exported from NIST MS Search
##NAMES=HP
##CAS NAME=L-Valinamide, N-(1-oxodecyl)glycyl-N-[6-methoxy-6-oxo-4-[(1-oxode
cyl)amino]hexyl]-, (S)-
##MOLFORM=C34H64N4O6
##CAS REGISTRY NO=33861-95-9
##MP= -300
##BP= -300
##MW= 624
##$RETENTION INDEX=0
##$CONDENSED SPECTRUM=NO
##NPOINTS= 74
##XYDATA=(XY..XY) 1 
    67         66
    68         60
    69        133
    70        237
    71        217
    72        999
    73        139
    91         29
    93         26
    94         23
    95         49
    96         34
    97         40
    98         52
    99         34
   100         23
   101         26
   102        150
   103         20
   105         23
   149         26
   212         66
   213         23
   215         20
   249         11
   296         29
   297         17
   298         43
   299         20
   300          8
   309         11
   310         17
   311         26
   314        179
   315         86
   316         20
   341        144
   342         69
   343         40
   344         11
   350          8
   351          8
   352         11
   354         17
   355          8
   356          8
   368         20
   369          5
   370         11
   396         17
   397          8
   398         20
   399          5
   400          8
   412          8
   413          8
   414         17
   415          5
   451          8
   452          5
   453          8
   454          8
   455          8
   591          5
   593         17
   594          5
   595          5
   620         11
   621          8
   622          5
   624        107
   625         46
   626          8
   627          5