##TITLE=Library Entry 37737
##JCAMP-DX=Revision 4.10 
##DATA TYPE=MASS SPECTRUM
##SAMPLE DESCRIPTION=L. I. ROSTOVTSEVA
##NAMES=HP
##CAS NAME=Hexanoic acid, 3-(acetylamino)-6-[[3,6-bis(acetylamino)-1-oxohexy
l]amino]-, methyl ester, [S-(R*,R*)]-
##MOLFORM=C19H34N4O6
##CAS REGISTRY NO=33861-49-3
##MP= -300
##BP= -300
##MW= 414
##$RETENTION INDEX=0
##$CONDENSED SPECTRUM=NO
##NPOINTS= 83
##XYDATA=(XY..XY) 1 
    41        346
    42        310
    43        456
    44        257
    50         44
    53        257
    54        363
    55        217
    56        248
    57        230
    58        146
    59        119
    60        288
    67        212
    68        222
    69        168
    70        999
    71        464
    72        217
    82        168
    83        200
    84        155
    85        177
    86        186
    94        239
    95        324
    96        297
    97        274
    98        442
    99        420
   100        522
   101        407
   102        310
   109        222
   110        257
   111        390
   112        999
   113        275
   114        336
   115        232
   117        222
   125        142
   126        362
   127        191
   130        230
   141        438
   142        500
   143        430
   144        474
   145        266
   152        318
   153        354
   154        513
   155        359
   158        252
   169        266
   172        359
   173        279
   183        235
   184        367
   186        168
   197        332
   201        470
   202        239
   203        783
   204        405
   211        244
   213        650
   214        168
   229         35
   243        217
   244        350
   253        234
   270        342
   271        257
   312        412
   314        345
   315        261
   328         44
   354        168
   371         84
   383         71
   414        332