##TITLE=Library Entry 9195
##JCAMP-DX=Revision 4.10 
##DATA TYPE=MASS SPECTRUM
##SAMPLE DESCRIPTION=D.HENNEBERG, MAX-PLANCK INSTITUTE, MULHEIM, WEST GERMAN
Y
##NAMES=HP
##CAS NAME=3-Pentanol, 1-chloro-3-methyl-
##MOLFORM=C6H13ClO
##CAS REGISTRY NO=33879-66-2
##MP= -300
##BP= -300
##MW= 136
##$RETENTION INDEX=0
##$CONDENSED SPECTRUM=NO
##NPOINTS= 88
##XYDATA=(XY..XY) 1 
    23          0
    24          2
    25          8
    26         68
    27        248
    28        120
    29        256
    30         63
    31         55
    33          0
    35          3
    36         38
    37          9
    38         19
    39        148
    40         28
    41        272
    42        106
    43        999
    44         25
    45         54
    46          1
    47          1
    48          0
    49         10
    50         17
    51         26
    52         12
    53         70
    54         33
    55        458
    56         45
    57        173
    58          7
    59          1
    60          0
    61          3
    62          3
    63         14
    64          1
    65         19
    66          5
    67        130
    68         11
    69        104
    70         69
    71         49
    72         49
    73        529
    74         23
    75          4
    76          1
    77         13
    78          3
    79         25
    80          9
    81         16
    82         44
    83         25
    84         27
    85          6
    86          0
    87          0
    89          4
    90          0
    91          2
    92          0
    93          0
    94          0
    95          0
    96          1
    97          0
    98          2
   100          2
   103          1
   105          0
   106          1
   107        339
   108         15
   109        109
   110          5
   118          5
   119          0
   120          2
   121         83
   122          4
   123         26
   124          1