##TITLE=Library Entry 64122
##JCAMP-DX=Revision 4.10 
##DATA TYPE=MASS SPECTRUM
##SAMPLE DESCRIPTION=Japan AIST/NIMC Database- Spectrum MS-IW-7796
##NAMES=HP
##CAS NAME=3-Benzyloxy-1,2-dihydro-2-oxoquinoxaline
##MOLFORM=C15H12N2O2
##CAS REGISTRY NO=33870-80-3
##MP= -300
##BP= -300
##MW= 252
##$RETENTION INDEX=0
##$CONDENSED SPECTRUM=NO
##NPOINTS= 104
##XYDATA=(XY..XY) 1 
    26          1
    27          5
    28         11
    29          1
    37          1
    38          4
    39         23
    40          2
    41          9
    43          3
    44          3
    50          6
    51         22
    52          9
    53          3
    55          2
    56          1
    57          4
    61          1
    62          4
    63         17
    64         10
    65         92
    66          6
    67          2
    69          2
    70          1
    71          2
    74          1
    75          2
    76          4
    77         13
    78         14
    79          6
    80          1
    81          1
    83          1
    84          1
    85          2
    88          1
    89         19
    90         26
    91        999
    92        113
    93          6
    95          1
    96          1
    97          2
   102          1
   103          1
   104          9
   105          6
   106         29
   107          4
   108          1
   111          2
   116          3
   117          4
   118         15
   119          9
   120          1
   126          1
   132          3
   133         63
   134         35
   135          3
   144          8
   145          3
   146         36
   147         12
   148          1
   149          1
   160         32
   161         25
   162         18
   163          2
   166          1
   167          1
   174          5
   175          1
   179          1
   180          2
   181          1
   193          3
   194         11
   195          5
   196          1
   205          1
   206          1
   207          2
   208          1
   221          1
   222         11
   223         16
   224          7
   225          1
   234          5
   235         35
   236          7
   237          2
   251         21
   252        585
   253        101
   254          9