##TITLE=Library Entry 97289
##JCAMP-DX=Revision 4.10 
##DATA TYPE=MASS SPECTRUM
##SAMPLE DESCRIPTION=Exported from NIST MS Search
##NAMES=HP
##CAS NAME=Azulene, 1,2,3,3a-tetrahydro-
##MOLFORM=C10H12
##CAS REGISTRY NO=33877-87-1
##MP= -300
##BP= -300
##MW= 132
##$RETENTION INDEX=0
##$CONDENSED SPECTRUM=NO
##NPOINTS= 36
##XYDATA=(XY..XY) 1 
    38         32
    39        238
    40         20
    41         44
    50         88
    51        208
    52         60
    53         72
    62         36
    63        118
    64         72
    65        132
    66         14
    74         30
    75         30
    76         32
    77        178
    78        168
    79         32
    91        416
   102         46
   103        134
   104        464
   105         68
   115        288
   116        156
   117        999
   118        122
   119         46
   127         48
   128         98
   129         92
   130         26
   131        342
   132        376
   133         52