##TITLE=Library Entry 1767
##JCAMP-DX=Revision 4.10 
##DATA TYPE=MASS SPECTRUM
##SAMPLE DESCRIPTION=NIST Mass Spectrometry Data Center, 1994
##NAMES=HP
##CAS NAME=9-(S)-Methyl-.delta.-5(10)-octalin-1,6-dione
##MOLFORM=C11H14O2
##CAS REGISTRY NO=33878-99-8
##MP= -300
##BP= -300
##MW= 178
##$RETENTION INDEX=0
##$CONDENSED SPECTRUM=NO
##NPOINTS= 92
##XYDATA=(XY..XY) 1 
    12          5
    13          5
    14         17
    15        128
    16          2
    18          2
    26         88
    27        721
    28        120
    29        195
    30          2
    37         17
    38         98
    39        999
    40        218
    41        451
    42        219
    43         80
    46         21
    47          4
    50        142
    51        381
    52        226
    53        317
    54          4
    55        970
    56         43
    57         18
    58         11
    60         19
    61         16
    62         45
    63        136
    64         44
    65        279
    66        212
    67        224
    68         29
    69         20
    75         13
    77        539
    78        136
    79        843
    80        441
    81         65
    82         19
    83          5
    86          6
    89         19
    91        357
    92         69
    93        530
    94        299
    95        131
    96         19
   102          6
   103         19
   104          8
   105         49
   106         30
   107        267
   108        441
   109         55
   110          6
   115         12
   117         19
   118          9
   119         11
   120          6
   121        783
   122        570
   123         86
   124         13
   131          6
   132          9
   133         23
   134         26
   135        190
   136        235
   137         42
   138          4
   145         19
   149         18
   150        118
   151         14
   160        271
   161         40
   163         63
   164          6
   178        163
   179         20
   180          0