##TITLE=Library Entry 66191
##JCAMP-DX=Revision 4.10 
##DATA TYPE=MASS SPECTRUM
##SAMPLE DESCRIPTION=NIST Mass Spectrometry Data Center, 2010
##NAMES=HP
##CAS NAME=Bicyclo[3.1.0]hexane, 4-methylene-1-(1-methylethyl)-
##MOLFORM=C10H16
##CAS REGISTRY NO=3387-41-5
##MP= -300
##BP= -300
##MW= 136
##$RETENTION INDEX=974
##$CONDENSED SPECTRUM=NO
##NPOINTS= 64
##XYDATA=(XY..XY) 1 
    26          2
    27         31
    28          3
    29         11
    37          1
    38          6
    39        101
    40         16
    41        162
    42          8
    43         47
    44          2
    45          1
    50         15
    51         47
    52         22
    53         64
    54          8
    55         29
    56          3
    57          4
    58          5
    61          1
    62          6
    63         22
    64          5
    65         77
    66         20
    67         45
    68         11
    69        113
    70          6
    74          2
    75          2
    76          2
    77        390
    78         64
    79        284
    80        112
    81         18
    82          6
    83          1
    86          1
    87          1
    89          5
    90          2
    91        395
    92        103
    93        999
    94        138
    95         11
    96          1
   102          2
   103         11
   105         31
   106          7
   107         31
   108         11
   109          1
   121         79
   122          8
   136        175
   137         20
   138          1