##TITLE=Library Entry 57001
##JCAMP-DX=Revision 4.10 
##DATA TYPE=MASS SPECTRUM
##SAMPLE DESCRIPTION=NIST Mass Spectrometry Data Center
##NAMES=HP
##CAS NAME=2(2-Bromoethyl)-1,3-dioxane
##MOLFORM=C6H11BrO2
##CAS REGISTRY NO=33884-43-4
##MP= -300
##BP= -300
##MW= 194
##$RETENTION INDEX=0
##$CONDENSED SPECTRUM=NO
##NPOINTS= 64
##XYDATA=(XY..XY) 1 
    12          1
    14          1
    15          9
    18          1
    19          1
    26         54
    27        195
    28        194
    29        245
    31        222
    32          3
    37          3
    38          9
    39         51
    40          9
    41        106
    42         16
    43         11
    44          2
    47          2
    53          2
    54          2
    55         31
    56         31
    57        135
    58         11
    59        143
    60          6
    71          1
    79          5
    80          5
    81          7
    82          4
    83          2
    85          2
    87        999
    88         48
    89          4
    93          9
    94          1
    95          8
   105          2
   107         74
   108         14
   109         64
   110          9
   111          1
   113          4
   114          1
   115          1
   135         55
   136         16
   137         55
   138         14
   139          3
   151          1
   153          1
   165          7
   166          1
   167          8
   193         57
   194          5
   195         57
   196          4