##TITLE=Library Entry 50181
##JCAMP-DX=Revision 4.10 
##DATA TYPE=MASS SPECTRUM
##SAMPLE DESCRIPTION=TNO Volatile Compounds in Food - Chemical Concepts
##NAMES=HP
##CAS NAME=Cyclohexane, 1-ethenyl-1-methyl-2,4-bis(1-methylethenyl)-, (1.alp
ha.,2.beta.,4.beta.)-
##MOLFORM=C15H24
##CAS REGISTRY NO=33880-83-0
##MP= -300
##BP= -300
##MW= 204
##$RETENTION INDEX=0
##$CONDENSED SPECTRUM=NO
##NPOINTS= 110
##XYDATA=(XY..XY) 1 
    26          2
    27        228
    28         27
    29        201
    35          5
    36          5
    38         14
    39        330
    40        109
    41        848
    42         65
    43         94
    45          7
    47         10
    49          9
    50          9
    51         70
    52         39
    53        379
    54         47
    55        372
    56         18
    57         36
    58          5
    59          6
    63         20
    64         11
    65        110
    66         70
    67        442
    68        855
    69        173
    70         19
    71          3
    73          2
    74         11
    75         10
    76          4
    77        223
    78         65
    79        326
    80        113
    81        999
    82         80
    83         16
    84          2
    85          2
    89         11
    90          8
    91        236
    92         79
    93        799
    94        206
    95        188
    96         22
    97          9
   101          5
   103         11
   104         14
   105        173
   106         86
   107        403
   108        209
   109         75
   110          7
   111          2
   112          6
   114          4
   115         11
   116          8
   117         15
   118          6
   119        121
   120         64
   121        290
   122         72
   123         71
   124          8
   127          2
   128          6
   129          5
   131         10
   132          9
   133        154
   134         81
   135        124
   136         38
   137          5
   141         11
   145         11
   146          5
   147        232
   148        105
   149         42
   150          3
   153          5
   157          6
   160          5
   161        143
   162         41
   163         34
   173          9
   175         35
   176         15
   180          9
   187          8
   189        140
   190         20
   204         18
   205          4