##TITLE=Library Entry 59319
##JCAMP-DX=Revision 4.10 
##DATA TYPE=MASS SPECTRUM
##SAMPLE DESCRIPTION=A.A.Kutin, Moscow, Russia
##NAMES=HP
##CAS NAME=Propanamide, 3-(2-methyphenoxy)-N-(4-bromophenyl)-
##MOLFORM=C16H16BrNO2
##CAS REGISTRY NO=338997-21-0
##MP= -300
##BP= -300
##MW= 333
##$RETENTION INDEX=0
##$CONDENSED SPECTRUM=NO
##NPOINTS= 127
##XYDATA=(XY..XY) 1 
    33         44
    34         30
    35          6
    36         14
    38         67
    39        204
    40         74
    41        274
    42         87
    43        195
    44         91
    46         22
    50        146
    51        163
    52        163
    55        784
    57        125
    59         44
    61         13
    63        213
    64        134
    65        408
    67         22
    68         14
    69         27
    70         30
    71         56
    74         19
    75         79
    77        576
    78        158
    79         24
    83         18
    84         17
    85         17
    86          9
    87         54
    89        117
    91        999
    92        235
    93         22
   102          6
   104         47
   105         38
   107        322
   108        274
   109          8
   112          8
   113         16
   115          6
   116         21
   117         44
   118         73
   119         76
   121        451
   122         82
   123          6
   130          2
   131          7
   132          6
   133         17
   134         15
   135         15
   136          2
   141          2
   143         47
   145         56
   147        121
   148         25
   149         25
   150          2
   154          2
   155         43
   156          2
   157         91
   158          4
   159          1
   161          6
   163         94
   164         16
   165          2
   167         25
   168         24
   170        527
   171        361
   172        535
   173        352
   174         21
   179          0
   180          7
   181          6
   182         10
   184         53
   185         24
   186         23
   187          2
   189          0
   193          1
   194          4
   195          4
   198         98
   199          7
   200         96
   201          7
   202          0
   208          2
   210          1
   212          4
   213          3
   215          3
   219          0
   222          0
   223          5
   226        689
   227         69
   228        673
   229         67
   230          3
   254         15
   255          2
   256          0
   283          3
   333        199
   334         35
   335        197
   336         34
   337          2