##TITLE=Library Entry 83012
##JCAMP-DX=Revision 4.10 
##DATA TYPE=MASS SPECTRUM
##SAMPLE DESCRIPTION=Chemical Concepts
##NAMES=HP
##CAS NAME=N'-(4-tert-Butylbenzylidene)-4-pyridinecarbohydrazide
##MOLFORM=C17H19N3O
##CAS REGISTRY NO=338987-96-5
##MP= -300
##BP= -300
##MW= 281
##$RETENTION INDEX=0
##$CONDENSED SPECTRUM=NO
##NPOINTS= 110
##XYDATA=(XY..XY) 1 
    34         10
    36         22
    39        383
    40        186
    41        449
    43        299
    44         70
    45         50
    50        265
    51        425
    52         95
    53         73
    55         86
    57        372
    59          7
    60         10
    62         56
    63         90
    64         49
    65         94
    66         24
    67         17
    68          8
    69         18
    70         13
    71         16
    72         11
    73         19
    74         25
    75         49
    77        360
    78        656
    79        227
    80         41
    81         12
    83          9
    84          8
    85          9
    87         14
    89        112
    91        377
    92         45
    93         27
    94         20
    95          9
    97         10
   101         16
   102         40
   103         69
   104         97
   106        999
   107         75
   108          9
   111          8
   112          7
   113         12
   115        203
   116        169
   117        108
   118         80
   119        106
   120         26
   122        342
   123         94
   124          8
   127         40
   128         40
   129         33
   130         38
   131         92
   132         34
   133         23
   134         13
   135         40
   137          9
   142         54
   144        812
   145        131
   146         36
   147         39
   148         66
   149        101
   150          8
   157         13
   159        183
   160         98
   161         34
   163        180
   164         32
   171         10
   172         10
   174         12
   175          7
   178         30
   187         60
   189         14
   191        123
   192          9
   195          9
   196          8
   205          7
   206         21
   207          9
   263          9
   265          9
   266         21
   278          7
   280         38
   281         78
   282         13