##TITLE=Library Entry 70988
##JCAMP-DX=Revision 4.10 
##DATA TYPE=MASS SPECTRUM
##SAMPLE DESCRIPTION=Chemical Concepts
##NAMES=HP
##CAS NAME=2,2-Dimethyl-1-pyrrolidin-1-ylpropan-1-one
##MOLFORM=C9H17NO
##CAS REGISTRY NO=3389-55-7
##MP= -300
##BP= -300
##MW= 155
##$RETENTION INDEX=0
##$CONDENSED SPECTRUM=NO
##NPOINTS= 57
##XYDATA=(XY..XY) 1 
    25          8
    27         86
    28         83
    29        151
    30         84
    31          3
    35          3
    36         28
    38          7
    40        113
    41         26
    42        309
    43         93
    44        163
    50          3
    51          5
    52          3
    53         17
    54          9
    55        607
    56        142
    57        459
    58         23
    59          5
    65          3
    67         10
    68         28
    69         53
    70        232
    71         72
    72         11
    77          3
    79          4
    81          6
    82          5
    83         12
    84          8
    85         22
    91          3
    95          5
    97          8
    98        999
    99         85
   100         56
   101          3
   109          3
   110          3
   111          4
   112         79
   113         90
   114          7
   115          2
   140         40
   141          9
   154          4
   155        199
   156         22