##TITLE=Library Entry 84550
##JCAMP-DX=Revision 4.10 
##DATA TYPE=MASS SPECTRUM
##SAMPLE DESCRIPTION=T.-L.Chang ET AL.J.Am.Oil Chem.Soc., 48,455(1971)
##NAMES=HP
##CAS NAME=1-Phenanthrenecarboxylic acid, 1,2,3,4,4a,4b,5,6,7,8,10,10a-dodec
ahydro-1,4a-dimethyl-7-(1-methylethyl)-, methyl ester, [1R-(1.alpha.,4a.beta
.,4b.alpha.,7.alpha.,10a.alpha.)]-
##MOLFORM=C21H34O2
##CAS REGISTRY NO=33892-12-5
##MP= -300
##BP= -300
##MW= 318
##$RETENTION INDEX=0
##$CONDENSED SPECTRUM=NO
##NPOINTS= 72
##XYDATA=(XY..XY) 1 
    77        188
    78         48
    79        338
    80         58
    81        288
    82         90
    83          7
    91        461
    92         77
    93        288
    94         76
    95        168
    97         38
   100          7
   103          7
   104          6
   105        339
   106         87
   107        999
   108        157
   109        449
   110          8
   115         57
   116          7
   117         98
   118          7
   119        168
   120         38
   121        500
   122         27
   123         46
   128         46
   129         46
   130          8
   131        146
   133         87
   134          9
   135        117
   136         37
   143          7
   144          7
   145         86
   147         48
   149         17
   150        562
   151         36
   159         57
   161          7
   163          8
   173         17
   180          7
   181         48
   187         87
   189         37
   201         17
   203          7
   215         68
   217          8
   219          7
   231          7
   241          6
   243        473
   244         28
   256          6
   258        582
   259        442
   260         78
   276         16
   303        461
   304         69
   318        572
   319         83