##TITLE=Library Entry 59470
##JCAMP-DX=Revision 4.10 
##DATA TYPE=MASS SPECTRUM
##SAMPLE DESCRIPTION=HCACAV, 61(5)1755(1978); C. WENTRUP
##NAMES=HP
##CAS NAME=Pyridine, 2-(1H-tetrazol-5-yl)-
##MOLFORM=C6H5N5
##CAS REGISTRY NO=33893-89-9
##MP= -300
##BP= -300
##MW= 147
##$RETENTION INDEX=0
##$CONDENSED SPECTRUM=NO
##NPOINTS= 13
##XYDATA=(XY..XY) 1 
    50        190
    51        200
    52        140
    63        200
    64        320
    65        100
    78        250
    91        999
    92         83
   104         22
   105         80
   119         78
   147         38