##TITLE=Library Entry 1786
##JCAMP-DX=Revision 4.10 
##DATA TYPE=MASS SPECTRUM
##SAMPLE DESCRIPTION=A.A.Kutin, Moscow, Russia
##NAMES=HP
##CAS NAME=Prop-2-en-1-one, 1-(3,4-dichlorophenyl)-3-(2-furyl)-
##MOLFORM=C13H8Cl2O2
##CAS REGISTRY NO=338962-83-7
##MP= -300
##BP= -300
##MW= 266
##$RETENTION INDEX=0
##$CONDENSED SPECTRUM=NO
##NPOINTS= 186
##XYDATA=(XY..XY) 1 
    33         20
    34         42
    35         32
    36         87
    37         89
    38        191
    39        999
    40         43
    41         50
    42         33
    44         14
    45          8
    46          4
    47          6
    48          3
    49         29
    50        127
    51         77
    53         72
    54         18
    55        126
    56         20
    57         30
    58          2
    59          2
    60         10
    61         39
    62         80
    63        324
    64        108
    65        658
    66         39
    67         11
    68         22
    69         74
    70         40
    71         15
    72         17
    74        315
    75        229
    76         19
    77         10
    78          5
    80         12
    81          7
    82         11
    84         92
    85         41
    86         39
    87         85
    89         21
    90          3
    91         13
    92         37
    93         73
    95         14
    96          9
    97         15
    98         15
    99         15
   101         72
   103         14
   104          3
   105          7
   106         13
   107         13
   109        229
   110         75
   111         80
   112         25
   113         22
   114          6
   115          6
   116          1
   119         32
   120         21
   121        297
   122         29
   123         12
   124          2
   125          6
   126          3
   127          1
   128          0
   129          0
   131          0
   132          0
   133          5
   134          3
   135          5
   136          6
   137         11
   138         22
   139         90
   140         26
   141          4
   142          2
   143          0
   145        224
   147        150
   148         19
   149         57
   150         10
   151         11
   152          4
   153          0
   154          0
   155          0
   157          1
   159          2
   160          1
   161          1
   162          2
   163          0
   164          0
   167          7
   168         49
   169          5
   170         15
   171         16
   173        561
   174         56
   175        414
   176         39
   177         79
   178          5
   179          0
   182          0
   183         26
   184          4
   185         17
   186          7
   187          3
   188          1
   189          0
   195          1
   196          2
   198          2
   199          1
   200          0
   201          1
   202         19
   203         21
   204          8
   205          7
   206          1
   207          0
   209         16
   210         13
   211         14
   212         79
   213         12
   214         50
   215          5
   216          6
   222          1
   223          1
   224          2
   225         11
   227          5
   228          0
   229          0
   230          2
   231         28
   232          4
   233          8
   234          0
   236          1
   237          7
   238         35
   239          9
   240         19
   241          3
   242          3
   249          1
   251          0
   261          0
   263          2
   264          3
   265         24
   266        172
   267         43
   268        111
   269         18
   270         20
   271          2