##TITLE=Library Entry 61670
##JCAMP-DX=Revision 4.10 
##DATA TYPE=MASS SPECTRUM
##SAMPLE DESCRIPTION=Chemical Concepts
##NAMES=HP
##CAS NAME=N-(2-[(3-Indolylmethyl)carbazoyl]phenyl)-o-toluamide
##MOLFORM=C24H20N4O2
##CAS REGISTRY NO=338989-33-6
##MP= -300
##BP= -300
##MW= 396
##$RETENTION INDEX=0
##$CONDENSED SPECTRUM=NO
##NPOINTS= 127
##XYDATA=(XY..XY) 1 
    33          5
    39        144
    40         11
    41        134
    42         29
    43         61
    44         44
    45         16
    46          3
    50         76
    51         67
    52         25
    53         17
    55         28
    57         20
    58          3
    59          3
    60          2
    61          7
    63        155
    64        163
    65        236
    66         23
    67          8
    69          7
    70          7
    71          9
    72          1
    73          5
    74         12
    75         50
    76         40
    77         93
    78         20
    79          9
    80          7
    81          5
    82          1
    83          9
    85          6
    86          6
    90        155
    91        999
    92        127
    93         14
    94          2
    96          3
    97          3
    98          4
    99          1
   100          1
   103         52
   104         72
   105         19
   106         22
   107          6
   108          4
   109          1
   113          2
   114         14
   115         16
   116         59
   117         51
   119        700
   120        543
   121        105
   122          1
   129         24
   130         90
   131         30
   132         33
   133         66
   134         52
   135          9
   136          3
   142         27
   143         60
   144         31
   145         16
   146        139
   147         12
   148          6
   149          2
   151          3
   152          9
   153          3
   158          6
   159        615
   160        523
   161          5
   164         31
   165         34
   166          6
   167          1
   179          3
   180         37
   181          9
   190          1
   191          1
   192          4
   193          9
   194          4
   195          3
   206          3
   207          6
   208         43
   209         46
   210          8
   211          2
   219          6
   220          1
   234          9
   235         33
   236         31
   237        124
   238        347
   239         62
   240          7
   247          1
   254          7
   257          1
   258          1
   269          3
   286          3
   324          1
   396         16
   397          4