##TITLE=Library Entry 39074
##JCAMP-DX=Revision 4.10 
##DATA TYPE=MASS SPECTRUM
##SAMPLE DESCRIPTION=A.A.Kutin, Moscow, Russia
##NAMES=HP
##CAS NAME=N-(2,3-Dichloro-phenyl)-N'-(tetrahydro-furan-2-ylmethyl)-oxalamid
e
##MOLFORM=C13H14Cl2N2O3
##CAS REGISTRY NO=339088-83-4
##MP= -300
##BP= -300
##MW= 316
##$RETENTION INDEX=0
##$CONDENSED SPECTRUM=NO
##NPOINTS= 213
##XYDATA=(XY..XY) 1 
    35          0
    36          2
    37          1
    38          3
    39         19
    40          8
    41         61
    42         23
    43        143
    44         12
    45          2
    49          1
    50          2
    51          2
    52          2
    53          7
    54          7
    55         28
    56         22
    57         13
    58          5
    59          1
    60          0
    61          2
    62          7
    63         14
    64          6
    65          4
    66          0
    67         25
    68          5
    69          7
    71        999
    72         38
    73         11
    74         10
    75         14
    76          2
    77          1
    78          0
    79          1
    80          2
    81          2
    82         34
    83         18
    84        213
    85         22
    86          6
    87          1
    88          5
    89          6
    90         21
    91          4
    92          6
    93          0
    94          0
    95          2
    96          2
    97          8
    98         11
    99         12
   100         15
   101          4
   102          1
   103          0
   104          1
   105          4
   106          1
   107          2
   108          2
   109         23
   110         13
   111         10
   112          2
   113          0
   116          0
   117          3
   118          2
   119          2
   120          6
   121          1
   122          1
   124         75
   125         25
   126         38
   127         12
   128         30
   129          3
   130          0
   133         63
   134          7
   135         40
   136          8
   137          8
   138          2
   139          0
   140          0
   141          0
   143          0
   145         17
   146          3
   147          9
   148          1
   149          2
   150          0
   151          1
   152          3
   153         10
   154         12
   155          4
   156          3
   157          0
   158          1
   159          8
   160         72
   161        106
   162         61
   163         67
   164         17
   165         11
   166          2
   167          0
   169          6
   170          0
   171          3
   172          2
   173          2
   174          4
   175          2
   176          2
   177          0
   178          0
   179          0
   180          2
   181          1
   182          1
   183          2
   184          0
   185          0
   187         32
   188         43
   189         23
   190         28
   191          6
   192          4
   193          0
   195          0
   197         12
   198          2
   199          3
   200          0
   201          0
   202          0
   203          0
   206          0
   209          0
   211         49
   212          5
   213         14
   214          1
   215          0
   217          0
   218          0
   222          0
   223          2
   224          0
   225          0
   226          2
   227          0
   228          0
   229          0
   232          0
   233          2
   234          0
   235          1
   236          0
   237          3
   239         10
   240          1
   241          2
   245          9
   246          9
   247          7
   248          6
   249          2
   250          1
   251          9
   252          1
   253          4
   254          0
   255          2
   257          0
   261          2
   262          0
   263          1
   272          0
   273          0
   274          0
   275          0
   277          0
   281        199
   282         33
   283         59
   284          8
   285          0
   298          0
   300          0
   316        121
   317         21
   318         78
   319         11
   320         11
   321          1