##TITLE=Library Entry 83277
##JCAMP-DX=Revision 4.10 
##DATA TYPE=MASS SPECTRUM
##SAMPLE DESCRIPTION=Chemical Concepts
##NAMES=HP
##CAS NAME=5-Oxo-1-phenyl-N-(o-tolyl)-3-pyrrolidinecarboxamide
##MOLFORM=C18H18N2O2
##CAS REGISTRY NO=339064-43-6
##MP= -300
##BP= -300
##MW= 294
##$RETENTION INDEX=0
##$CONDENSED SPECTRUM=NO
##NPOINTS= 92
##XYDATA=(XY..XY) 1 
    33          3
    37          2
    39        349
    40          8
    41        160
    44        116
    45          4
    51         90
    53         26
    55        144
    56          9
    57          9
    60          1
    62          3
    63         10
    65         68
    66          6
    67          4
    68         11
    69          9
    70          6
    71          6
    77        216
    78         32
    79         35
    80          6
    82          8
    83          4
    84          4
    89         10
    91         94
    93         37
    94          2
    95          1
    97          2
    98          1
   102          3
   104         89
   106        999
   107        220
   108         17
   109          1
   110          1
   111          2
   112          4
   113          1
   115          9
   117         45
   118         15
   119         29
   120         12
   121          1
   128          7
   130         88
   132        114
   133         22
   134         21
   135          2
   138          2
   142          7
   144         56
   145         27
   146         38
   147         16
   149          1
   157          2
   160        250
   161         45
   162          5
   170          2
   171          9
   172          3
   173          5
   174         10
   175          1
   186          7
   187          5
   189        117
   190         11
   194          1
   196         24
   197          3
   202          1
   207          1
   208          4
   250          1
   266          2
   279          1
   292          5
   294        369
   295         70
   296          8