##TITLE=Library Entry 76224
##JCAMP-DX=Revision 4.10 
##DATA TYPE=MASS SPECTRUM
##SAMPLE DESCRIPTION=Chemical Concepts
##NAMES=HP
##CAS NAME=4-[(1-Naphthylimino)methylene]phenyl 4-bromocinnamate
##MOLFORM=C26H18BrNO2
##CAS REGISTRY NO=339027-00-8
##MP= -300
##BP= -300
##MW= 455
##$RETENTION INDEX=0
##$CONDENSED SPECTRUM=NO
##NPOINTS= 135
##XYDATA=(XY..XY) 1 
    36          7
    37          1
    39         96
    41         46
    42         45
    44         11
    45          5
    48          1
    50        121
    51        175
    52         37
    53         11
    54          9
    55         42
    56         21
    57         30
    58          3
    60          6
    62         24
    63         95
    65        153
    66         12
    67          9
    68          6
    69         22
    70         18
    71         15
    72          5
    74         36
    75        200
    76        132
    77        111
    79         57
    80         50
    81         30
    82         51
    83          9
    84          9
    85          3
    86          6
    87          9
    88          9
    89         13
    90          8
    91         13
    92         11
    93         19
    94         12
    95          5
    96          5
    97         10
    98         13
   102        999
   104          9
   105          7
   106          3
   107          2
   108         16
   109          3
   111          4
   112          9
   113         13
   114         12
   115         35
   116          7
   119          9
   120          8
   121          5
   122          6
   123         11
   125         16
   127        404
   128         81
   130        118
   131         33
   139          9
   140          9
   143         25
   149          5
   150          2
   151          7
   152         17
   153         68
   154         43
   155          7
   157          5
   163          9
   164          9
   165         16
   166          4
   167          1
   171         10
   176          2
   177          2
   178          6
   181        147
   183        137
   184          8
   187          3
   189         39
   190         20
   191         15
   192          2
   201          4
   202          7
   203          5
   204          6
   205          3
   206          9
   209        713
   211        661
   212         41
   213          3
   214          6
   216         85
   217        157
   218         91
   219         13
   225          2
   226          6
   227          7
   228          9
   230          1
   243          2
   244         23
   246        342
   247        732
   248        112
   249         11
   376          1
   455        122
   456         35
   457        102
   458         28
   459          3