##TITLE=Library Entry 45555
##JCAMP-DX=Revision 4.10 
##DATA TYPE=MASS SPECTRUM
##SAMPLE DESCRIPTION=Chemical Concepts
##NAMES=HP
##CAS NAME=2-(3,5-Dinitrophenyl)-4-(2-methylbenzylidene)-5(4H)-oxazolone
##MOLFORM=C17H11N3O6
##CAS REGISTRY NO=339026-41-4
##MP= -300
##BP= -300
##MW= 353
##$RETENTION INDEX=0
##$CONDENSED SPECTRUM=NO
##NPOINTS= 106
##XYDATA=(XY..XY) 1 
    35          1
    36          7
    37         30
    39        106
    40         14
    41         11
    42         40
    43         38
    45         44
    46        141
    47          2
    48          4
    50        140
    52         80
    53         34
    54          5
    55          5
    56          2
    57          2
    58          1
    60          6
    61         12
    62         97
    63        169
    64         32
    65         34
    66          7
    67          1
    68          2
    69          2
    70          1
    71          2
    74        447
    75        999
    76        134
    77        282
    78         50
    79          9
    80          2
    82          1
    85          4
    86          9
    87         14
    88         19
    89         50
    90         16
    91         41
    92          7
    93          1
    98          3
    99          6
   100         10
   101         40
   102        161
   103        642
   104         80
   105          8
   106          4
   107          2
   108          1
   111          1
   112          2
   113          4
   115         39
   116          9
   117          3
   118          2
   119          8
   120         17
   121          7
   122          1
   127          8
   128         41
   129         37
   130        187
   131         19
   132          5
   133          2
   136          1
   137          3
   140          2
   149        239
   150         18
   151          3
   152          1
   157          1
   158          4
   163          2
   165          4
   166          2
   167          1
   176          2
   177          1
   179         13
   180          2
   192          2
   193          5
   195        434
   196         34
   197          5
   203          1
   204          1
   212          2
   325          3
   353          8
   354          1