##TITLE=Library Entry 65097
##JCAMP-DX=Revision 4.10 
##DATA TYPE=MASS SPECTRUM
##SAMPLE DESCRIPTION=NIST Mass Spectrometry Data Center, 1994
##NAMES=HP
##CAS NAME=S-(+)-S-Methyl-S-phenylsulfoxime
##MOLFORM=C7H9NOS
##CAS REGISTRY NO=33903-50-3
##MP= -300
##BP= -300
##MW= 155
##$RETENTION INDEX=0
##$CONDENSED SPECTRUM=NO
##NPOINTS= 98
##XYDATA=(XY..XY) 1 
    12          2
    13          5
    14         17
    15        140
    16          5
    18          5
    19          1
    26          7
    27         59
    28         53
    29          7
    30         68
    32          6
    33          8
    34          5
    37         18
    38         39
    39        144
    40         11
    41          8
    44          5
    45         82
    46         50
    47         37
    48         27
    49         22
    50        284
    51        688
    52         48
    53         43
    54          4
    55          3
    57          7
    58          7
    59          0
    60         27
    61         13
    62         49
    63         77
    64         43
    65        306
    66         36
    67          4
    68          6
    69         38
    70          8
    71          7
    72          2
    73         17
    74         78
    75         47
    76          0
    77        994
    78        128
    79         10
    80         27
    81         15
    82         11
    83          4
    84          5
    85         19
    86          5
    87          2
    89          5
    91        158
    92        999
    93         83
    94        139
    95         14
    96          2
    97        102
    98         16
    99          5
   105          1
   106          5
   107          3
   108          9
   109         19
   110          5
   111          4
   112         31
   113          9
   114          2
   121          2
   122          3
   123          8
   124         15
   125         61
   126          5
   127          3
   138          2
   140        527
   141         43
   142         25
   143          2
   155         54
   156          4
   157          2