##TITLE=Library Entry 40707
##JCAMP-DX=Revision 4.10 
##DATA TYPE=MASS SPECTRUM
##SAMPLE DESCRIPTION=D.H.WILLIAMS CHEMISTRY DEPT., UNIVERSITY OF CAMBRIDGE
##NAMES=HP
##CAS NAME=1,3-Dioxolane, 2-propyl-
##MOLFORM=C6H12O2
##CAS REGISTRY NO=3390-13-4
##MP= -300
##BP= -300
##MW= 116
##$RETENTION INDEX=888
##$CONDENSED SPECTRUM=NO
##NPOINTS= 28
##XYDATA=(XY..XY) 1 
    26         20
    27        110
    28         40
    29         50
    31         30
    39         50
    41         80
    42         20
    43         90
    44         30
    45        300
    46         10
    53          8
    54          8
    55         30
    56         20
    57         30
    58         10
    60          5
    71        100
    72         20
    73        999
    74         80
    86         30
    88         20
    99         10
   115         48
   116         10