##TITLE=Library Entry 5417
##JCAMP-DX=Revision 4.10 
##DATA TYPE=MASS SPECTRUM
##SAMPLE DESCRIPTION=Chemical Concepts
##NAMES=HP
##CAS NAME=7-(.alpha.-[(2-Nitrobenzylidene)hydrazono]benzyl)-1,3,5-triazaada
mantane
##MOLFORM=C21H22N6O2
##CAS REGISTRY NO=339061-35-7
##MP= -300
##BP= -300
##MW= 390
##$RETENTION INDEX=0
##$CONDENSED SPECTRUM=NO
##NPOINTS= 201
##XYDATA=(XY..XY) 1 
    33         14
    34          2
    36          1
    39         98
    42        999
    44         19
    45          2
    46          1
    51        120
    52         27
    54         25
    55         39
    56          9
    57          8
    58          6
    59          2
    60          2
    63         46
    64         22
    65         22
    68        145
    69         14
    70          5
    71          6
    72          1
    76        175
    79         68
    80         21
    82         30
    83         14
    85         25
    86          2
    87          3
    89         27
    91         95
    92         19
    93          8
    95         12
    97          9
    98          2
    99          2
   102         67
   104         90
   105         18
   106          6
   107          4
   109         10
   111          6
   112          2
   115        106
   116         21
   117         32
   118         16
   119          9
   120          6
   121          3
   122          2
   123          1
   124          2
   125          1
   128        103
   129         75
   130         32
   131         10
   132          7
   133          4
   135         38
   136          9
   138         10
   140         10
   141          7
   142         15
   143         21
   144         46
   145          9
   146          3
   147          2
   148          4
   149          2
   150          2
   151          7
   152          4
   153          3
   156        102
   157         95
   158         21
   159         10
   160          3
   161          1
   163         10
   164          1
   165          2
   166          2
   167          3
   169         37
   171        137
   172         17
   173          6
   174          3
   176          2
   177          1
   178          5
   179          3
   180          2
   181          2
   183         14
   185        102
   186         16
   188          6
   189          2
   190          1
   191          1
   192          1
   193          1
   194          1
   195          2
   198        113
   199         22
   200         16
   201          3
   202          2
   203          2
   204          3
   205          3
   206          3
   207          2
   208          1
   212        167
   213         25
   214          4
   215          3
   216          2
   217          6
   218          6
   219          2
   220          1
   224          1
   225          1
   226          1
   227          2
   228          2
   229          2
   230          2
   231          3
   232          3
   233          2
   234          1
   241        514
   242         79
   243         11
   244          4
   245          9
   246          5
   247          2
   254          1
   255          2
   256          2
   257          2
   258          3
   259          2
   260          4
   261          3
   262          2
   263          1
   272          2
   273          2
   274          2
   275          1
   276          1
   288          1
   289          1
   290          2
   292         96
   293         16
   294          3
   301          1
   302          1
   303          2
   304          2
   305          1
   315          1
   316          1
   317          1
   319          8
   321         51
   322         10
   323          1
   332          2
   333          2
   335          5
   336          1
   348          2
   359          1
   360          3
   362         84
   363         18
   364          3
   373          1
   389          1
   390          6
   391          1