##TITLE=Library Entry 17595
##JCAMP-DX=Revision 4.10 
##DATA TYPE=MASS SPECTRUM
##SAMPLE DESCRIPTION=Chemical Concepts
##NAMES=HP
##CAS NAME=5-Bromo-8-(2-hydroxy-1-naphthylmethyleneamino)quinoline
##MOLFORM=C20H13BrN2O
##CAS REGISTRY NO=339066-38-5
##MP= -300
##BP= -300
##MW= 376
##$RETENTION INDEX=0
##$CONDENSED SPECTRUM=NO
##NPOINTS= 221
##XYDATA=(XY..XY) 1 
    39        514
    40        350
    41        475
    42        189
    43        412
    44        479
    45        999
    46         99
    48         96
    50        320
    51        290
    52        126
    53         82
    54         44
    55        238
    57        435
    58         81
    59         34
    60         34
    61        113
    62        251
    63        389
    64        198
    65        148
    66         28
    67         35
    68         23
    69         96
    70         98
    71        194
    72         72
    74        231
    75        238
    76        136
    77        279
    78         60
    79         90
    80        160
    81         87
    82        159
    83         69
    84         79
    85         51
    86        125
    87        173
    88        175
    89        406
    90         71
    91         46
    92         14
    93         21
    94         20
    95         18
    97         77
    99         92
   100        122
   101        269
   102        133
   103         22
   104         14
   105         30
   106         18
   107         28
   109         28
   110         22
   111         58
   112        113
   113        131
   114        240
   115        567
   116        265
   117         38
   118         13
   119         18
   120         19
   121         22
   122         16
   123          9
   124         14
   125         41
   126        160
   127        247
   128        968
   129        142
   130         11
   131          7
   133         17
   134         66
   136          4
   137          6
   138          6
   139         29
   140         69
   141         71
   142        108
   143        225
   144        297
   145         32
   146          4
   147          9
   148         16
   149         21
   150          8
   151          8
   152         27
   153         24
   154         75
   155         24
   156         29
   157         23
   158          6
   160          5
   161          5
   162          7
   163          8
   164          9
   165          4
   166          5
   167         10
   168         11
   169         54
   170         79
   171        390
   172        387
   173         62
   174         18
   175         14
   176          3
   178          4
   179         13
   180         20
   181          9
   183         11
   184         16
   185         15
   187         23
   188         71
   189         53
   191          7
   192          3
   193          3
   194         16
   195         36
   196         14
   197         33
   198          5
   199          7
   201          7
   203          2
   204          6
   205         13
   207        746
   208        120
   209        640
   210         73
   211          8
   213          9
   214          5
   215          3
   216          4
   218          4
   219          5
   221        213
   222        204
   224        313
   225         36
   226          2
   233         20
   234          7
   235         15
   236          4
   238          3
   239          5
   240         10
   241         10
   242          3
   248          6
   249          3
   250          5
   252          5
   265          4
   266         11
   267         10
   268         10
   269          8
   277          6
   278          5
   279          9
   280          4
   281          6
   282          3
   283         29
   284          6
   294          2
   295          8
   296          7
   297         22
   298          5
   301         14
   302          4
   325          4
   326         29
   327          8
   328         28
   329          6
   334          2
   347          5
   348          3
   349          5
   359         15
   360          4
   361         11
   372          6
   373          9
   374         17
   375         57
   376        232
   377        103
   378        229
   379         49
   380          6