##TITLE=Library Entry 61615
##JCAMP-DX=Revision 4.10 
##DATA TYPE=MASS SPECTRUM
##SAMPLE DESCRIPTION=NIST Mass Spectrometry Data Center
##NAMES=HP
##CAS NAME=Myrtenyl isovalerate
##MOLFORM=C15H24O2
##CAS REGISTRY NO=33900-84-4
##MP= -300
##BP= -300
##MW= 236
##$RETENTION INDEX=1552
##$CONDENSED SPECTRUM=NO
##NPOINTS= 85
##XYDATA=(XY..XY) 1 
    26          1
    27         34
    28          5
    29         46
    30          1
    31          2
    37          1
    38          3
    39         86
    40         16
    41        235
    42         29
    43        103
    44          4
    45          7
    50          5
    51         25
    52         15
    53         63
    54          9
    55         52
    56         12
    57        259
    58         13
    59         12
    60          6
    61          2
    62          2
    63         10
    64          3
    65         57
    66         17
    67         38
    68         11
    69         26
    70          3
    74          1
    75          1
    76          1
    77        134
    78         64
    79        170
    80         22
    81         14
    85        164
    86          8
    87          2
    89          4
    90          3
    91        999
    92        393
    93        126
    94         12
    96          6
   100          1
   101          2
   102          2
   103         32
   104         12
   105        126
   106         70
   107         38
   108        102
   109         11
   110          4
   111          4
   115         14
   116          3
   117         39
   118          8
   119        717
   120         72
   128          1
   131          3
   132          2
   133         16
   134        248
   135         39
   136          3
   151          2
   152         32
   153          3
   174          1
   192          1
   236          2