##TITLE=Library Entry 2570
##JCAMP-DX=Revision 4.10 
##DATA TYPE=MASS SPECTRUM
##SAMPLE DESCRIPTION=A.A.Kutin, Moscow, Russia
##NAMES=HP
##CAS NAME=Benzoxazol, 2,3-dihydro-2-thioxo-3-diallylaminomethyl-
##MOLFORM=C14H16N2OS
##CAS REGISTRY NO=339064-71-0
##MP= -300
##BP= -300
##MW= 260
##$RETENTION INDEX=0
##$CONDENSED SPECTRUM=NO
##NPOINTS= 56
##XYDATA=(XY..XY) 1 
    37         62
    38        144
    39        555
    40        236
    41        999
    42        334
    43        289
    44        720
    45         92
    48         38
    50         78
    51        114
    52        107
    53         75
    54         84
    55        228
    56        138
    57        137
    58         14
    60         42
    61         19
    62         41
    63        163
    64        219
    65         97
    66         29
    67         81
    68        236
    69        125
    70        204
    71         57
    73         10
    75         13
    76         12
    77        106
    78         98
    79         95
    80         26
    81         74
    82        130
    83         47
    84         70
    91        267
    92         32
    93         10
    94         24
    95         15
    96        101
    97         24
   110        487
   111         30
   119         27
   122         18
   123         13
   151        306
   152         26