##TITLE=Library Entry 86621
##JCAMP-DX=Revision 4.10 
##DATA TYPE=MASS SPECTRUM
##SAMPLE DESCRIPTION=Chemical Concepts
##NAMES=HP
##CAS NAME=2-[(4-Fluorobenzyl)thio]-4'-(4-pyridylmethyl)benzanilide
##MOLFORM=C26H21FN2OS
##CAS REGISTRY NO=339064-44-7
##MP= -300
##BP= -300
##MW= 428
##$RETENTION INDEX=0
##$CONDENSED SPECTRUM=NO
##NPOINTS= 160
##XYDATA=(XY..XY) 1 
    36          1
    39        298
    40          3
    41         12
    44        114
    45          9
    46          1
    48         10
    51         71
    52         15
    53          9
    54          9
    55          9
    57         24
    58          9
    59          8
    60          3
    63         58
    64         23
    65         38
    67          3
    69         29
    70          6
    71          3
    72          2
    74          7
    75          9
    76         15
    77         43
    78         20
    79         13
    80          9
    81          9
    83         96
    84          5
    85          1
    86          2
    87          2
    89         21
    91         21
    92         33
    93         22
    94          4
    95          6
    96          4
    97          1
    98          1
    99          1
   101          4
   102          6
   103          5
   105         37
   106         33
   109        999
   111          3
   112          1
   113          1
   115          9
   116          4
   117          7
   118          9
   120         45
   121          9
   122          5
   123          5
   124          6
   126          2
   127         11
   128         11
   129          6
   130          9
   132          9
   133          5
   134          4
   136         67
   137         23
   138          6
   139         12
   140          6
   141          4
   142          3
   144         14
   145          5
   146          9
   147          5
   149         53
   150         14
   151          4
   152          4
   153          3
   154         13
   156         29
   157          4
   159          9
   163          3
   164          2
   165          3
   166          9
   167         22
   168         18
   169          5
   170          2
   171          4
   173         32
   174          6
   175          1
   179          2
   180          3
   181         18
   184        630
   185        157
   186          9
   187          1
   195          6
   196          2
   197          3
   198         12
   199          5
   200          4
   201          1
   208          3
   209          3
   210          5
   211          5
   212          4
   213          2
   215          8
   216          3
   217          7
   218          7
   219          1
   226         13
   227         33
   228          6
   229          2
   240         11
   241          4
   242          1
   244         26
   245         38
   246          8
   247          2
   262          1
   285          1
   286          1
   287          3
   288          3
   289          2
   290          4
   291          3
   292          4
   318         81
   319        123
   320         36
   321          9
   322          1
   365          5
   366          1
   428          5
   429          1