##TITLE=Library Entry 4340
##JCAMP-DX=Revision 4.10 
##DATA TYPE=MASS SPECTRUM
##SAMPLE DESCRIPTION=A.A.Kutin, Moscow, Russia
##NAMES=HP
##CAS NAME=1,3,5-Triazin-2-amine, 4-chloro-6-dibutylamino-N-(4-nitrophenyl)-
##MOLFORM=C17H23ClN6O2
##CAS REGISTRY NO=339004-68-1
##MP= -300
##BP= -300
##MW= 378
##$RETENTION INDEX=0
##$CONDENSED SPECTRUM=NO
##NPOINTS= 228
##XYDATA=(XY..XY) 1 
    33          5
    35          2
    36          8
    37          3
    39        201
    41        999
    42        161
    43        208
    44         24
    46          9
    50         32
    51         16
    52         15
    53         49
    55        359
    57        296
    58         19
    59          1
    62         59
    63         47
    64         41
    65         22
    66          7
    67         12
    68         64
    69         26
    70         19
    72          6
    73          2
    74          5
    75         15
    76         92
    77         19
    78         24
    80         48
    81         13
    82         10
    83          5
    84         16
    86         38
    87         16
    89         21
    90         87
    91        125
    93         58
    94         11
    95          5
    96          2
    97          5
    98          4
    99          4
   100        132
   102         13
   103         14
   104         13
   105         20
   106         11
   107          8
   108          7
   109          2
   111          2
   112          5
   113         32
   114          7
   115         10
   116         25
   117         43
   118         76
   119         13
   120          3
   121          2
   122          8
   124         13
   125          7
   127          3
   128         10
   129         12
   130         20
   131         23
   132         20
   133         37
   134          5
   137          3
   138         13
   139          4
   140          3
   141          3
   143        128
   144         34
   145          5
   147         34
   148          4
   149          4
   151          6
   153          5
   155          6
   156          4
   157          8
   158          8
   159         13
   160          4
   163          5
   164         44
   165          4
   168          8
   169         11
   170         17
   171         14
   172          6
   173          2
   174          2
   176         11
   177          3
   178          9
   179         16
   180          8
   181          6
   182          3
   183         10
   184          5
   185          7
   186          2
   189         79
   190         11
   191          3
   192          1
   195          3
   196          5
   197          6
   198          4
   203          6
   204         21
   205         10
   206          8
   207          3
   210          3
   211          2
   214         13
   215          6
   216          5
   220          5
   221          4
   222          2
   223          2
   225         35
   227         12
   228          2
   230          2
   231         10
   232         30
   233         69
   234         21
   235         22
   236          5
   237          2
   243         10
   244          2
   245          8
   246         14
   247         40
   248         18
   249         18
   250         17
   251         10
   252          5
   253          2
   257          2
   259          3
   260          4
   261          4
   262         22
   263         18
   264         12
   265         16
   266         12
   267          7
   268          4
   269          2
   274          2
   275          5
   276          5
   277         40
   279        321
   280        114
   281        102
   282         33
   283          6
   286          2
   287          8
   288          2
   289          3
   290          1
   291         10
   293        627
   294        214
   295        188
   296         69
   297          9
   305          5
   306          3
   307         22
   308          5
   309          5
   319          4
   320          1
   321         34
   322         16
   323         13
   324          5
   332          3
   333          2
   335        178
   336         88
   337         69
   338         29
   339          3
   348          4
   349         62
   350         13
   351         21
   352          3
   362          2
   363          6
   377          9
   378        132
   379         29
   380         39
   381          7