##TITLE=Library Entry 2355
##JCAMP-DX=Revision 4.10 
##DATA TYPE=MASS SPECTRUM
##SAMPLE DESCRIPTION=A.A.Kutin, Moscow, Russia
##NAMES=HP
##CAS NAME=Pentan-2-ol, 1-tert-buthylamino-4-methyl-
##MOLFORM=C10H23NO
##CAS REGISTRY NO=339196-64-4
##MP= -300
##BP= -300
##MW= 173
##$RETENTION INDEX=0
##$CONDENSED SPECTRUM=NO
##NPOINTS= 73
##XYDATA=(XY..XY) 1 
    33          1
    34          0
    35         39
    36         31
    37         18
    39        402
    41        999
    43        830
    44         51
    45         22
    46          1
    47          0
    49          0
    50          4
    51          8
    52         12
    53         43
    54         48
    55         93
    56        115
    57        225
    58         66
    60         46
    62          4
    63          0
    65          2
    66          2
    67          9
    69         33
    70         92
    71         77
    72         17
    73          2
    74          0
    76          0
    77          0
    79          3
    81          4
    82         19
    83         14
    84         15
    86        194
    87          8
    89          0
    91          0
    92          0
    94          1
    95          0
    96          6
    98         15
   100         11
   102          1
   105          0
   108          0
   112          0
   113          0
   114          2
   116         12
   118          0
   129          0
   140          7
   141          5
   152          0
   154          0
   155          0
   156          1
   157          3
   158         35
   159          4
   171          0
   172          0
   173          5
   174          1