##TITLE=Library Entry 107541
##JCAMP-DX=Revision 4.10 
##DATA TYPE=MASS SPECTRUM
##SAMPLE DESCRIPTION=A.A.Kutin, Moscow, Russia
##NAMES=HP
##CAS NAME=Acetamide, N-(2-amino-5-pyrimidyl)-2-(4-chlorophenoxy)-
##MOLFORM=C12H11ClN4O2
##CAS REGISTRY NO=339153-29-6
##MP= -300
##BP= -300
##MW= 278
##$RETENTION INDEX=0
##$CONDENSED SPECTRUM=NO
##NPOINTS= 153
##XYDATA=(XY..XY) 1 
    33          1
    34          3
    35          4
    36         22
    37         12
    38         41
    39         64
    40        126
    41         41
    42         79
    43        171
    44         27
    45          4
    47          3
    48          0
    49          7
    50         77
    51         55
    52         28
    53         68
    54        153
    55        286
    56         25
    57         14
    58          1
    59          0
    60          3
    61         13
    62         24
    63         68
    64         23
    65         38
    66         12
    67         32
    68         31
    69         35
    70          9
    71          8
    73         58
    74         33
    75        205
    76         52
    77         98
    78         17
    79         13
    81        120
    82        410
    83         39
    84         20
    85         17
    86          3
    87          7
    88          2
    89          4
    90          2
    91          3
    92          5
    93          6
    94         16
    95         45
    96        127
    97          9
    99         63
   100         11
   101         19
   102          6
   103          2
   104          1
   105          6
   106         10
   107          9
   108         27
   109        236
   110        243
   111        375
   113        217
   114         13
   115         27
   116          3
   117          1
   118          0
   119          1
   121         47
   122        197
   123        999
   124         80
   125          6
   127         19
   128         56
   129          9
   130         18
   131          2
   133          3
   134          5
   136         30
   137         21
   139         21
   141        189
   142         34
   143         58
   144         11
   145          1
   147          1
   149          8
   150         20
   151         97
   152          9
   153          1
   154          0
   155          1
   156          0
   157          1
   158          1
   159          0
   162          0
   166          0
   167          1
   168          1
   169          1
   170          1
   171          3
   172          0
   178          0
   181          0
   182          2
   183          7
   184          1
   185          0
   186          1
   188          1
   196          0
   197          1
   199          1
   211          0
   212          0
   213          1
   214          2
   216          1
   220          1
   229          5
   230          0
   242          1
   243          0
   244          2
   257          0
   274          0
   275          3
   276          4
   278        413
   279         63
   280        128
   281         18
   282          1