##TITLE=Library Entry 12537
##JCAMP-DX=Revision 4.10 
##DATA TYPE=MASS SPECTRUM
##SAMPLE DESCRIPTION=A.A.Kutin, Moscow, Russia
##NAMES=HP
##CAS NAME=N-(2-Cyano-4,5,6,7-tetrahydrobenzo[b]thiophen-3-yl)acetamide
##MOLFORM=C11H12N2OS
##CAS REGISTRY NO=339165-60-5
##MP= -300
##BP= -300
##MW= 220
##$RETENTION INDEX=0
##$CONDENSED SPECTRUM=NO
##NPOINTS= 44
##XYDATA=(XY..XY) 1 
    33        103
    34          2
    35          5
    37         13
    38         19
    39         93
    40         56
    41         86
    43        999
    45         70
    47         18
    48          2
    51         29
    55         27
    58         27
    64         37
    69         32
    78         30
    91         27
   150        205
   151         16
   152          7
   153          1
   159          1
   160          1
   161          2
   162          2
   163          2
   171          2
   172          2
   173          2
   174          4
   175          8
   176          7
   177         44
   178        172
   179         16
   180          6
   181          1
   217          2
   218          1
   219          1
   220         23
   221          4