##TITLE=Library Entry 81450
##JCAMP-DX=Revision 4.10 
##DATA TYPE=MASS SPECTRUM
##SAMPLE DESCRIPTION=Chemical Concepts
##NAMES=HP
##CAS NAME=4'-Benzamido-2'-methoxy-5'-chloro-2,2-diphenylacetanilide
##MOLFORM=C28H23ClN2O3
##CAS REGISTRY NO=339121-44-7
##MP= -300
##BP= -300
##MW= 470
##$RETENTION INDEX=0
##$CONDENSED SPECTRUM=NO
##NPOINTS= 115
##XYDATA=(XY..XY) 1 
    33          4
    36          7
    37          7
    40         18
    42          6
    44         15
    51        113
    52         11
    53          4
    54          2
    55          5
    56          3
    57          4
    62          7
    63         12
    64          8
    65         13
    66          3
    67          2
    68          5
    69          4
    70          3
    71          2
    72          1
    73          2
    77        516
    80          5
    81          3
    82          2
    83          7
    84          1
    86          3
    87          3
    89         11
    90         16
    91         14
    92          5
    93          2
    98          3
    99          2
   100          2
   102          7
   105        999
   108          3
   112          6
   113          5
   115         26
   116          1
   118          1
   119          1
   120          3
   121          3
   122          1
   126          4
   128         21
   129          4
   135          3
   136          4
   137          3
   139         15
   141         19
   142          3
   143          3
   144          1
   149          2
   152        174
   153         24
   154          3
   155          1
   162          1
   163         24
   166        303
   167        705
   168        246
   169         39
   170          7
   173         10
   174          1
   181          2
   182          3
   183          2
   194          6
   195          1
   197          2
   198          1
   210          2
   211          2
   225          1
   226          1
   241        176
   242         14
   243          1
   253          6
   267         96
   268         10
   271          2
   273          2
   276        226
   277         37
   278         40
   280          7
   282          1
   303         94
   304         16
   305         11
   306          2
   331          2
   435         41
   436         10
   437          1
   470        218
   471         63
   472         69
   473         17
   474          6