##TITLE=Library Entry 67818
##JCAMP-DX=Revision 4.10 
##DATA TYPE=MASS SPECTRUM
##SAMPLE DESCRIPTION=Chemical Concepts
##NAMES=HP
##CAS NAME=2-(4-Fluorophenoxy)-N'-(5-methylfurfurylidene)acethydrazide
##MOLFORM=C14H13FN2O3
##CAS REGISTRY NO=339121-32-3
##MP= -300
##BP= -300
##MW= 276
##$RETENTION INDEX=0
##$CONDENSED SPECTRUM=NO
##NPOINTS= 74
##XYDATA=(XY..XY) 1 
    33          9
    36         35
    39        224
    41        154
    43        656
    44          2
    47          1
    50        158
    51        188
    52        120
    53        179
    55        132
    57        154
    58         28
    59          7
    60         13
    61         10
    62         25
    63         43
    64         37
    65         50
    66         25
    68        142
    69         53
    70         13
    71          7
    73         16
    75        185
    77         50
    79        334
    80         39
    81         48
    83        120
    84         91
    92         64
    95        999
    96        175
    97          9
   107        379
   108        269
   109        153
   111        637
   112        168
   114          1
   119         92
   121         30
   122         54
   123         84
   124        135
   125        167
   126         21
   127         16
   133          1
   135         27
   137        111
   138         47
   140          7
   148          2
   149          5
   150         30
   151         20
   152          6
   164          8
   165        160
   166         10
   169        122
   170         10
   171          4
   175          2
   181          1
   193          1
   218          3
   276        425
   277          8