##TITLE=Library Entry 46407
##JCAMP-DX=Revision 4.10 
##DATA TYPE=MASS SPECTRUM
##SAMPLE DESCRIPTION=Chemical Concepts
##NAMES=HP
##CAS NAME=N,N'-Ethylenebis(3-iodobenzamide)
##MOLFORM=C16H14I2N2O2
##CAS REGISTRY NO=339193-41-8
##MP= -300
##BP= -300
##MW= 520
##$RETENTION INDEX=0
##$CONDENSED SPECTRUM=NO
##NPOINTS= 95
##XYDATA=(XY..XY) 1 
    34          9
    36        163
    37         27
    38         84
    39        139
    40        302
    41        325
    42        150
    43        364
    44        224
    45         46
    50        525
    51        147
    52         30
    53         47
    55        282
    56        110
    57        312
    58         95
    59          9
    60          4
    62          3
    63         22
    64         16
    65         22
    67         36
    68         26
    69         96
    70        154
    71        125
    72         12
    73         29
    74        120
    75        252
    76        999
    77        181
    78         27
    79         27
    81         25
    82         20
    83         78
    84         66
    85         32
    88        122
    90          4
    91         23
    93          4
    95         11
    96          7
    97         28
    98         19
    99          4
   103         49
   104        213
   105        120
   106         20
   110          5
   111         18
   112         64
   113         10
   115          8
   116         13
   117          6
   121         26
   125          9
   127         63
   128         51
   129          3
   133         29
   134         91
   135         14
   146         37
   147         22
   149          9
   152         18
   157          4
   171         66
   180          3
   201          5
   203        320
   204         17
   228          8
   230         49
   231        652
   232         44
   245         11
   248         40
   259          6
   260        159
   261         92
   271          7
   272         20
   273        366
   274         37
   283          5