##TITLE=Library Entry 47849
##JCAMP-DX=Revision 4.10 
##DATA TYPE=MASS SPECTRUM
##SAMPLE DESCRIPTION=Chemical Concepts
##NAMES=HP
##CAS NAME=2-Anilino-4-[(2,4-dimethoxybenzylidene)hydrazino]-6-morpholino-1,
3,5-triazine
##MOLFORM=C22H25N7O3
##CAS REGISTRY NO=339108-75-7
##MP= -300
##BP= -300
##MW= 435
##$RETENTION INDEX=0
##$CONDENSED SPECTRUM=NO
##NPOINTS= 187
##XYDATA=(XY..XY) 1 
    33          5
    36         70
    38        135
    39        277
    41        209
    42        236
    43        290
    45         64
    46         14
    48        395
    50        298
    51        250
    52        159
    53         90
    55        331
    56        201
    57         86
    58         34
    59         22
    60         20
    63        393
    64        454
    65        232
    66         93
    68        304
    69        201
    71         62
    72         38
    73         24
    74         50
    77        999
    78        139
    79        213
    80        318
    81        114
    82         84
    83         41
    84         47
    85         62
    86         85
    87         15
    88         24
    89         42
    90         79
    91        197
    92        202
    93        331
    94        110
    95         63
    96         19
    97         25
    98         63
    99          6
   101          7
   102         27
   103         52
   104        161
   105        258
   106        147
   107        157
   109         89
   110         38
   111         37
   112         13
   113         66
   114          1
   115          4
   118        311
   119        219
   120        186
   121        208
   122        123
   123         30
   124         17
   125          9
   127          9
   128         15
   129         15
   130         10
   131         39
   132         30
   133         73
   134        135
   135        106
   137         85
   138         63
   139          9
   142          9
   144        392
   145         57
   147         45
   149        399
   150         66
   151         48
   152          9
   153          3
   155         10
   156          1
   157         16
   158         39
   159         71
   160         21
   161         41
   162         38
   163         91
   164         97
   165        141
   166        166
   167         15
   168          2
   169          9
   170         11
   171         19
   172         12
   174         12
   175         20
   176         12
   177          4
   178          4
   179         13
   180         54
   181          7
   184         42
   185         36
   186        199
   187         68
   188         15
   189         14
   190         20
   191         13
   192          1
   196          8
   197          3
   198          9
   199         19
   200         12
   201         24
   202         14
   203          2
   204          1
   209          1
   210          6
   211          7
   212         29
   213        110
   215        584
   216         82
   218         53
   224          9
   225         23
   227        469
   229        204
   230         37
   231         47
   232          5
   238          3
   239         25
   241        331
   242        301
   243         43
   244         29
   245          2
   253          6
   254          2
   255         30
   256         19
   257         27
   258          7
   267          5
   268         11
   269         27
   271        807
   272        539
   273         72
   274          7
   277         27
   278         14
   279          1
   286          3
   287         34
   288          2
   297          6
   298          9
   316          6
   404          4
   435         83
   436         15