##TITLE=Library Entry 68480
##JCAMP-DX=Revision 4.10 
##DATA TYPE=MASS SPECTRUM
##SAMPLE DESCRIPTION=A.A.Kutin, Moscow, Russia
##NAMES=HP
##CAS NAME=2-(4-Fluorophenoxy)-N'-furfurylideneacethydrazide
##MOLFORM=C13H11FN2O3
##CAS REGISTRY NO=339192-11-9
##MP= -300
##BP= -300
##MW= 262
##$RETENTION INDEX=0
##$CONDENSED SPECTRUM=NO
##NPOINTS= 155
##XYDATA=(XY..XY) 1 
    34          5
    36          4
    37         61
    38        125
    39        329
    40         52
    41         71
    42        149
    43         59
    44         42
    45         12
    46          1
    47          1
    48          1
    49         18
    50        226
    51        343
    52        496
    53        151
    54        126
    55        197
    56         41
    57        176
    58         41
    59          5
    60          0
    61         12
    62         33
    63         59
    64         51
    65         46
    66         96
    67         24
    68         86
    69         68
    70         27
    71          6
    72          2
    73          8
    74         40
    75        351
    76         39
    77         69
    78         65
    79         48
    80         90
    81        361
    82         48
    83        198
    84         52
    85          2
    87          1
    89          5
    90          8
    91         22
    92         10
    93         66
    94        301
    95        999
    96        132
    97        266
    98         27
    99          4
   101          1
   102          0
   103          5
   104          3
   105        117
   106         31
   107         72
   108         41
   109         68
   110         92
   111        569
   112        178
   113         17
   114          2
   115          3
   117          2
   118          1
   119         22
   120         23
   121         32
   122         14
   123        177
   124         40
   125        315
   126         38
   127         22
   128          3
   129          2
   130          0
   131          6
   132          1
   133          6
   134          5
   135          6
   136          5
   137         46
   138         54
   139          8
   140          6
   141          2
   144          0
   145          0
   146          8
   147         10
   148          5
   149         16
   151        298
   152         25
   153          0
   154          1
   155          0
   156          0
   157          0
   159          1
   160          1
   161          1
   162          3
   163          4
   164         31
   165          4
   166          0
   167          3
   168          8
   169        111
   170         11
   171          2
   173          0
   175          6
   176          0
   177          0
   178          1
   179          0
   186          0
   187          1
   189          2
   190          0
   192          0
   199          1
   203          1
   204          6
   205          4
   206          0
   207          9
   208          2
   214          0
   233          0
   258          0
   261          0
   262        291
   263         45
   264          6
   265          0