##TITLE=Library Entry 79211
##JCAMP-DX=Revision 4.10 
##DATA TYPE=MASS SPECTRUM
##SAMPLE DESCRIPTION=Chemical Concepts
##NAMES=HP
##CAS NAME=3-(Benzoylhydrazono)-N-(2-ethylphenyl)butyramide
##MOLFORM=C19H21N3O2
##CAS REGISTRY NO=339188-24-8
##MP= -300
##BP= -300
##MW= 323
##$RETENTION INDEX=0
##$CONDENSED SPECTRUM=NO
##NPOINTS= 130
##XYDATA=(XY..XY) 1 
    36          1
    37          6
    38         13
    39         74
    41         46
    42         34
    43         37
    44         19
    45          1
    46          1
    47          1
    49          1
    50         42
    51        128
    52         27
    53         21
    54         13
    55         11
    56          8
    57          8
    58          5
    59          4
    60          4
    61          3
    62          7
    63         17
    64          9
    65         29
    66          9
    67          9
    68          5
    69         10
    70          5
    71          9
    72          2
    73         44
    74         11
    75         13
    76         33
    77        548
    78         60
    79         44
    80          8
    81          1
    82          1
    83          1
    84         14
    85          6
    86          1
    87          1
    88          1
    89         10
    90          9
    91         30
    92         13
    93         12
    94          8
    95          1
    97          2
    98          4
    99          3
   101          1
   102          8
   103         42
   104          7
   105        999
   106        329
   107         25
   108          2
   109          1
   111          2
   113          1
   115          3
   116          3
   117         12
   118         27
   119         25
   120         51
   121        371
   122         39
   123          3
   128          6
   129          2
   130         11
   131          4
   132         25
   133          2
   134         72
   135          9
   136          2
   137          1
   139          4
   141          1
   142          1
   143          2
   144          3
   145          3
   146         16
   147         12
   148          7
   149          1
   152          1
   156          1
   157          1
   158          1
   159          6
   160          8
   161        111
   162         11
   163          5
   170          1
   171          2
   172          1
   173          1
   174          1
   175         48
   176         45
   177          6
   185          2
   186          1
   187          1
   188          4
   200          7
   201          2
   202         21
   203         21
   204          4
   305          4
   323         15
   324          3