##TITLE=Library Entry 23283
##JCAMP-DX=Revision 4.10 
##DATA TYPE=MASS SPECTRUM
##SAMPLE DESCRIPTION=NIST Mass Spectrometry Data Center, 1994
##NAMES=HP
##CAS NAME=7-Norbornyl t-butyl ether
##MOLFORM=C11H20O
##CAS REGISTRY NO=3391-07-9
##MP= -300
##BP= -300
##MW= 168
##$RETENTION INDEX=0
##$CONDENSED SPECTRUM=NO
##NPOINTS= 63
##XYDATA=(XY..XY) 1 
    15         32
    17          1
    18          3
    27        124
    28         36
    29        232
    30          5
    31         18
    32          0
    37          2
    39        192
    41        467
    42         35
    43         89
    44          5
    45          6
    50          5
    51         18
    52         11
    53         56
    54         41
    55        115
    56        180
    57        999
    58         43
    59         63
    60          2
    63          3
    65         31
    66         43
    67        131
    68         56
    69         20
    70         46
    71         15
    72          1
    73          1
    77         38
    79        127
    80         19
    81         65
    82          1
    83        115
    84         25
    85          1
    91         26
    92         16
    93         43
    94        137
    95        107
    96          8
    97         17
    98          4
   110         40
   111         93
   112         84
   113         31
   114          2
   135          0
   153         12
   154          1
   168         16
   169          2