##TITLE=Library Entry 47359
##JCAMP-DX=Revision 4.10 
##DATA TYPE=MASS SPECTRUM
##SAMPLE DESCRIPTION=NIST Mass Spectrometry Data Center
##NAMES=HP
##CAS NAME=Benzenemethanol, 4-chloro-.alpha.-methyl-
##MOLFORM=C8H9ClO
##CAS REGISTRY NO=3391-10-4
##MP= -300
##BP= -300
##MW= 156
##$RETENTION INDEX=1226
##$CONDENSED SPECTRUM=NO
##NPOINTS= 78
##XYDATA=(XY..XY) 1 
    12          3
    13          3
    14          3
    15         41
    16          4
    17          2
    18          5
    19          6
    35          7
    36          3
    37         17
    38         40
    39         69
    40          6
    43        417
    44         13
    49         26
    50        185
    51        237
    52         39
    53         21
    55          9
    61         25
    62         30
    63         69
    64         11
    65         21
    66          4
    70          5
    71         29
    72         22
    73         29
    74         39
    75        196
    77        999
    78        116
    79         14
    84         10
    85         26
    86         16
    87         18
    88          3
    89         27
    90          7
    91         41
    97          5
    98          7
    99         13
   101         26
   102         31
   103         80
   104         14
   105         25
   106         10
   111         86
   112        105
   113        354
   114         56
   115        106
   116          9
   119          4
   121        118
   122          8
   125          8
   127          4
   136          4
   137          9
   138         27
   139         89
   141        757
   142         74
   143        222
   144         22
   154          7
   156        196
   157         22
   158         55
   159          4