##TITLE=Library Entry 24408
##JCAMP-DX=Revision 4.10 
##DATA TYPE=MASS SPECTRUM
##SAMPLE DESCRIPTION=NIST Mass Spectrometry Data Center
##NAMES=HP
##CAS NAME=1-Octen-3-ol
##MOLFORM=C8H16O
##CAS REGISTRY NO=3391-86-4
##MP= -300
##BP= -300
##MW= 128
##$RETENTION INDEX=980
##$CONDENSED SPECTRUM=NO
##NPOINTS= 61
##XYDATA=(XY..XY) 1 
    15          2
    26          7
    27         72
    28         18
    29        134
    30          5
    31         26
    37          1
    38          4
    39         66
    40         12
    41        132
    42         40
    43        214
    44         29
    45         10
    50          4
    51          8
    52          4
    53         30
    54         42
    55        121
    56         35
    57        999
    58         68
    59          7
    62          1
    63          1
    65          5
    66          7
    67         39
    68         43
    69         20
    70         10
    71         46
    72        148
    73         16
    74          1
    77          3
    78          1
    79          5
    80          2
    81         43
    82         35
    83         12
    84          8
    85         78
    86         10
    87          1
    91          1
    93          1
    95         18
    96          2
    97          3
    99         44
   100          4
   101          1
   109          1
   110          3
   111          1
   127          1