##TITLE=Library Entry 20050
##JCAMP-DX=Revision 4.10 
##DATA TYPE=MASS SPECTRUM
##SAMPLE DESCRIPTION=Chemical Concepts
##NAMES=HP
##CAS NAME=2-[(5-Iodosalicylidene)hydrazino]-4-morpholino-6-(1-pyrrolidinyl)
-1,3,5-triazine
##MOLFORM=C18H22IN7O2
##CAS REGISTRY NO=339112-71-9
##MP= -300
##BP= -300
##MW= 495
##$RETENTION INDEX=0
##$CONDENSED SPECTRUM=NO
##NPOINTS= 216
##XYDATA=(XY..XY) 1 
    33          9
    36         16
    39        217
    41        289
    42        424
    43        323
    45        112
    46         17
    50         92
    51        105
    53        225
    55        999
    56        232
    57         72
    58         30
    60          4
    63        356
    64        145
    65         66
    66         43
    68        762
    69        402
    70        691
    71         65
    72         35
    73         16
    74         23
    75         47
    76         89
    77         80
    78         57
    80        309
    81        115
    82        119
    83        100
    84         69
    85        159
    86        108
    87         16
    88         21
    90        129
    91        102
    92        155
    93        183
    94        205
    95        125
    96        118
    97        261
    98         43
    99         25
   101         47
   102         13
   103         16
   104         17
   105         39
   106         26
   107         37
   108         60
   109         74
   110         81
   111         66
   112         60
   113         98
   114         12
   115          7
   117         37
   118         72
   119        117
   120         64
   122        617
   123        137
   124         66
   125         45
   127        180
   128        108
   129          9
   130          5
   131          8
   132         10
   133         25
   134         41
   135         63
   136        113
   137        104
   138        184
   139         62
   140         38
   141         38
   143          3
   144          5
   145          9
   146         12
   147         20
   148         46
   149         93
   150         77
   151         73
   152         40
   153         41
   154         41
   155        119
   158         15
   159         13
   160         17
   163        299
   164        307
   165        226
   166         40
   167          8
   169         35
   170         30
   171         11
   172          5
   173          7
   174          9
   175         28
   177        212
   178         68
   179         82
   180        144
   181         78
   182         21
   184         41
   186         13
   187          9
   189         38
   191        299
   193        626
   194         90
   195         46
   196          7
   197          5
   198          4
   200          4
   201          9
   203         71
   205        528
   206        135
   207        149
   208         70
   209        120
   210         22
   212          5
   213          4
   215          8
   217         69
   219        463
   220        398
   221        225
   222        405
   223         64
   224          8
   225          6
   226          3
   227          5
   228          6
   229          6
   231         49
   232         26
   233         57
   234         52
   235         79
   236         69
   237         12
   238          6
   243          5
   245         66
   246         41
   247         70
   249        266
   250        332
   251         67
   252          8
   254          8
   255          4
   256          4
   258         27
   265         21
   266         15
   267          5
   273          5
   276         33
   277          5
   291          8
   292          5
   310          3
   351          9
   352         17
   353          4
   367          5
   368         45
   369         27
   370          6
   384          7
   385          9
   386         71
   387         19
   388         23
   389          5
   402         16
   403         90
   404         23
   405         27
   406          5
   419          9
   420          7
   421          4
   438          9
   448          4
   466          4
   478        341
   479         86
   480         10
   495        604
   496        104
   497         10