##TITLE=Library Entry 37377
##JCAMP-DX=Revision 4.10 
##DATA TYPE=MASS SPECTRUM
##SAMPLE DESCRIPTION=A.A.Kutin, Moscow, Russia
##NAMES=HP
##CAS NAME=Benzene, 2,4,5,6-tetrafluoro-1,3-bis(1-pyrrolidinylcarbonyl)-
##MOLFORM=C16H16F4N2O2
##CAS REGISTRY NO=339172-86-0
##MP= -300
##BP= -300
##MW= 344
##$RETENTION INDEX=0
##$CONDENSED SPECTRUM=NO
##NPOINTS= 199
##XYDATA=(XY..XY) 1 
    34          4
    36          8
    37          3
    38          9
    39         58
    41        159
    42        159
    43        120
    44         64
    45         15
    46          1
    47          2
    49          3
    50          2
    51          6
    52          3
    53         13
    54         10
    55        393
    56        221
    57         50
    58          4
    59         12
    60          5
    64          3
    65          2
    66          2
    67         12
    68         33
    69         48
    70        999
    71        107
    72         25
    73          7
    74          9
    75          4
    77          4
    78          4
    79          7
    80          5
    81          9
    82          7
    83         17
    84         21
    85         11
    86          3
    87          3
    88          5
    91          2
    93          5
    94          3
    95          5
    96          5
    97         10
    98        153
    99         31
   100          3
   101          3
   102         18
   103          2
   105          3
   106          2
   107          2
   109          2
   110          5
   111          8
   112         19
   113          9
   114          2
   115          2
   117          8
   118          1
   119          2
   121          2
   122          4
   124         10
   125          7
   126          4
   127          4
   128          3
   129         14
   130         14
   131          6
   133          2
   134          2
   135          4
   136         13
   137          3
   138          2
   139          2
   140          2
   143          7
   144          6
   145          4
   148         96
   149         51
   150          5
   151          5
   152          7
   153          2
   155          2
   156          4
   157         22
   158         12
   159          6
   160          2
   161          3
   162         18
   163          7
   164          2
   167          2
   169          4
   170          9
   171         33
   172          9
   173          4
   174          3
   175         11
   176         85
   177         85
   178          8
   179          2
   180          2
   182          3
   184          3
   185          2
   187         15
   188          3
   189          5
   190          8
   191          7
   192          2
   195          4
   197          3
   198          9
   199         18
   200         10
   201          4
   202          8
   203          4
   204          5
   205        179
   206         16
   207          4
   208          7
   209          9
   210          2
   212          2
   213          2
   214          1
   216          3
   217         15
   218          6
   219         16
   220          5
   221          2
   224          2
   225         18
   226         38
   227         31
   228         11
   229          7
   230          2
   232         29
   233          4
   236          6
   241          7
   245          8
   246         77
   247        304
   248         43
   249          4
   253          2
   254         16
   255          3
   256          6
   261         19
   262          2
   268          2
   269          2
   272          2
   273         11
   274        106
   275         16
   276          5
   277          2
   283          4
   295          5
   296          6
   297          3
   304          3
   305          3
   324         33
   325         22
   326          4
   342          2
   343          4
   344         59
   345         10