##TITLE=Library Entry 20055
##JCAMP-DX=Revision 4.10 
##DATA TYPE=MASS SPECTRUM
##SAMPLE DESCRIPTION=Chemical Concepts
##NAMES=HP
##CAS NAME=2-[(4-Chloro-.alpha.-methylbenzylidene)hydrazino]-4-morpholino-6-
(1-pyrrolidinyl)-1,3,5-triazine
##MOLFORM=C19H24ClN7O
##CAS REGISTRY NO=339112-62-8
##MP= -300
##BP= -300
##MW= 401
##$RETENTION INDEX=0
##$CONDENSED SPECTRUM=NO
##NPOINTS= 221
##XYDATA=(XY..XY) 1 
    36         80
    39        164
    41        347
    42        545
    43        279
    45         81
    46         12
    50         93
    51         80
    53        129
    55        999
    56        308
    57         63
    58         26
    60          4
    61         12
    62         20
    63         15
    64          8
    65         13
    68        821
    69        390
    70        676
    71         46
    72         33
    73         17
    75        306
    76         74
    77         80
    78         37
    80        308
    81         99
    82        105
    83         76
    85        737
    86        109
    88         34
    89         25
    90         17
    91         12
    93        210
    94        218
    95        112
    96        131
    97        234
    98         25
    99         19
   101         76
   102        108
   103         96
   104         13
   105         14
   106         19
   107         37
   108         70
   109         91
   111        579
   113        308
   114         19
   116         29
   117         24
   118         10
   119         13
   120         35
   122        619
   123        137
   124         50
   125         43
   126         14
   127         15
   128          9
   129          9
   130          9
   131          9
   132          9
   134         50
   135         58
   136        108
   137        198
   138        281
   139         86
   140         57
   141         14
   142          5
   143          8
   144          8
   145          6
   146          5
   149        240
   150         67
   152        334
   153         87
   154         97
   155         21
   156         21
   158         19
   159          4
   163        447
   164        449
   165         83
   166         18
   167         13
   168          5
   169          5
   171         16
   172         14
   173         11
   175         57
   176         38
   177         79
   178         74
   179         87
   180        109
   181         21
   182          7
   184          3
   185          5
   186          6
   187          4
   189         77
   190        162
   191        204
   192         88
   193         77
   194         30
   195         26
   196          6
   197          4
   200          6
   201         22
   203         73
   204         46
   205         97
   206         36
   207         37
   208         12
   209         10
   215          9
   218        461
   219        207
   220        100
   221        105
   222         28
   223          6
   229          3
   231         59
   232         42
   233         35
   234         57
   235         41
   236         20
   237          4
   244          8
   245          9
   248        339
   249        153
   250         42
   251          9
   259          4
   260         10
   261          5
   262          8
   263         13
   264         20
   265         15
   273          9
   274         17
   276         65
   277          7
   286          4
   287          5
   288         14
   289          8
   290         30
   291         24
   292          7
   301         12
   302          7
   303          7
   304         15
   305          4
   306          5
   315         24
   316         10
   317         15
   318          4
   328          4
   329          9
   330          9
   331         23
   332          9
   333          9
   342         11
   344         98
   345         18
   346         25
   347          5
   356         16
   357          5
   358         16
   359          7
   360         20
   361          6
   362          5
   366         12
   367          6
   370         52
   371         26
   372         34
   373         15
   374          9
   384         22
   385         20
   386         27
   387         11
   388          9
   400        650
   401        528
   402        273
   403        165
   404         31