##TITLE=Library Entry 72411
##JCAMP-DX=Revision 4.10 
##DATA TYPE=MASS SPECTRUM
##SAMPLE DESCRIPTION=A.A.Kutin, Moscow, Russia
##NAMES=HP
##CAS NAME=6-(5-Methyl-2-oxo-imidazolidin-4-yl)-hexanoic acid 2-oxo-2-phenyl
-ethyl ester
##MOLFORM=C18H24N2O4
##CAS REGISTRY NO=339153-53-6
##MP= -300
##BP= -300
##MW= 332
##$RETENTION INDEX=0
##$CONDENSED SPECTRUM=NO
##NPOINTS= 230
##XYDATA=(XY..XY) 1 
    33          0
    34          0
    37          0
    38          2
    39         20
    40         12
    41         52
    42         50
    43         53
    44        143
    45          5
    46          0
    47          0
    49          0
    50         16
    51         59
    52          6
    53         10
    54         15
    55         69
    56        135
    57         24
    58          5
    59          2
    60          2
    61          1
    62          2
    63          6
    64          3
    65         26
    66          3
    67         23
    68         13
    69         39
    70         42
    71         17
    72          4
    73          2
    74          6
    75          5
    76         14
    77        245
    78         28
    79         11
    80         10
    81         22
    82         35
    83         17
    84         19
    85         14
    86          1
    87          1
    88          0
    89          5
    90          3
    91         79
    92          8
    93          6
    94          5
    95         30
    96         16
    97         43
    98        137
    99        999
   100         74
   101          5
   102          1
   103          2
   105        715
   106         54
   107          8
   108         10
   109         45
   110         11
   111         37
   112         11
   113         14
   114         30
   115          7
   116          1
   117          1
   118         18
   119         11
   120         24
   121          4
   122          6
   123          4
   124          7
   125         15
   126         22
   127         14
   128          5
   129          5
   130          1
   131          1
   132          1
   133          2
   134          3
   135          6
   136          9
   137         29
   138         10
   139          3
   140          1
   141         17
   142          8
   143          3
   144          2
   145          0
   146          0
   147          0
   148          1
   149          3
   150          2
   151          5
   152         88
   153         16
   154          9
   155        168
   156         19
   157          2
   158          0
   159          0
   160          0
   161          1
   162          1
   163          2
   164          1
   165          7
   166          3
   167          3
   168          3
   169         58
   170         19
   171          3
   172          0
   173          0
   174          0
   175          1
   176          2
   177          4
   178          3
   179         15
   180          5
   181         13
   182          2
   183          2
   184          1
   185          2
   186          0
   187          0
   188          0
   189          1
   190          0
   191          3
   192          1
   193          0
   195         60
   196         12
   197        164
   198         21
   199          2
   200          1
   201          0
   202          0
   203          2
   204          1
   205          0
   206          0
   207          1
   208          0
   209          0
   210          2
   213        589
   214         70
   215          7
   216          0
   217          1
   218          1
   219          1
   220          1
   221          0
   222          0
   223          0
   224          0
   225          0
   227         29
   228          3
   229          0
   230          0
   231          4
   232          0
   233          1
   234          3
   235          0
   236          1
   237          0
   238          0
   239          0
   241          0
   242          0
   245          0
   246          0
   247          0
   250          0
   251          0
   256          0
   257          0
   259          0
   260          0
   261          0
   262          1
   273          0
   274          0
   278          0
   283          0
   288          1
   289          1
   290          0
   303          0
   304          0
   306          0
   314          0
   317          6
   318          1
   330          0
   331          2
   332         10
   333          3
   334          0