##TITLE=Library Entry 76923
##JCAMP-DX=Revision 4.10 
##DATA TYPE=MASS SPECTRUM
##SAMPLE DESCRIPTION=A.A.Kutin, Moscow, Russia
##NAMES=HP
##CAS NAME=Ethyl 2-cyano-2-[(2-methyl-5-nitrophenyl)hydrazono]acetate
##MOLFORM=C12H12N4O4
##CAS REGISTRY NO=339172-58-6
##MP= -300
##BP= -300
##MW= 276
##$RETENTION INDEX=0
##$CONDENSED SPECTRUM=NO
##NPOINTS= 196
##XYDATA=(XY..XY) 1 
    33         49
    34         21
    35          0
    36          5
    37         22
    38         96
    39        385
    40        325
    41        162
    42         63
    43        155
    44        142
    45         75
    46         26
    47          4
    48          3
    50        176
    51        509
    52        379
    53        183
    54         69
    55         95
    56         86
    57         75
    58          9
    59          6
    60         11
    61         16
    62         55
    63        234
    64        112
    65        295
    66        102
    67         59
    68         43
    69         46
    70         38
    71         39
    72          8
    73         14
    74         28
    75         60
    76        164
    77        791
    78        637
    79        143
    80         29
    81         92
    82         20
    83         27
    84         65
    85         21
    86          8
    87         13
    88         14
    89        299
    90        313
    91         92
    92        114
    93        258
    94         45
    95         18
    96          7
    97         13
    98          8
    99          9
   100          5
   101         21
   102         83
   103        101
   104        999
   105        311
   106        101
   107         26
   108          8
   109          6
   110          4
   111          9
   112         39
   113         10
   114          3
   115          8
   116         17
   117         26
   118         37
   119         60
   120         89
   121         32
   122         17
   123          6
   124          6
   125          6
   126          2
   127         12
   128         30
   129         47
   130         28
   131         83
   132         12
   133         17
   134          8
   135         36
   136        446
   137         51
   138          7
   139          2
   140          4
   141          4
   142          6
   143         16
   144         15
   145         13
   146         13
   147         29
   148         11
   149         73
   150        431
   151         70
   152         23
   153          4
   154          5
   155         18
   156         74
   157         75
   158         25
   159         27
   160          6
   161          8
   162          3
   164         81
   165         10
   166          1
   167          0
   168          1
   169          2
   170          2
   171         21
   172         11
   173         15
   174         11
   175         14
   176          9
   177         43
   178          9
   179          4
   180          2
   181          1
   182          4
   183         28
   184          7
   185          9
   186          9
   187         31
   188          9
   189         10
   190          1
   191          0
   192          0
   193          0
   194          0
   195          0
   198          0
   199          0
   200          2
   201         29
   202        274
   203        504
   204         58
   205          6
   206          0
   207          0
   212          5
   213         22
   214          4
   215          2
   216          0
   217          1
   219          1
   220          1
   221          6
   222          0
   229         10
   230         17
   231         31
   232          4
   246          6
   247          3
   248         46
   249          6
   255          0
   259          3
   260          3
   275          0
   276        248
   277         33
   278          3