##TITLE=Library Entry 20057
##JCAMP-DX=Revision 4.10 
##DATA TYPE=MASS SPECTRUM
##SAMPLE DESCRIPTION=Chemical Concepts
##NAMES=HP
##CAS NAME=2-[(3,5-Diiodosalicylidene)hydrazino]-4-morpholino-6-(1-pyrrolidi
nyl)-1,3,5-triazine
##MOLFORM=C18H21I2N7O2
##CAS REGISTRY NO=339112-52-6
##MP= -300
##BP= -300
##MW= 621
##$RETENTION INDEX=0
##$CONDENSED SPECTRUM=NO
##NPOINTS= 169
##XYDATA=(XY..XY) 1 
    36         26
    38         79
    39        303
    41        411
    42        496
    43        347
    44         93
    45         68
    46          2
    50         90
    51         61
    52         71
    53        160
    55        999
    56        247
    57        105
    58         29
    59          8
    60         19
    62        222
    63        278
    64        119
    65         62
    68        741
    69        447
    70        555
    71         77
    72         31
    73         18
    74         51
    75         80
    76         80
    77         38
    78         53
    80        244
    81        117
    82         88
    83         97
    84         80
    85        135
    86         97
    88         49
    89         43
    90        148
    91        123
    92         70
    93        150
    94        157
    95        107
    97        315
    98         29
    99          9
   100          4
   101          2
   102          8
   103         24
   104         35
   105         30
   106         25
   107         25
   108         57
   109         70
   110         71
   111         62
   112         42
   113         70
   114          6
   117         57
   118         74
   119         64
   120         49
   122        444
   123        103
   124         54
   125         33
   127        736
   128        630
   130          5
   132          4
   134         48
   135         56
   136         76
   137         83
   138        123
   139         41
   140         22
   141         14
   142          3
   148         21
   149         86
   150         76
   151         61
   152         30
   153         17
   155         29
   156          2
   160          6
   161         16
   162         65
   164        313
   165        156
   166         24
   167          3
   171         20
   175         15
   177        126
   178         49
   179         51
   180         81
   181         46
   182         14
   189         75
   191        197
   192        101
   193        308
   194         54
   195         28
   196          3
   197          2
   200          2
   201          6
   202         14
   203         32
   205        339
   206         86
   207        111
   208         48
   209         72
   210          9
   215          6
   216         26
   217         72
   219        352
   220        246
   221        133
   222        263
   223         43
   225          9
   226          5
   231         50
   232         21
   233         36
   234         32
   235         54
   236         38
   243         19
   245         99
   246         25
   247         53
   248         53
   249        123
   250        264
   251         60
   252          4
   254         22
   265         21
   266         13
   267          2
   276         17
   311         14
   369          2
   371         20
   373         24
   478          8
   494          9
   495         31
   604          9
   621         75
   622         10