##TITLE=Library Entry 83136
##JCAMP-DX=Revision 4.10 
##DATA TYPE=MASS SPECTRUM
##SAMPLE DESCRIPTION=A.A.Kutin, Moscow, Russia
##NAMES=HP
##CAS NAME=Sulfamide, N-tert-butyl-N'-(4-tolyl)-
##MOLFORM=C11H18N2O2S
##CAS REGISTRY NO=339191-31-0
##MP= -300
##BP= -300
##MW= 242
##$RETENTION INDEX=0
##$CONDENSED SPECTRUM=NO
##NPOINTS= 138
##XYDATA=(XY..XY) 1 
    34          3
    35          0
    36          1
    37          5
    38         16
    39        185
    40         67
    41        337
    42        475
    44         33
    45         11
    46          3
    47          0
    48         20
    50         27
    51         68
    52         70
    53         62
    54         19
    55         28
    56         50
    57        317
    58        119
    60          3
    61          1
    62          5
    63         28
    64         46
    65         35
    66         12
    67         10
    68          1
    69          1
    70          7
    71          3
    72          7
    73          1
    74          2
    75          4
    76         13
    77        338
    78        123
    79        252
    80         23
    81          2
    82          1
    83          0
    87          0
    88          0
    89          6
    90          3
    91         22
    92          6
    93          5
    94         17
    95          9
    96          0
    97          0
    99          0
   100          0
   101          0
   102          2
   103          3
   104         53
   105        436
   106        999
   107        373
   108         28
   109          1
   111          0
   114          8
   115          0
   116          0
   117          0
   118          1
   119          3
   120          9
   121         10
   122          4
   123          9
   124          0
   125          0
   127          1
   128          0
   129          0
   130          1
   131          0
   132          1
   133          0
   134          0
   135          1
   136          1
   137          0
   138          0
   143          0
   144          0
   145          0
   146          3
   147          3
   148         11
   149          2
   151          0
   153          1
   154          0
   155          0
   157          0
   159          0
   161          0
   162          0
   163         15
   164          2
   165          0
   168         10
   169        247
   170         23
   171         13
   172          1
   184          1
   185          9
   186        477
   187         48
   188         26
   189          2
   190          0
   197          0
   199          0
   214          0
   215          0
   226          4
   227         22
   228          2
   229          1
   240          3
   242        251
   243         33
   244         14
   245          2
   246          0