##TITLE=Library Entry 89415
##JCAMP-DX=Revision 4.10 
##DATA TYPE=MASS SPECTRUM
##SAMPLE DESCRIPTION=Chemical Concepts
##NAMES=HP
##CAS NAME=Cyclohexanone, 5-methyl-2-(1-methylethyl)-, (2R-trans)-
##MOLFORM=C10H18O
##CAS REGISTRY NO=3391-87-5
##MP= -300
##BP= -300
##MW= 154
##$RETENTION INDEX=0
##$CONDENSED SPECTRUM=NO
##NPOINTS= 80
##XYDATA=(XY..XY) 1 
    26          4
    27        140
    29         92
    30          2
    31          1
    38          6
    39        145
    40         33
    41        380
    42        105
    43        235
    44          6
    45          1
    47          1
    50          3
    51         11
    52          6
    53         47
    54         17
    55        367
    56        235
    57         50
    58         14
    59          1
    63          3
    64          0
    65          6
    66          2
    67         36
    68         43
    69        600
    70        270
    71         36
    72          4
    73          1
    74          0
    77         11
    78          2
    79         19
    80          5
    81         30
    82         14
    83        172
    84        117
    85         13
    86          3
    91          5
    92          0
    93         23
    94         16
    95        141
    96         15
    97        203
    98         84
    99          9
   105          1
   107          6
   108          3
   109         15
   110         65
   111        207
   112        999
   113         70
   114          3
   121         38
   122          1
   123          5
   125         52
   126          5
   136          5
   137          0
   139        372
   140         36
   141          1
   145          0
   152          0
   153          2
   154        242
   155         27
   156          0