##TITLE=Library Entry 91308
##JCAMP-DX=Revision 4.10 
##DATA TYPE=MASS SPECTRUM
##SAMPLE DESCRIPTION=Chemical Concepts
##NAMES=HP
##CAS NAME=2-[4-(Dimethylamino)benzylideneamino]-5-isobutyl-1,3,4-thiadiazol
e
##MOLFORM=C15H20N4S
##CAS REGISTRY NO=339193-39-4
##MP= -300
##BP= -300
##MW= 288
##$RETENTION INDEX=0
##$CONDENSED SPECTRUM=NO
##NPOINTS= 129
##XYDATA=(XY..XY) 1 
    33         24
    34         16
    35         49
    36        221
    37         30
    38        107
    39        236
    40         80
    41        379
    42        157
    43        477
    44         61
    45        106
    46         32
    47         61
    48         10
    50         34
    51         41
    52         21
    53         33
    54         28
    55         71
    56         49
    57         90
    58         88
    59        198
    60        322
    61         24
    62         20
    63         14
    64         12
    65         15
    66         10
    67         20
    68         45
    69         35
    70         17
    71         53
    72         27
    73         87
    74        233
    75        115
    76         22
    77         35
    78         12
    79         10
    80          7
    81          9
    82         11
    83         18
    84         21
    85         23
    86         12
    87         15
    88          5
    89          8
    90          6
    91         13
    92          6
    93          6
    94          2
    95          4
    96          2
    97          7
    98         10
    99         11
   100         15
   101         24
   102         10
   103          9
   104         12
   105         10
   106          2
   107          1
   109          4
   111          7
   112          2
   114        122
   115        999
   116         66
   117         48
   118         11
   119          8
   120          7
   121          6
   123          5
   125          4
   128        126
   129        205
   130         20
   131          9
   132         12
   133          6
   134          4
   135          2
   136          1
   138          2
   141          2
   142        183
   143         37
   144         13
   145         14
   146         23
   147         18
   148         84
   149         64
   150          7
   152          1
   156         24
   157         40
   158         13
   159         50
   160          5
   169          1
   172         23
   173         15
   174          3
   175          3
   178          9
   179          1
   191         10
   193          1
   205          6
   245          1
   246          3
   273          2
   287         66
   288         23
   289          5