##TITLE=Library Entry 40026
##JCAMP-DX=Revision 4.10 
##DATA TYPE=MASS SPECTRUM
##SAMPLE DESCRIPTION=Exported from NIST MS Search
##NAMES=HP
##CAS NAME=L-Valinamide, N-(1-oxodecyl)glycyl-N-[1-(2-methoxy-2-oxoethyl)-4-
[(1-oxodecyl)amino]butyl]-, (S)-
##MOLFORM=C34H64N4O6
##CAS REGISTRY NO=33912-91-3
##MP= -300
##BP= -300
##MW= 624
##$RETENTION INDEX=0
##$CONDENSED SPECTRUM=NO
##NPOINTS= 98
##XYDATA=(XY..XY) 1 
    67         78
    68         55
    69        181
    70        394
    71        339
    72        999
    73        197
    74         33
    77         19
    79         25
    81         55
    82         39
    83        301
    84        374
    85        571
    86        276
    87         63
    95         63
    96         33
    97         45
    98         73
    99         51
   100         59
   101        106
   102        138
   105         19
   107         19
   108         13
   109         25
   110         53
   111         35
   112        228
   113         92
   114         53
   115         35
   116         43
   117         43
   149         11
   153         11
   154         13
   155        175
   156         45
   157         25
   197         13
   198         19
   199          9
   200         33
   201         23
   202         33
   210          9
   211         13
   212        132
   213        112
   214         31
   215         19
   296         45
   297         23
   298         55
   299         39
   300         15
   301         13
   302         15
   309         13
   310         19
   311         35
   312         15
   313        118
   314        193
   315        171
   316         39
   341        191
   342         63
   343         74
   344         15
   345         11
   396         19
   397         15
   398         33
   399         11
   400         15
   401          7
   412         19
   413         33
   414         39
   415         13
   549         15
   551         11
   553         13
   554         13
   591          7
   592          9
   593         47
   594         19
   595         15
   596          7
   624         98
   625         39
   626         19