##TITLE=Library Entry 68555
##JCAMP-DX=Revision 4.10 
##DATA TYPE=MASS SPECTRUM
##SAMPLE DESCRIPTION=A.A.Kutin, Moscow, Russia
##NAMES=HP
##CAS NAME=Methanone, (4-fluorophenyl)[3-(2-hydroxybenzylidenamino)phenyl]-
##MOLFORM=C20H14FNO2
##CAS REGISTRY NO=339196-48-4
##MP= -300
##BP= -300
##MW= 319
##$RETENTION INDEX=0
##$CONDENSED SPECTRUM=NO
##NPOINTS= 139
##XYDATA=(XY..XY) 1 
    33         12
    36          1
    37         11
    38         91
    39        274
    40         31
    41         18
    42         10
    43         11
    44          6
    45         11
    46          0
    50        295
    51        325
    52         72
    53         47
    55         22
    57         20
    60          1
    61         12
    62         52
    63        175
    64         82
    65         95
    66         39
    67          8
    68         39
    69         72
    70         10
    71          2
    73          6
    74        115
    75        526
    76        211
    77        199
    78         86
    79          8
    81          2
    82          1
    83          5
    84          7
    85          1
    86          4
    87          9
    88         11
    89         20
    90         25
    91         64
    93         38
    94         80
    95        999
    96         55
    97          2
    98          4
    99          4
   100          2
   101          6
   102         30
   103          7
   104         21
   105         36
   106          2
   108          0
   109          0
   110          3
   112          1
   113         10
   114          7
   115         47
   116          9
   117          6
   119         14
   120         39
   121         11
   123        726
   124         39
   125          6
   126          6
   127          1
   128          7
   129          2
   130          4
   131          1
   132          1
   133          5
   138          1
   139         38
   141         43
   142          4
   143          0
   144          3
   145          1
   146          3
   149          1
   150          5
   151         21
   152         11
   153          4
   154          2
   155          2
   156          2
   157          3
   160          1
   164          2
   166          8
   167         84
   168         25
   170         14
   171         12
   172          1
   173          0
   176          1
   177          3
   178          5
   179          2
   182          0
   186          0
   191          0
   194          4
   195         10
   196         32
   197          2
   198          1
   200          6
   201          0
   220          1
   224          2
   225          1
   273          0
   290          0
   299          0
   302          0
   313          0
   314          1
   315          0
   316          1
   318         12
   319         39
   320         10