##TITLE=Library Entry 5672
##JCAMP-DX=Revision 4.10 
##DATA TYPE=MASS SPECTRUM
##SAMPLE DESCRIPTION=A.A.Kutin, Moscow, Russia
##NAMES=HP
##CAS NAME=Propan-1-one, 3-(4-acetylphenylamino)-1-(2-thienyl)-
##MOLFORM=C15H15NO2S
##CAS REGISTRY NO=339244-83-6
##MP= -300
##BP= -300
##MW= 273
##$RETENTION INDEX=0
##$CONDENSED SPECTRUM=NO
##NPOINTS= 166
##XYDATA=(XY..XY) 1 
    33         14
    34          9
    35         18
    37         69
    38        132
    39        985
    40        154
    41        137
    43        999
    45        235
    46         12
    47          8
    48          4
    49         21
    50        207
    51        237
    52        132
    53        121
    54         32
    55        144
    57        182
    58        122
    59         21
    61         36
    62         77
    63        220
    64        166
    65        313
    66         56
    67         20
    69         46
    70         16
    71         20
    72          5
    74         69
    75         65
    76        143
    77        272
    78        148
    79         76
    81         61
    82         61
    83        217
    84         86
    85         39
    86         12
    87         10
    89         76
    90         76
    91        296
    92        172
    93         24
    94          8
    95          9
    97         63
    98         10
    99          9
   100          3
   101          4
   102         24
   103         18
   104        146
   105        186
   106        120
   107         11
   109         33
   111        839
   112         65
   113         49
   115         12
   116          9
   117         56
   118        119
   119        173
   120        281
   121         23
   122          5
   123          8
   124          2
   126        168
   127         23
   128         12
   129          6
   130         12
   132        301
   133         36
   134         15
   135         83
   136          9
   137          3
   138         11
   139         35
   140          4
   141          3
   142          1
   143          1
   144          3
   146         87
   147         49
   148        867
   149         90
   150          7
   151          2
   152          2
   153          4
   154          2
   155          2
   156          1
   157          1
   158          1
   160          4
   161         27
   162         42
   163          5
   164          3
   165          0
   166          1
   167          0
   169          0
   170          1
   171          8
   172          4
   173          2
   174          4
   175          1
   178          2
   181          0
   182          0
   183          2
   184          0
   186          0
   187          0
   188          3
   190          1
   192          0
   195          0
   197          0
   199          0
   202          1
   211          0
   212          1
   213          0
   215          0
   224          0
   230          5
   231          1
   232          0
   233          0
   238          1
   240          1
   244          2
   245          0
   252          0
   254         17
   255          3
   256          2
   258         73
   259         10
   260          3
   269          0
   270          8
   271          7
   273        298
   274         50
   275         15
   276          2