##TITLE=Library Entry 29277
##JCAMP-DX=Revision 4.10 
##DATA TYPE=MASS SPECTRUM
##SAMPLE DESCRIPTION=A.A.Kutin, Moscow, Russia
##NAMES=HP
##CAS NAME=Terephthalaldehydic acid, methyloxamoylhydrazone, methyl ester
##MOLFORM=C12H13N3O4
##CAS REGISTRY NO=339241-31-5
##MP= -300
##BP= -300
##MW= 263
##$RETENTION INDEX=0
##$CONDENSED SPECTRUM=NO
##NPOINTS= 89
##XYDATA=(XY..XY) 1 
    36          0
    37          4
    38         19
    39         83
    40         16
    41         16
    42         13
    43         38
    44        159
    45         14
    50         94
    51         58
    52         20
    53         11
    54          2
    55          5
    56         17
    58        999
    59        263
    60          7
    61          7
    62         49
    63        136
    64         32
    65         43
    66          3
    67          0
    69          4
    70          0
    71          0
    74         28
    75         51
    76         87
    77         94
    78         12
    79         15
    80          0
    81          2
    85          1
    86          5
    87         10
    88          8
    89        123
    90         49
    91         52
    92         47
    93          5
   102         42
   103         42
   104         65
   105         36
   106         11
   107          3
   116          1
   117         28
   118         57
   119         45
   120         24
   121          6
   127          0
   130         27
   131          4
   132         47
   133         35
   134          6
   135         20
   136          4
   145         23
   146          9
   147         60
   148         10
   149          3
   151          0
   162        120
   163         26
   164          6
   173          3
   176          0
   177         28
   178          9
   192          4
   205        375
   206         44
   207          5
   232          9
   233          0
   262          1
   263         26
   264          2