##TITLE=Library Entry 37119
##JCAMP-DX=Revision 4.10 
##DATA TYPE=MASS SPECTRUM
##SAMPLE DESCRIPTION=A.A.Kutin, Moscow, Russia
##NAMES=HP
##CAS NAME=3,3'-Difurazanyl-4,4'-bis(4-morpholinocarbonyl)-
##MOLFORM=C14H16N6O6
##CAS REGISTRY NO=339289-95-1
##MP= -300
##BP= -300
##MW= 364
##$RETENTION INDEX=0
##$CONDENSED SPECTRUM=NO
##NPOINTS= 230
##XYDATA=(XY..XY) 1 
    37          1
    38          6
    39         13
    40         40
    41        108
    42        884
    43         91
    44         67
    45        131
    46          3
    50          1
    51          6
    52         19
    53         16
    54        165
    55        178
    56        596
    57         75
    58         27
    59          5
    60          1
    63          2
    64          4
    65          5
    66         17
    67         15
    68         27
    69         49
    70        999
    71         48
    72         69
    73         12
    74          4
    76          5
    77         17
    78         19
    79         13
    80          8
    81         17
    82         16
    83         22
    84        104
    85        318
    86        536
    87         40
    88          8
    89          0
    90          1
    91          3
    92          6
    93          9
    94         13
    95         21
    96         17
    97         22
    98          8
    99          4
   100          8
   101          2
   102          2
   104          4
   105          7
   106          8
   107         12
   108         12
   109         13
   110         17
   111         18
   112         27
   113         26
   114        289
   115         20
   116          1
   118          2
   119          5
   120         19
   121         35
   122         44
   123         19
   124          7
   125          6
   126          4
   127          6
   128          1
   129          1
   130          1
   131          1
   132          4
   133          5
   134         16
   135         10
   136         42
   137         18
   138         63
   139         56
   140         17
   141         49
   142          5
   145          1
   146          6
   147         10
   148         43
   149         11
   150         13
   151          8
   152         11
   153          4
   154          4
   155          6
   156         16
   157         27
   158          2
   159          1
   160          6
   161         10
   162         12
   163         20
   164        137
   165         26
   166         30
   167          9
   168          2
   169          1
   171          2
   173          2
   174          5
   175          6
   176          7
   177         11
   178         74
   179         30
   180          6
   181          8
   182         10
   183          2
   187          2
   188          6
   189         11
   190         20
   191         11
   192         17
   193         13
   194         54
   195          7
   196          2
   201          2
   202          4
   203          5
   204         18
   205          9
   206          7
   207         13
   208          9
   209         43
   210          4
   215          1
   216          2
   217          8
   218          5
   219         10
   220         21
   221         21
   222          4
   223          1
   224          5
   225          1
   229          1
   230          1
   231          6
   232         71
   233         14
   234         18
   235          5
   236          9
   237          1
   244          1
   245          2
   246          3
   247        186
   248         33
   249         16
   250          8
   251          8
   252         47
   253          4
   258          1
   259          2
   260          4
   261          3
   262         54
   263         12
   264          3
   265          1
   273          0
   274          3
   275          1
   276          9
   277         45
   278        104
   279         51
   280          8
   281          2
   287          1
   288          1
   289         11
   290          2
   291          1
   300          0
   302          2
   303          2
   304         21
   305          3
   306          3
   307          1
   317         15
   318          3
   319          2
   320         10
   321         30
   322          5
   330          3
   334         32
   335          5
   336          1
   347         23
   348          3
   363          4
   364        151
   365         30
   366          4