##TITLE=Library Entry 83451
##JCAMP-DX=Revision 4.10 
##DATA TYPE=MASS SPECTRUM
##SAMPLE DESCRIPTION=A.A.Kutin, Moscow, Russia
##NAMES=HP
##CAS NAME=Butan-2-one, 4-(4-hydroxyphenyl)-, thiosemicarbazone
##MOLFORM=C11H15N3OS
##CAS REGISTRY NO=339246-36-5
##MP= -300
##BP= -300
##MW= 237
##$RETENTION INDEX=0
##$CONDENSED SPECTRUM=NO
##NPOINTS= 165
##XYDATA=(XY..XY) 1 
    33         36
    34          7
    35          1
    37          5
    38         32
    39        285
    40         52
    41        206
    42        205
    43        407
    44         35
    45         20
    46         15
    47         33
    48         42
    50         54
    51        123
    52         70
    53        111
    54         46
    55         91
    56         19
    57         36
    58         38
    59        135
    60        978
    62        111
    63         85
    64         31
    65        127
    66         37
    67         12
    68         10
    69          6
    70          8
    71         45
    72         19
    73          4
    74         32
    75         62
    77        546
    78        115
    79         62
    80          7
    81         25
    83          8
    84          2
    85          3
    86          4
    87          5
    88          6
    89         82
    90         27
    91        220
    92         29
    93         34
    94         39
    95          7
    96          1
    97          2
    98          6
    99          8
   100          2
   101          9
   102         14
   103         78
   104         11
   105         35
   107        999
   108         78
   109          6
   110          1
   111          1
   112          1
   113          2
   115         61
   116        550
   117         44
   118         43
   119         91
   120        490
   121        153
   122         24
   123          2
   124          0
   125          0
   126          2
   127         11
   128          9
   129          5
   130          9
   131         33
   132         23
   133         26
   134         31
   135          4
   136          3
   137          1
   138          1
   139          4
   140          0
   141          0
   142          1
   143          1
   144         14
   145         17
   146         26
   147         35
   148         26
   149          4
   150          1
   151          1
   152          1
   153          1
   160        160
   161         37
   162         91
   163         16
   164          4
   165          1
   166          1
   168          0
   171          0
   172          0
   173          1
   174          1
   175          3
   177         14
   178          5
   179          2
   180          2
   181          4
   182          0
   185          0
   186          0
   187          4
   188          1
   189          0
   190          0
   191          0
   192          1
   193          2
   194          0
   195          5
   196          0
   202          1
   204         79
   205         16
   206          6
   207          6
   208          1
   219         18
   220         71
   221         13
   222        123
   223         17
   224          5
   225          0
   232          0
   235          0
   237        963
   238        141
   239         52
   240          7
   241          0