##TITLE=Library Entry 6399
##JCAMP-DX=Revision 4.10 
##DATA TYPE=MASS SPECTRUM
##SAMPLE DESCRIPTION=A.A.Kutin, Moscow, Russia
##NAMES=HP
##CAS NAME=Acetamide, 2-(1-naphthyl)-N-(2-isopropoxyphenyl)-
##MOLFORM=C21H21NO2
##CAS REGISTRY NO=339239-41-7
##MP= -300
##BP= -300
##MW= 319
##$RETENTION INDEX=0
##$CONDENSED SPECTRUM=NO
##NPOINTS= 114
##XYDATA=(XY..XY) 1 
    36          0
    37          6
    38         25
    39        189
    41        551
    43        999
    44         54
    46          2
    50         43
    51         97
    52        143
    53         84
    54         23
    56          3
    57          5
    58          3
    59          0
    60          0
    61          1
    62         17
    63         67
    64         35
    65         65
    66          4
    69          3
    70          5
    71          0
    74         14
    75         15
    76         16
    77         63
    78         27
    79         69
    80        210
    81         13
    82          0
    83          1
    84         10
    85          0
    86          3
    87          8
    88          7
    89         36
    90         12
    91         33
    92         12
    93          9
    94          1
    98          0
    99          0
   101          1
   102          6
   103          0
   104          0
   105          0
   106          1
   108         71
   109        261
   110         17
   111          2
   113         12
   114         11
   115        342
   116         33
   117          1
   120         13
   121          1
   122          0
   125          0
   126          4
   127          9
   128         13
   129         16
   133          0
   134          5
   135         25
   136        110
   137         10
   138          4
   139        118
   140         70
   141        410
   142        216
   143         21
   144          0
   148          1
   149          0
   150          1
   151         14
   152          3
   153          0
   154          0
   155          2
   157          0
   163          1
   164          0
   165          1
   167          1
   168         71
   169          9
   178          0
   186          1
   189          8
   190          2
   191          0
   216          6
   217         17
   218         17
   219         23
   220          2
   246          1
   248          0
   319         10
   320          0