##TITLE=Library Entry 15802
##JCAMP-DX=Revision 4.10 
##DATA TYPE=MASS SPECTRUM
##SAMPLE DESCRIPTION=A.A.Kutin, Moscow, Russia
##NAMES=HP
##CAS NAME=1,3,4-Oxadiazol-2-amine, 5-(1-phenyl-5-tetrazolyl)-
##MOLFORM=C9H7N7O
##CAS REGISTRY NO=339244-78-9
##MP= -300
##BP= -300
##MW= 229
##$RETENTION INDEX=0
##$CONDENSED SPECTRUM=NO
##NPOINTS= 85
##XYDATA=(XY..XY) 1 
    36          3
    37         86
    38        213
    39        409
    40         90
    41        136
    42        118
    44        999
    45          3
    50        294
    51        620
    52        109
    53         46
    54         54
    55         43
    56         40
    57         33
    58          6
    59          2
    61         30
    62         52
    63        207
    64        313
    65        292
    66         19
    67         23
    68         23
    69         22
    70         10
    71         11
    72          1
    74         81
    75         67
    77        939
    78         61
    79         14
    80          5
    83          8
    84         54
    85          5
    86          3
    87          7
    88         10
    89          6
    91        377
    92         32
    93          4
   102         18
   103        154
   104         33
   105         23
   106         15
   107          3
   108          1
   116         10
   117         53
   118        165
   119         18
   120         12
   121          1
   129         35
   130         13
   131         16
   132          4
   142          1
   143          9
   144          6
   145         52
   146          6
   147          1
   148          0
   157          3
   158         18
   159          6
   160          2
   161          0
   171          4
   172          0
   173          0
   189          0
   201        176
   202         22
   203          1
   213          0
   229          3