##TITLE=Library Entry 59204
##JCAMP-DX=Revision 4.10 
##DATA TYPE=MASS SPECTRUM
##SAMPLE DESCRIPTION=A.A.Kutin, Moscow, Russia
##NAMES=HP
##CAS NAME=Sarcosine amide, N2-tosyl-N-ethyl-
##MOLFORM=C12H18N2O3S
##CAS REGISTRY NO=339241-47-3
##MP= -300
##BP= -300
##MW= 270
##$RETENTION INDEX=0
##$CONDENSED SPECTRUM=NO
##NPOINTS= 64
##XYDATA=(XY..XY) 1 
    37          0
    39        215
    40         66
    42        808
    43        288
    44        814
    45         28
    46         14
    48          6
    50         35
    51         69
    52         18
    53          9
    55          5
    56         13
    58        167
    59          5
    61          0
    62         25
    63        110
    64         38
    65        436
    66         20
    67          7
    69          3
    70          1
    71          5
    72        133
    73          3
    74          3
    75          3
    77         39
    78          9
    79         11
    80          1
    83          0
    85          1
    86          1
    87         14
    89         97
    91        999
    92        192
    93         11
    94          0
    97          1
   105          2
   107          9
   108          6
   115        719
   116         39
   118          3
   119          1
   121          0
   122          7
   123          0
   134          0
   137          2
   139         17
   155        475
   156         46
   157         21
   198        222
   199         20
   200          7