##TITLE=Library Entry 71257
##JCAMP-DX=Revision 4.10 
##DATA TYPE=MASS SPECTRUM
##SAMPLE DESCRIPTION=A.A.Kutin, Moscow, Russia
##NAMES=HP
##CAS NAME=Benzamide, 3-methyl-N-[2-(1-piperidyl)ethyl]-
##MOLFORM=C15H22N2O
##CAS REGISTRY NO=339241-69-9
##MP= -300
##BP= -300
##MW= 246
##$RETENTION INDEX=0
##$CONDENSED SPECTRUM=NO
##NPOINTS= 65
##XYDATA=(XY..XY) 1 
    33          0
    39        140
    40         21
    41        326
    42        298
    43         75
    44        154
    45         10
    46          0
    48          0
    49          0
    50         22
    51         37
    52         10
    53         18
    54         37
    55        181
    56         54
    57         17
    58          3
    59          0
    62         15
    63         46
    65        191
    66          8
    67         14
    68         21
    69         82
    70         87
    71          5
    74          2
    75          4
    76          6
    77         16
    78          2
    79          2
    80          2
    81          3
    82         12
    83         13
    84         18
    85          1
    86          1
    87          1
    89         52
    91        348
    92         20
    93          4
    94          0
    96         46
    98        999
    99         59
   100          2
   104          0
   105          3
   111         79
   112          3
   117          0
   119        120
   120          7
   125          1
   131          6
   136          1
   155          0
   162          3