##TITLE=Library Entry 53589
##JCAMP-DX=Revision 4.10 
##DATA TYPE=MASS SPECTRUM
##SAMPLE DESCRIPTION=A.A.Kutin, Moscow, Russia
##NAMES=HP
##CAS NAME=Acetamide, 2-(1-pyrrolidinyl)-N-(5-chloro-2-methoxyphenyl)-
##MOLFORM=C13H17ClN2O2
##CAS REGISTRY NO=339235-69-7
##MP= -300
##BP= -300
##MW= 268
##$RETENTION INDEX=0
##$CONDENSED SPECTRUM=NO
##NPOINTS= 75
##XYDATA=(XY..XY) 1 
    33         23
    35         14
    38         26
    39         24
    42        223
    44         16
    49          0
    50          3
    51          8
    52         10
    54         12
    55         85
    56         21
    57          5
    61          0
    63         12
    64          1
    65          4
    67          2
    68          2
    70         82
    72          1
    73          1
    75          2
    76          9
    78         17
    80          5
    82          9
    84        999
    86          2
    90          9
    91          2
    93         11
    94          0
    98          0
    99         10
   101          3
   104          0
   106          0
   110          1
   111          2
   112          2
   113          2
   114          4
   115          0
   116          0
   117          0
   120          0
   125          0
   126          6
   127          1
   128          2
   129          0
   133          0
   134          0
   140          2
   141          0
   142          5
   143          0
   144          1
   154          3
   156          2
   157          1
   163          0
   168          3
   169          3
   170          2
   171          1
   183          0
   199          1
   201          0
   202          0
   268         14
   269          1
   270          4