##TITLE=Library Entry 61489
##JCAMP-DX=Revision 4.10 
##DATA TYPE=MASS SPECTRUM
##SAMPLE DESCRIPTION=A.A.Kutin, Moscow, Russia
##NAMES=HP
##CAS NAME=N'-[1-(4-Nitrophenyl)ethylidene]-2-phenylacethydrazide
##MOLFORM=C16H15N3O3
##CAS REGISTRY NO=339246-66-1
##MP= -300
##BP= -300
##MW= 297
##$RETENTION INDEX=0
##$CONDENSED SPECTRUM=NO
##NPOINTS= 108
##XYDATA=(XY..XY) 1 
    33          6
    34          4
    36          9
    37         17
    39        108
    40         12
    41         35
    42         14
    43         36
    44         18
    45          8
    46          4
    49          2
    50         37
    51         76
    52         19
    53          9
    55         12
    56          6
    57         10
    58          2
    59          1
    60          4
    62          3
    63         21
    64         46
    65        179
    66          9
    67          3
    68          4
    69          3
    70          2
    71          3
    73          3
    74          9
    75         16
    76         37
    77         71
    78         16
    79          8
    80          4
    81          4
    82          4
    83          3
    84          2
    85          3
    86          3
    87          5
    89         56
    91        999
    92         61
    93          6
    95          2
    97          1
    98          2
    99          2
   100          1
   101          3
   102         17
   103         15
   104         16
   105          8
   106          9
   107          2
   114          1
   116         15
   118        264
   119         33
   120          4
   121          2
   122          4
   131         35
   132         38
   133          7
   134          5
   135          2
   136          1
   147          2
   148          2
   149         10
   150         23
   151          2
   159          2
   160          3
   161          3
   162         21
   163          8
   164          6
   165          3
   175          2
   176          3
   177         12
   178         58
   179         44
   180          6
   192          2
   204          1
   206          8
   207          1
   265          2
   266          1
   268         32
   269          5
   282          8
   283          1
   297        179
   298         26
   299          4