##TITLE=Library Entry 17870
##JCAMP-DX=Revision 4.10 
##DATA TYPE=MASS SPECTRUM
##SAMPLE DESCRIPTION=A.A.Kutin, Moscow, Russia
##NAMES=HP
##CAS NAME=Carbazol-2-ol, 1,2,3,4-tetrahydro-6-nitro-
##MOLFORM=C12H12N2O3
##CAS REGISTRY NO=339239-73-5
##MP= -300
##BP= -300
##MW= 232
##$RETENTION INDEX=0
##$CONDENSED SPECTRUM=NO
##NPOINTS= 121
##XYDATA=(XY..XY) 1 
    37         30
    38        216
    39        874
    40        164
    41        693
    42        198
    43        297
    44         61
    46        999
    47          1
    48          2
    50        306
    51        440
    52        385
    53        122
    54         57
    55        115
    56         11
    57         50
    58          3
    61         30
    62        190
    63        421
    64        131
    65        158
    66         30
    67         11
    68          5
    69         26
    70         19
    71          1
    73         12
    74        208
    75        298
    76        192
    77        326
    78        125
    79         27
    80          5
    83         31
    84          0
    85          9
    86         48
    87        104
    88         94
    89        189
    90         65
    91         52
    92          5
    93          1
    98         22
    99         28
   100         47
   101        139
   102        219
   103        209
   104         46
   111          4
   112          2
   113         63
   114         77
   115        200
   116         89
   117         68
   118         33
   126         36
   127        124
   128        231
   129        169
   130        157
   131         20
   138          5
   139         73
   140         96
   141         54
   142         48
   143         26
   144         13
   145          3
   146         45
   152          3
   153         21
   154         81
   155         40
   156         59
   157         39
   158         96
   159          7
   166         70
   167        261
   168        194
   169         64
   170          1
   171          0
   172          3
   174         95
   175         54
   176          3
   182          9
   183          7
   184         28
   185         16
   186         10
   187          3
   188         33
   189          7
   197          8
   198          4
   201          3
   202          7
   203         11
   204        151
   205         11
   213         26
   214        111
   215         67
   216          3
   230         35
   231          6
   232        113
   233         11