##TITLE=Library Entry 1710
##JCAMP-DX=Revision 4.10 
##DATA TYPE=MASS SPECTRUM
##SAMPLE DESCRIPTION=A.A.Kutin, Moscow, Russia
##NAMES=HP
##CAS NAME=Pent-4-enamine, 2-allyl-2-(2,3-dimethoxyphenyl)-
##MOLFORM=C16H23NO2
##CAS REGISTRY NO=339244-81-4
##MP= -300
##BP= -300
##MW= 261
##$RETENTION INDEX=0
##$CONDENSED SPECTRUM=NO
##NPOINTS= 196
##XYDATA=(XY..XY) 1 
    33          1
    37          7
    38         19
    39        999
    40        225
    41        992
    42        142
    43        233
    44        178
    45         52
    46          4
    47          7
    48          3
    50        135
    51        359
    52        124
    53        199
    54         79
    55        232
    56        109
    57        170
    58         17
    59         18
    60          9
    61         10
    62         58
    63        141
    64        130
    65        311
    66         86
    67        146
    68         35
    69         69
    70         55
    71         47
    72          7
    73         12
    74         42
    75         84
    76        102
    77        534
    78        220
    79        223
    80         84
    81         40
    82         45
    83         38
    84         47
    85         15
    86         12
    87         26
    89        183
    91        619
    92         96
    93        181
    94         49
    95         63
    96         12
    97         17
    98         13
    99          6
   100          4
   101         29
   102        124
   103        239
   104        152
   105        139
   106         83
   107         95
   108         35
   109         30
   110         30
   111         11
   112         15
   113         19
   115        561
   116        151
   117        233
   118        105
   119        120
   120         43
   121        109
   122         23
   123         26
   124         25
   125          7
   126         19
   127        112
   128        188
   129        134
   130         56
   131        152
   132        101
   133         82
   134         49
   135         38
   136        105
   137         53
   138         33
   139         29
   140          7
   141         45
   142         21
   143         56
   144        149
   145        109
   146        126
   147        136
   148         45
   149         53
   151        657
   152        101
   153         21
   154         10
   155         16
   156         10
   157         39
   158        107
   159        391
   160        139
   161         74
   162         48
   163        181
   164        189
   165         57
   166         12
   167          7
   168          5
   169         11
   170          6
   171         47
   172         29
   173         41
   174        100
   175        162
   176         61
   177        148
   178         29
   179        119
   180         22
   181          3
   182          2
   183          5
   184          8
   185         17
   186          7
   187         25
   188         30
   189        278
   190        193
   191        261
   192        123
   193         20
   194          6
   196          1
   197          2
   198          3
   199         17
   200         39
   201         43
   202         23
   203         32
   204         65
   205         26
   206          6
   207          4
   208          0
   211          0
   213          1
   215          3
   216         16
   217         23
   218         32
   219         11
   220         42
   221         28
   222          3
   223          1
   227          1
   229          8
   230         17
   231        451
   232        171
   233         42
   234          6
   235          1
   244          3
   245          0
   246          2
   248          0
   249          1
   259          0
   260          7
   261         35
   262          5
   263          1