##TITLE=Library Entry 67591
##JCAMP-DX=Revision 4.10 
##DATA TYPE=MASS SPECTRUM
##SAMPLE DESCRIPTION=A.A.Kutin, Moscow, Russia
##NAMES=HP
##CAS NAME=4-Methylcoumarine-6-(2-furylcarbonyl)oxy
##MOLFORM=C15H10O5
##CAS REGISTRY NO=339246-85-4
##MP= -300
##BP= -300
##MW= 270
##$RETENTION INDEX=0
##$CONDENSED SPECTRUM=NO
##NPOINTS= 83
##XYDATA=(XY..XY) 1 
    36          2
    37         54
    38        154
    39        477
    40         24
    41         27
    42          5
    43          4
    44          5
    45          1
    48          0
    49          4
    50         30
    51         46
    52         15
    53         36
    54         29
    55          7
    60          0
    61          5
    62         21
    63         52
    64         20
    65        118
    66         24
    67         46
    68          3
    69          1
    73          1
    74          8
    75          8
    76          7
    77         18
    78          3
    79         10
    80          0
    81          0
    82          6
    85          0
    86          2
    87          3
    88          1
    89         18
    90         11
    91        102
    92         10
    93         18
    94         11
    95        999
    96         55
    97          6
    98          1
    99          0
   101          0
   102          3
   103          3
   104          0
   105          0
   106          0
   107          0
   112          0
   115          0
   118          4
   119         19
   120          2
   122          0
   127          0
   128          1
   129          1
   131          2
   132          0
   133          0
   146          0
   147         35
   148          6
   149          0
   151          0
   175         14
   176          4
   269          0
   270         65
   271         10
   272          1