##TITLE=Library Entry 46589
##JCAMP-DX=Revision 4.10 
##DATA TYPE=MASS SPECTRUM
##SAMPLE DESCRIPTION=A.A.Kutin, Moscow, Russia
##NAMES=HP
##CAS NAME=4,4-Diethyl-2-(4-nitrophenyl)-2,4-dihydro-1H-3,1-benzoxazine
##MOLFORM=C18H20N2O3
##CAS REGISTRY NO=339239-79-1
##MP= -300
##BP= -300
##MW= 312
##$RETENTION INDEX=0
##$CONDENSED SPECTRUM=NO
##NPOINTS= 173
##XYDATA=(XY..XY) 1 
    34          1
    36          0
    37         11
    38         49
    39        404
    40         88
    41        340
    42         50
    43        239
    44         39
    46        176
    50        357
    51        680
    52        156
    53         88
    54         33
    55        147
    57        409
    58          9
    59          0
    61          2
    62         50
    63        268
    64         98
    65        221
    66         63
    67         19
    68          1
    69         17
    70          2
    71          1
    74         73
    75        182
    76        592
    77        999
    78        302
    79        121
    80         13
    81          0
    82          2
    83          9
    84          3
    86          2
    87         15
    88         12
    89        188
    90        183
    91        363
    92        159
    93         75
    94         53
    95          8
    98          0
    99          0
   100          2
   101         27
   102        112
   103        282
   104        414
   105        210
   106        134
   107         14
   109          6
   113          9
   114         16
   115        286
   116        129
   117        427
   118        177
   119         60
   120        319
   121         33
   122         40
   123          3
   125          4
   126         29
   127         94
   128         86
   129         41
   130        309
   131        142
   132        308
   133         60
   134         17
   135          0
   136          3
   139         22
   140         21
   141         24
   142         29
   143         39
   144         59
   145         25
   146        330
   147         51
   148          5
   149         29
   150        245
   151        100
   152        157
   153         58
   154         32
   155          2
   156          3
   158          5
   159          2
   160         53
   161         60
   162         15
   163          3
   164          5
   165         24
   166         22
   167         75
   168         58
   169          6
   170          0
   172          5
   176          7
   177         19
   178         84
   179        133
   180        108
   181         23
   182          3
   189          1
   190         22
   191         24
   192         22
   193         19
   194         13
   195          4
   196         38
   197          4
   202          0
   203          7
   204         64
   205         14
   206         28
   207         37
   208         14
   209          6
   210          1
   216          5
   217         45
   218        120
   219        197
   220         34
   221          2
   222          0
   223          0
   224          3
   225          9
   226          2
   227          2
   235          5
   236          2
   237         58
   238          8
   239          1
   253          7
   254          1
   255          4
   265         60
   266          7
   267          7
   268          0
   281          9
   283        470
   284         83
   285          7
   312         30
   313          3