##TITLE=Library Entry 48279
##JCAMP-DX=Revision 4.10 
##DATA TYPE=MASS SPECTRUM
##SAMPLE DESCRIPTION=A.A.Kutin, Moscow, Russia
##NAMES=HP
##CAS NAME=Methanone, (2-pyridyl)[5-hydroxy-3-methyl-5-(4-tolyl)-2-pyrazolin
-1-yl]-
##MOLFORM=C17H17N3O2
##CAS REGISTRY NO=339241-77-9
##MP= -300
##BP= -300
##MW= 295
##$RETENTION INDEX=0
##$CONDENSED SPECTRUM=NO
##NPOINTS= 145
##XYDATA=(XY..XY) 1 
    33         16
    34          8
    36          3
    37         10
    38         43
    39        274
    40        412
    41        175
    42         80
    43        105
    44        121
    45         21
    46          1
    48          0
    50        140
    51        444
    52        283
    53         83
    54         21
    55         54
    56         19
    57         37
    58          4
    59          1
    60          3
    61          6
    62         25
    63         95
    64         36
    65        288
    66         20
    67         23
    69         73
    70         15
    71         17
    72          3
    73          4
    74         13
    75         23
    76         38
    78        999
    79        561
    80         58
    81          6
    82          4
    83         10
    84         13
    85          6
    86          7
    87          8
    89         87
    91        586
    92         44
    93         19
    94          1
    95          2
    96          0
    97          3
    98          2
    99          1
   100          3
   101          5
   102         16
   103         21
   104         17
   105         41
   106        181
   107         26
   108         16
   109          0
   111          0
   112          4
   113          4
   115         92
   116         25
   117         25
   119        746
   120         63
   121          7
   122          2
   123          3
   125          2
   126          3
   127         22
   128         56
   129         18
   130         26
   131         33
   132         29
   133         11
   134          3
   135          3
   136          2
   137          2
   138          0
   139          6
   141         29
   142          9
   143         17
   144         21
   145         36
   146          7
   147          2
   148          6
   149          3
   150          0
   155          1
   156          1
   157          4
   159         15
   160          8
   162        199
   163         15
   164          0
   168          0
   169          1
   170          0
   171         35
   172         43
   173         23
   174         15
   175          2
   176          8
   181          2
   188          0
   189          5
   190          0
   199          1
   204          1
   209          2
   210          0
   212          0
   220          0
   233          1
   242          3
   248         56
   249         29
   250          3
   260          1
   276          2
   277         31
   278          7
   294          3
   295         16
   296          1