##TITLE=Library Entry 6301
##JCAMP-DX=Revision 4.10 
##DATA TYPE=MASS SPECTRUM
##SAMPLE DESCRIPTION=A.A.Kutin, Moscow, Russia
##NAMES=HP
##CAS NAME=2-[(3-Bromobenzylidene)hydrazino]-2-oxo-n-propylacetamide
##MOLFORM=C12H14BrN3O2
##CAS REGISTRY NO=339241-35-9
##MP= -300
##BP= -300
##MW= 311
##$RETENTION INDEX=0
##$CONDENSED SPECTRUM=NO
##NPOINTS= 102
##XYDATA=(XY..XY) 1 
    37          8
    38         28
    39        203
    41        472
    43        999
    44        156
    45         12
    46         47
    50        117
    51         52
    52         16
    53          4
    54          9
    56         46
    57         10
    58         46
    59         76
    61         11
    62         50
    63        145
    64         24
    65         20
    66          3
    67          2
    68          0
    69          7
    70          6
    71          0
    72          5
    73          4
    74         32
    75         81
    76         83
    77         24
    78          4
    79          7
    80          4
    81          3
    82          3
    84          3
    86         71
    87         68
    89        211
    90         58
    91         43
    92         23
    93          3
    94          5
    95          0
   101          1
   102         19
   103          8
   104          3
   105          0
   106          1
   107          1
   117          5
   118         75
   119         31
   120          1
   122         14
   123          0
   129          1
   130         16
   131          0
   137         13
   138          0
   143          0
   145          1
   146         12
   147          4
   155         32
   156          3
   157         30
   158          1
   163          0
   165         10
   168          2
   169          6
   170          4
   171         14
   172          0
   173          7
   181          4
   182         31
   183         12
   184         35
   185          8
   186          3
   196          0
   197         22
   198          8
   199         22
   200          5
   225        150
   226         15
   227        142
   228         12
   255          2
   257          1
   311          5
   313          4