##TITLE=Library Entry 27266
##JCAMP-DX=Revision 4.10 
##DATA TYPE=MASS SPECTRUM
##SAMPLE DESCRIPTION=A.A.Kutin, Moscow, Russia
##NAMES=HP
##CAS NAME=2,2-Dimethyl-N-[4-(salicylidenehydrazinocarbonyl)phenyl]propionam
ide
##MOLFORM=C19H21N3O3
##CAS REGISTRY NO=339240-72-1
##MP= -300
##BP= -300
##MW= 339
##$RETENTION INDEX=0
##$CONDENSED SPECTRUM=NO
##NPOINTS= 79
##XYDATA=(XY..XY) 1 
    36          4
    37          1
    38         19
    39        114
    40         88
    41        273
    42         31
    43         51
    44         49
    45         11
    50         19
    51         37
    52         25
    53         22
    54          2
    55         32
    57        999
    58         36
    60          1
    61         14
    62          4
    63         41
    64         52
    65        115
    66         14
    67          1
    69         15
    70          3
    71          4
    73          0
    74          1
    75          6
    76         16
    77         58
    78         21
    79          5
    80         13
    81          3
    83          3
    85        104
    86          1
    89          2
    90         41
    91        105
    92        166
    93         22
   102          1
   103          0
   104          2
   105          9
   106          1
   107         10
   108         12
   117          2
   118         17
   119         95
   120        388
   121        318
   122         26
   133          1
   134          0
   135          7
   136         25
   137          3
   145          0
   146         50
   147          0
   160          1
   161          1
   162          0
   163          0
   171          1
   204        735
   205         96
   206          3
   220        187
   221         22
   339         17
   340          0