##TITLE=Library Entry 76613
##JCAMP-DX=Revision 4.10 
##DATA TYPE=MASS SPECTRUM
##SAMPLE DESCRIPTION=A.A.Kutin, Moscow, Russia
##NAMES=HP
##CAS NAME=Methylene, bis(3-phenyl-2-propenylidenaminoxy)-
##MOLFORM=C19H18N2O2
##CAS REGISTRY NO=339245-67-9
##MP= -300
##BP= -300
##MW= 306
##$RETENTION INDEX=0
##$CONDENSED SPECTRUM=NO
##NPOINTS= 67
##XYDATA=(XY..XY) 1 
    44        154
    45         16
    49         41
    50         14
    51        180
    52         62
    55         32
    56         11
    57         28
    58         14
    59         62
    62         28
    63         45
    64         27
    65        137
    68         22
    69        102
    73         13
    74         28
    75        423
    76        182
    79         10
    80         26
    81         30
    82          7
    85         21
    88         58
    89         45
    90         21
    91        185
    92         16
    98         18
    99         10
   100         14
   101         49
   102        230
   103        999
   104        250
   105        230
   106         29
   114        212
   115         90
   116         34
   117         32
   118         18
   119         35
   128         93
   129        175
   130        822
   131        181
   132         58
   133         19
   145         70
   146        311
   147         26
   153          6
   158         20
   159         93
   160        686
   161        199
   162         10
   174         11
   246         10
   305          2
   306        154
   307         32
   308          4