##TITLE=Library Entry 82976
##JCAMP-DX=Revision 4.10 
##DATA TYPE=MASS SPECTRUM
##SAMPLE DESCRIPTION=A.A.Kutin, Moscow, Russia
##NAMES=HP
##CAS NAME=2-Amino-N-benzyl-5-methylbenzamide
##MOLFORM=C15H16N2O
##CAS REGISTRY NO=339289-82-6
##MP= -300
##BP= -300
##MW= 240
##$RETENTION INDEX=0
##$CONDENSED SPECTRUM=NO
##NPOINTS= 79
##XYDATA=(XY..XY) 1 
    37          7
    38         21
    39        110
    40         62
    41         46
    42         23
    43         31
    44         31
    45          8
    48          7
    50         51
    51        147
    52         84
    53         50
    54         18
    55          9
    62         14
    63         48
    64         24
    65        131
    66         27
    67         14
    68         10
    74          9
    75         10
    76         21
    77        270
    78        118
    79        177
    80         25
    89         41
    90         18
    91        310
    92         32
   103          9
   104        141
   105         61
   106        999
   107        127
   108         28
   109          5
   110          6
   111          1
   112          0
   113          0
   118         10
   119         10
   120         31
   121         12
   122          2
   123          2
   133        193
   134        363
   135         41
   136          4
   137          0
   160          0
   161          5
   162          1
   163          0
   179          1
   180         15
   181          3
   182          0
   194         29
   195          6
   196          1
   197          0
   210          5
   211          0
   221         11
   222         12
   223          2
   224          0
   225          0
   239          3
   240        276
   241         53
   242          3