##TITLE=Library Entry 86091
##JCAMP-DX=Revision 4.10 
##DATA TYPE=MASS SPECTRUM
##SAMPLE DESCRIPTION=A.A.Kutin, Moscow, Russia
##NAMES=HP
##CAS NAME=N1-(4-Fluorophenethyl)-N2-(p-tolyl)oxamide
##MOLFORM=C17H17FN2O2
##CAS REGISTRY NO=339239-52-0
##MP= -300
##BP= -300
##MW= 300
##$RETENTION INDEX=0
##$CONDENSED SPECTRUM=NO
##NPOINTS= 86
##XYDATA=(XY..XY) 1 
    33          1
    37          2
    38         27
    39        202
    40         47
    41         75
    42         23
    43         62
    44         99
    45          4
    50         69
    51        170
    52        125
    53         62
    54          8
    55         13
    56         21
    57         94
    58          7
    59         17
    62         25
    63        132
    64         33
    65        226
    66         14
    67          5
    68          2
    69         14
    70         17
    71          5
    74         10
    75         59
    76         31
    77        512
    78        200
    79        229
    80         37
    81         13
    83        269
    84          8
    86          1
    87          0
    89         66
    90         25
    91        311
    92         23
    93          2
    94          0
    95         37
    96         75
    97         55
    98          0
   101         54
   102         18
   103        212
   104         95
   105         43
   106        673
   107        398
   108         60
   109        999
   110         76
   111          2
   118          8
   119          4
   120          7
   121         49
   122        222
   123        237
   124         15
   132         38
   133        240
   134        256
   135         44
   136          9
   137          6
   138         30
   149          1
   166         22
   178        274
   179         24
   191         44
   192          1
   243          2
   300         37
   301          2