##TITLE=Library Entry 40328
##JCAMP-DX=Revision 4.10 
##DATA TYPE=MASS SPECTRUM
##SAMPLE DESCRIPTION=Chemical Concepts
##NAMES=HP
##CAS NAME=t-butyloxycarbonyl-leucyl-tyrosine, ethyl ester
##MOLFORM=C21H32N2O6
##CAS REGISTRY NO=3392-17-4
##MP= -300
##BP= -300
##MW= 408
##$RETENTION INDEX=0
##$CONDENSED SPECTRUM=NO
##NPOINTS= 272
##XYDATA=(XY..XY) 1 
    26          5
    27         31
    28         41
    29         82
    30         21
    31         22
    36          1
    37          4
    38          8
    39         70
    40         14
    41        169
    42         19
    43         42
    44         87
    45         11
    46          4
    47          1
    48          1
    49          2
    50          8
    51         12
    52          5
    53         16
    54          7
    55        163
    56        113
    57        205
    58         15
    59         70
    60          6
    61          2
    62          2
    63          2
    64          1
    65         12
    66          2
    67          7
    68          5
    69         21
    70         16
    71         27
    72        999
    73         62
    74         19
    75          3
    76          2
    77         47
    78         10
    79         11
    80          4
    81          9
    82          8
    83         23
    84         10
    85         43
    86          5
    87          2
    88          1
    89          5
    90          4
    91         44
    92          5
    93          6
    94         13
    95          9
    96          6
    97         11
    98         35
    99          6
   100          6
   101          7
   102         61
   103         17
   104          6
   105          7
   106          8
   107        365
   108         55
   109          8
   110          4
   111          7
   112          6
   113          9
   114          2
   115          8
   116         85
   117        188
   118         22
   119         25
   120         99
   121         23
   122          3
   123          9
   124          2
   125          4
   126          2
   127          5
   128          3
   129          4
   130          2
   131          6
   132          3
   133         10
   134         15
   135         29
   136        110
   137         13
   138          2
   139         10
   140          2
   141          4
   142          1
   143         21
   144         24
   145          4
   146          8
   147        129
   148         18
   149         28
   150          3
   151          7
   152          2
   153          2
   154          5
   155          2
   156         18
   157          5
   158          3
   159          1
   160          3
   161        112
   162         37
   163         12
   164         62
   165          9
   166          1
   167          2
   168          1
   169          1
   170          2
   171          1
   172          5
   173          2
   174          9
   175          3
   176          4
   177         23
   178          3
   179          2
   180          2
   181          2
   182          7
   183          2
   184          2
   185         15
   186          4
   187          1
   188          1
   189          1
   190          2
   191         13
   192        727
   193         97
   194         12
   195          2
   196          1
   197          1
   198          0
   199          1
   200          6
   201          2
   202          6
   203          1
   204          1
   205          2
   206          1
   207          3
   208         16
   209          3
   210          9
   211          2
   212          0
   213          1
   216          1
   217         12
   218          4
   219          5
   220          9
   221          2
   222          0
   223          2
   224          0
   225          0
   226          0
   227          1
   228          2
   229          0
   231          0
   232          1
   233          3
   234          1
   235         24
   236         14
   237         57
   238          8
   239          2
   240          1
   241          1
   243          1
   244          2
   245          2
   246          9
   247          1
   248          1
   249          1
   250          2
   255          0
   256          1
   257          0
   258          0
   259          2
   260          5
   261         41
   262         12
   263          8
   264          2
   265         15
   266          3
   267          0
   277          0
   278          1
   279          5
   280          2
   281          1
   284          1
   285          0
   287          0
   289          5
   290          2
   291          1
   292          1
   293          2
   294          1
   304          1
   305          1
   306          1
   307         12
   308         45
   309         14
   310          3
   311          1
   317          0
   318          0
   319          0
   320          1
   321          0
   334          4
   335         27
   336          6
   337          2
   338          1
   350          1
   352         10
   353          4
   354          1
   363          1
   364          1
   365          1
   367          1
   368          1
   370          2