##TITLE=Library Entry 73329
##JCAMP-DX=Revision 4.10 
##DATA TYPE=MASS SPECTRUM
##SAMPLE DESCRIPTION=A.A.Kutin, Moscow, Russia
##NAMES=HP
##CAS NAME=Propanamide, 3-phenyl-N-(2-thiazolyl)-
##MOLFORM=C12H12N2OS
##CAS REGISTRY NO=339282-90-5
##MP= -300
##BP= -300
##MW= 232
##$RETENTION INDEX=0
##$CONDENSED SPECTRUM=NO
##NPOINTS= 126
##XYDATA=(XY..XY) 1 
    33          2
    34          0
    37          6
    38         21
    39        110
    40         37
    41         28
    42         80
    43         12
    44         16
    45        281
    46         28
    47         17
    48          2
    49          2
    50         79
    51        188
    52         53
    53         39
    54         15
    55        266
    56         14
    57         75
    58        163
    59         48
    60         17
    61          6
    62         23
    63         79
    64         20
    65        185
    66         18
    67          3
    68          1
    69          6
    70         20
    71         34
    72         17
    73         54
    74         30
    75         29
    76         34
    77        281
    78        151
    79        108
    80          7
    81          0
    82          2
    83          8
    84          2
    85          3
    86         13
    87          4
    88          1
    89         51
    90         27
    91        921
    92         78
    93          3
    94          1
    95          1
    98         11
    99        146
   100        999
   101        103
   102         82
   103        212
   104        132
   105        436
   106         35
   107          5
   111          2
   112         11
   113         15
   114          1
   115          5
   116          3
   117          1
   118          1
   125          3
   126          2
   127         39
   128         25
   129          3
   131        110
   132         15
   133         21
   134          2
   137          1
   139          2
   140          2
   143          0
   147          0
   149          0
   152          1
   153          0
   155          6
   156          1
   157          0
   163          0
   165          2
   167          3
   168          1
   170          2
   171          0
   174          0
   175          0
   183          1
   186          2
   187          2
   188         26
   189         11
   190          2
   198          2
   199          2
   202          1
   212          0
   213          2
   215          8
   216          1
   229          0
   230         10
   232        471
   233         68
   234         26
   235          2