##TITLE=Library Entry 1895
##JCAMP-DX=Revision 4.10 
##DATA TYPE=MASS SPECTRUM
##SAMPLE DESCRIPTION=A.A.Kutin, Moscow, Russia
##NAMES=HP
##CAS NAME=2H-Pyran-5-carboxamide, 2-oxo-N-(3-chlorophenyl)-
##MOLFORM=C12H8ClNO3
##CAS REGISTRY NO=339241-73-5
##MP= -300
##BP= -300
##MW= 249
##$RETENTION INDEX=0
##$CONDENSED SPECTRUM=NO
##NPOINTS= 121
##XYDATA=(XY..XY) 1 
    33          8
    35         10
    36         25
    37        122
    38        365
    39        999
    40        188
    41         36
    42         16
    43         13
    44         51
    45         28
    47          2
    49         33
    50        145
    51        164
    52         62
    53         76
    54         18
    55         25
    56          2
    57          2
    58          0
    60          4
    61         29
    62         67
    63        162
    64         99
    65         82
    66         76
    67         77
    68         21
    69         17
    70          4
    71          5
    73         61
    74         48
    75        140
    76         28
    77         16
    79         31
    80          1
    81          0
    82          4
    83          1
    84         11
    85         11
    86          6
    87         11
    88         13
    89         23
    90         38
    91         38
    92         12
    93         13
    95        265
    96         26
    97          3
    99         90
   100         14
   101         29
   102         13
   103          2
   107          0
   111         72
   112         12
   113         52
   114         10
   115         27
   116          4
   120          1
   123        400
   124         54
   125         11
   127         39
   128          2
   129         12
   130          0
   131         12
   137          0
   138         10
   139          1
   140         11
   141          9
   142          6
   149          2
   150          1
   151         20
   152          0
   153          5
   154          0
   155          1
   156          0
   158          3
   164          7
   165          0
   166          1
   167          0
   169          1
   170          1
   176          1
   177          7
   178          1
   179          2
   193          2
   204          0
   205         12
   206          1
   207          4
   208          0
   220          0
   221         16
   222          2
   223          7
   224          0
   248          8
   249         31
   250          6
   251         10
   252          1
   253          0