##TITLE=Library Entry 44856
##JCAMP-DX=Revision 4.10 
##DATA TYPE=MASS SPECTRUM
##SAMPLE DESCRIPTION=Dr. Jiri Zamecnik, DCIEM, North York, Canada, GP Librar
y
##NAMES=HP
##CAS NAME=1-(1-Propenylthio)propane
##MOLFORM=C6H12S
##CAS REGISTRY NO=33922-70-2
##MP= -300
##BP= -300
##MW= 116
##$RETENTION INDEX=0
##$CONDENSED SPECTRUM=NO
##NPOINTS= 22
##XYDATA=(XY..XY) 1 
    47        558
    53        632
    55        166
    58        140
    59        474
    61         94
    71        248
    72        249
    73        916
    74        999
    75        321
    76        222
    85        116
    87        944
    88         67
    89        100
    97         14
   101         15
   116        986
   117        159
   118        105
   119          9