##TITLE=Library Entry 78814
##JCAMP-DX=Revision 4.10 
##DATA TYPE=MASS SPECTRUM
##SAMPLE DESCRIPTION=A.A.Kutin, Moscow, Russia
##NAMES=HP
##CAS NAME=Glutaric acid monoamide, N-4-carbomethoxyphenyl-, benzoylmethyl e
ster
##MOLFORM=C21H21NO6
##CAS REGISTRY NO=339246-79-6
##MP= -300
##BP= -300
##MW= 383
##$RETENTION INDEX=0
##$CONDENSED SPECTRUM=NO
##NPOINTS= 67
##XYDATA=(XY..XY) 1 
    38         34
    39        199
    40         89
    41        232
    42        320
    43        143
    44         86
    45         47
    50         90
    51        222
    52         33
    53          8
    55        587
    56         36
    57          8
    59         19
    62         14
    63         85
    64         66
    65        172
    66         23
    67          4
    69         39
    70         22
    71          9
    74         16
    75         43
    76         75
    77        635
    78         71
    79         44
    82          7
    83         15
    89         18
    90         19
    91        338
    92         96
    93         20
    97         55
    98          6
   103         54
   104         15
   105        999
   106         73
   107          5
   119        292
   120        369
   121         33
   122         10
   133          5
   135          7
   137         24
   146         38
   150         54
   151        511
   152         29
   157          4
   164          7
   176          6
   178         19
   183         21
   185         10
   220         38
   233        117
   248         25
   383         68
   384          4