##TITLE=Library Entry 63772
##JCAMP-DX=Revision 4.10 
##DATA TYPE=MASS SPECTRUM
##SAMPLE DESCRIPTION=A.A.Kutin, Moscow, Russia
##NAMES=HP
##CAS NAME=1,3,4-Oxadiazole, 2-[2-(benzylthio)ethyl]-5-(4-nitrophenyl)-
##MOLFORM=C17H15N3O3S
##CAS REGISTRY NO=339289-89-3
##MP= -300
##BP= -300
##MW= 341
##$RETENTION INDEX=0
##$CONDENSED SPECTRUM=NO
##NPOINTS= 198
##XYDATA=(XY..XY) 1 
    33          2
    34          2
    35          1
    36          4
    37          6
    38         17
    39         88
    40         44
    41         48
    42         18
    43         39
    44         21
    45        127
    46         39
    47          9
    48          3
    50         55
    51         47
    52         17
    53          9
    54          9
    55        205
    56         20
    57         46
    58          8
    59         40
    60          9
    61         14
    62         29
    63         55
    64         26
    65        185
    66         11
    67          3
    68          3
    69         21
    70         20
    71         32
    72          4
    73          5
    74         35
    75         37
    76        101
    77         43
    78         16
    79         12
    80          1
    81          2
    82          4
    83         13
    84         11
    85          6
    86          5
    87         10
    88         19
    89         41
    90         38
    91        999
    92        112
    93          8
    94          1
    95          3
    96          1
    97          8
    98          3
    99          2
   100          0
   102         91
   103         17
   104         79
   105         12
   106         12
   107          2
   108          2
   109          2
   110          1
   111          3
   112         14
   113          7
   114          2
   115         11
   116          9
   117         11
   118         26
   119          9
   120         37
   121         34
   122         20
   123         50
   124         20
   125          6
   126          2
   127          2
   128          3
   129          5
   130          6
   131          3
   132         14
   133          8
   134          5
   135         10
   136          4
   137          5
   138          0
   139          1
   142          1
   143          2
   144         11
   145          4
   146          2
   147          2
   148          5
   149          8
   150         43
   151          6
   152          6
   153          1
   155          2
   156          0
   157          2
   159          2
   160          4
   161          3
   162         15
   163         35
   164          9
   165          3
   166          1
   167          0
   169          1
   171         27
   172         17
   173         38
   174          6
   175          8
   176          5
   177          1
   178          2
   179          0
   181          0
   185          2
   187          4
   188         10
   189         45
   190         11
   191          2
   192          0
   199          1
   200          0
   201          1
   202          2
   203         11
   204          5
   205          4
   206          1
   207          2
   208         16
   209          2
   210          2
   213          0
   214          0
   216          2
   217         19
   218        264
   219        690
   220         85
   221          9
   222          0
   223          0
   234          1
   242          1
   247          0
   248          0
   249          0
   250         42
   251          5
   252          2
   253          0
   260          0
   267          0
   269          1
   273          0
   274          0
   283          3
   284          0
   287          0
   302          0
   311          5
   312          1
   313          3
   317          1
   330          1
   332          0
   340          1
   341         49
   342         10
   343          4
   344          2