##TITLE=Library Entry 33423
##JCAMP-DX=Revision 4.10 
##DATA TYPE=MASS SPECTRUM
##SAMPLE DESCRIPTION=NIST Mass Spectrometry Data Center, 1994
##NAMES=HP
##CAS NAME=11-Tridecyn-1-ol
##MOLFORM=C13H24O
##CAS REGISTRY NO=33925-75-6
##MP= -300
##BP= -300
##MW= 196
##$RETENTION INDEX=0
##$CONDENSED SPECTRUM=NO
##NPOINTS= 59
##XYDATA=(XY..XY) 1 
    17          8
    18         24
    27        129
    38         13
    39        326
    40         71
    41        835
    42        111
    43        204
    44         16
    50         18
    51         62
    52         46
    53        321
    54        360
    55        757
    56         85
    57        104
    58         25
    65         79
    66        106
    67        870
    68        999
    69        315
    70         57
    71         86
    72         10
    77         91
    78         29
    79        353
    80        135
    81        600
    82        208
    83         96
    84         29
    85         31
    91         68
    92          8
    93        202
    94        110
    95        510
    96        146
    97         55
    98         35
    99          3
   105          7
   106          3
   107         94
   108         44
   109        132
   110         40
   111         30
   112          8
   121         58
   122         17
   123         19
   135         26
   136         14
   149         13