##TITLE=Library Entry 99203
##JCAMP-DX=Revision 4.10 
##DATA TYPE=MASS SPECTRUM
##SAMPLE DESCRIPTION=A.A.Kutin, Moscow, Russia
##NAMES=HP
##CAS NAME=Benzamide, 3-methyl-N-[5-trifluoromethyl-2-(2,2,3,3-tetrafluoropr
opoxy)phenyl]-
##MOLFORM=C18H14F7NO2
##CAS REGISTRY NO=339240-75-4
##MP= -300
##BP= -300
##MW= 409
##$RETENTION INDEX=0
##$CONDENSED SPECTRUM=NO
##NPOINTS= 169
##XYDATA=(XY..XY) 1 
    33          4
    34          0
    36          0
    37          1
    38          6
    39         62
    40         19
    41         20
    42          1
    43          2
    44          5
    45          4
    46          3
    47          0
    50         13
    51         70
    52         11
    53          5
    54          0
    55          1
    56          0
    57          3
    58          0
    59          0
    60          0
    61          1
    62          8
    63         41
    64         20
    65        183
    66         10
    67          0
    69          8
    70          2
    71          0
    72          0
    73          0
    74          2
    75         10
    76          7
    77         10
    78         11
    79          3
    80          0
    81          1
    82          2
    83          3
    84          0
    85          0
    86          0
    87          1
    88          2
    89         42
    90         48
    91        445
    92         37
    93          2
    94          0
    95          5
    96          1
    97          1
    98          2
    99          1
   100          2
   101          6
   102          1
   103          0
   104          2
   105          3
   106          0
   107          1
   108          1
   109          1
   110          1
   111          0
   112          0
   113          7
   114          2
   115          1
   116          1
   117          2
   118         27
   119        999
   120        103
   121          7
   122          0
   123          4
   124          0
   125          0
   126          3
   127          4
   128          2
   129          1
   130          0
   131          0
   132          3
   133          5
   134          0
   136          0
   137          0
   138          1
   139          1
   140          8
   141          2
   142          1
   143          0
   144          0
   145          1
   146          1
   147          2
   148          4
   149          0
   150          0
   151          0
   152          0
   153          0
   154          0
   155          0
   157          0
   158          0
   159          1
   160         16
   161          4
   162          0
   164          0
   165          0
   166          0
   167          0
   168          0
   169          0
   170          1
   171          0
   172          0
   173          0
   174          0
   175          0
   176          1
   177          0
   179          0
   180          0
   183          0
   184          0
   187          0
   188          3
   189          0
   195          0
   196          0
   197          0
   200          0
   201          0
   202          0
   203          0
   210          0
   216          0
   219          0
   222          0
   248          0
   249          0
   258          0
   259          0
   263          0
   264          0
   274          0
   278          0
   290          0
   291          0
   390          0
   409          2
   410          0