##TITLE=Library Entry 14258
##JCAMP-DX=Revision 4.10 
##DATA TYPE=MASS SPECTRUM
##SAMPLE DESCRIPTION=A.A.Kutin, Moscow, Russia
##NAMES=HP
##CAS NAME=Benzothiophene-2-carboxylic acid, 3-acetylamino-6-bromo-7-hydroxy
-
##MOLFORM=C13H12BrNO4S
##CAS REGISTRY NO=339219-79-3
##MP= -300
##BP= -300
##MW= 357
##$RETENTION INDEX=0
##$CONDENSED SPECTRUM=NO
##NPOINTS= 214
##XYDATA=(XY..XY) 1 
    33          6
    34          1
    36          2
    37          4
    38          9
    39         12
    43        999
    45         27
    47          1
    49          1
    50          3
    51          6
    52         10
    53         18
    54          2
    55          4
    57          9
    58          4
    59          3
    60          4
    62         20
    63         32
    64          6
    65          5
    66          3
    67          4
    69         48
    70          6
    71          4
    72          1
    73          4
    74          6
    75         11
    76         10
    77          6
    79          9
    80          9
    81         12
    82         18
    83          4
    84          4
    85          3
    86          2
    87          4
    88          9
    90         24
    91          8
    93          9
    94          7
    95          6
    96          7
    98          2
    99          3
   100          4
   101          3
   102          3
   103          2
   104          3
   106          9
   107         22
   108         23
   109          4
   110          1
   111          1
   112          1
   113          1
   116          3
   118          6
   119          6
   120          2
   121          3
   123          4
   124          2
   125          2
   127          1
   129          1
   130          2
   131          3
   133         30
   134         30
   135         18
   136          6
   137          2
   141          1
   142          1
   143          1
   144          2
   145          2
   146          2
   147          1
   149          1
   150          2
   151          4
   152          1
   155          1
   156          1
   157          1
   159          1
   160          3
   161          9
   162         26
   163         10
   164          3
   165          1
   170          2
   171          2
   172          1
   173          1
   174          1
   175          2
   177          2
   178          2
   179          1
   180          1
   182          1
   184          1
   186          5
   187          8
   188          8
   189          8
   190         17
   191          3
   192          1
   197          1
   198          1
   199          1
   200          1
   201          1
   203          1
   204          1
   205          1
   206          1
   207          1
   208          2
   209          1
   210          1
   211          2
   212          5
   213         10
   214         11
   215         13
   216         11
   217          7
   218          1
   225          1
   227          1
   230          1
   231          3
   232          1
   233          4
   235          1
   236          5
   237          2
   238          2
   240         11
   241         23
   242         16
   243         16
   244          6
   245          2
   253          2
   254          1
   255          2
   256          1
   257          1
   258          2
   259          1
   260          1
   261          1
   262          1
   263          1
   264          2
   265          4
   266          8
   267         15
   269        104
   270         25
   271         65
   272         13
   273          4
   278          2
   282          1
   283          1
   284          1
   286          3
   287          3
   288          2
   289          3
   299          1
   301          1
   306          1
   308          1
   309          1
   310          3
   311          7
   312          8
   313         12
   314         13
   315         65
   317         62
   318          6
   319          2
   348          1
   349          1
   351          2
   352          2
   353          3
   354          3
   355          7
   356          6
   357         30
   359         30
   360          3
   361          1