##TITLE=Library Entry 3745
##JCAMP-DX=Revision 4.10 
##DATA TYPE=MASS SPECTRUM
##SAMPLE DESCRIPTION=A.A.Kutin, Moscow, Russia
##NAMES=HP
##CAS NAME=Tetrazole, 1-(1,3-dioxolan-4-ylmethyl)-
##MOLFORM=C6H10N4O2
##CAS REGISTRY NO=339292-85-2
##MP= -300
##BP= -300
##MW= 170
##$RETENTION INDEX=0
##$CONDENSED SPECTRUM=NO
##NPOINTS= 55
##XYDATA=(XY..XY) 1 
    37         25
    38         49
    39        534
    41        999
    42        392
    43        529
    45        450
    46         28
    47          7
    50         21
    51         25
    53        158
    54        312
    55        319
    57        485
    58         74
    59         67
    60          5
    61          1
    62          0
    64          5
    65          1
    68        162
    69         91
    70         89
    71         56
    72         98
    73         14
    74          2
    75          2
    78         50
    79          5
    81         13
    82          3
    83         17
    84         40
    85         35
    87        541
    89          2
    93          0
    95          9
    96          3
    97          5
    98          4
   100        264
   101         14
   102         24
   103          0
   109          0
   111         11
   113         36
   114          2
   140          2
   141          2
   169          2