##TITLE=Library Entry 56730
##JCAMP-DX=Revision 4.10 
##DATA TYPE=MASS SPECTRUM
##SAMPLE DESCRIPTION=A.A.Kutin, Moscow, Russia
##NAMES=HP
##CAS NAME=Benzoic acid, 3,4-dihydroxy-, 3-diethylaminopropyl ester
##MOLFORM=C14H21NO4
##CAS REGISTRY NO=339289-75-7
##MP= -300
##BP= -300
##MW= 267
##$RETENTION INDEX=0
##$CONDENSED SPECTRUM=NO
##NPOINTS= 127
##XYDATA=(XY..XY) 1 
    39         25
    40         16
    41         68
    42        100
    43         46
    44         50
    45          8
    50          9
    51         21
    52         28
    53         36
    54         13
    55         34
    56         60
    57         30
    58         92
    60          3
    61          1
    62          5
    63         17
    64          3
    65          4
    66          2
    67          2
    68          7
    69          7
    70         18
    71          9
    72         69
    73          6
    74          1
    75          0
    76          0
    77          2
    78          1
    79          7
    80          7
    81         32
    82          6
    83          2
    84         28
    86        999
    87         61
    88          0
    91          5
    92          2
    93          1
    94          1
    95          1
    96          2
    97          5
    98         23
    99          2
   100         11
   101          1
   102          1
   103          0
   104          0
   105          0
   106          0
   107          4
   108         10
   109         36
   110          5
   111          3
   112         10
   113          4
   114          6
   115          1
   116         11
   117          1
   119          1
   120          0
   121          1
   122          0
   123          1
   124          0
   125          1
   126         10
   127          1
   128          0
   129          0
   130         12
   131          1
   132          0
   133          0
   134          0
   135          0
   136         14
   137        139
   138         12
   139          1
   140          0
   142          0
   143          0
   144          0
   145          0
   150          0
   151          1
   152          0
   153          1
   154          7
   155          0
   163          0
   167          0
   168          1
   169          0
   170          0
   177          0
   179          0
   181          0
   182          0
   194          1
   195         28
   196          3
   197          0
   223          0
   237          0
   238          2
   239          0
   252         14
   253          2
   254          0
   266          1
   267         21
   268          3
   269          0