##TITLE=Library Entry 72836
##JCAMP-DX=Revision 4.10 
##DATA TYPE=MASS SPECTRUM
##SAMPLE DESCRIPTION=A.A.Kutin, Moscow, Russia
##NAMES=HP
##CAS NAME=Acethydrazide, 2-(4-morpholyl)-N2-(4-bromobenzylideno)-
##MOLFORM=C13H16BrN3O2
##CAS REGISTRY NO=339241-44-0
##MP= -300
##BP= -300
##MW= 325
##$RETENTION INDEX=0
##$CONDENSED SPECTRUM=NO
##NPOINTS= 96
##XYDATA=(XY..XY) 1 
    34          0
    37          7
    38         21
    39         81
    41        239
    42        447
    43        137
    44         78
    45         30
    46          1
    47          0
    50         85
    51         38
    52         13
    54         38
    56        391
    57         34
    58         12
    59         11
    61          9
    62         44
    63        112
    64         15
    65          7
    66          0
    67          1
    68          9
    70        129
    71         23
    72         48
    73          9
    74         23
    75         59
    76         58
    77         14
    78          3
    79          5
    80          4
    81          2
    82          6
    83          3
    84         12
    85         14
    86         77
    87         12
    89        151
    90         32
    91         30
    92          3
    93          0
    98         31
   100        999
   102         67
   103          9
   104          2
   105          3
   106          0
   112          3
   113          4
   114          0
   117          4
   118         59
   119          7
   120          0
   126          0
   129          0
   130          0
   131          0
   141         14
   142          5
   143          8
   145          0
   155         16
   156          0
   157         15
   158          0
   168          0
   169          0
   170          0
   171          0
   181          1
   182          4
   183          2
   184          4
   185          0
   186          0
   197          0
   198          0
   199          0
   209          2
   211          2
   240          0
   282          0
   284          0
   325          2
   327          1