##TITLE=Library Entry 6436
##JCAMP-DX=Revision 4.10 
##DATA TYPE=MASS SPECTRUM
##SAMPLE DESCRIPTION=A.A.Kutin, Moscow, Russia
##NAMES=HP
##CAS NAME=2-[(4-Nitrobenzylidene)hydrazino]-2-oxo-N-propylacetamide
##MOLFORM=C12H14N4O4
##CAS REGISTRY NO=339241-41-7
##MP= -300
##BP= -300
##MW= 278
##$RETENTION INDEX=0
##$CONDENSED SPECTRUM=NO
##NPOINTS= 76
##XYDATA=(XY..XY) 1 
    37          4
    38         16
    39        156
    41        421
    43        999
    44        129
    46         51
    50         92
    51         53
    52         23
    53          3
    54          5
    56         36
    57          9
    58         50
    59         53
    60          1
    61          2
    62         31
    63        118
    64         40
    65         40
    66          2
    69          1
    70          8
    72          3
    74         20
    75         43
    76         90
    77         33
    78          7
    79          3
    80          3
    86         88
    87         67
    89        105
    90         43
    91         48
    92         27
    93          5
   101          0
   102          7
   103         36
   104         16
   105          6
   106          2
   107          0
   117          9
   118         52
   119         10
   120          4
   122          2
   129          0
   130         30
   133          4
   134          2
   135         20
   137          0
   145          0
   146         19
   147          1
   148          6
   149         28
   150         10
   151         17
   162          5
   163          1
   164         19
   165         19
   176         18
   177          0
   192        249
   193         42
   194          1
   222          6
   278         13