##TITLE=Library Entry 46588
##JCAMP-DX=Revision 4.10 
##DATA TYPE=MASS SPECTRUM
##SAMPLE DESCRIPTION=A.A.Kutin, Moscow, Russia
##NAMES=HP
##CAS NAME=2H-3,1-Benzoxazine, 1,4-dihydro-4,4-diethyl-2-(3-nitrophenyl-
##MOLFORM=C18H20N2O3
##CAS REGISTRY NO=339239-78-0
##MP= -300
##BP= -300
##MW= 312
##$RETENTION INDEX=0
##$CONDENSED SPECTRUM=NO
##NPOINTS= 118
##XYDATA=(XY..XY) 1 
    37          3
    38         59
    39        520
    40        118
    41        440
    43        420
    44         52
    45         30
    46        239
    48         10
    50        374
    51        766
    52        173
    54         20
    55        182
    57        627
    58          9
    62         33
    63        253
    64         66
    65        183
    66         42
    67          8
    69         11
    70          1
    73          1
    74         84
    75        200
    76        703
    77        999
    78        288
    79         86
    80          4
    83          3
    87          3
    88          9
    89        186
    90        147
    91        300
    92         85
    93         46
    94         30
   101         17
   102         96
   103        248
   104        314
   105        227
   106        126
   107          4
   114          1
   115        207
   116        102
   117        323
   118        131
   119         40
   120        210
   121         18
   122         28
   126         13
   127        109
   128         60
   129         22
   130        301
   131        104
   132        248
   133         55
   134         10
   136          4
   139          5
   140          6
   141         11
   142          5
   143         28
   144         49
   145         10
   146        271
   147         40
   149         16
   150        223
   151         64
   152        134
   153         36
   154         25
   160         39
   161         48
   162          3
   165          6
   166         10
   167         32
   168          8
   177          8
   178         51
   179         85
   180        101
   181          8
   190         18
   191          5
   192          4
   193         13
   204         45
   205          7
   206          6
   207         20
   208         13
   217         28
   218        104
   219        125
   220         20
   225          4
   227          2
   237         19
   265         49
   266          1
   267          1
   283        393
   284         56
   285          1
   312         12