##TITLE=Library Entry 57023
##JCAMP-DX=Revision 4.10 
##DATA TYPE=MASS SPECTRUM
##SAMPLE DESCRIPTION=A.A.Kutin, Moscow, Russia
##NAMES=HP
##CAS NAME=2H-Tetrazole, 2-(1,3-dioxolan-4-ylmethyl)-
##MOLFORM=C6H10N4O2
##CAS REGISTRY NO=339292-86-3
##MP= -300
##BP= -300
##MW= 170
##$RETENTION INDEX=0
##$CONDENSED SPECTRUM=NO
##NPOINTS= 84
##XYDATA=(XY..XY) 1 
    37         22
    39        478
    41        666
    42        245
    43        343
    45        507
    46         12
    47          6
    49          3
    50         11
    51         17
    52         22
    53         75
    54        167
    55        333
    57        510
    58         83
    59         83
    60          5
    61          6
    62          4
    63          1
    64          2
    65          1
    67         24
    68         52
    69         36
    70         49
    71         61
    72         40
    73         10
    74          2
    75          1
    76          0
    78          8
    79          1
    80          1
    81          5
    83         42
    84         70
    85        106
    87        999
    88         36
    89          7
    91          2
    92          0
    93          0
    95          8
    96          4
    97          7
    98          3
   100        118
   101          6
   102          4
   103          0
   104          0
   105          0
   106          0
   107          0
   108          0
   109          0
   111         63
   112         39
   113         31
   114          7
   115          1
   116          0
   117          0
   118          0
   119          0
   123          0
   124          0
   125          0
   126          0
   127          0
   128          0
   129          0
   139          3
   140          3
   141          7
   142          2
   143          0
   170          8
   171          1