##TITLE=Library Entry 66228
##JCAMP-DX=Revision 4.10 
##DATA TYPE=MASS SPECTRUM
##SAMPLE DESCRIPTION=A.A.Kutin, Moscow, Russia
##NAMES=HP
##CAS NAME=Ethanediamide, N-(1-methylpropyl)-N'-(3-pyridinylmethyl)-
##MOLFORM=C12H17N3O2
##CAS REGISTRY NO=339241-94-0
##MP= -300
##BP= -300
##MW= 235
##$RETENTION INDEX=0
##$CONDENSED SPECTRUM=NO
##NPOINTS= 61
##XYDATA=(XY..XY) 1 
    33          3
    34         19
    37          2
    39        411
    41        359
    42         98
    43        105
    44        391
    45         18
    46          4
    50         34
    51         81
    52         58
    53         33
    54         11
    55         69
    56         67
    57        461
    58         47
    62          1
    63         35
    64         31
    65        275
    66         24
    67         11
    69         14
    70         39
    71          8
    72         28
    73          0
    76          1
    77         13
    78         37
    79        120
    80         42
    81          1
    83          1
    84          1
    86          0
    92        517
    93        999
    94         66
   100          3
   103          2
   105         16
   106         29
   107        145
   108        114
   109          4
   121          4
   135        247
   136         53
   137          2
   143          7
   150          2
   178          0
   180         12
   206         59
   207          0
   235         58
   236          1