##TITLE=Library Entry 25675
##JCAMP-DX=Revision 4.10 
##DATA TYPE=MASS SPECTRUM
##SAMPLE DESCRIPTION=Chemical Concepts
##NAMES=HP
##CAS NAME=N-[1-Anilino-2,2,2-trifluoro-1-(trifluoromethyl)ethyl]isovalerami
de
##MOLFORM=C14H16F6N2O
##CAS REGISTRY NO=339352-76-0
##MP= -300
##BP= -300
##MW= 342
##$RETENTION INDEX=0
##$CONDENSED SPECTRUM=NO
##NPOINTS= 83
##XYDATA=(XY..XY) 1 
    34          5
    36          8
    38         22
    39        293
    40        150
    41        569
    42        143
    43        319
    44        137
    45         11
    47         11
    50         64
    51        194
    52         31
    53         20
    55         88
    57        999
    58         60
    59        136
    60          8
    62          3
    63         38
    64         24
    65        152
    66         72
    67         11
    69        105
    70          8
    71          9
    73          7
    74          9
    75         15
    76         45
    77        747
    78         59
    79          7
    83         34
    84         21
    85        266
    86         48
    87          5
    91         19
    92         77
    93        583
    94         58
    95         11
    96         24
   100         13
   101          8
   102         17
   103         10
   104          9
   106         12
   109          3
   111          2
   118          6
   119         26
   120          5
   125          2
   127         10
   129         10
   130          3
   134          2
   142          8
   145          6
   153          9
   167          5
   172        653
   173         51
   187         48
   188         13
   189        291
   190         26
   192          4
   215         19
   241        709
   242        106
   243          8
   258         12
   273         38
   274          2
   342        138
   343         14