##TITLE=Library Entry 27426
##JCAMP-DX=Revision 4.10 
##DATA TYPE=MASS SPECTRUM
##SAMPLE DESCRIPTION=Chemical Concepts
##NAMES=HP
##CAS NAME=Ethyl 2-(5-chloro-o-anisidino)-3,3,3-trifluoro-2-propionamidoprop
ionate
##MOLFORM=C15H18ClF3N2O4
##CAS REGISTRY NO=339351-97-2
##MP= -300
##BP= -300
##MW= 382
##$RETENTION INDEX=0
##$CONDENSED SPECTRUM=NO
##NPOINTS= 200
##XYDATA=(XY..XY) 1 
    34          3
    35          3
    36         17
    37          5
    38         12
    39         17
    40         44
    41         17
    42         13
    43         44
    44        164
    45         14
    46          3
    47          2
    49          5
    50         22
    51         53
    52         24
    53         12
    54         11
    55         44
    56         36
    57        999
    58         36
    59          9
    60          4
    61          7
    62         16
    63         74
    64         10
    65         16
    66          4
    67          5
    68          3
    69         37
    70          7
    71         13
    72         20
    73         72
    74         24
    75         52
    76         34
    77         42
    78         59
    79         30
    80          9
    81          4
    83          6
    84          6
    85          8
    86          6
    87         13
    88          7
    89          8
    90         23
    91         11
    92         12
    93         33
    94          5
    95          5
    96         27
    97          9
    98         38
    99         41
   100         19
   101         17
   102          6
   103          3
   104          9
   105          6
   106          6
   107          5
   108          6
   109          4
   110          8
   111         99
   112         18
   113         50
   114         87
   115         12
   116         31
   117          5
   118          3
   119          3
   120          5
   121          3
   122          6
   123         15
   124         20
   125         15
   126        103
   127         26
   128         35
   129         13
   130          3
   131          3
   132          6
   133          5
   134          4
   136         11
   137          4
   138         13
   139         21
   140         11
   141         30
   142        212
   143         36
   144         74
   145         10
   146          2
   149          3
   150          3
   151          3
   152          8
   153         15
   154         25
   155         10
   156         20
   157        262
   158         32
   159         89
   160         10
   161         20
   162          3
   163          7
   166         10
   167         48
   168         92
   169         33
   170         32
   171         13
   172          9
   173          6
   174          4
   179          5
   180          7
   181         12
   182          7
   183          8
   184          6
   185          6
   186          7
   187          5
   188          8
   189         57
   190          7
   191         15
   194          4
   196         14
   197          4
   198          6
   201         22
   202         12
   203          9
   204          4
   208          5
   209          3
   212          3
   216          4
   217          3
   218          7
   221        104
   222         17
   223         37
   224          7
   229          9
   230          4
   231          3
   236        322
   237         34
   238        110
   239         11
   240          6
   246          3
   251          3
   252          5
   253        630
   254         63
   255        188
   256         18
   257         50
   258          8
   259         18
   260          6
   261          5
   262          3
   263          3
   274          3
   279          4
   281          3
   287          2
   309        225
   310         35
   311         71
   312          9
   313          9
   382        127
   383         19
   384         39
   385          6