##TITLE=Library Entry 73904
##JCAMP-DX=Revision 4.10 
##DATA TYPE=MASS SPECTRUM
##SAMPLE DESCRIPTION=Chemical Concepts
##NAMES=HP
##CAS NAME=4-Octanol, 2,4-dimethyl-
##MOLFORM=C10H22O
##CAS REGISTRY NO=33933-79-8
##MP= -300
##BP= -300
##MW= 158
##$RETENTION INDEX=1203
##$CONDENSED SPECTRUM=NO
##NPOINTS= 74
##XYDATA=(XY..XY) 1 
    25          2
    27         93
    29         89
    30          1
    31         28
    33          2
    36          5
    37          1
    38          2
    39         49
    41        192
    42         20
    43        276
    44          4
    45        252
    46          5
    49          0
    50          1
    51          2
    52          2
    53         17
    54          6
    55        280
    56        188
    57        272
    58         57
    59        233
    60          7
    64          1
    65          2
    66          2
    67         16
    68          9
    69        133
    70         38
    71         19
    72          2
    73          6
    75          0
    76          0
    77          3
    78          1
    79          4
    80          1
    81          7
    82         11
    83        255
    84         41
    85         22
    86          1
    87          7
    91          1
    92          0
    95          6
    96          2
    97         12
    98          8
    99          3
   100          4
   101        999
   102         69
   103          3
   109          2
   111          6
   123          1
   125          3
   126          0
   127          1
   138          1
   140         31
   141          4
   143         60
   144          6
   145          0