##TITLE=Library Entry 78338
##JCAMP-DX=Revision 4.10 
##DATA TYPE=MASS SPECTRUM
##SAMPLE DESCRIPTION=Chemical Concepts
##NAMES=HP
##CAS NAME=Ethyl 2-benzamido-2-[(3-ethyl-3-oxetanyl)methoxy]-3,3,3-trifluoro
propionate
##MOLFORM=C18H22F3NO5
##CAS REGISTRY NO=339352-46-4
##MP= -300
##BP= -300
##MW= 389
##$RETENTION INDEX=0
##$CONDENSED SPECTRUM=NO
##NPOINTS= 88
##XYDATA=(XY..XY) 1 
    35          2
    36          1
    37          2
    39         43
    41        196
    43        111
    44         13
    45          6
    47          6
    48          2
    50         21
    51         60
    52          7
    53         19
    54         10
    55         38
    57         58
    58          3
    59          1
    62          1
    63          1
    64          1
    65          4
    67         22
    69        100
    70         11
    71          7
    72          1
    73          1
    74          3
    75          6
    77        282
    78         18
    79          4
    81         11
    83         20
    85         21
    86          5
    87          2
    91          1
    96          5
    97          3
    99         75
   100          4
   103          9
   105        999
   106         72
   107          4
   114          1
   115          5
   116          1
   117          1
   119          1
   121          5
   122          2
   123          2
   126          1
   132          6
   133          1
   136          1
   142          3
   143          1
   144          1
   170          7
   171          1
   172          2
   173          2
   181          1
   187          1
   190          1
   194          1
   200          1
   201          5
   202          2
   203          1
   209          3
   218          4
   229         73
   230          8
   231          1
   246          1
   254          1
   258          3
   275         39
   292          9
   293          1
   316          7
   317          1