##TITLE=Library Entry 6653
##JCAMP-DX=Revision 4.10 
##DATA TYPE=MASS SPECTRUM
##SAMPLE DESCRIPTION=A.A.Kutin, Moscow, Russia
##NAMES=HP
##CAS NAME=Benzaldehyde, 4-acetoxy-3-methoxy-, (4-amino-5-methyl-1,2,4-triaz
ol-3-yl)hydrazone
##MOLFORM=C13H16N6O3
##CAS REGISTRY NO=339338-84-0
##MP= -300
##BP= -300
##MW= 304
##$RETENTION INDEX=0
##$CONDENSED SPECTRUM=NO
##NPOINTS= 81
##XYDATA=(XY..XY) 1 
    35         11
    36         43
    37          3
    38         25
    39         15
    40         34
    41         49
    42        222
    43        999
    44         24
    45          7
    50         25
    51         42
    52         15
    53         18
    54          2
    55         22
    57        114
    58          3
    61          1
    63         51
    64         20
    65         14
    66         15
    67         26
    68          5
    73          2
    74          4
    75          3
    77         36
    78         10
    79         43
    80          3
    81          1
    82          1
    89          3
    90          2
    92         35
    93         17
    98          8
    99        106
   100          2
   104          3
   105         11
   106         11
   107         10
   108          7
   109          1
   112          2
   113         23
   119          2
   120          6
   121          8
   122          6
   123          1
   127          1
   133          7
   134          7
   135         17
   136         90
   137         11
   145          1
   150         14
   151         12
   161          2
   162          6
   164          3
   173          1
   177          2
   192          2
   203          4
   218          9
   219          1
   230          1
   233          5
   242          2
   262        114
   263         10
   304        189
   305         36
   306          2