##TITLE=Library Entry 80993
##JCAMP-DX=Revision 4.10 
##DATA TYPE=MASS SPECTRUM
##SAMPLE DESCRIPTION=Chemical Concepts
##NAMES=HP
##CAS NAME=N-[1-(2-Chlorobenzylamino)-2,2,2-trifluoro-1-(trifluoromethyl)eth
yl]benzamide
##MOLFORM=C17H13ClF6N2O
##CAS REGISTRY NO=339351-78-9
##MP= -300
##BP= -300
##MW= 410
##$RETENTION INDEX=0
##$CONDENSED SPECTRUM=NO
##NPOINTS= 139
##XYDATA=(XY..XY) 1 
    33          3
    36         20
    38         25
    39         47
    40          3
    41         20
    42          8
    43         19
    44         10
    45          3
    47          6
    48          2
    49         10
    50        104
    51        245
    52         50
    54          8
    55         12
    56          8
    57         12
    58          3
    60          1
    61          3
    62          9
    63         45
    64         13
    65         13
    66          1
    67          6
    69         53
    70          9
    71          8
    72          2
    73         17
    74         30
    75         46
    76         54
    77        699
    78         71
    79         95
    80          7
    81          5
    82          3
    83         19
    84          4
    85         19
    86          8
    87          8
    88          7
    89        117
    90         30
    91         14
    92          8
    93          2
    94          2
    95          3
    96         16
    97          9
    98          1
    99         33
   100          5
   101         10
   102         14
   103         20
   104         38
   105        999
   106        158
   107         21
   109          4
   111          8
   112         18
   113         15
   114          9
   115          8
   116          9
   121         41
   122        761
   123         61
   125        384
   126         34
   127        118
   128         15
   129          2
   132          4
   134          6
   137          8
   138         17
   140        452
   141         42
   142        152
   143         16
   145          1
   151          9
   152          2
   154          2
   155          3
   157          2
   158          2
   161          3
   163          2
   164          3
   165         12
   166          1
   171          4
   174          1
   177          6
   179          2
   184          2
   185         24
   186          2
   199          6
   200          4
   201         21
   202          4
   203          1
   207          2
   210          4
   211          5
   214          4
   219          6
   220         37
   221          4
   222         13
   223          2
   225          1
   234          1
   244          7
   245          3
   248          1
   254         71
   255          9
   270          6
   271          4
   288         20
   289         22
   290          9
   291          8
   341          8
   343          3