##TITLE=Library Entry 27398
##JCAMP-DX=Revision 4.10 
##DATA TYPE=MASS SPECTRUM
##SAMPLE DESCRIPTION=Chemical Concepts
##NAMES=HP
##CAS NAME=1,1,1,3,3,3-Hexafluoro-2-isovaleramido-2-[2-(trifluoromethyl)anil
ino]propane
##MOLFORM=C15H15F9N2O
##CAS REGISTRY NO=339352-79-3
##MP= -300
##BP= -300
##MW= 410
##$RETENTION INDEX=0
##$CONDENSED SPECTRUM=NO
##NPOINTS= 187
##XYDATA=(XY..XY) 1 
    33          3
    34          2
    36          1
    37          4
    38          9
    39        110
    40         57
    41        409
    42        104
    43        193
    44         63
    45          4
    46          4
    47          8
    48          1
    49          1
    50         15
    51         16
    52          8
    53         11
    55         73
    57        999
    58         57
    59        102
    60          5
    61          2
    62          5
    63         16
    64          8
    65          6
    66          3
    67          4
    69        104
    70          8
    71          7
    72          3
    73          6
    74          5
    75         25
    76          9
    77          9
    78          7
    79          2
    80          1
    81          6
    83         59
    85        364
    86         43
    87          6
    88          6
    89          3
    90          5
    91          9
    92          6
    93          3
    94          4
    95         35
    96         15
    97          4
    98          2
    99          4
   100         11
   101          8
   102         17
   103          2
   104          1
   105          2
   106          1
   107          5
   108          1
   109          2
   110          2
   111          2
   113         16
   114         41
   115          4
   116          2
   117          1
   118          2
   119          4
   120          9
   121          4
   122          3
   123          1
   125         22
   126         26
   127          8
   128          2
   129          1
   132          5
   133          6
   134          5
   135          1
   139          5
   140         13
   141         54
   142          9
   143          4
   145        179
   146         13
   147         16
   148          2
   149          1
   150          1
   152         21
   153          8
   154          4
   158          1
   159          1
   161        363
   162         27
   163          2
   165          1
   166          4
   167         11
   168          4
   169          2
   170          5
   171          3
   172          3
   174          3
   176          2
   182          1
   183          1
   186          2
   187         16
   188          2
   190          3
   192          4
   194          1
   195          1
   197         22
   198          2
   201          2
   202          4
   203          5
   204          1
   206          1
   207          1
   208          1
   213          1
   215          4
   216          1
   217          9
   218          3
   219          1
   220          2
   221          1
   222          2
   226          1
   234          1
   235          9
   236          2
   237          6
   238          1
   240        437
   241         37
   242          1
   245          1
   250          1
   255          6
   257        119
   258         10
   259          1
   263          7
   267          2
   268          2
   270          2
   283          8
   284          1
   286          1
   287          2
   288          1
   290        105
   291         10
   309        431
   310         61
   311          3
   322          1
   325          1
   326          1
   341         33
   352          1
   371          1
   410         87
   411         13
   412          1