##TITLE=Library Entry 6055
##JCAMP-DX=Revision 4.10 
##DATA TYPE=MASS SPECTRUM
##SAMPLE DESCRIPTION=Exported from NIST MS Search
##NAMES=HP
##CAS NAME=4-Octanol, 7-methyl-, acetate
##MOLFORM=C11H22O2
##CAS REGISTRY NO=33933-81-2
##MP= -300
##BP= -300
##MW= 186
##$RETENTION INDEX=1076
##$CONDENSED SPECTRUM=NO
##NPOINTS= 70
##XYDATA=(XY..XY) 1 
    26          5
    27         53
    29         57
    30          2
    31          6
    37          1
    38          3
    39         38
    40          8
    41        135
    42         41
    43        999
    44         37
    45         17
    49          1
    50          6
    51         10
    52         18
    53         12
    54          6
    55        130
    56        135
    57         77
    58         44
    59         15
    60          7
    61         14
    65          3
    66          3
    67         12
    68          9
    69         95
    70         35
    71         55
    72          7
    73          6
    77          2
    78          4
    79         21
    80          2
    81         19
    82          6
    83        105
    84         26
    85          9
    86         13
    87         13
    91          1
    92          1
    93          4
    95          2
    96          1
    97         12
    98         13
    99         11
   100          1
   101          3
   102          2
   111         17
   112          2
   114          1
   115         86
   125          1
   126         12
   127          2
   129          2
   130          3
   142          2
   143         14
   144          1