##TITLE=Library Entry 82743
##JCAMP-DX=Revision 4.10 
##DATA TYPE=MASS SPECTRUM
##SAMPLE DESCRIPTION=Chemical Concepts
##NAMES=HP
##CAS NAME=N-[1-Benzylamino-2,2,2-trifluoro-1-(trifluoromethyl)ethyl]isovale
ramide
##MOLFORM=C15H18F6N2O
##CAS REGISTRY NO=339352-86-2
##MP= -300
##BP= -300
##MW= 356
##$RETENTION INDEX=0
##$CONDENSED SPECTRUM=NO
##NPOINTS= 107
##XYDATA=(XY..XY) 1 
    33         15
    34          7
    36          1
    37          3
    39        117
    40        127
    41        226
    42         66
    43        159
    44         53
    45          4
    46          3
    47          1
    50         18
    51         41
    52         12
    53          8
    54          5
    55         26
    57        284
    58         20
    59         70
    60         27
    61          2
    62          6
    63         23
    65        118
    66          7
    67          3
    69         50
    70          6
    71          6
    72          2
    73          2
    75          4
    77         59
    78         22
    79         61
    80          4
    81          2
    82          2
    83          9
    85         81
    86         21
    87          3
    89         42
    91        843
    92         63
    93          5
    96         17
    97          4
    98          2
   100          8
   102        499
   103         31
   104         25
   106        999
   107         76
   108          4
   109          6
   111          1
   112          1
   113          2
   116          5
   117         24
   118          4
   119          1
   124          3
   125          1
   127          7
   128          4
   131          1
   132          2
   133          2
   134          2
   135          1
   139          1
   140          4
   142          3
   146          3
   147          2
   149          2
   158          2
   159          1
   165          9
   166          9
   167          1
   177          5
   178          2
   185          9
   186         84
   187          8
   192          2
   201          6
   202          3
   203         37
   204          4
   207          5
   209          1
   214          3
   227          1
   234          3
   236          4
   254         64
   255         20
   256          4
   287          2