##TITLE=Library Entry 23383
##JCAMP-DX=Revision 4.10 
##DATA TYPE=MASS SPECTRUM
##SAMPLE DESCRIPTION=Chemical Concepts
##NAMES=HP
##CAS NAME=2-[4-Chloro-2-(trifluoromethyl)anilino]-1,1,1,3,3,3-hexafluoro-2-
isovaleramidopropane
##MOLFORM=C15H14ClF9N2O
##CAS REGISTRY NO=339352-85-1
##MP= -300
##BP= -300
##MW= 444
##$RETENTION INDEX=0
##$CONDENSED SPECTRUM=NO
##NPOINTS= 146
##XYDATA=(XY..XY) 1 
    33         25
    34         23
    35          5
    36         10
    37          7
    38         15
    39        131
    40        404
    41        427
    42        113
    43        237
    44        155
    45          7
    46          5
    47         11
    48          2
    49          3
    50         17
    51         14
    52          7
    53         11
    55         77
    57        999
    58         59
    59        138
    60          8
    61          6
    62          8
    63         18
    64          5
    65          1
    67          5
    68          7
    69        165
    70          9
    71          9
    73          9
    74         20
    75         35
    76          6
    77          5
    81          8
    83         35
    85        398
    86         49
    87          8
    88          7
    90          5
    91          6
    92          7
    93          9
    94          6
    96         22
    97          5
    98          2
    99         11
   100         13
   101          6
   102          9
   109          8
   111          6
   112          7
   113         10
   114          3
   117          3
   119          4
   120          5
   124          1
   125         26
   126          4
   127          1
   129          9
   131          7
   132         18
   133          1
   136          1
   138          4
   139          9
   140          4
   142          4
   143         19
   144         28
   145          7
   146          1
   148         33
   149          3
   150          9
   155          2
   159          8
   160         13
   161          9
   162          5
   163          3
   167          4
   170          9
   174          5
   175         31
   176          7
   177          9
   179        132
   181         56
   183          3
   186         21
   187          2
   188          9
   192          6
   194         12
   195        162
   196         16
   197         47
   198          4
   201          9
   202          1
   203          1
   206          1
   220          3
   221         14
   223          2
   231          9
   233          2
   235          2
   236          1
   240          3
   251          3
   255          1
   271          1
   274        255
   275         22
   276         81
   277          7
   291         27
   292          4
   293          9
   309          2
   317          4
   324         52
   326         17
   343        324
   344         39
   345        104
   346          8
   375          1
   409         10
   444         45
   445          8
   446         14