##TITLE=Library Entry 26088
##JCAMP-DX=Revision 4.10 
##DATA TYPE=MASS SPECTRUM
##SAMPLE DESCRIPTION=Chemical Concepts
##NAMES=HP
##CAS NAME=Ethyl 2-[4-(3,4-dimethylisoxazol-5-ylsulfamoyl)anilino]-3,3,3-tri
fluoro-2-propionamidopropionate
##MOLFORM=C19H23F3N4O6S
##CAS REGISTRY NO=339353-04-7
##MP= -300
##BP= -300
##MW= 492
##$RETENTION INDEX=0
##$CONDENSED SPECTRUM=NO
##NPOINTS= 231
##XYDATA=(XY..XY) 1 
    33          1
    34          1
    37          3
    39         80
    40         17
    41         47
    42        114
    43        127
    44         41
    45         10
    46          3
    48          7
    50         18
    51         14
    52         22
    53         32
    54         54
    55         27
    57        999
    58         31
    59          4
    60          1
    61          1
    63         26
    64         24
    65        142
    66         29
    67          7
    68         41
    69         34
    70         18
    71         21
    72          7
    73         13
    74         23
    75         13
    76         37
    77         12
    78          5
    79          5
    80         20
    81         16
    82          5
    84         28
    86         34
    87          2
    88          1
    89          3
    90          9
    92        244
    93         31
    94          5
    96         38
    97          9
    98          6
    99          1
   100          1
   101          1
   102          5
   103          5
   104          3
   105          2
   106          4
   108        187
   109         26
   111         26
   112         15
   113         24
   114          6
   115          1
   117          7
   118          7
   119          6
   120          6
   121          2
   122          2
   123         14
   124          9
   125          7
   126          4
   127          1
   129          3
   130          2
   131          3
   132          1
   133          2
   134          2
   135          1
   136          1
   137          2
   138          3
   140         65
   141          9
   142          6
   143          1
   144          1
   145          3
   146          2
   147          2
   148          3
   149          3
   150          3
   151          3
   152          9
   153          1
   156        198
   157         37
   158         10
   159          4
   160          1
   161          1
   162          4
   163          1
   164          4
   165          1
   166          2
   167          7
   168          5
   169          6
   171         14
   172          5
   173          2
   174          1
   175          1
   178          1
   179          1
   180          2
   181          1
   182          2
   183          1
   184          1
   185          1
   187         12
   188         28
   189          3
   192          1
   193          1
   194          1
   196          2
   198          8
   199          1
   200          1
   201          1
   203          9
   204          2
   209          2
   210          1
   211          1
   212          1
   213          1
   214          1
   215          3
   216          9
   217          1
   219          2
   220          1
   221          1
   223          1
   224          1
   225          1
   226          1
   227          1
   229          1
   232          3
   235          8
   236          7
   237          2
   239          1
   241          1
   244         20
   245          5
   246          1
   248          1
   251         11
   252          2
   253          5
   254          1
   255          1
   258          1
   260         12
   261          4
   264          1
   266          1
   267         18
   268          5
   269          2
   270          1
   277          5
   278          3
   279          1
   280          1
   292          8
   294         18
   295          2
   296          1
   297          1
   298          1
   299          1
   307          1
   308         41
   309          9
   310          3
   311          1
   314          1
   317          5
   318          1
   324          2
   325          4
   326          1
   333          2
   334          2
   348          1
   350          7
   351          1
   355          4
   356          1
   363         11
   364          2
   365          3
   366          1
   367          1
   381         56
   382          8
   383          3
   395          1
   419          9
   420          2
   421          1
   423          1
   492          6
   493          1