##TITLE=Library Entry 44712
##JCAMP-DX=Revision 4.10 
##DATA TYPE=MASS SPECTRUM
##SAMPLE DESCRIPTION=Chemical Concepts
##NAMES=HP
##CAS NAME=Cyclopentanol, 3-(carbmethoxy)methyl-
##MOLFORM=C8H14O3
##CAS REGISTRY NO=339363-86-9
##MP= -300
##BP= -300
##MW= 158
##$RETENTION INDEX=0
##$CONDENSED SPECTRUM=NO
##NPOINTS= 118
##XYDATA=(XY..XY) 1 
    25          2
    26         30
    27        294
    28         16
    29        257
    30         21
    31        155
    33         20
    37         10
    38         32
    39        441
    40         76
    41        554
    42        153
    43        508
    44        149
    45         52
    46          1
    47          1
    48          1
    49          2
    50         29
    51         56
    52         26
    53        153
    54         99
    55        434
    56         74
    57        217
    58         56
    59        259
    60          9
    61         22
    62          5
    63         12
    64          3
    65         36
    66         86
    67        375
    68         44
    69        153
    70        152
    71         54
    72         18
    73         53
    74        999
    75         96
    76         12
    77         42
    78         11
    79         96
    80        144
    81        222
    82        192
    83        597
    84        156
    85         87
    86          7
    87        101
    88          7
    89          1
    90          0
    91          7
    92          2
    93          3
    94          1
    95          8
    96          9
    97        211
    98        226
    99        116
   100         13
   101         43
   102         35
   103          3
   104          2
   105          6
   106          1
   107          9
   108         96
   109         43
   110          6
   111         19
   112          6
   113          8
   114         14
   115        282
   116         23
   117          3
   118          0
   119          1
   120          0
   121          1
   122          2
   123          2
   124          1
   125         30
   126        152
   127         93
   128         11
   129         37
   130         19
   131          3
   132          1
   133          2
   134          1
   135          1
   136          0
   137          1
   138          1
   139          6
   140         85
   141         30
   142         10
   143          5
   157          1
   158          3
   159          0