##TITLE=Library Entry 27348
##JCAMP-DX=Revision 4.10 
##DATA TYPE=MASS SPECTRUM
##SAMPLE DESCRIPTION=Chemical Concepts
##NAMES=HP
##CAS NAME=Ethyl 2-(4-chloroanilino)-3,3,3-trifluoro-2-propionamidopropionat
e
##MOLFORM=C14H16ClF3N2O3
##CAS REGISTRY NO=339351-94-9
##MP= -300
##BP= -300
##MW= 352
##$RETENTION INDEX=0
##$CONDENSED SPECTRUM=NO
##NPOINTS= 200
##XYDATA=(XY..XY) 1 
    33          2
    34          2
    35          2
    36          9
    37          4
    38          9
    39         18
    40         43
    41         13
    42         15
    43         41
    44        218
    45         24
    46          5
    47          6
    48          1
    49          4
    50         46
    51         28
    52          9
    53          4
    54          9
    55         33
    56         38
    57        999
    58         33
    59          5
    60          2
    61          6
    62          7
    63         23
    64         16
    65         32
    66          4
    67          2
    69        103
    70          5
    71         10
    72         23
    73         93
    74         28
    75        106
    76         35
    77         13
    78          6
    79          2
    80          1
    81          1
    82          1
    83          5
    84          4
    85         13
    86          2
    87          6
    88          2
    89          3
    90         14
    91         13
    92         25
    93         13
    94          3
    95          5
    96         17
    97          7
    98          3
    99         38
   100         14
   101         11
   102         17
   103          4
   104          1
   105          2
   106          1
   107          1
   108          2
   109          1
   110          5
   111        244
   112         20
   113         86
   114         20
   115          3
   116          1
   117          2
   118          9
   119          3
   120          1
   121          1
   122          1
   123          3
   124          2
   125          5
   126         20
   127        220
   128         29
   129         71
   130          9
   131          2
   132          1
   133          1
   134          1
   135          1
   136          2
   137         16
   138         93
   139         12
   140         31
   141          3
   142          7
   143          4
   144          1
   145          1
   147          1
   149          2
   150          2
   151          3
   152          5
   153         22
   154          7
   155          9
   156          2
   158          1
   161          1
   162          1
   163          2
   164          1
   165          1
   166         22
   167          3
   168          9
   169          3
   170         34
   171          7
   172          2
   174          1
   176          1
   179          2
   180          1
   181          2
   182          1
   183          2
   184          1
   185          1
   186          1
   187          6
   188          9
   189          3
   192          1
   198          2
   199          8
   200          6
   201          7
   202          1
   203          2
   204          2
   206        207
   207         21
   208         67
   209          6
   210          3
   211          1
   212          1
   215          1
   216          1
   221         33
   222         10
   223        425
   224         38
   225        100
   226         11
   227         24
   228          3
   229          9
   230          1
   233          2
   234          1
   235          1
   237          1
   244          2
   249          7
   250          1
   251          4
   252          1
   257          1
   259          1
   260          1
   261          1
   277          1
   279        208
   280         27
   281         62
   282          7
   283          4
   285          1
   293          2
   306          1
   352         38
   353          6
   354         10
   355          2