##TITLE=Library Entry 89448
##JCAMP-DX=Revision 4.10 
##DATA TYPE=MASS SPECTRUM
##SAMPLE DESCRIPTION=Chemical Concepts
##NAMES=HP
##CAS NAME=Ethyl 2-(3-fluorophenyl)-6-piperidino-4-(trifluoromethyl)-1,3,5-o
xadiazine-4-carboxylate
##MOLFORM=C18H19F4N3O3
##CAS REGISTRY NO=339351-91-6
##MP= -300
##BP= -300
##MW= 401
##$RETENTION INDEX=0
##$CONDENSED SPECTRUM=NO
##NPOINTS= 109
##XYDATA=(XY..XY) 1 
    34          2
    36          1
    37          1
    38          2
    39         15
    40         32
    41        200
    42         64
    43         32
    44         26
    45          3
    46          1
    47          1
    49          1
    50          7
    51          4
    52          3
    53          9
    54         18
    55         65
    56         85
    57         10
    58          1
    60          1
    61          1
    62          1
    63          1
    64          1
    65          1
    66          1
    67         16
    68         13
    69        357
    70         44
    71          3
    73          2
    74          4
    75         19
    76          6
    77          1
    78          1
    79          2
    80          3
    81          4
    82         13
    83         27
    84         31
    85          3
    92          1
    93          2
    94         22
    95        112
    96         17
    97          1
    98          1
    99          1
   100          2
   101          1
   102          1
   104          1
   107          2
   108          1
   109          5
   110         11
   112        999
   113         74
   114          4
   115          1
   121        105
   122         23
   123        135
   124         11
   125          1
   126          1
   127          1
   129          1
   132          1
   135          1
   136          1
   137          1
   138          1
   139          1
   147          2
   148          1
   149          2
   150          1
   151          1
   152          1
   154          1
   164          1
   165          1
   168          2
   169          1
   171          1
   179          1
   205          1
   206          1
   207          1
   240          4
   241          1
   244          7
   245          1
   251          1
   278          1
   279          1
   326          1
   328        286
   329         42
   330          4