##TITLE=Library Entry 88631
##JCAMP-DX=Revision 4.10 
##DATA TYPE=MASS SPECTRUM
##SAMPLE DESCRIPTION=Exported from NIST MS Search
##NAMES=HP
##CAS NAME=Thiophene, 2-methyl-5-propyl-
##MOLFORM=C8H12S
##CAS REGISTRY NO=33933-73-2
##MP= -300
##BP= -300
##MW= 140
##$RETENTION INDEX=1035
##$CONDENSED SPECTRUM=NO
##NPOINTS= 93
##XYDATA=(XY..XY) 1 
    26          1
    27         77
    29         10
    33          1
    34          1
    37          1
    38          4
    39         32
    40         13
    41          2
    42          1
    43          1
    44         94
    45         65
    46          3
    47          6
    48          6
    49          1
    50          7
    51         23
    52          7
    53         22
    54          2
    55          3
    56          1
    57          4
    58         13
    59         44
    60          3
    61          4
    62          3
    63          7
    64          2
    65         17
    66          9
    67         48
    68          4
    69         15
    70          6
    71         19
    72          3
    73          2
    74          2
    75          1
    76          2
    77         74
    78         36
    79          9
    80          1
    81          2
    82          2
    83          2
    84          4
    85         12
    86          1
    87          1
    88          1
    89          1
    90          1
    91         10
    92          2
    93          3
    95          5
    96          2
    97         30
    98          5
    99          4
   103          2
   104          1
   105          2
   106          1
   107          1
   108          1
   109          7
   110         15
   111        999
   112         74
   113         48
   114          3
   121          2
   122          2
   123         14
   124          5
   125          7
   126          1
   135          1
   137          3
   138          2
   139          6
   140        274
   141         28
   142         14
   143          1