##TITLE=Library Entry 90841
##JCAMP-DX=Revision 4.10 
##DATA TYPE=MASS SPECTRUM
##SAMPLE DESCRIPTION=Chemical Concepts
##NAMES=HP
##CAS NAME=2-Morpholino-6-phenyl-4,4-bis(trifluoromethyl)-1,3,5-oxadiazine
##MOLFORM=C15H13F6N3O2
##CAS REGISTRY NO=339351-92-7
##MP= -300
##BP= -300
##MW= 381
##$RETENTION INDEX=0
##$CONDENSED SPECTRUM=NO
##NPOINTS= 165
##XYDATA=(XY..XY) 1 
    33          1
    34          5
    36          2
    37          2
    38          4
    39         15
    40         99
    41         26
    42        216
    43         25
    44         53
    45         28
    46          1
    47          6
    48          1
    50         36
    51         68
    52         12
    53          8
    54         35
    55         85
    56        362
    57         42
    58          7
    59          2
    60          1
    61          1
    62          2
    63          7
    64          3
    65          2
    66          1
    67          4
    68          5
    69         45
    70        350
    71         19
    72          8
    73          2
    74          8
    75         18
    76         64
    77        131
    78         10
    79          2
    80          1
    81          2
    82          2
    83          4
    84         30
    85         59
    86        159
    87          9
    88          2
    89          2
    90          1
    91          8
    92         86
    93          4
    94          1
    95          4
    96          5
    97          1
    98          3
    99          3
   100          7
   101          2
   102          7
   103        105
   104         36
   105        117
   106          9
   107          2
   108          3
   109          6
   110          1
   111          1
   112         11
   114        999
   115         58
   116          6
   117          3
   122          2
   123          3
   124         18
   125          1
   126          1
   127          1
   128          2
   129          2
   130          1
   131          1
   132          1
   133          1
   134          1
   135          1
   137          1
   142        111
   143          5
   144          1
   145          2
   149          1
   151         15
   152          3
   153         14
   154          2
   158          2
   159          3
   160          1
   161          1
   165          2
   166          3
   171          1
   172          3
   173          3
   177          1
   178          7
   179         33
   180          3
   181         19
   182          2
   184          1
   185          1
   190          2
   191          9
   192         86
   193          5
   194          1
   201          2
   204          1
   209         61
   210          5
   211          1
   212          1
   214          1
   218          1
   221          9
   222          1
   226          4
   227          2
   228          2
   229          2
   234          4
   235          5
   236          1
   238          1
   247          2
   248          1
   249          9
   250          1
   253          1
   258          6
   259          1
   263          2
   268          1
   276          5
   278        163
   279         14
   280          1
   295          5
   296          1
   303          1
   312         86
   313         13
   314          1