##TITLE=Library Entry 27192
##JCAMP-DX=Revision 4.10 
##DATA TYPE=MASS SPECTRUM
##SAMPLE DESCRIPTION=Chemical Concepts
##NAMES=HP
##CAS NAME=Ethyl 2-(4-butoxyanilino)-3,3,3-trifluoro-2-propionamidopropionat
e
##MOLFORM=C18H25F3N2O4
##CAS REGISTRY NO=339351-80-3
##MP= -300
##BP= -300
##MW= 390
##$RETENTION INDEX=0
##$CONDENSED SPECTRUM=NO
##NPOINTS= 190
##XYDATA=(XY..XY) 1 
    33          2
    34         11
    36          2
    37          3
    38         14
    39        127
    40        197
    41        273
    42         30
    43         59
    44        394
    45         29
    46          6
    47          2
    48          1
    50         23
    51         18
    52         29
    53         46
    54         26
    55         90
    56         53
    57        999
    58         39
    59          9
    60          1
    61          1
    62          8
    63         45
    64        100
    65        223
    66         17
    67          7
    68          6
    69         36
    70          7
    71         12
    72         35
    73        121
    74         19
    75         13
    76         49
    77         29
    78         12
    79         13
    80         86
    81         34
    82          9
    83          8
    84          4
    85          3
    86          2
    89          3
    90         12
    91         27
    92         45
    93        263
    94         28
    95          7
    96         17
    97          4
    98          2
    99          1
   101          4
   102         13
   103          8
   104          3
   105          8
   106          6
   107         15
   108        236
   109        441
   110         41
   111          3
   113          7
   114          3
   115          2
   116          1
   117          2
   118          9
   119         56
   120        281
   121         25
   122          9
   123          8
   124          3
   125          3
   128          2
   129          4
   130          2
   132          7
   133          8
   134          8
   135         42
   136          7
   139          7
   140          4
   141          3
   142          7
   143          2
   145          3
   146          4
   147          7
   148         71
   149         13
   150          4
   152          9
   153          2
   155          1
   157          1
   159          3
   160          5
   161          2
   163          1
   164         10
   165         80
   166         10
   167          1
   168          7
   169          5
   170          4
   171          9
   172          5
   174          1
   175          3
   176         29
   177          4
   180          1
   183          1
   186          3
   187         22
   188        585
   189         53
   190          5
   191          3
   192         12
   194          1
   196          1
   200          6
   201          1
   202          1
   203         42
   204         35
   205         20
   206          2
   209          2
   211          1
   212          1
   214          8
   215          3
   216          5
   217          7
   218          1
   219          1
   221          1
   225          1
   228          2
   231          6
   232         14
   233         14
   234          2
   237          3
   242          9
   243          5
   244         95
   245         12
   246          1
   250          1
   252          1
   259          4
   260         14
   261        549
   262         66
   263          8
   265         27
   266          5
   271          2
   274          6
   287          3
   288          2
   315          1
   317        391
   318         62
   319          7
   321          1
   344          3
   389          1
   390         75
   391         14
   392          2