##TITLE=Library Entry 27368
##JCAMP-DX=Revision 4.10 
##DATA TYPE=MASS SPECTRUM
##SAMPLE DESCRIPTION=Chemical Concepts
##NAMES=HP
##CAS NAME=Ethyl 3,3,3-trifluoro-2-(4-isopropylanilino)-2-propionamidopropio
nate
##MOLFORM=C17H23F3N2O3
##CAS REGISTRY NO=339351-81-4
##MP= -300
##BP= -300
##MW= 360
##$RETENTION INDEX=0
##$CONDENSED SPECTRUM=NO
##NPOINTS= 174
##XYDATA=(XY..XY) 1 
    33          5
    34         28
    36          2
    37          2
    38          9
    39         99
    40        354
    41        205
    42         43
    43        174
    44        518
    45         36
    46          9
    47          3
    50         28
    51         67
    52         29
    53         31
    54         28
    55         65
    56         52
    57        999
    58         47
    59         19
    60          9
    61          2
    62          7
    63         32
    64         14
    65         71
    66         18
    67         12
    68          3
    69         56
    70          9
    71         14
    72         39
    73        137
    74         25
    75         22
    76         38
    77        255
    78        113
    79         70
    80          9
    81          6
    82          2
    83          8
    86          6
    87          3
    88          3
    89         28
    90         31
    91        408
    92         56
    93         47
    94         56
    95         12
    96         22
    97          3
    99          4
   101         17
   102         40
   103        273
   104        140
   105         35
   106         20
   107          9
   109          8
   112          4
   113          2
   114          4
   115         57
   116         30
   117         76
   118         61
   119        259
   120        471
   121         46
   123          7
   124          4
   127          6
   128         17
   129         12
   130         72
   131         15
   132         13
   133         10
   134         22
   135         99
   136         11
   139          9
   140          2
   142          9
   143          4
   144         19
   145         20
   146        153
   147         22
   148          7
   149          5
   150          4
   151          2
   152          2
   154          5
   155          2
   158          1
   159          5
   161         14
   162          9
   163          3
   168          2
   169          2
   170          4
   171          5
   172         20
   173          2
   174         44
   175          9
   176          3
   178          7
   180          9
   181          4
   186          3
   187          8
   188          7
   189         57
   190          7
   191          3
   195          4
   197          1
   198         38
   199          8
   200         13
   201         16
   207         12
   212         13
   213         27
   214        313
   215        116
   216         21
   217          5
   218          1
   220          2
   226          3
   228          5
   229         35
   231        910
   232        102
   233         11
   235         67
   236          8
   241          2
   244         68
   245          9
   257         17
   258          9
   259          1
   269          1
   272        429
   273         63
   274          5
   284          1
   285          4
   286         16
   287        488
   288         77
   289          9
   291          7
   292          1
   314          5
   360        116
   361         25
   362          3