##TITLE=Library Entry 100507
##JCAMP-DX=Revision 4.10 
##DATA TYPE=MASS SPECTRUM
##SAMPLE DESCRIPTION=Chemical Concepts
##NAMES=HP
##CAS NAME=1-(4-Chlorophenyl)-1-(5-methyl-2-thiazolin-2-yl)-3-phenylurea
##MOLFORM=C17H16ClN3OS
##CAS REGISTRY NO=339352-34-0
##MP= -300
##BP= -300
##MW= 345
##$RETENTION INDEX=0
##$CONDENSED SPECTRUM=NO
##NPOINTS= 170
##XYDATA=(XY..XY) 1 
    33          7
    35         26
    36         28
    37        107
    38        183
    39        301
    40         66
    41        449
    42         50
    43         12
    45        195
    46         65
    47         86
    48         17
    49         37
    50        165
    51        162
    52         81
    53         13
    54         17
    55         67
    56         72
    57         47
    59        208
    60        117
    61         70
    62         88
    63        274
    64        408
    65        112
    66         12
    67          7
    68          5
    69         12
    70          9
    71         23
    72         60
    73        119
    74        216
    75        335
    76         78
    77         95
    78         11
    79          5
    80          3
    81         22
    83        102
    85         94
    86         12
    87         28
    88         32
    90        143
    91        583
    92         51
    93         10
    94          5
    95         12
    96          4
    97          6
    98         12
    99         83
   100         19
   101         29
   102         43
   103         13
   104          8
   105          8
   106          3
   107          5
   108         13
   109          5
   111        214
   112         31
   113         70
   114         11
   115          3
   116          6
   117         18
   119        999
   120         74
   121          7
   122         20
   123          4
   124          9
   125         86
   126         37
   127         47
   128         13
   129          9
   130         10
   131         15
   132          5
   133          6
   134         13
   135          8
   137         40
   138        365
   139         52
   140        118
   141         11
   142          5
   143          9
   144          4
   145          4
   146          2
   147          2
   148          4
   149         27
   150         17
   152        635
   153         62
   154        198
   155         16
   156          5
   157         10
   158          4
   159          4
   160          1
   161          2
   162          6
   163          2
   165         96
   166        110
   167         35
   168         40
   169         36
   170         20
   171         23
   172          8
   173          5
   174          2
   175          9
   176          2
   179          4
   180          1
   181          2
   183          4
   184        204
   185         28
   186         71
   187          9
   188          4
   189          3
   190          5
   191          6
   192          3
   193          3
   194          1
   197          3
   198          7
   199          4
   200          2
   201          1
   209          3
   211          9
   212          1
   213          2
   223          2
   225        477
   226        526
   227        224
   228        178
   229         23
   230          6
   231          1
   345         26
   346          5
   347          9
   348          1
   349          1