##TITLE=Library Entry 18124
##JCAMP-DX=Revision 4.10 
##DATA TYPE=MASS SPECTRUM
##SAMPLE DESCRIPTION=A.A.Kutin, Moscow, Russia
##NAMES=HP
##CAS NAME=Benzimidazole, 2-(4-pyridyl)-5-(4-pyridylmethylenamino)-
##MOLFORM=C18H13N5
##CAS REGISTRY NO=339336-13-9
##MP= -300
##BP= -300
##MW= 299
##$RETENTION INDEX=0
##$CONDENSED SPECTRUM=NO
##NPOINTS= 155
##XYDATA=(XY..XY) 1 
    35          0
    36          0
    37         38
    38        150
    39        219
    40         44
    41         37
    42          4
    43          7
    44          6
    45          6
    49         14
    50        278
    51        999
    52        447
    53         74
    54         12
    55          5
    57          7
    59          0
    61         32
    62        188
    63        749
    64        256
    65         77
    66         17
    67          4
    68          0
    70         10
    71          7
    72          0
    73          2
    74         14
    75         51
    76        141
    77        138
    78        464
    79        340
    80         55
    81          3
    82          0
    83         18
    85          6
    86          8
    87         26
    88         72
    89         84
    90        227
    91         48
    92         16
    93          8
    96          1
    97         24
    98          1
    99          6
   100          9
   101         15
   102         19
   103         28
   104         56
   105        181
   106         28
   107          8
   108          8
   109          6
   110          8
   111          8
   112          7
   113         30
   114         39
   115         26
   116         71
   117         36
   118         15
   119          2
   120          0
   121          3
   122          3
   123         11
   124          1
   126          6
   127         13
   128          8
   129         12
   130          4
   133          0
   134          1
   135          7
   136         11
   137          1
   138         14
   139         37
   140        116
   141         44
   142         20
   143         23
   144          5
   149         30
   152          2
   153          8
   154          9
   155          8
   156          1
   162          0
   164          4
   165         27
   166         47
   167        107
   168         58
   169         18
   170          2
   177          0
   178          2
   179          2
   180          6
   181          7
   182          3
   189          0
   191          4
   192         46
   193         98
   194        257
   195         55
   196          3
   197          2
   198          2
   199          0
   204          0
   205          1
   206          2
   209          4
   210          4
   211          0
   216          0
   217          2
   218          4
   219         42
   220         17
   221         87
   222         10
   223          0
   231          1
   233          1
   243          1
   244          1
   245          1
   257          0
   261          0
   271          7
   272          3
   296          1
   298         95
   299        267
   300         54
   301          5