##TITLE=Library Entry 20810
##JCAMP-DX=Revision 4.10 
##DATA TYPE=MASS SPECTRUM
##SAMPLE DESCRIPTION=Exported from NIST MS Search
##NAMES=HP
##CAS NAME=4-Octanol, 7-methyl-
##MOLFORM=C9H20O
##CAS REGISTRY NO=33933-77-6
##MP= -300
##BP= -300
##MW= 144
##$RETENTION INDEX=0
##$CONDENSED SPECTRUM=NO
##NPOINTS= 65
##XYDATA=(XY..XY) 1 
    26          5
    27        100
    29        130
    30          5
    31         69
    37          1
    38          2
    39         57
    40         12
    41        257
    42         43
    43        410
    44         52
    45         47
    46          2
    50          2
    51          4
    52          2
    53         16
    54          7
    55        999
    56        143
    57        178
    58         74
    59         28
    60          1
    65          3
    66          1
    67         11
    68          2
    69        105
    70         28
    71        109
    72         46
    73        451
    74         23
    75          2
    77          2
    79          4
    81        127
    82          6
    83        590
    84         50
    85          7
    86         31
    87         18
    88          1
    91          2
    95          2
    97         10
    98          6
    99         23
   100          9
   101        120
   102          9
   103          1
   109          1
   111          9
   112          1
   115          4
   125          1
   126          7
   127          2
   142          5
   143          4