##TITLE=Library Entry 26419
##JCAMP-DX=Revision 4.10 
##DATA TYPE=MASS SPECTRUM
##SAMPLE DESCRIPTION=Chemical Concepts
##NAMES=HP
##CAS NAME=N-[2,2,2-Trifluoro-1-(2-fluoroanilino)-1-(trifluoromethyl)ethyl]i
sovaleramide
##MOLFORM=C14H15F7N2O
##CAS REGISTRY NO=339352-83-9
##MP= -300
##BP= -300
##MW= 360
##$RETENTION INDEX=0
##$CONDENSED SPECTRUM=NO
##NPOINTS= 133
##XYDATA=(XY..XY) 1 
    33          5
    34          1
    36          2
    37          6
    39        151
    40         42
    41        469
    42        111
    43        231
    44         76
    45          7
    46          3
    47          2
    50         24
    51         22
    52         11
    53         11
    55         73
    57        999
    58         57
    59        108
    60          5
    61          3
    62          7
    63         21
    64         18
    65          9
    66          3
    67          4
    68         11
    69        137
    70          9
    71          5
    72          4
    73          5
    74          9
    75         96
    76         12
    77          9
    78          2
    81         12
    82         14
    83        119
    84         40
    85        261
    86         42
    87          3
    88          1
    89          3
    90         16
    91         14
    92         10
    93          8
    94         23
    95        225
    96         33
    97          3
    98          1
    99          2
   100          9
   101          5
   102         17
   103          2
   105          1
   107          1
   108          3
   109          9
   111        773
   112         59
   113          5
   114          2
   116          1
   117          4
   118          1
   120          3
   121         17
   122          7
   123          1
   124         10
   125          2
   126          1
   128          1
   129          1
   135          4
   136          8
   137         12
   138          4
   140          9
   142          3
   144          1
   145          8
   146          1
   147          7
   148          2
   149          1
   152          4
   153          3
   160          2
   163          7
   165          1
   166          3
   167          4
   170          5
   171          4
   172          2
   185          2
   186          4
   187         36
   188          4
   190        507
   191         39
   192          5
   205          5
   206          6
   207        162
   208         14
   210          3
   217          1
   233         14
   234          2
   237          1
   238          1
   240          1
   256         23
   257          3
   259        341
   260         74
   261          5
   275          3
   291         25
   292          3
   360         98
   361         10