##TITLE=Library Entry 99239
##JCAMP-DX=Revision 4.10 
##DATA TYPE=MASS SPECTRUM
##SAMPLE DESCRIPTION=Chemical Concepts
##NAMES=HP
##CAS NAME=4-Methylbenzamide, N-(3,4-methylenedioxybenzylidenamino)-
##MOLFORM=C16H14N2O3
##CAS REGISTRY NO=339360-14-4
##MP= -300
##BP= -300
##MW= 282
##$RETENTION INDEX=0
##$CONDENSED SPECTRUM=NO
##NPOINTS= 83
##XYDATA=(XY..XY) 1 
    36          7
    38         96
    39        100
    40         17
    41         29
    42          8
    43          7
    44          6
    45          4
    48          5
    49         69
    50        144
    51        105
    52         37
    53         30
    54         10
    55          9
    57          1
    59          1
    60          6
    62        136
    63         96
    65        330
    66         14
    67          2
    68          2
    69          1
    72          2
    73         16
    75        249
    77         52
    78         52
    79         13
    80         12
    81          4
    85          2
    86          4
    87          6
    89         98
    91        606
    92         23
    93          6
    94          1
   101          1
   102          2
   104         38
   105         75
   106         15
   107          4
   108          1
   109          1
   111          1
   115          1
   116          7
   119        999
   120         61
   121         10
   122          1
   131          2
   133         40
   134         27
   135         38
   136        112
   137          9
   138          2
   139          3
   141          1
   147        253
   148         21
   149          5
   150          1
   151          1
   152          3
   161          2
   162          4
   163         15
   164          2
   165          2
   223          1
   225          3
   282         41
   283          8
   284          1