##TITLE=Library Entry 90929
##JCAMP-DX=Revision 4.10 
##DATA TYPE=MASS SPECTRUM
##SAMPLE DESCRIPTION=Chemical Concepts
##NAMES=HP
##CAS NAME=Ethyl 2-(3-chlorophenyl)-6-morpholino-4-(trifluoromethyl)-4H-1,3,
5-oxadiazine-4-carboxylate
##MOLFORM=C17H17ClF3N3O4
##CAS REGISTRY NO=339352-91-9
##MP= -300
##BP= -300
##MW= 419
##$RETENTION INDEX=0
##$CONDENSED SPECTRUM=NO
##NPOINTS= 90
##XYDATA=(XY..XY) 1 
    35          1
    36          4
    37          1
    38          3
    39          2
    40          5
    42        152
    43         14
    44         13
    45         30
    46          1
    47          1
    50         13
    51          8
    52          2
    54         18
    55         25
    56         73
    57         13
    58          3
    59          1
    60          1
    61          1
    62          1
    63          1
    64          1
    67          2
    70        412
    71         13
    72          5
    73          2
    74          6
    75         36
    76         15
    77          3
    81          1
    82          1
    83          1
    84         10
    85          9
    86         17
    87          6
    88          1
    96         11
    97          1
    98          1
    99          1
   100          3
   101          2
   102         19
   103          3
   104          2
   105          1
   109          3
   111         62
   112          9
   114        999
   115         49
   116          5
   123          3
   124          2
   125          1
   129          2
   130          1
   137         75
   139         97
   140          8
   141         18
   142          2
   149          1
   151          2
   155          1
   158          1
   163          1
   165          1
   168          2
   169          1
   179          1
   242          2
   260          9
   261          1
   262          3
   263          1
   280          1
   311          1
   346        191
   347         28
   348         59
   349          9
   350          1