##TITLE=Library Entry 9390
##JCAMP-DX=Revision 4.10 
##DATA TYPE=MASS SPECTRUM
##SAMPLE DESCRIPTION=Chemical Concepts
##NAMES=HP
##CAS NAME=Ethyl 2-(2-chloroacetamido)-3,3,3-trifluoro-2-isopropoxypropionat
e
##MOLFORM=C10H15ClF3NO4
##CAS REGISTRY NO=339352-74-8
##MP= -300
##BP= -300
##MW= 305
##$RETENTION INDEX=0
##$CONDENSED SPECTRUM=NO
##NPOINTS= 127
##XYDATA=(XY..XY) 1 
    33          3
    35          8
    36         15
    37          4
    39         79
    41        324
    42        214
    43        999
    44        265
    45        117
    47         56
    49        197
    51         86
    52          3
    53          1
    54          3
    55          6
    56          7
    57          9
    58         23
    59         53
    60          3
    61          2
    62          2
    63          3
    64          2
    65          2
    67          5
    69         99
    71         33
    73         16
    75         57
    77        581
    79        196
    80          4
    81          1
    83          4
    85          4
    87          8
    88         18
    89          8
    90         11
    91          4
    93         38
    94         18
    95         25
    96         36
    97         12
    98          4
    99          1
   101          4
   103          1
   104          1
   106          1
   107          1
   109          3
   110          1
   112          7
   114        514
   115         36
   116         26
   118         15
   120          9
   121          4
   122          2
   123          5
   125         27
   127         34
   128          1
   129          1
   132          1
   136          6
   137          1
   138          3
   140          9
   142         63
   143         23
   144          2
   145          1
   146          1
   148         11
   149          2
   150          1
   151          1
   154          3
   155         13
   156          2
   166          3
   168          9
   170        194
   171         23
   172          3
   173          3
   174          1
   175          1
   181          1
   182          2
   183          1
   184          1
   190        522
   192        198
   193          7
   194          6
   196          3
   201         45
   203         15
   204          1
   214          2
   218          7
   219          1
   220          2
   227          1
   228          1
   232         13
   234          5
   244          1
   246         11
   247          4
   248          4
   249          1
   260          1
   263          1
   264          1
   265          1
   267          1
   290          2
   292          1