##TITLE=Library Entry 25868
##JCAMP-DX=Revision 4.10 
##DATA TYPE=MASS SPECTRUM
##SAMPLE DESCRIPTION=Chemical Concepts
##NAMES=HP
##CAS NAME=1,1,1,3,3,3-Hexafluoro-2-isovaleramido-2-[4-(trifluoromethyl)anil
ino]propane
##MOLFORM=C15H15F9N2O
##CAS REGISTRY NO=339352-77-1
##MP= -300
##BP= -300
##MW= 410
##$RETENTION INDEX=0
##$CONDENSED SPECTRUM=NO
##NPOINTS= 167
##XYDATA=(XY..XY) 1 
    33          5
    34          2
    35          5
    36          3
    37          7
    39        123
    40         41
    41        416
    42        111
    43        232
    44         77
    45          6
    46          3
    47         10
    48          5
    49          4
    50         25
    51         21
    52          9
    53          9
    54          7
    55         54
    57        999
    58         59
    59        152
    60          7
    61          3
    62          8
    63         21
    64          9
    65          9
    66          3
    67          3
    69        100
    70          6
    71          6
    72          2
    73          5
    74          7
    75         32
    76         13
    77          8
    78          2
    79          1
    81          8
    83         56
    85        485
    86         56
    87          7
    88          8
    89          2
    90          3
    91          9
    92          7
    93          5
    95         57
    96         22
    97          2
    99          7
   100         12
   101          6
   102         10
   103          1
   105          2
   106          2
   107          5
   108          2
   109          3
   111         18
   113         20
   114         17
   115          4
   116          2
   117          3
   118          5
   119          7
   120          7
   121          5
   122          2
   123          2
   125         30
   126         24
   127          5
   128          1
   132          4
   133          8
   134          2
   136          1
   139          3
   140         17
   141          4
   142         32
   143          6
   145        311
   146         22
   147          2
   149          1
   152         13
   153          4
   154          1
   158          1
   159          2
   160         11
   161        177
   162         15
   163          3
   166          3
   167          4
   168          1
   170          4
   171          3
   172          5
   174          5
   176          1
   182          1
   186          3
   187          8
   188          2
   189          1
   190          2
   192          5
   194          1
   195          3
   197          4
   198          1
   201          1
   202          3
   203          2
   206          1
   207          1
   208          2
   210          1
   213          4
   214          1
   215          1
   220          1
   221          2
   222          1
   234          1
   235          3
   236          3
   237          4
   238          4
   240        319
   241         27
   242          1
   255         21
   257        127
   258         11
   259          1
   260          1
   270          2
   283         13
   284          2
   287         11
   288          2
   290         35
   291          3
   309        289
   310         67
   311          5
   326          4
   341         37
   342          6
   391          4
   410         76
   411         11