##TITLE=Library Entry 47070
##JCAMP-DX=Revision 4.10 
##DATA TYPE=MASS SPECTRUM
##SAMPLE DESCRIPTION=A.A.Kutin, Moscow, Russia
##NAMES=HP
##CAS NAME=Hydrazine, N1-(4-acetylaminobenzoyl)-N2-benzoyl-
##MOLFORM=C16H15N3O3
##CAS REGISTRY NO=339313-67-6
##MP= -300
##BP= -300
##MW= 297
##$RETENTION INDEX=0
##$CONDENSED SPECTRUM=NO
##NPOINTS= 138
##XYDATA=(XY..XY) 1 
    36          2
    37         25
    38         61
    39        131
    40         19
    41         23
    42         60
    43        624
    44         26
    45         59
    48          2
    49         14
    50        209
    51        440
    52         68
    53         26
    54          8
    55          6
    56          7
    57          4
    58         11
    60          2
    61         15
    62         51
    63        142
    64         86
    65        207
    66         30
    67          4
    68          1
    69          1
    70          1
    72          1
    73         12
    74         64
    75         59
    76        106
    77        999
    78         86
    79         13
    80          8
    81          5
    82          1
    85          0
    86         15
    87          8
    88         10
    89         45
    90         50
    91         85
    92        241
    93         29
    94          8
    95          1
    99          1
   100          4
   101          1
   102          7
   103         14
   105        871
   106         75
   107         12
   108          5
   109          1
   111          0
   115          3
   116          1
   117          2
   118         16
   119         49
   120        779
   121        128
   122         58
   123          4
   126          0
   127          2
   129          0
   130          0
   132          3
   133          7
   134          7
   135          1
   136          4
   137         30
   138          2
   139          2
   141          0
   145          1
   146         20
   147          2
   149          1
   151          2
   152         12
   153          8
   154          0
   160         19
   161         18
   162        822
   163         79
   164         14
   165        114
   166         29
   167          4
   176          0
   177          1
   178          3
   179          7
   180         78
   181         27
   182          0
   185          0
   190         15
   191          1
   194          1
   198          0
   204          0
   205          5
   206          0
   207          2
   222         31
   223          6
   224          8
   225          0
   236          4
   237         49
   238          8
   240          6
   241          1
   242          0
   256          0
   261          4
   262          1
   270          0
   276          1
   279         58
   280         10
   297         28
   298          4