##TITLE=Library Entry 71219
##JCAMP-DX=Revision 4.10 
##DATA TYPE=MASS SPECTRUM
##SAMPLE DESCRIPTION=A.A.Kutin, Moscow, Russia
##NAMES=HP
##CAS NAME=Hexanoic acid, 4-oxo-6-(1-piperidyl)-
##MOLFORM=C11H19NO3
##CAS REGISTRY NO=339313-13-2
##MP= -300
##BP= -300
##MW= 213
##$RETENTION INDEX=0
##$CONDENSED SPECTRUM=NO
##NPOINTS= 113
##XYDATA=(XY..XY) 1 
    39         55
    40         17
    41        119
    42        168
    43         86
    44        114
    45         54
    46          1
    47          0
    49          0
    50          5
    51          6
    52          6
    53         16
    54         29
    55        161
    56        187
    57        105
    58          5
    59          1
    60          0
    61          0
    62          0
    63          0
    64          0
    65          4
    66          1
    67         12
    68         15
    69         27
    70         59
    71          4
    73         16
    74          0
    77          0
    78          0
    79          2
    80          5
    81          3
    82         14
    84        310
    85        158
    86          9
    87          0
    91          2
    92          0
    93          1
    94          2
    95          1
    96         40
    98        999
    99         59
   101         18
   102          0
   105          0
   106          0
   107          0
   108          1
   109          0
   110          7
   111          6
   112         24
   113          3
   114          0
   116          0
   120          0
   121          0
   122          0
   123          0
   124          0
   126          0
   128          0
   130          0
   133          0
   134          0
   135          0
   136          0
   137          0
   138          1
   139          0
   140          3
   141          0
   144          0
   149          0
   150          0
   152          1
   154         12
   155          1
   156          0
   158          1
   161          0
   166          0
   168          0
   169          0
   170          0
   171          0
   172          0
   184          0
   185          0
   187          0
   191          0
   193          0
   194          1
   195          0
   196          0
   198          0
   199          0
   201          0
   211          0
   212          8
   213         26
   214          3
   215          0