##TITLE=Library Entry 86310
##JCAMP-DX=Revision 4.10 
##DATA TYPE=MASS SPECTRUM
##SAMPLE DESCRIPTION=Chemical Concepts
##NAMES=HP
##CAS NAME=Ethyl 2-(2-chloroacetamido)-3,3,3-trifluoro-2-(2-fluorobenzylamin
o)propionate
##MOLFORM=C14H15ClF4N2O3
##CAS REGISTRY NO=339352-72-6
##MP= -300
##BP= -300
##MW= 370
##$RETENTION INDEX=0
##$CONDENSED SPECTRUM=NO
##NPOINTS= 122
##XYDATA=(XY..XY) 1 
    33          1
    34          1
    35          2
    36          8
    37          1
    38          4
    39         10
    40          8
    41          5
    42         17
    43         15
    44         25
    45          4
    46          1
    47          2
    49         39
    50          7
    51         20
    52          2
    53          1
    54          1
    55          2
    57         15
    58          3
    59          8
    60          1
    61          1
    62          3
    63         10
    64          2
    65          1
    67          1
    69         14
    70          4
    71          1
    73          1
    74          2
    75          7
    76          6
    77         47
    78          5
    79         11
    80          1
    81          5
    83         74
    84          4
    85          1
    87          1
    88          1
    89          9
    90          2
    91          1
    92          1
    93          3
    94          3
    95          6
    96         13
    97         14
    98          2
   101          1
   102          5
   103          1
   104          3
   105          3
   107         24
   109        999
   110         68
   111          2
   113          6
   114          1
   121          2
   122         12
   124        196
   125         21
   126          2
   127          2
   131          1
   134          4
   135          4
   136          2
   137          1
   142          3
   143          1
   145          1
   149          2
   150          1
   151          2
   152          1
   153          1
   154          1
   166          1
   170          1
   177          1
   179          1
   180          1
   183          9
   184          2
   189          1
   197          1
   199          2
   200          1
   201          4
   203         30
   204          6
   205          2
   219          7
   220          3
   221         10
   222          2
   225          1
   231          1
   232          2
   248          2
   261          1
   277          6
   278          2
   297         66
   298          7
   299         19
   300          2
   301          2
   303          1