##TITLE=Library Entry 33137
##JCAMP-DX=Revision 4.10 
##DATA TYPE=MASS SPECTRUM
##SAMPLE DESCRIPTION=A.A.Kutin, Moscow, Russia
##NAMES=HP
##CAS NAME=Pyrimido[5,4-E]-1,2,4-triazine-5,7(4ah,6H)-dione, 8,8a-dihydo-4a-
hydroxy-6-methyl-
##MOLFORM=C6H7N5O3
##CAS REGISTRY NO=339303-60-5
##MP= -300
##BP= -300
##MW= 197
##$RETENTION INDEX=0
##$CONDENSED SPECTRUM=NO
##NPOINTS= 70
##XYDATA=(XY..XY) 1 
    39        419
    40         63
    41         76
    42        599
    43        135
    44         96
    45          6
    47          7
    50          7
    51         20
    52         44
    53        154
    54        157
    55         41
    56        103
    57         42
    58        175
    59          3
    60          2
    63          2
    64         14
    65         99
    66        200
    67        999
    68        485
    69         52
    70         44
    71         14
    75          5
    77          4
    78          8
    79          5
    80         34
    81         19
    82         11
    83          6
    84          4
    91          1
    92          2
    93         36
    94        178
    95        122
    96         46
    97          3
    98          1
   103          6
   107         64
   108          4
   109          2
   111          1
   112          9
   113          5
   115          0
   120          1
   121         10
   122         63
   123        602
   124         44
   125          2
   126          1
   129          2
   136          2
   150         14
   151        500
   152         44
   153          2
   154          1
   179        433
   180         29
   181          0