##TITLE=Library Entry 30504
##JCAMP-DX=Revision 4.10 
##DATA TYPE=MASS SPECTRUM
##SAMPLE DESCRIPTION=A.A.Kutin, Moscow, Russia
##NAMES=HP
##CAS NAME=Octanehydrazide, N2-(2-thenylidene)-
##MOLFORM=C13H20N2OS
##CAS REGISTRY NO=339302-09-9
##MP= -300
##BP= -300
##MW= 252
##$RETENTION INDEX=0
##$CONDENSED SPECTRUM=NO
##NPOINTS= 123
##XYDATA=(XY..XY) 1 
    33          1
    34          5
    36          3
    37          1
    38          5
    39         76
    40         87
    41        207
    42         37
    43        300
    44         44
    45         37
    46          2
    47          2
    49          0
    50          3
    51          4
    52          9
    53         20
    54         15
    55         97
    56         14
    57        548
    59        999
    60         37
    61          4
    63          5
    64          1
    65          7
    66          3
    67         19
    68          2
    69         24
    70         30
    71         25
    72        237
    73         33
    74          2
    75          0
    77          1
    78          0
    79          1
    80          1
    81         31
    82         10
    83         25
    84         22
    85         10
    86         65
    87          5
    91          1
    92          5
    93          2
    94          0
    95         12
    96         34
    97         51
    98         47
    99         47
   100         60
   101         10
   102          0
   105          0
   107          1
   109         38
   110         82
   111         21
   112         15
   113          3
   114         41
   115          2
   120          4
   121          0
   123          1
   124          6
   125         91
   126        949
   127        126
   128         56
   129          3
   134          2
   135          1
   137         27
   138          7
   139          7
   141          1
   142          2
   143         38
   144          6
   149          0
   152          3
   153          4
   155          1
   158          0
   166          0
   167          0
   168         45
   169          3
   170          1
   171          1
   173          0
   178          0
   179          0
   180          1
   181          8
   182          0
   183          0
   192          0
   193          0
   195          1
   196          0
   209          1
   221          0
   223          1
   235          0
   240          0
   246          1
   248          0
   251          4
   252        124
   253         21
   254          7
   256          0