##TITLE=Library Entry 13506
##JCAMP-DX=Revision 4.10 
##DATA TYPE=MASS SPECTRUM
##SAMPLE DESCRIPTION=A.A.Kutin, Moscow, Russia
##NAMES=HP
##CAS NAME=1,2,4-Triazole, 4-diacetylamino-3-(1,2,2-triacetylhydrazino)-
##MOLFORM=C12H16N6O5
##CAS REGISTRY NO=339303-67-2
##MP= -300
##BP= -300
##MW= 324
##$RETENTION INDEX=0
##$CONDENSED SPECTRUM=NO
##NPOINTS= 76
##XYDATA=(XY..XY) 1 
    37          0
    39          5
    40         11
    41         15
    42        109
    43        999
    44         33
    45          2
    51          1
    52          0
    53         10
    54          4
    55          8
    57         34
    58         23
    59          6
    60         17
    65          1
    67          1
    68          6
    69          9
    70         30
    71          2
    73          1
    78          0
    79          1
    81          0
    82          4
    83         11
    85        137
    86          4
    91          1
    93          0
    98        143
    99         25
   100          9
   101          2
   110          1
   111          4
   113         33
   114         50
   115          2
   116          0
   121          1
   125         11
   127         17
   128          1
   138          0
   140          2
   141         14
   142          1
   143          0
   150          0
   152          0
   154          1
   155        173
   156        176
   157          9
   164          0
   168          0
   169          4
   170          0
   181          2
   183          6
   184          1
   198        689
   199         52
   200          5
   201          0
   212          5
   235          0
   240         36
   241          5
   282         12
   283          1
   324          0