##TITLE=Library Entry 33480
##JCAMP-DX=Revision 4.10 
##DATA TYPE=MASS SPECTRUM
##SAMPLE DESCRIPTION=Exported from NIST MS Search
##NAMES=HP
##CAS NAME=2H-Pyran-3(4H)-one, 6-ethenyldihydro-2,2,6-trimethyl-
##MOLFORM=C10H16O2
##CAS REGISTRY NO=33933-72-1
##MP= -300
##BP= -300
##MW= 168
##$RETENTION INDEX=1108
##$CONDENSED SPECTRUM=NO
##NPOINTS= 88
##XYDATA=(XY..XY) 1 
    26          6
    27         81
    29         29
    31         13
    37          1
    38          4
    39         88
    40         38
    41        138
    42         63
    43        210
    44         18
    45          3
    50          5
    51         14
    52         10
    53         78
    54         38
    55         92
    56         11
    57          7
    58          3
    59         76
    60          3
    61          1
    62          1
    63          3
    64          1
    65         20
    66         27
    67        678
    68        999
    69         71
    70         58
    71         15
    72          1
    77         14
    78          3
    79         37
    80         10
    81         63
    82        163
    83         21
    84          4
    85          3
    86          2
    91         16
    92          4
    93         10
    94          2
    95         59
    96          5
    97         15
    98          3
    99          2
   103          1
   105          6
   106          2
   107         17
   108          4
   109          8
   110        415
   111         42
   112          3
   113          1
   115          3
   116          1
   117          6
   119          1
   121          1
   122          1
   123          5
   125          6
   126          1
   131          1
   132          4
   133          2
   134          1
   135          9
   136          1
   141         12
   148          1
   149          1
   150          6
   151          2
   153         18
   154          2
   168          2