##TITLE=Library Entry 69098
##JCAMP-DX=Revision 4.10 
##DATA TYPE=MASS SPECTRUM
##SAMPLE DESCRIPTION=A.A.Kutin, Moscow, Russia
##NAMES=HP
##CAS NAME=N-(5-Chloro-2-methyl-phenyl)-2-(5-furan-2-yl-[1,3,4]oxadiazol-2-y
lsulfanyl)-acetamide
##MOLFORM=C15H12ClN3O3S
##CAS REGISTRY NO=339313-47-2
##MP= -300
##BP= -300
##MW= 349
##$RETENTION INDEX=0
##$CONDENSED SPECTRUM=NO
##NPOINTS= 206
##XYDATA=(XY..XY) 1 
    36          1
    37          5
    38         23
    39        125
    40         18
    41         10
    42         15
    43          7
    44          5
    45         24
    46         25
    47         13
    50          7
    51         22
    52          9
    53         11
    54          3
    55         14
    57          0
    59          0
    61          1
    62          8
    63         30
    64          7
    65         14
    66          7
    67         28
    68         18
    69          4
    70          3
    71          1
    72          7
    73          9
    74          5
    75         16
    76         13
    77         39
    78         11
    79         16
    80         17
    81          5
    82          7
    83          1
    84          0
    87          6
    88          6
    89        126
    90         33
    91         35
    92          7
    93         10
    95        999
    96         45
    97          5
    99         29
   100          3
   101         11
   102         26
   103         18
   104         29
   105         41
   106         12
   107          4
   108         54
   109         15
   111         24
   112         17
   113          8
   114          9
   115          9
   116         52
   117        111
   118         38
   119          9
   120         70
   121         20
   122          3
   123         15
   124         20
   125        132
   126         35
   127         46
   128         10
   129          7
   130         16
   131         28
   132         18
   133         13
   135         28
   136         27
   137         21
   138         34
   139         11
   140         45
   141         14
   142         14
   143          4
   144         15
   145          7
   146         19
   148        125
   149         35
   150         48
   151        114
   152        116
   153         76
   154         41
   155         29
   156         10
   157         12
   158          3
   159          1
   160          0
   161          1
   163         42
   164         48
   165         67
   166         41
   167         45
   168         18
   169         21
   170         10
   171         16
   172         68
   173         67
   174         44
   175         12
   176          6
   178        273
   179         26
   180         13
   181         24
   182         57
   183         54
   184         42
   185         21
   186         10
   187          1
   188          1
   189         11
   190         10
   191          4
   193          1
   194          1
   196         45
   197         19
   198         24
   199          9
   200          6
   201          1
   202          0
   203          6
   204          6
   205          4
   206          4
   207          1
   208          3
   209         15
   210          7
   211         10
   212          4
   213          1
   214          1
   216          1
   217          6
   218         16
   219        122
   220         15
   221          7
   223         42
   224        422
   225         75
   226        170
   227         22
   228          9
   232          1
   233          5
   234          0
   235          0
   237         42
   238         14
   239        127
   240         28
   241         45
   242         15
   243          4
   244          2
   246          2
   254         21
   255          3
   256          8
   257          0
   275          9
   276          6
   277          3
   302          3
   312         26
   313          3
   334         18
   335          1
   336          5
   349        460
   350         89
   351        173
   352         27
   353          7