##TITLE=Library Entry 27603
##JCAMP-DX=Revision 4.10 
##DATA TYPE=MASS SPECTRUM
##SAMPLE DESCRIPTION=Chemical Concepts
##NAMES=HP
##CAS NAME=Ethyl 2-[4-(4,6-dimethylpyrimidin-2-ylsulfamoyl)anilino]-3,3,3-tr
ifluoro-2-propionamidopropionate
##MOLFORM=C20H24F3N5O5S
##CAS REGISTRY NO=339353-02-5
##MP= -300
##BP= -300
##MW= 503
##$RETENTION INDEX=0
##$CONDENSED SPECTRUM=NO
##NPOINTS= 199
##XYDATA=(XY..XY) 1 
    37          3
    39         63
    40         17
    41         28
    42         54
    43         49
    44         35
    45         10
    46          2
    47          3
    48          4
    50         15
    51          9
    52         15
    53         20
    54         39
    55         27
    57        999
    58         31
    59          3
    62          3
    63         15
    64         20
    65        111
    66         35
    67         29
    69         37
    70          6
    71         16
    72          7
    73         13
    74          9
    75         12
    76         41
    77         12
    78          6
    79          6
    80         16
    81         14
    82         17
    83         16
    84          4
    85          8
    86          2
    87          3
    89          2
    90          9
    92        132
    93         18
    95         27
    96         44
    97          7
    98          2
    99          4
   101          2
   102          6
   103          6
   104          3
   105          4
   106         12
   107         26
   108         51
   109          8
   110          1
   111          2
   112          2
   113          2
   114          1
   115          1
   116          2
   117          4
   118          7
   119          6
   120          4
   121          2
   122          5
   123         66
   124         48
   125          9
   126          2
   127          2
   128          1
   129          2
   130          4
   131          3
   132          4
   133          4
   134          3
   135          2
   136          2
   137          2
   139          2
   140         13
   141          4
   142          4
   143          2
   144          2
   145          5
   146          2
   147          2
   148          2
   149          4
   150          3
   151          3
   152          9
   153          2
   154          2
   155          3
   156         10
   157          4
   158          3
   159          1
   162          1
   166          2
   167          8
   168          5
   169          3
   170          4
   171         10
   172          5
   173          2
   179          1
   180          4
   182          4
   183          3
   184          2
   185          2
   186         13
   187         13
   188         21
   189          6
   192          2
   196          8
   197          9
   198         32
   199          9
   200          1
   203          6
   204          1
   211          2
   213        223
   214        155
   215         19
   216          4
   219          1
   220          3
   221          1
   222          1
   223         12
   224          8
   225         23
   226          4
   232          1
   236          2
   238          2
   240          6
   241          1
   242          1
   244          4
   248          1
   251          5
   253          4
   260          2
   269          3
   277          2
   278          3
   279          1
   289          1
   291          3
   292          3
   293         24
   294          5
   308         24
   309         11
   310         33
   311          8
   312          1
   314          7
   315          1
   365         69
   366        258
   367         48
   368          5
   374         72
   375         12
   376          5
   378          5
   379          1
   383          2
   384          7
   385          2
   428          1
   429          1
   430          5
   431          3
   438          9
   439         49
   440         10
   441          2