##TITLE=Library Entry 23856
##JCAMP-DX=Revision 4.10 
##DATA TYPE=MASS SPECTRUM
##SAMPLE DESCRIPTION=Chemical Concepts
##NAMES=HP
##CAS NAME=N-(4,6-Dimethyl-2-pyrimidinyl)-4-[2,2,2-trifluoro-1-isovaleramido
-1-(trifluoromethyl)ethylamino]benzenesulfonamide
##MOLFORM=C20H23F6N5O3S
##CAS REGISTRY NO=339352-92-0
##MP= -300
##BP= -300
##MW= 527
##$RETENTION INDEX=0
##$CONDENSED SPECTRUM=NO
##NPOINTS= 250
##XYDATA=(XY..XY) 1 
    33          6
    34          2
    35          5
    36         15
    37         10
    39        449
    41        827
    42        287
    43        413
    44         96
    45         14
    46          6
    47          9
    48         12
    50         54
    51         41
    52         69
    53         96
    54        131
    55        134
    57        999
    58         48
    59        108
    60          8
    61          5
    62         14
    63         61
    64         76
    65        411
    66        134
    67        105
    69        218
    70         24
    71         58
    72         21
    73         29
    74          9
    75         27
    76        108
    77         25
    78         18
    79         21
    80         66
    81         58
    82         58
    83         59
    85        355
    86         42
    87         12
    88          4
    89          6
    90         20
    92        486
    93         67
    95        100
    96         96
    97         21
    98          8
    99         24
   100         47
   101          7
   102         26
   103          7
   104          6
   105         16
   106         49
   107         92
   108        183
   109         21
   111         21
   112          9
   113          8
   114          3
   115          4
   116          5
   117          7
   118         12
   119         11
   120          7
   121          6
   122          9
   123        115
   124         46
   125         17
   126         12
   127          8
   128          7
   129          5
   130          9
   131          9
   132         15
   133         15
   134          6
   135          3
   136          8
   137          6
   139         22
   140         32
   141         11
   142         44
   143          7
   144          8
   145         18
   146          9
   147          7
   148          3
   149          5
   150          6
   151          4
   152         10
   153          3
   154          5
   156         43
   157         14
   158         12
   159          5
   160          6
   161          1
   163          3
   164          2
   165          1
   166          5
   167          7
   169          7
   170         27
   171         28
   172         15
   173          6
   174          6
   176          2
   177          2
   178          2
   179          2
   180          3
   181          3
   182          8
   183          9
   184          5
   186         20
   187          9
   188          8
   190         24
   192         52
   193          7
   194          3
   195          3
   196         14
   197         28
   198         70
   199         23
   200          7
   201          2
   202          1
   203          3
   204          2
   206          8
   207         16
   208          2
   209          3
   210          1
   211          6
   213        743
   214        581
   215         84
   216          9
   217          1
   219          4
   220         27
   221          5
   223         26
   224         14
   225          4
   228          3
   229          3
   234          3
   235          1
   236          1
   238          1
   239          3
   240         18
   241          6
   247          2
   248          3
   251          1
   254          2
   256         13
   257          2
   266          1
   272          1
   273          2
   274          1
   277          1
   278          1
   279          1
   280          1
   281          3
   288         11
   289          1
   293         11
   294          1
   297         14
   298         12
   299          2
   304          6
   305          2
   306          3
   308         19
   309         16
   310         14
   311          4
   320          1
   321          2
   332          6
   334          3
   343         12
   344          4
   347          5
   359          3
   361        490
   362        499
   363         92
   364          9
   368          1
   374          5
   375          1
   379          1
   380          2
   388          4
   389          1
   404          2
   405          2
   407          2
   409          1
   410          1
   424          3
   425          3
   426          1
   427          6
   428          3
   449          1
   451          2
   456          2
   457          2
   458          2
   462         18
   463         36
   464          8
   465          1
   508          1
   527          1