##TITLE=Library Entry 13182
##JCAMP-DX=Revision 4.10 
##DATA TYPE=MASS SPECTRUM
##SAMPLE DESCRIPTION=A.A.Kutin, Moscow, Russia
##NAMES=HP
##CAS NAME=Cinnolin-3(2H)-one, 5,6,7,8-tetrahydro-5-acetylhydrazono-7,7-dime
thyl-
##MOLFORM=C12H16N4O2
##CAS REGISTRY NO=339369-54-9
##MP= -300
##BP= -300
##MW= 248
##$RETENTION INDEX=0
##$CONDENSED SPECTRUM=NO
##NPOINTS= 142
##XYDATA=(XY..XY) 1 
    33          1
    36          0
    37         10
    39        131
    41        163
    43        999
    44         51
    45          1
    49          5
    51        217
    52         46
    53         43
    54         30
    55         45
    56         18
    57          8
    58         10
    59          2
    60          2
    61         10
    63         73
    64         26
    65         64
    66         38
    67         29
    68         22
    69         10
    70          5
    72         10
    73         32
    74          8
    75         18
    77        154
    78         49
    79         70
    80         22
    81         18
    82         16
    83          3
    84          0
    85          2
    86          2
    87          3
    89         23
    90         29
    91         81
    92         37
    93         32
    94         22
    95         12
    96         10
    97          6
    98          2
    99          0
   101          2
   102         13
   103         50
   105         85
   106         75
   107         58
   108         16
   109         12
   110          5
   111          1
   113          0
   114          7
   115         20
   116         24
   117         33
   118         59
   119         54
   120         92
   121         22
   122         12
   123          8
   124         15
   125         14
   126          1
   128          0
   129          4
   130         13
   131         35
   132         51
   133         48
   134         37
   135         38
   136          8
   137          1
   138          3
   139          2
   142          0
   143          6
   145         27
   146         57
   147        110
   148         38
   149         43
   150         13
   151          2
   157          3
   158         11
   160         43
   161        115
   162         80
   163        166
   164         17
   165          1
   166          2
   171          7
   173         15
   174         63
   175         37
   177        857
   178        249
   179         20
   180          0
   186          2
   187          7
   188         18
   190        625
   192         41
   193          2
   201          0
   202          2
   203          6
   204         75
   206        266
   207         22
   208          1
   216          0
   218          0
   220         13
   231          1
   233         40
   234          2
   243          0
   245          2
   246          3
   247         11
   248         95
   249          8
   250          0