##TITLE=Library Entry 99318
##JCAMP-DX=Revision 4.10 
##DATA TYPE=MASS SPECTRUM
##SAMPLE DESCRIPTION=Chemical Concepts
##NAMES=HP
##CAS NAME=1-(6-Methyl-2-pyridyl)-1-(5-methyl-2-thiazolin-2-yl)-3-phenylurea
##MOLFORM=C17H18N4OS
##CAS REGISTRY NO=339352-62-4
##MP= -300
##BP= -300
##MW= 326
##$RETENTION INDEX=0
##$CONDENSED SPECTRUM=NO
##NPOINTS= 141
##XYDATA=(XY..XY) 1 
    33          5
    34          4
    35          4
    37        118
    38        198
    39        435
    40        101
    41        338
    42         76
    43         25
    45        146
    46         49
    47         21
    48          6
    49         16
    50         99
    51        134
    52         93
    53         44
    54         21
    55         39
    56         46
    57         26
    58         24
    59        101
    60         68
    61         39
    62         51
    63        190
    64        410
    65        437
    66        120
    67         18
    68          6
    69          9
    70          9
    71         14
    72         31
    73         45
    74        107
    75         26
    76         25
    77         40
    78         28
    79         14
    80         33
    81         19
    82          5
    83         11
    84          5
    85          9
    86          5
    87          7
    88         13
    90         36
    91        543
    92        458
    93        510
    94         33
    95          4
    96          6
    97          6
    98          3
    99          3
   100          3
   101          1
   102          1
   103          6
   104          3
   105         23
   106         23
   107        111
   108         29
   109          5
   110          1
   111          2
   112          2
   113          1
   115          1
   116          1
   117          3
   119        999
   120         79
   121         11
   122          6
   123          9
   124          4
   125          3
   126          1
   127          1
   130          1
   131          1
   133        262
   134        134
   135         10
   136          1
   138         23
   139          6
   140          1
   143          1
   145          3
   147        184
   148         14
   149          2
   151         67
   152          7
   153          4
   158          1
   159          1
   160          2
   161          3
   165        359
   166         38
   167         14
   168          2
   171          1
   172          1
   174         49
   175          5
   176          1
   177          1
   178         16
   179          6
   180          1
   187          4
   190          1
   192         42
   193          5
   194          2
   204          1
   205          4
   206        164
   207        365
   208         42
   209         16
   210          1
   212          5
   234          1
   326         19
   327          3
   328          1