##TITLE=Library Entry 87101
##JCAMP-DX=Revision 4.10 
##DATA TYPE=MASS SPECTRUM
##SAMPLE DESCRIPTION=A.A.Kutin, Moscow, Russia
##NAMES=HP
##CAS NAME=Octanohydrazide, N2-(2-furfurylidene)-
##MOLFORM=C13H20N2O2
##CAS REGISTRY NO=339302-08-8
##MP= -300
##BP= -300
##MW= 236
##$RETENTION INDEX=0
##$CONDENSED SPECTRUM=NO
##NPOINTS= 134
##XYDATA=(XY..XY) 1 
    33          0
    34          1
    36          1
    37          1
    38          5
    39         56
    40         32
    41        131
    42         24
    43        176
    44         20
    45          1
    46          0
    50          5
    51         12
    52         31
    53         22
    54         23
    55         75
    56         13
    57        346
    59        386
    60         13
    61          0
    63          0
    64          1
    65          2
    66          7
    67         14
    68          5
    69         11
    70          3
    71          8
    72         95
    73         12
    74          1
    75          0
    77          1
    78          0
    79          4
    80          7
    81         60
    82          9
    83         13
    84          8
    85          2
    86         27
    87          2
    88          0
    91          1
    92          0
    93          7
    94         35
    95         11
    96         11
    97          4
    98          2
   100         23
   101          3
   102          0
   105          0
   106          0
   107          2
   108          4
   109         55
   110        999
   111         80
   112          6
   113          1
   114         17
   115          1
   121         24
   122          7
   123          8
   124          1
   125          1
   127         36
   128          5
   129          0
   134          2
   135          1
   136          3
   137          3
   138          0
   139          0
   140          0
   141          0
   142          1
   143          7
   144          1
   145          0
   147          0
   148          0
   149          0
   150          1
   152         52
   153          4
   154          0
   155          2
   157          0
   158          0
   159          0
   162          0
   163          0
   164          2
   165          7
   166          1
   167          0
   169          0
   171          1
   172          0
   173          0
   175          0
   176          0
   177          0
   178          1
   179          1
   180          0
   189          0
   190          0
   192          1
   193          1
   194          0
   204          0
   205          0
   207          1
   219          0
   220          0
   221          0
   235          3
   236        134
   237         20
   238          1
   240          0