##TITLE=Library Entry 6559
##JCAMP-DX=Revision 4.10 
##DATA TYPE=MASS SPECTRUM
##SAMPLE DESCRIPTION=Japan AIST/NIMC Database- Spectrum MS-NW-5480
##NAMES=HP
##CAS NAME=2-Butanone, 4-hydroxy-3-methyl-
##MOLFORM=C5H10O2
##CAS REGISTRY NO=3393-64-4
##MP= -300
##BP= -300
##MW= 102
##$RETENTION INDEX=829
##$CONDENSED SPECTRUM=NO
##NPOINTS= 57
##XYDATA=(XY..XY) 1 
    13          2
    14         12
    15         84
    16          1
    17          2
    18          7
    25          2
    26         20
    27         82
    28         26
    29         89
    30         36
    31        268
    32          3
    33          1
    37          6
    38         10
    39         67
    40         25
    41        232
    42        435
    43        999
    44         29
    45         27
    47          1
    49          2
    50          6
    51          4
    52          2
    53          9
    54          7
    55         28
    56         12
    57        121
    58         11
    59         53
    60          3
    61        426
    62         11
    63          3
    67          2
    69         67
    70          5
    71         39
    72         73
    73         26
    74          3
    75          2
    83          4
    84         90
    85         22
    86          2
    87         19
    88          1
   101          1
   102         12
   103          3