##TITLE=Library Entry 35122
##JCAMP-DX=Revision 4.10 
##DATA TYPE=MASS SPECTRUM
##SAMPLE DESCRIPTION=Exported from NIST MS Search
##NAMES=HP
##CAS NAME=1-Nonanol, 4,8-dimethyl-
##MOLFORM=C11H24O
##CAS REGISTRY NO=33933-80-1
##MP= -300
##BP= -300
##MW= 172
##$RETENTION INDEX=1230
##$CONDENSED SPECTRUM=NO
##NPOINTS= 74
##XYDATA=(XY..XY) 1 
    26          7
    27        127
    29        235
    30          8
    31         88
    36          3
    37          2
    38          4
    39         91
    40         22
    41        686
    42        156
    43        800
    44         68
    45         41
    46          2
    50          2
    51          5
    52          3
    53         34
    54         17
    55        638
    56        876
    57        879
    58         61
    59          4
    65          6
    66          4
    67         74
    68         72
    69        999
    70        552
    71        438
    72         32
    73         59
    74          3
    77          5
    78          1
    79          8
    80          4
    81         54
    82         45
    83        279
    84        206
    85         70
    86         11
    87         33
    88          2
    91          4
    93          4
    94          3
    95         35
    96         23
    97        103
    98        107
    99         16
   100          3
   101         15
   105          3
   107          2
   108          2
   109         18
   110          8
   111         98
   112         45
   113         13
   123          3
   124          3
   125          5
   126        194
   127         22
   137          4
   139          4
   154          6