##TITLE=Library Entry 18531
##JCAMP-DX=Revision 4.10 
##DATA TYPE=MASS SPECTRUM
##SAMPLE DESCRIPTION=A.A.Kutin, Moscow, Russia
##NAMES=HP
##CAS NAME=Furazan-3-carbohydrazide, 4-amino-N2-(2,4-dichlorobenzylideno)-
##MOLFORM=C10H7Cl2N5O2
##CAS REGISTRY NO=339338-87-3
##MP= -300
##BP= -300
##MW= 299
##$RETENTION INDEX=0
##$CONDENSED SPECTRUM=NO
##NPOINTS= 157
##XYDATA=(XY..XY) 1 
    33          2
    35         55
    37         42
    38         71
    39         45
    40         47
    41        109
    42        348
    43         95
    44        122
    45         13
    47         14
    48          6
    49         20
    50         75
    51         29
    53        999
    54        659
    55        146
    56          7
    58        334
    59         13
    60         20
    61         48
    62        107
    63         75
    64         10
    66         17
    67         15
    68         68
    70        426
    71         55
    72         32
    73        123
    74        127
    75        116
    76         17
    78          0
    82         66
    84        173
    85         97
    86        124
    87        118
    88         42
    89         53
    90         16
    95          2
    96         11
    97         85
    98         24
    99         58
   100         56
   101         10
   102          4
   107         14
   108         14
   109        130
   110         38
   111         56
   112        621
   113         19
   114          5
   115          4
   116          9
   117         12
   118          4
   119          2
   120          7
   121         17
   123        671
   124        149
   125        247
   126         47
   127         17
   128        104
   129          1
   130          0
   131          1
   133         33
   135         25
   136        104
   137         26
   138         36
   139          8
   145        139
   146         18
   147         87
   148          8
   149         12
   150          3
   151         76
   152        261
   153         49
   154         81
   155          6
   157         19
   158         80
   159         35
   160         83
   161         19
   162         25
   163          6
   164          2
   171        221
   172        244
   173        147
   174        168
   175         36
   176         42
   177          5
   179          1
   185          2
   186         14
   187        127
   189         84
   190          6
   191         11
   192          0
   196          1
   197          1
   198         10
   199          6
   200         11
   201          9
   202          2
   205          1
   206          1
   207          1
   212          2
   213          5
   215         59
   216         10
   217         41
   218          1
   219          4
   222          1
   224          6
   226          2
   233          1
   234          5
   241         10
   242        135
   243         17
   244         81
   246         31
   247          2
   264          8
   266          3
   267          2
   269          4
   297          0
   299        503
   300         90
   301        328
   302         61
   303         51
   304          6