##TITLE=Library Entry 52297
##JCAMP-DX=Revision 4.10 
##DATA TYPE=MASS SPECTRUM
##SAMPLE DESCRIPTION=Exported from NIST MS Search
##NAMES=HP
##CAS NAME=2-Octene, 2,3,7-trimethyl-
##MOLFORM=C11H22
##CAS REGISTRY NO=33933-75-4
##MP= -300
##BP= -300
##MW= 154
##$RETENTION INDEX=0
##$CONDENSED SPECTRUM=NO
##NPOINTS= 57
##XYDATA=(XY..XY) 1 
    26          3
    27         65
    29         78
    30          3
    37          1
    38          2
    39         77
    40         25
    41        318
    42         40
    43        183
    44          7
    45          1
    50          2
    51          8
    52          4
    53         38
    54         16
    55        877
    56        143
    57         98
    58          5
    63          2
    65         11
    66          4
    67         71
    68         18
    69        538
    70        354
    71         63
    72          3
    77          9
    78          2
    79         12
    80          2
    81         27
    82         34
    83        999
    84        344
    85         49
    86          3
    91          4
    93          2
    95         17
    96         11
    97         60
    98         28
    99          4
   109          5
   110         17
   111         98
   112         14
   113          1
   139          2
   154        262
   155         32
   156          1