##TITLE=Library Entry 98084
##JCAMP-DX=Revision 4.10 
##DATA TYPE=MASS SPECTRUM
##SAMPLE DESCRIPTION=P. Vainiotalo, Dep. Chem., Joensuu Univ., Joensuu, Finl
and
##NAMES=HP
##CAS NAME=Oxazolidine, 2-phenyl-
##MOLFORM=C9H11NO
##CAS REGISTRY NO=3394-32-9
##MP= -300
##BP= -300
##MW= 149
##$RETENTION INDEX=0
##$CONDENSED SPECTRUM=NO
##NPOINTS= 30
##XYDATA=(XY..XY) 1 
    27         17
    39         29
    41         19
    43         10
    45         26
    50         20
    51         56
    52         14
    59         11
    62         11
    63         32
    64         13
    65         64
    72         31
    76         16
    77         84
    78         26
    89         63
    90         51
    91        771
    92         67
   103         17
   104         78
   105         28
   117         62
   118        999
   119        108
   148         50
   149        134
   150         15