##TITLE=Library Entry 64452
##JCAMP-DX=Revision 4.10 
##DATA TYPE=MASS SPECTRUM
##SAMPLE DESCRIPTION=A.A.Kutin, Moscow, Russia
##NAMES=HP
##CAS NAME=4H-Pyrane-3-carboxylic acid, 6-amino-4-(4-chlorophenyl)-5-cyano-2
-methyl-, benzyl ester
##MOLFORM=C21H17ClN2O3
##CAS REGISTRY NO=339580-97-1
##MP= -300
##BP= -300
##MW= 380
##$RETENTION INDEX=0
##$CONDENSED SPECTRUM=NO
##NPOINTS= 230
##XYDATA=(XY..XY) 1 
    33          2
    34          8
    35          1
    36          4
    37          4
    38         10
    39         57
    40        128
    41         19
    42          9
    43        175
    44         62
    45          5
    46          1
    47          0
    48          0
    49          2
    50         26
    51         49
    52         14
    53          7
    54          2
    55          5
    56          2
    57          3
    58         13
    59          2
    60          1
    61          5
    62         10
    63         37
    64         16
    65        125
    66         16
    67         51
    68          5
    69          3
    70          1
    71          2
    72          0
    73          5
    74         11
    75         34
    76         14
    77         43
    78         11
    79         23
    80          3
    81          0
    82          0
    83          2
    84          3
    85         12
    86          4
    87          6
    88          5
    89         28
    90         32
    91        999
    92         79
    93          3
    94          1
    95          0
    96          1
    97          2
    98          1
    99          7
   100          6
   101         10
   102          9
   103          1
   104          1
   105         11
   106          5
   107         26
   108          6
   109          1
   110          1
   111         12
   112          4
   113          7
   114          5
   115          6
   116          1
   117          1
   118          1
   119          2
   121          0
   122          0
   123          2
   124          2
   125          4
   126         11
   127         11
   128          8
   129          2
   130          0
   131          0
   132          1
   133          3
   134         17
   135          3
   136          6
   137          9
   138          8
   139         20
   140         13
   141          3
   142          0
   143          1
   144          0
   145          0
   147          1
   148          1
   149          6
   150          2
   151          3
   152          4
   153         18
   154          5
   155          2
   156          0
   160          1
   161         12
   162          7
   163          7
   164         10
   165         12
   166          9
   167         10
   168          3
   169          0
   171          1
   172          0
   173          7
   174          7
   175          5
   176          3
   177          3
   178          2
   179          8
   180          4
   181          5
   182          3
   183          1
   184          0
   185          0
   186          0
   187          2
   188         13
   189          5
   190          5
   191          2
   192          3
   193          1
   194          1
   195          2
   196          0
   198          0
   199          0
   200          4
   201          3
   202          5
   203          6
   204          2
   205          2
   206          1
   207          4
   208          6
   209          9
   210          3
   211          1
   212          0
   215          1
   216          2
   217          1
   218          1
   219          0
   223          1
   224          0
   225          0
   226          0
   227          1
   228          4
   229         11
   230          3
   231          4
   232          0
   234          1
   235          0
   236          6
   237          2
   238          0
   243          2
   244          3
   245         17
   246          3
   247          6
   248          1
   251          1
   252          0
   253          1
   254          2
   255          1
   256          0
   261          0
   262          1
   263          1
   264          0
   265          0
   269         95
   270         17
   271          3
   272          2
   273          3
   274          0
   275          0
   280          0
   287          0
   289        247
   290         42
   291         89
   292         14
   293          1
   318          0
   379          1
   380         20
   381          5
   382          6
   383          1