##TITLE=Library Entry 24989
##JCAMP-DX=Revision 4.10 
##DATA TYPE=MASS SPECTRUM
##SAMPLE DESCRIPTION=A.A.Kutin, Moscow, Russia
##NAMES=HP
##CAS NAME=Propanamide, 2, 3-dibromo-3-(4-cyanophenyl)-N-tert-butyl-
##MOLFORM=C14H16Br2N2O
##CAS REGISTRY NO=339590-57-7
##MP= -300
##BP= -300
##MW= 386
##$RETENTION INDEX=0
##$CONDENSED SPECTRUM=NO
##NPOINTS= 218
##XYDATA=(XY..XY) 1 
    34          0
    37          2
    38          9
    39         85
    40         38
    41        296
    42        276
    43         18
    44         48
    45          2
    47          0
    49          1
    50         48
    51         75
    52         23
    53         16
    54          9
    55         41
    56        143
    57        999
    58        932
    59         33
    60          0
    61          4
    62         16
    63         35
    64         17
    65          4
    66          0
    67          1
    68          1
    69          2
    70          8
    71          5
    72         29
    74         33
    75         98
    76         63
    77        117
    79         28
    80         30
    81         15
    82         31
    83          4
    84         67
    85          7
    86          4
    87          9
    88         12
    89          6
    90          3
    91          2
    92          2
    93          2
    94          0
    95          1
    96          2
    97          7
    98          9
    99         21
   100         92
   101        229
   102        130
   103         21
   104          6
   105          2
   107        121
   109          2
   110          2
   111          0
   112          4
   113          2
   114          9
   115         16
   116         15
   117          3
   118          2
   119          1
   120          2
   121          1
   122          2
   123          1
   124          1
   125          0
   126         11
   127        138
   128        505
   129         69
   130         10
   131          6
   132          6
   133          1
   135          4
   136          9
   137          2
   138         10
   139          0
   140          3
   141          1
   142          4
   143          8
   144          4
   145          2
   146         63
   147         76
   149          0
   150          1
   152          2
   153         28
   154         15
   155         19
   156        464
   157         58
   158          4
   159          0
   160          7
   161          1
   163          0
   165          0
   166          0
   167          1
   168          0
   169          1
   170          3
   171        131
   172         22
   173        109
   174         13
   175          1
   178          0
   180          0
   181          0
   183          2
   184          1
   185         11
   186          8
   187          1
   189          0
   190          0
   193          0
   194         23
   195          2
   196         21
   197          2
   198          0
   200          0
   205          0
   206          7
   207        122
   208        334
   209        157
   210        329
   211         40
   212          2
   213         48
   214          7
   215          0
   217          1
   218          0
   221          0
   224          0
   225          0
   226          0
   227         11
   228         46
   229          7
   231          0
   233          0
   234         12
   235          2
   236         12
   237          2
   249          2
   250          0
   251        138
   252         18
   253        142
   254         15
   255          1
   263          3
   264         24
   265          5
   266         26
   267          3
   273          3
   274          0
   286          6
   287          0
   288         11
   289          1
   290          5
   291          2
   293          1
   305          0
   307        369
   308         59
   309        376
   310         63
   311          5
   312          0
   327          0
   329          0
   331          7
   332          0
   333         14
   334          1
   335          7
   336          0
   366          0
   371         35
   372          6
   373         63
   374         11
   375         32
   376          4
   386          0
   388          0
   389          0