##TITLE=Library Entry 57445
##JCAMP-DX=Revision 4.10 
##DATA TYPE=MASS SPECTRUM
##SAMPLE DESCRIPTION=RADIAN CORP
##NAMES=HP
##CAS NAME=Propanoic acid, 3-bromo-, methyl ester
##MOLFORM=C4H7BrO2
##CAS REGISTRY NO=3395-91-3
##MP= -300
##BP= -300
##MW= 166
##$RETENTION INDEX=902
##$CONDENSED SPECTRUM=NO
##NPOINTS= 42
##XYDATA=(XY..XY) 1 
    14          4
    15         46
    25          3
    26         69
    27        175
    28         70
    29         72
    30         18
    31         17
    39          3
    41         17
    42         21
    43         13
    45         11
    53         10
    55        126
    56         11
    59        268
    60         11
    79         34
    80         11
    81         35
    82         11
    87        999
    88         46
    93         22
    94         15
    95         20
    96         11
   101          1
   105         11
   106         27
   107        339
   108         31
   109        332
   110          4
   134          2
   135        134
   136         12
   137        130
   166         41
   168         42