##TITLE=Library Entry 71155
##JCAMP-DX=Revision 4.10 
##DATA TYPE=MASS SPECTRUM
##SAMPLE DESCRIPTION=A.A.Kutin, Moscow, Russia
##NAMES=HP
##CAS NAME=Azacyclohexan-3-one, 1,5,6-trimethyl-
##MOLFORM=C8H15NO
##CAS REGISTRY NO=339590-59-9
##MP= -300
##BP= -300
##MW= 141
##$RETENTION INDEX=0
##$CONDENSED SPECTRUM=NO
##NPOINTS= 93
##XYDATA=(XY..XY) 1 
    33          0
    34          1
    35         61
    36         14
    37         22
    38         35
    39        133
    40         49
    41        205
    42        408
    43        160
    44        181
    45          7
    46          1
    47          0
    49          0
    50          6
    51         14
    52          9
    53         38
    54         32
    55        131
    56        487
    57         46
    58         68
    59          3
    60          4
    61          0
    62          1
    63          2
    64          0
    65          5
    66          4
    67         14
    68         15
    69         25
    70        127
    71        939
    72        118
    73          8
    74          3
    77          2
    78          0
    79          2
    80          7
    81         12
    82         24
    83         27
    84         20
    85          3
    86          1
    87          1
    88          3
    89          0
    90          0
    91          0
    93          1
    94          8
    95          4
    96         41
    97         19
    98        999
    99         69
   100          3
   101          0
   102          1
   103          0
   105          0
   106          0
   107          0
   108          6
   109          1
   110         11
   111          4
   112         57
   113          6
   114          1
   115          0
   116          5
   117          0
   122          1
   123          0
   124          4
   125          3
   126        217
   127         19
   128         12
   129          1
   139          1
   140         17
   141        448
   142         56
   143          6