##TITLE=Library Entry 8878
##JCAMP-DX=Revision 4.10 
##DATA TYPE=MASS SPECTRUM
##SAMPLE DESCRIPTION=A.A.Kutin, Moscow, Russia
##NAMES=HP
##CAS NAME=1,2,5-Triazole, 1-octyl-3-nitro-4-formamido-, 2-oxide
##MOLFORM=C11H19N5O4
##CAS REGISTRY NO=339589-41-2
##MP= -300
##BP= -300
##MW= 285
##$RETENTION INDEX=0
##$CONDENSED SPECTRUM=NO
##NPOINTS= 194
##XYDATA=(XY..XY) 1 
    33          2
    34          1
    36          1
    38          2
    39         77
    40         79
    41        614
    42        112
    43        999
    44        167
    45         40
    46          9
    48          1
    49          0
    50          1
    51          3
    52          4
    53         57
    54         59
    55        319
    56         65
    57        782
    58         36
    59          3
    60          3
    61          0
    63          0
    65          3
    66          2
    67         36
    69        572
    70        113
    71        807
    72         34
    73          6
    74          0
    75          0
    76          0
    77          2
    79          6
    80         10
    81         20
    82         26
    83         57
    84         24
    85         24
    86          5
    87          2
    88          0
    91          1
    92          1
    93          5
    94          4
    95         21
    96         28
    97         27
    99        203
   100          7
   101          2
   102          0
   104          0
   105          1
   106          2
   107          7
   108          6
   109         15
   110         19
   111         79
   112         21
   113         10
   114          5
   115          2
   116          0
   118          0
   119          0
   120          1
   121          3
   122          8
   123         14
   124         25
   125         12
   126         19
   127         15
   128          4
   129         19
   130         30
   131          2
   132          0
   133          0
   134          1
   135          2
   136          3
   137         10
   138         14
   139          7
   140         14
   141         18
   142          8
   143          8
   144          0
   146          2
   147          0
   148          1
   149          4
   150          3
   151          5
   152          6
   153          6
   154          5
   155          3
   156          8
   157          4
   158         64
   159          3
   160          0
   161          0
   162          0
   163          2
   165         45
   166          8
   167          4
   168          2
   169          1
   170          3
   171          9
   172          1
   174         12
   175          0
   176          2
   177          2
   178          2
   179          9
   180          4
   181         20
   182          9
   183          1
   184          1
   185          0
   186          1
   188          0
   189          0
   190          0
   191          0
   192          2
   193          5
   194          6
   195          6
   196          5
   198          1
   199          0
   200          2
   201          0
   204          0
   205          1
   206          1
   207          0
   208          2
   209          2
   210          4
   211         10
   212          1
   213          0
   214          1
   219          0
   221         11
   222         10
   223          4
   224          2
   225          0
   226          0
   228         60
   229          5
   230          0
   234          0
   236          0
   237          4
   239         68
   240         15
   241          2
   242         35
   243          2
   244          0
   250          0
   252         16
   253          3
   256          0
   266          0
   268         39
   269          7
   270          0
   283          1
   284          0
   285          4
   286          0