##TITLE=Library Entry 38758
##JCAMP-DX=Revision 4.10 
##DATA TYPE=MASS SPECTRUM
##SAMPLE DESCRIPTION=A.A.Kutin, Moscow, Russia
##NAMES=HP
##CAS NAME=1,2,5-Triazole 2-oxide, 1-sec-butyl-3-nitro-4-amino-
##MOLFORM=C6H11N5O3
##CAS REGISTRY NO=339589-40-1
##MP= -300
##BP= -300
##MW= 201
##$RETENTION INDEX=0
##$CONDENSED SPECTRUM=NO
##NPOINTS= 117
##XYDATA=(XY..XY) 1 
    34          0
    35          0
    36          9
    37          1
    38         10
    39         91
    40         74
    41        531
    42        147
    43         84
    44        151
    45         11
    46          2
    48          1
    50          3
    51          5
    52         11
    53         75
    54         84
    55        104
    56        100
    57        706
    58         29
    59          0
    60          5
    61          1
    63          0
    65          1
    66          2
    67         21
    68         42
    69         94
    70        104
    71        999
    72         21
    73         11
    74          0
    75          0
    77          5
    78          1
    79          6
    80          5
    81         22
    82         47
    83         23
    84         18
    85         13
    87         52
    91          7
    92          2
    93          4
    94          3
    95         16
    96         21
    97         18
    98         11
    99          9
   100          2
   101          0
   105          9
   106          0
   107          2
   108          1
   109          9
   110         19
   111         11
   112          5
   113         10
   114          1
   115          1
   116          2
   117          3
   119          1
   121          3
   122          2
   123          4
   124          3
   125          5
   126          6
   127         11
   128          3
   129         16
   130          6
   133          1
   134          2
   135         10
   136          1
   137          3
   138          2
   139          3
   140          0
   143          0
   144          0
   146         36
   147          2
   148          0
   149          2
   151          1
   152          2
   153          3
   155        183
   156         33
   157          3
   161          0
   165          1
   169          3
   170          1
   171          1
   179          0
   183          1
   184          0
   185         15
   194          4
   195          0
   200          1
   201        166
   202         14