##TITLE=Library Entry 33629
##JCAMP-DX=Revision 4.10 
##DATA TYPE=MASS SPECTRUM
##SAMPLE DESCRIPTION=NIST Mass Spectrometry Data Center, 1998.
##NAMES=HP
##CAS NAME=8,10-Dodecadien-1-ol, (E,E)-
##MOLFORM=C12H22O
##CAS REGISTRY NO=33956-49-9
##MP= -300
##BP= -300
##MW= 182
##$RETENTION INDEX=0
##$CONDENSED SPECTRUM=NO
##NPOINTS= 91
##XYDATA=(XY..XY) 1 
    15          2
    26          4
    27         75
    28         14
    29         95
    30          5
    31        163
    32          1
    38          5
    39        160
    40         36
    41        433
    42         44
    43         73
    44         12
    45         12
    50          9
    51         35
    52         29
    53        262
    54         77
    55        356
    56         26
    57         42
    58          5
    59          3
    62          2
    63          8
    64          3
    65         79
    66         88
    67        627
    68        999
    69        106
    70         28
    71         29
    72          3
    73          1
    77        133
    78         39
    79        701
    80        178
    81        966
    82        304
    83         51
    84         22
    85         13
    86          4
    91         68
    92         13
    93        198
    94        152
    95        176
    96        144
    97         47
    98         50
    99          6
   100          6
   103          2
   105         10
   106          3
   107         91
   108         53
   109         59
   110         19
   111         26
   112         13
   113          1
   114          1
   115          1
   119          2
   120          1
   121         81
   122         26
   123         16
   124          2
   125          7
   126          4
   135         54
   136         12
   137          3
   138          5
   139          4
   149          5
   151          2
   153          2
   164         24
   165          3
   182        132
   183         16
   184          1