##TITLE=Library Entry 89699
##JCAMP-DX=Revision 4.10 
##DATA TYPE=MASS SPECTRUM
##SAMPLE DESCRIPTION=D.HENNEBERG, MAX-PLANCK INSTITUTE, MULHEIM, WEST GERMAN
Y
##NAMES=HP
##CAS NAME=1,2-Cyclobutanedicarboxylic acid, dimethyl ester
##MOLFORM=C8H12O4
##CAS REGISTRY NO=3396-20-1
##MP= -300
##BP= -300
##MW= 172
##$RETENTION INDEX=0
##$CONDENSED SPECTRUM=NO
##NPOINTS= 102
##XYDATA=(XY..XY) 1 
    26         73
    27        349
    28        142
    29         72
    30         13
    31         36
    32          6
    33          7
    35          0
    36          0
    37          3
    38         11
    39        163
    40         52
    41        157
    42         70
    43        110
    44          7
    45         90
    46          2
    47          1
    49          1
    50         19
    51         40
    52         33
    53        347
    54        158
    55        163
    56         25
    57         30
    58          9
    59        401
    60         12
    61          3
    62          0
    63          0
    64          0
    65          2
    66          3
    67         12
    68         12
    69         43
    70          7
    71         91
    72          4
    73          0
    74          5
    75          8
    77          0
    78          0
    79          6
    80         12
    81        354
    82        237
    83         70
    84         23
    85         41
    86          2
    87          6
    88          1
    90          3
    91          2
    92          0
    93          0
    94          1
    95          2
    96          1
    97         86
    98          9
    99         13
   100          1
   101          2
   106          0
   107          1
   108          3
   109        103
   110          9
   111         25
   112        999
   113        408
   114         30
   115          5
   116          0
   117          0
   125          3
   126          0
   127          1
   129          2
   130          1
   134          0
   138          0
   139          2
   140        654
   141        423
   142         33
   143          3
   144          8
   145          0
   155          0
   157          0
   172          4
   173          1