##TITLE=Library Entry 29708
##JCAMP-DX=Revision 4.10 
##DATA TYPE=MASS SPECTRUM
##SAMPLE DESCRIPTION=NIST Mass Spectrometry Data Center
##NAMES=HP
##CAS NAME=2-Methyl-2-decanol
##MOLFORM=C11H24O
##CAS REGISTRY NO=3396-02-9
##MP= -300
##BP= -300
##MW= 172
##$RETENTION INDEX=1231
##$CONDENSED SPECTRUM=NO
##NPOINTS= 47
##XYDATA=(XY..XY) 1 
    27         18
    28          6
    29         36
    30          1
    31         25
    38          1
    39         25
    40          5
    41        115
    42         19
    43        139
    44          4
    45         22
    49          1
    53         10
    54          4
    55         76
    56         37
    57         51
    58         46
    59        999
    60         32
    61          3
    67          5
    68          5
    69         58
    70          9
    71         60
    72          5
    73          3
    80          2
    83         49
    84          6
    85          5
    87          2
    95          3
    97         26
    98          5
    99          2
   101          1
   110          1
   123          2
   126          1
   139          1
   154          1
   157         76
   158          9