##TITLE=Library Entry 12122
##JCAMP-DX=Revision 4.10 
##DATA TYPE=MASS SPECTRUM
##SAMPLE DESCRIPTION=CARL DJERASSI DEPT OF CHEM STANFORD UNIV STANFORD CALIF
 94305
##NAMES=HP
##CAS NAME=Senecionanium, 12-(acetyloxy)-14,15,20,21-tetradehydro-15,20-dihy
dro-8-hydroxy-4-methyl-11,16-dioxo-, (8.xi.,12.beta.,14Z)-
##MOLFORM=C21H28NO7
##CAS REGISTRY NO=33979-15-6
##MP= -300
##BP= -300
##MW= 406
##$RETENTION INDEX=2569
##$CONDENSED SPECTRUM=NO
##NPOINTS= 75
##XYDATA=(XY..XY) 1 
    34         20
    37         93
    40        208
    43        999
    45        208
    46         10
    52         10
    53        281
    54         20
    55        145
    56         10
    57        114
    58        197
    65         10
    67         31
    68         10
    69         20
    70        104
    71         10
    77         52
    78         41
    79        177
    80         62
    81        166
    82         93
    83        125
    84         10
    91         52
    93         20
    94        114
    95         62
    96         83
    97         20
    98         10
   100         62
   105         10
   107        197
   108        135
   109         62
   110        260
   111         41
   119        104
   120         20
   121         10
   122        135
   123        114
   124         10
   128         31
   133         31
   134         52
   135        645
   136         72
   137         62
   138         52
   140         31
   150         93
   151        177
   152        104
   154         31
   166         83
   167         62
   168         93
   184         10
   274         31
   290         41
   302        354
   303         62
   304         10
   305         10
   318         62
   319         10
   346         20
   361         10
   405        343
   406         72