##TITLE=Library Entry 66903
##JCAMP-DX=Revision 4.10 
##DATA TYPE=MASS SPECTRUM
##SAMPLE DESCRIPTION=Japan AIST/NIMC Database- Spectrum MS-IW-2120
##NAMES=HP
##CAS NAME=Ethane, 1,2-bis(ethylsulfonyl)-
##MOLFORM=C6H14O4S2
##CAS REGISTRY NO=33976-39-5
##MP= -300
##BP= -300
##MW= 214
##$RETENTION INDEX=0
##$CONDENSED SPECTRUM=NO
##NPOINTS= 79
##XYDATA=(XY..XY) 1 
    14          1
    15          7
    19          3
    25          1
    26         44
    27        295
    28        205
    29        977
    30         32
    31          4
    32          3
    33          2
    34          3
    35          3
    39          5
    41         64
    42          5
    43         32
    44          9
    45         15
    46          7
    47         13
    48         28
    49          9
    50         10
    51          2
    53          1
    55          8
    56          2
    57          6
    58          7
    59         20
    60          6
    61          9
    62          4
    63         13
    64         12
    65         36
    66        702
    67         10
    68         32
    69          1
    71          1
    73          1
    75         22
    76         35
    77         68
    78         19
    79          4
    80          2
    88          3
    89          1
    91          3
    92          9
    93        372
    94        999
    95         65
    96         47
    97          2
   105          2
   119          1
   121        172
   122        329
   123         25
   124         15
   125          1
   157         13
   158         47
   159          3
   160          4
   169          1
   170          1
   185         78
   186         28
   187          9
   188          2
   214        115
   215         10
   216         10