##TITLE=Library Entry 20838
##JCAMP-DX=Revision 4.10 
##DATA TYPE=MASS SPECTRUM
##SAMPLE DESCRIPTION=Exported from NIST MS Search
##NAMES=HP
##CAS NAME=5-Undecanol, 2-methyl-
##MOLFORM=C12H26O
##CAS REGISTRY NO=33978-71-1
##MP= -300
##BP= -300
##MW= 186
##$RETENTION INDEX=0
##$CONDENSED SPECTRUM=NO
##NPOINTS= 74
##XYDATA=(XY..XY) 1 
    26          4
    27         69
    29        143
    30          7
    31         27
    38          1
    39         42
    40         10
    41        257
    42         46
    43        348
    44         43
    45         42
    46          1
    51          2
    52          1
    53         16
    54         15
    55        999
    56        207
    57        275
    58        100
    59         48
    60          2
    65          3
    66          2
    67         24
    68         30
    69        234
    70         72
    71         78
    72         20
    73          5
    77          2
    79          4
    81         44
    82         16
    83        955
    84         71
    85         39
    86         13
    87         13
    95          8
    96         20
    97        695
    98         59
    99         24
   100         27
   101        268
   102         19
   103          1
   109          3
   110          6
   111         16
   112         17
   113         34
   114         19
   115        248
   116         20
   124          2
   125          6
   126          5
   127          2
   128         12
   129          4
   139          3
   140         12
   141          7
   153          8
   154          2
   168         28
   169          5
   185          2
   186          5