##TITLE=Library Entry 7471
##JCAMP-DX=Revision 4.10 
##DATA TYPE=MASS SPECTRUM
##SAMPLE DESCRIPTION=CARL DJERASSI DEPT OF CHEM STANFORD UNIV STANFORD CALIF
 94305
##NAMES=HP
##CAS NAME=1,2,4-Benzenetricarboxylic acid, cyclic 1,2-anhydride, decyl este
r
##MOLFORM=C19H24O5
##CAS REGISTRY NO=33975-31-4
##MP= -300
##BP= -300
##MW= 332
##$RETENTION INDEX=0
##$CONDENSED SPECTRUM=NO
##NPOINTS= 66
##XYDATA=(XY..XY) 1 
    41        660
    42        460
    43        999
    44        520
    45         80
    47         20
    50         30
    51         20
    53         80
    54        220
    55        720
    56        590
    57        610
    58        110
    59         50
    64         10
    65         30
    67        180
    68        310
    69        550
    70        500
    71        230
    74         80
    75        340
    76         50
    77         10
    78         60
    79         10
    81         60
    82        240
    83        480
    84        330
    85         60
    95         10
    96         50
    97        380
    98        160
   102         10
   103        190
   104         80
   105         10
   111        110
   112        180
   120         10
   134         10
   139         30
   140        330
   141         20
   148        110
   149        120
   157         50
   175        360
   176        230
   177         10
   193        710
   194        400
   195         50
   196         10
   202         10
   203         10
   204         10
   207         20
   219         50
   222         40
   234         70
   332         40