##TITLE=Library Entry 50580
##JCAMP-DX=Revision 4.10 
##DATA TYPE=MASS SPECTRUM
##SAMPLE DESCRIPTION=Exported from NIST MS Search
##NAMES=HP
##CAS NAME=Furan, tetrahydro-2,2-dimethyl-5-(1-methylpropyl)-
##MOLFORM=C10H20O
##CAS REGISTRY NO=33978-70-0
##MP= -300
##BP= -300
##MW= 156
##$RETENTION INDEX=1065
##$CONDENSED SPECTRUM=NO
##NPOINTS= 77
##XYDATA=(XY..XY) 1 
    26          3
    27         55
    29        114
    30          3
    31         11
    38          2
    39         57
    40         21
    41        180
    42         55
    43        458
    44         33
    45         19
    50          1
    51          5
    52          2
    53         27
    54         10
    55        262
    56         55
    57        116
    58          9
    59        137
    60          5
    63          1
    65          5
    66          6
    67         35
    68         12
    69        102
    70        286
    71        100
    72          6
    73          1
    77          6
    78          2
    79         26
    80          4
    81        999
    82         80
    83         57
    84          5
    85          3
    86          1
    87          4
    91          3
    92          1
    93          3
    94          2
    95         10
    96          3
    97          8
    98         55
    99        893
   100         64
   101          4
   105          1
   107          2
   108          1
   109         19
   110          2
   111          3
   112          1
   121          1
   123         48
   124          5
   125          2
   126          2
   127          1
   137          1
   138          5
   139          4
   141         10
   142          1
   154          2
   155          5
   156          1