##TITLE=Library Entry 28981
##JCAMP-DX=Revision 4.10 
##DATA TYPE=MASS SPECTRUM
##SAMPLE DESCRIPTION=Darrick Lee, Cayman Chemical, Ann Arbor, MI
##NAMES=HP
##CAS NAME=Benzeneethanamine, 4-methoxy-N,.alpha.-dimethyl-, hydrochloride
##MOLFORM=C11H17NO
##CAS REGISTRY NO=3398-68-3
##MP= -300
##BP= -300
##MW= 179
##$RETENTION INDEX=0
##$CONDENSED SPECTRUM=NO
##NPOINTS= 89
##XYDATA=(XY..XY) 1 
    40          3
    41         14
    42         34
    43         14
    44          3
    50          9
    51         22
    52         18
    53          8
    54          4
    55          5
    56         56
    58        999
    59         38
    60          1
    61          1
    62          5
    63         19
    64         10
    65         22
    66          4
    67          3
    68          1
    70          2
    71          1
    72          1
    73          1
    74          4
    75          4
    76          7
    77         69
    78         90
    79         16
    80          4
    82          5
    86          1
    87          1
    89         22
    90         10
    91         43
    92          9
    93          3
    94          3
    95          1
   101          1
   102          3
   103          8
   104          5
   105          8
   106         13
   107          9
   108          6
   109          1
   115         10
   116          3
   117          7
   118          5
   119          5
   121        124
   122         31
   123          3
   124          1
   128          1
   130          2
   131          3
   132          5
   133          5
   134          6
   135          2
   136          1
   144          1
   145          1
   146          2
   147          5
   148         14
   149          9
   150          1
   160          2
   161          1
   162          5
   163          4
   164         10
   165          1
   175          1
   176          1
   177          3
   178          5
   179          2
   180          1