##TITLE=Library Entry 23258
##JCAMP-DX=Revision 4.10 
##DATA TYPE=MASS SPECTRUM
##SAMPLE DESCRIPTION=Japan AIST/NIMC Database- Spectrum MS-NW-3286
##NAMES=HP
##CAS NAME=tert-Butylamine, N-ethyl-N-nitroso-
##MOLFORM=C6H14N2O
##CAS REGISTRY NO=3398-69-4
##MP= -300
##BP= -300
##MW= 130
##$RETENTION INDEX=0
##$CONDENSED SPECTRUM=NO
##NPOINTS= 49
##XYDATA=(XY..XY) 1 
    14          1
    15         18
    17          1
    18          7
    26          9
    27         54
    28         22
    29        239
    30         19
    31          5
    32          1
    37          1
    38          4
    39         44
    40          9
    41        273
    42        127
    43          9
    44         23
    45          3
    47          1
    50          2
    51          2
    52          2
    53          4
    54          6
    55         26
    56         55
    57        999
    58         49
    59         71
    60          2
    68          4
    69          2
    70        184
    71         10
    72         50
    73          5
    74          9
    75         61
    76          2
    84         12
    85         48
    86          9
    87          3
   100          4
   115          2
   130         61
   131          5