##TITLE=Library Entry 12237
##JCAMP-DX=Revision 4.10 
##DATA TYPE=MASS SPECTRUM
##SAMPLE DESCRIPTION=Div. of Experiment Therapeutics WRAIR, WRAMC, Washingto
n DC 20307
##NAMES=HP
##CAS NAME=Gitogenin acetate
##MOLFORM=C31H48O6
##CAS REGISTRY NO=3399-20-0
##MP= -300
##BP= -300
##MW= 516
##$RETENTION INDEX=0
##$CONDENSED SPECTRUM=NO
##NPOINTS= 147
##XYDATA=(XY..XY) 1 
    41         93
    43        999
    44         16
    45          5
    47          7
    49         31
    51         14
    53         19
    55        205
    56         29
    57         41
    61          9
    65          8
    67         70
    69        245
    70         22
    71         14
    73         15
    74          2
    75          2
    77         22
    79         57
    81        106
    83         52
    84         22
    85         17
    86         11
    88          4
    91         66
    93        102
    95        121
    97         67
    98          1
    99         15
   103          6
   105        113
   107        101
   109         77
   110         17
   111         14
   112         11
   115        203
   117         36
   119         44
   121         66
   122         67
   123         25
   125         46
   126         48
   127          8
   129          9
   131         43
   133         44
   135         37
   136          1
   137         15
   139        718
   140         64
   141         10
   143         24
   145         39
   147         44
   149         24
   151         10
   153          2
   155          9
   157         31
   159         29
   161         33
   163         24
   164          2
   165         11
   167          8
   168         21
   169          2
   171         13
   173         17
   175         17
   176          3
   177         19
   179          8
   181          8
   183          8
   185         15
   187         10
   189          6
   195          1
   197          8
   199         16
   201         11
   202          2
   211          2
   212          2
   213         14
   214          4
   215          7
   217          5
   225          5
   227         17
   228         12
   229          4
   230          3
   239          2
   241          1
   243          2
   253         37
   254          8
   267         26
   269          7
   271         24
   272         12
   274          9
   280          7
   282         20
   283         10
   285          9
   287          6
   298          4
   299         18
   300         14
   301          1
   302          1
   313          5
   326          4
   327         30
   328          7
   340          1
   342         96
   343         31
   344          9
   345         35
   346          4
   373         86
   374         21
   387         75
   388         17
   402         58
   403         18
   417          4
   444         49
   445         16
   446          2
   447         15
   457         24
   458          7
   516         34
   517         14