##TITLE=Library Entry 10909
##JCAMP-DX=Revision 4.10 
##DATA TYPE=MASS SPECTRUM
##SAMPLE DESCRIPTION=Div. of Experiment Therapeutics WRAIR, WRAMC, Washingto
n DC 20307
##NAMES=HP
##CAS NAME=3-O-Acetyl-5-azido-6-O-benzoyl-5-deoxy-1,2-O-isopropylidene-.beta
.-l-idofuranose
##MOLFORM=C18H21N3O7
##CAS REGISTRY NO=33999-41-6
##MP= -300
##BP= -300
##MW= 391
##$RETENTION INDEX=0
##$CONDENSED SPECTRUM=NO
##NPOINTS= 138
##XYDATA=(XY..XY) 1 
    41         12
    43        999
    44         21
    45          7
    47         10
    49         49
    50         12
    51        102
    52          7
    53          6
    54         11
    55         41
    56          7
    57         11
    59        100
    60         11
    61          8
    62          0
    63          1
    65          2
    66          1
    67          3
    68         10
    69         16
    70         24
    71         20
    73         70
    74          5
    75          2
    76          4
    77        312
    78         21
    79          5
    80          0
    81          9
    82         13
    83         21
    84         51
    85         48
    86         22
    88          6
    89          2
    90          0
    91         10
    92          4
    93          0
    95         20
    96         14
    97         13
    98          1
    99         13
   100         18
   101         25
   102          4
   104          3
   105        921
   106         64
   107          4
   109          3
   110          4
   111          4
   113         47
   115         55
   116          3
   117          0
   118          0
   119          0
   121          1
   122          7
   123         24
   124          9
   125          1
   126         12
   127          3
   129          9
   131          1
   135          8
   136          0
   138          4
   139          2
   141        112
   143        724
   144         39
   145          5
   149          2
   152          2
   153          0
   154          2
   155          0
   156          1
   157          7
   159          6
   161          1
   162          2
   163          0
   164          0
   167          0
   168          0
   169          3
   170          9
   171          1
   177          0
   180          4
   183          1
   184          2
   186          0
   188          0
   190         12
   191          0
   197          0
   199          1
   201        203
   202         20
   203          3
   204          0
   205          1
   206          5
   216          1
   218          5
   219          0
   220          3
   231          9
   232          1
   241          0
   245          0
   246          2
   248          1
   259          3
   260          2
   262          2
   264          2
   269          3
   288          6
   302          0
   306         11
   307          1
   376         18
   377          3