##TITLE=Library Entry 46623
##JCAMP-DX=Revision 4.10 
##DATA TYPE=MASS SPECTRUM
##SAMPLE DESCRIPTION=NIST Mass Spectrometry Data Center, 1994
##NAMES=HP
##CAS NAME=S-(-)-N,S-Dimethyl-S-phenylsulfoximine
##MOLFORM=C8H11NOS
##CAS REGISTRY NO=33993-53-2
##MP= -300
##BP= -300
##MW= 169
##$RETENTION INDEX=0
##$CONDENSED SPECTRUM=NO
##NPOINTS= 110
##XYDATA=(XY..XY) 1 
    12          4
    13          4
    14         29
    15        184
    16          5
    17          1
    18         11
    25          1
    26          8
    27        100
    28        256
    29         15
    30         84
    32         10
    33          9
    34          8
    37         15
    38         43
    39        163
    40         13
    41          8
    42        126
    43         31
    44        105
    45        127
    46         35
    47         44
    48         35
    49         32
    50        312
    51        825
    52         63
    53         73
    54          5
    55          5
    57         10
    58         13
    60         63
    61         76
    62         34
    63        171
    64         38
    65        163
    66         30
    67          7
    68          7
    69         64
    70         14
    71         11
    72          3
    73         14
    74         82
    75         63
    76         86
    77        999
    78        216
    79        197
    80         22
    81         31
    82         22
    83          7
    84         12
    85         13
    86          2
    89          6
    91        107
    92         35
    93         32
    94        146
    95         32
    96          2
    97        235
    98         18
    99         11
   100          6
   104         59
   105        224
   106        800
   107         67
   108         23
   109         82
   110         15
   111         17
   112         16
   113          3
   120          7
   121          9
   122          3
   123         16
   124         92
   125        365
   126         97
   127         22
   128          4
   136          5
   137          3
   138          7
   139          8
   140         75
   141        158
   142         17
   143          8
   154        637
   155         53
   156         33
   157          3
   168         28
   169        228
   170         24
   171         11