##TITLE=Library Entry 77842
##JCAMP-DX=Revision 4.10 
##DATA TYPE=MASS SPECTRUM
##SAMPLE DESCRIPTION=Exported from NIST MS Search
##NAMES=HP
##CAS NAME=Arsinous bromide, diethyl-
##MOLFORM=C4H10AsBr
##CAS REGISTRY NO=3399-96-0
##MP= -300
##BP= -300
##MW= 212
##$RETENTION INDEX=0
##$CONDENSED SPECTRUM=NO
##NPOINTS= 21
##XYDATA=(XY..XY) 1 
    77         46
    78         86
    89         66
   101        113
   102        133
   103        200
   104        999
   105        186
   133         46
   154        200
   155        200
   156        200
   157        200
   183        246
   184        360
   185        220
   186        333
   212        373
   213         20
   214        346
   215         13