##TITLE=Library Entry 10004
##JCAMP-DX=Revision 4.10 
##DATA TYPE=MASS SPECTRUM
##SAMPLE DESCRIPTION=H.FR.GRUTZMACHER HAMBURG UNIV., HAMBURG, GERMANY, F.R.G
.
##NAMES=HP
##CAS NAME=Oxaceprol
##MOLFORM=C7H11NO4
##CAS REGISTRY NO=33996-33-7
##MP= -300
##BP= -300
##MW= 173
##$RETENTION INDEX=0
##$CONDENSED SPECTRUM=NO
##NPOINTS= 77
##XYDATA=(XY..XY) 1 
    14         19
    15        103
    25          2
    26         21
    27         90
    28        144
    29         84
    30         91
    31         40
    32          1
    38         65
    39         47
    40         25
    41        204
    42        132
    43        999
    44        127
    45         73
    46          3
    50          1
    51          3
    52          6
    53          8
    54         25
    55         50
    56         89
    57         40
    58         95
    59         19
    60         14
    61          1
    65          1
    66          3
    67         19
    68        349
    69         81
    70         21
    71          4
    72         16
    73         25
    74          4
    80          2
    81          2
    82          3
    83          5
    84         23
    85        205
    86        651
    87         61
    88          8
    93          1
    94          2
    95          1
    96          2
    97          1
    98          4
    99          5
   100          6
   101         18
   102          4
   109          3
   110         12
   111         15
   112         18
   113         12
   114          4
   126          1
   127          4
   128        148
   129        274
   130         29
   131          3
   155          5
   156          2
   171          5
   173          6
   174          5