##TITLE=Library Entry 50822
##JCAMP-DX=Revision 4.10 
##DATA TYPE=MASS SPECTRUM
##SAMPLE DESCRIPTION=Adam Howard, James Little, Eastman Chemical Co.
##NAMES=HP
##CAS NAME=Dimethyl cyclohexane-1,4-dicarboxylate (trans isomer)
##MOLFORM=C10H16O4
##CAS REGISTRY NO=3399-22-2
##MP= -300
##BP= -300
##MW= 200
##$RETENTION INDEX=0
##$CONDENSED SPECTRUM=NO
##NPOINTS= 106
##XYDATA=(XY..XY) 1 
    29         13
    30          2
    31          5
    33          5
    37          1
    38          3
    39         74
    40         16
    41        127
    42         11
    43         17
    45         28
    46          1
    47          1
    50          5
    51         13
    52         10
    53         66
    54         90
    55        127
    56          9
    57          5
    58          1
    59        116
    60          4
    61          7
    62          1
    63          2
    64          1
    65         19
    66         45
    67        138
    68         27
    69         28
    70          3
    71         20
    72          4
    73          3
    74         10
    75          3
    76          1
    77         42
    78         14
    79        189
    80        318
    81        999
    82         96
    83         12
    84          2
    85          8
    86          3
    87         51
    88          4
    91          7
    92          4
    93          7
    94         13
    95         12
    96          1
    97         13
    98         17
    99         14
   100         40
   101         14
   102          1
   105          2
   106          4
   107         27
   108        460
   109        337
   110         35
   111         29
   112         35
   113         13
   114         11
   115          1
   118          1
   121          1
   122          1
   123          4
   124          2
   125         33
   126         49
   127          8
   128          1
   132          1
   134          1
   135          3
   136         56
   137          9
   138          7
   139         13
   140        996
   141        389
   142         40
   143          3
   146          1
   153          2
   166          3
   167          2
   168        285
   169         87
   170         10
   171          1
   200          1
   201          2