##TITLE=Library Entry 83596
##JCAMP-DX=Revision 4.10 
##DATA TYPE=MASS SPECTRUM
##SAMPLE DESCRIPTION=NIST Mass Spectrometry Data Center
##NAMES=HP
##CAS NAME=1-Phenyl-2,2,2-trifluoroethanol
##MOLFORM=C8H7F3O
##CAS REGISTRY NO=340-04-5
##MP= -300
##BP= -300
##MW= 176
##$RETENTION INDEX=1054
##$CONDENSED SPECTRUM=NO
##NPOINTS= 99
##XYDATA=(XY..XY) 1 
    26          4
    27         17
    28          3
    29         26
    30          1
    31          4
    32          1
    37          6
    38         16
    39         41
    40          3
    42          1
    43          1
    44          1
    45          1
    47          1
    48          1
    49         10
    50         84
    51        169
    52         38
    53         42
    54          9
    56          1
    57          7
    59          1
    60          2
    61          8
    62         19
    63         37
    64          7
    65          2
    66          2
    67          1
    69         79
    70          4
    71          1
    73          6
    74         33
    75         24
    77        578
    78         97
    79        747
    80         54
    81          8
    82          2
    83         12
    84          1
    85          4
    86          5
    87          7
    88          6
    89         20
    90          6
    91          2
    92          1
    93          1
    94          1
    95          4
    96          4
    97          4
    98          1
    99          6
   100          1
   101          8
   102          1
   103          1
   105        104
   107        999
   108         85
   109        141
   110         11
   111          1
   112          2
   113          1
   114          4
   118          1
   119          6
   120          3
   121          1
   123          1
   125          3
   127         38
   128          3
   132          2
   137         24
   138          7
   139          6
   140         15
   141          1
   145          1
   156          1
   157          3
   158          4
   159          4
   160          1
   176        310
   177         28
   178          2