##TITLE=Library Entry 55801
##JCAMP-DX=Revision 4.10 
##DATA TYPE=MASS SPECTRUM
##SAMPLE DESCRIPTION=A.A.Kutin, Moscow, Russia
##NAMES=HP
##CAS NAME=Acetic acid, 2-(1,2,4-triazol-4-yl)amino-, ethyl ester
##MOLFORM=C6H10N4O2
##CAS REGISTRY NO=340028-52-6
##MP= -300
##BP= -300
##MW= 170
##$RETENTION INDEX=0
##$CONDENSED SPECTRUM=NO
##NPOINTS= 99
##XYDATA=(XY..XY) 1 
    33         17
    39         88
    40         94
    41        475
    42        415
    43        750
    44        482
    45        220
    46         56
    47          5
    49         16
    50         33
    51         57
    52         32
    53        185
    54        113
    55        592
    56        205
    57        233
    58        579
    59        308
    60         60
    61         30
    62          5
    63         14
    64         58
    65         18
    66         21
    67         13
    68         36
    69         86
    70        726
    71        110
    72         14
    73         23
    74         19
    75         12
    76         12
    77         33
    78         70
    79         16
    80          9
    81         21
    82        512
    83        215
    84         66
    86        999
    87        105
    88          8
    89          4
    91         33
    92         14
    93          7
    94          3
    95         11
    96         26
    97        236
    98        359
    99         31
   100          7
   101          8
   102          3
   104          5
   105         39
   106         74
   107         10
   108          2
   110         88
   111         20
   112         21
   113        259
   114        402
   115         36
   116          3
   119         10
   120          3
   121          2
   122         23
   123         19
   125         79
   126          6
   127         11
   128         15
   129         13
   130         19
   131          2
   135          9
   137          7
   139          5
   140          5
   141         47
   142          2
   143          0
   155        150
   156         13
   157          4
   169          1
   170         23
   171         12