##TITLE=Library Entry 2354
##JCAMP-DX=Revision 4.10 
##DATA TYPE=MASS SPECTRUM
##SAMPLE DESCRIPTION=A.A.Kutin, Moscow, Russia
##NAMES=HP
##CAS NAME=1,2,4-Triazino[5,6-b]indole, 5-allyl-3-isopropylthio-
##MOLFORM=C15H16N4S
##CAS REGISTRY NO=340006-83-9
##MP= -300
##BP= -300
##MW= 284
##$RETENTION INDEX=0
##$CONDENSED SPECTRUM=NO
##NPOINTS= 207
##XYDATA=(XY..XY) 1 
    33          7
    34          5
    35          1
    36          2
    39        490
    41        999
    43        651
    45         69
    47         24
    50         45
    51         59
    52         19
    53         12
    54          8
    55          5
    56          6
    59         77
    60         23
    61         13
    62         28
    63         40
    64         23
    65         13
    66          4
    67          3
    68          6
    69         17
    70         18
    71         14
    72          6
    74         35
    75         72
    76         56
    77         55
    78         14
    79          5
    80          2
    81          5
    82          4
    83          4
    84          3
    85          5
    86          8
    87         22
    88         30
    89         74
    90         26
    91         11
    93          5
    94          7
    95          8
    96          3
    97          3
    98          4
    99         11
   101        114
   102        117
   103         26
   104          7
   105          3
   106          4
   108          5
   109          1
   110          1
   111          3
   114        116
   115         79
   116         63
   117         21
   118          7
   120         21
   121          3
   122          2
   123          0
   124          0
   125          2
   126         25
   127         65
   128        110
   129         71
   130         37
   131         14
   132          9
   133         10
   134          3
   135          1
   136          0
   137          0
   139          3
   140         13
   141         39
   142         59
   143         50
   144         25
   146        133
   147         14
   148          7
   149          1
   150          1
   152         17
   153         37
   154        144
   155         61
   156         56
   157         36
   158         17
   159         17
   160         22
   161          3
   162          2
   163          0
   164          0
   165          1
   166          3
   169        317
   170         50
   171         18
   172         29
   173        120
   174         26
   175          8
   176          2
   177          1
   179         86
   180         46
   181         78
   182         56
   183         49
   184         33
   185         21
   186         60
   187         42
   188          9
   189          2
   190          0
   191          0
   192          0
   193          0
   194          0
   195          3
   196          2
   198         45
   199         29
   200         22
   201          6
   202          3
   203          1
   204          0
   205          3
   206          1
   207          3
   209         53
   210        127
   211         45
   213        237
   214         67
   215         18
   216          4
   217          1
   219          0
   220          0
   221          0
   223          0
   224          1
   225          1
   227         28
   228          5
   229          3
   230          0
   231          1
   232          1
   233          0
   237          0
   238          0
   241         71
   242        151
   243         34
   244          8
   245          1
   246          0
   247          0
   248          0
   249          2
   251        349
   252         61
   253          4
   254          0
   255          1
   256          2
   257          1
   258          0
   259          1
   260          4
   261          0
   267          0
   269         84
   270         15
   271          5
   272          0
   273          0
   274          0
   281          0
   284        239
   285         47
   286         14
   287          2
   288          0