##TITLE=Library Entry 25895
##JCAMP-DX=Revision 4.10 
##DATA TYPE=MASS SPECTRUM
##SAMPLE DESCRIPTION=DR. C. C. VAN DE SANDE, STATE UNIVERSITY OF GENT, BELGI
UM
##NAMES=HP
##CAS NAME=3(2H)-Furanone, dihydro-5-isopropyl-
##MOLFORM=C7H12O2
##CAS REGISTRY NO=34004-69-8
##MP= -300
##BP= -300
##MW= 128
##$RETENTION INDEX=0
##$CONDENSED SPECTRUM=NO
##NPOINTS= 43
##XYDATA=(XY..XY) 1 
    37         20
    38         40
    39        220
    40        100
    41        460
    42        240
    43        250
    44        180
    45         40
    50         30
    51         50
    52         30
    53        130
    54        110
    55        660
    56        330
    57        999
    58        150
    59         20
    60         10
    67         40
    68         20
    69        140
    70        250
    71         80
    72         40
    73         80
    81         20
    83         20
    84        610
    85        800
    86        120
    87         20
    88         20
    97         15
    98         20
    99         15
   100         15
   111         20
   126         30
   127         15
   128        275
   129         50