##TITLE=Library Entry 79816
##JCAMP-DX=Revision 4.10 
##DATA TYPE=MASS SPECTRUM
##SAMPLE DESCRIPTION=Chemical Concepts
##NAMES=HP
##CAS NAME=N-(2,2,2-Trifluoro-1-(trifluoromethyl)-1-[2-(trifluoromethyl)anil
ino]ethyl)benzamide
##MOLFORM=C17H11F9N2O
##CAS REGISTRY NO=340030-95-7
##MP= -300
##BP= -300
##MW= 430
##$RETENTION INDEX=0
##$CONDENSED SPECTRUM=NO
##NPOINTS= 183
##XYDATA=(XY..XY) 1 
    33          1
    34          1
    36          1
    37          2
    38          5
    39         15
    40         19
    41         15
    42          6
    43         11
    44         17
    45          2
    46          1
    47          2
    50         28
    51         82
    52          9
    53          5
    54          3
    55         17
    56          8
    57         16
    58          2
    59          1
    60          2
    61          1
    62          3
    63         10
    64          4
    65          5
    66          2
    67          4
    69         31
    70         10
    71          9
    72          2
    73          3
    74          7
    75         17
    76         31
    77        373
    78         31
    79          5
    80          2
    81          4
    82          3
    83          9
    84          5
    85          2
    87          2
    88          3
    89          1
    90          2
    91          6
    92          4
    93          2
    94          3
    95         15
    96          7
    97          3
    98          2
    99          2
   100          2
   101          2
   102          6
   103          8
   105        999
   106         67
   107          6
   108          2
   109          1
   110          2
   111          2
   112          6
   113          8
   114         18
   115          3
   118          1
   119          2
   120          5
   121         17
   122          6
   123          1
   124          1
   125          9
   126          8
   127          2
   128          1
   129          2
   131          1
   133          5
   134          1
   135          1
   138          1
   139          2
   140          8
   141         11
   142          3
   143          2
   145         86
   146          7
   147          4
   148          1
   149          1
   150          1
   151          1
   152          7
   153          1
   157          1
   159          1
   160          9
   161         78
   162          7
   163          1
   166          1
   167          6
   168          1
   169          1
   170          3
   171          5
   172          1
   176          1
   181          1
   183          1
   186          1
   187          8
   188          1
   190          2
   192          1
   195          1
   197          3
   198          1
   199          1
   200          1
   201          1
   202          1
   205          8
   206          1
   207          1
   213          1
   215          6
   217          2
   218          1
   221          1
   222          1
   227          1
   235          4
   236          1
   237          1
   238          2
   240        211
   241         18
   242          1
   250          1
   255          3
   256          1
   258          1
   263          1
   265          6
   266          1
   268          1
   270          7
   271          1
   283          2
   284          1
   287          1
   288          1
   290         29
   291          3
   306          2
   309        188
   310         17
   311          1
   360          1
   361         27
   362          5
   391          1
   411          1
   428          1
   429          2
   430         60
   431         10
   432          1