##TITLE=Library Entry 114910
##JCAMP-DX=Revision 4.10 
##DATA TYPE=MASS SPECTRUM
##SAMPLE DESCRIPTION=A.A.Kutin, Moscow, Russia
##NAMES=HP
##CAS NAME=Pyridine-3-carbohydrazide, N2-[4-(4-morpholino)benzylideno]-
##MOLFORM=C17H18N4O2
##CAS REGISTRY NO=340028-49-1
##MP= -300
##BP= -300
##MW= 310
##$RETENTION INDEX=0
##$CONDENSED SPECTRUM=NO
##NPOINTS= 229
##XYDATA=(XY..XY) 1 
    33          2
    34          3
    35          4
    36         22
    37          4
    38         22
    39         68
    40         70
    41         43
    42         79
    43         43
    44         47
    45         59
    46          8
    47          0
    49          5
    50         94
    51        356
    52         71
    53         26
    54         20
    55         17
    56         43
    57         55
    58          7
    59          4
    60          3
    61          2
    62         16
    63         88
    64         35
    65         87
    66         13
    67         10
    68          6
    69          6
    70          6
    71          7
    72          9
    74          9
    75         18
    76         52
    77        145
    78        629
    79        107
    80         31
    81          5
    82          2
    83          3
    84          4
    85          3
    86          7
    87          7
    89        236
    90        183
    91        127
    92         65
    93         16
    94         10
    95          2
    96          1
    97          2
    98          1
    99          1
   100          1
   101          4
   102         47
   103         46
   104         61
   105         93
   106        669
   107         47
   108          4
   109          1
   110          1
   111          1
   112          3
   113          1
   114          3
   115         17
   116         64
   117        200
   118        201
   119         58
   120         12
   121         10
   122         42
   123         59
   124          5
   125          2
   126          2
   127         12
   128         18
   129        118
   130        999
   131        200
   132         72
   133         68
   134         13
   135          4
   136          1
   137          1
   138          0
   139          2
   140          1
   141          4
   142         10
   143         19
   144         49
   145         30
   146         58
   147         13
   148         37
   149          8
   150          5
   151          1
   152          1
   153          1
   154          1
   155          5
   156          6
   157         49
   158         72
   159         88
   160         83
   161         28
   162          7
   163         13
   164          1
   165          0
   166          6
   167          7
   168          2
   169          3
   170          5
   171          8
   172         11
   173          9
   174         12
   175         33
   176         12
   177          6
   178          0
   179          1
   180          2
   181          2
   182          1
   183          0
   184          3
   185          4
   186         11
   187         93
   188        579
   189        115
   190         18
   191          8
   192          2
   193         11
   194          9
   195          9
   196          4
   197          1
   198          1
   199          0
   202          9
   204        102
   205         15
   206          2
   207          4
   208          3
   209          2
   210          0
   211          0
   213          0
   219          0
   220          0
   221          1
   222          9
   223          3
   224          2
   225          6
   226          0
   232          1
   233          0
   234          0
   235          1
   236          2
   237          1
   238          0
   239          0
   242          0
   247          0
   249          0
   250          1
   251          8
   252          5
   253          7
   254          3
   255          0
   258          0
   260          0
   261          3
   262          0
   263          0
   264          0
   265          0
   266          1
   279          6
   280          8
   281          6
   282          1
   283          0
   284          0
   285          0
   289          2
   290          0
   293          0
   294          2
   295          0
   303          0
   305          2
   306          1
   307          2
   308          7
   309         22
   310        577
   311        117
   312         14
   313          1