##TITLE=Library Entry 61058
##JCAMP-DX=Revision 4.10 
##DATA TYPE=MASS SPECTRUM
##SAMPLE DESCRIPTION=Chemical Concepts
##NAMES=HP
##CAS NAME=N-Benzyl-3,3,3-trifluoro-2-(trifluoromethyl)propionamide
##MOLFORM=C11H9F6NO
##CAS REGISTRY NO=340034-12-0
##MP= -300
##BP= -300
##MW= 285
##$RETENTION INDEX=0
##$CONDENSED SPECTRUM=NO
##NPOINTS= 115
##XYDATA=(XY..XY) 1 
    33         87
    36         31
    37         64
    39        195
    40        563
    41        119
    42         29
    43         99
    44        235
    45         20
    47         29
    50        155
    51        266
    52         70
    53         34
    55         99
    56         29
    57         57
    58         10
    59          3
    60          8
    62         33
    63         92
    65        202
    67         21
    69        352
    70         28
    71         23
    72          9
    73          7
    74         28
    75         24
    77        258
    78         74
    79        203
    80         21
    82         45
    83         17
    84         23
    86          7
    89         73
    91        999
    94          8
    96          7
    97          7
    98          5
    99          4
   100          2
   101          3
   104        124
   106        743
   107        128
   109         40
   110          6
   113         71
   115          1
   116          3
   117          2
   118          2
   120          1
   121          3
   123          1
   124          4
   125          4
   126          2
   127          4
   128          3
   129          2
   132         31
   133         13
   134         25
   135          5
   136          1
   137          1
   139          1
   143          1
   144          1
   146          2
   147          1
   148          1
   149          3
   150          1
   151          4
   152          4
   153         10
   154          3
   155          1
   159         10
   161          1
   163          1
   164          1
   169          2
   171          8
   172          1
   173          2
   177          2
   179         63
   180          2
   185          1
   194          3
   196         50
   197          8
   198          3
   199          1
   207          1
   216        152
   217         14
   218          1
   244          1
   265          1
   282         16
   284         41
   285        341
   286         43
   287          3