##TITLE=Library Entry 85868
##JCAMP-DX=Revision 4.10 
##DATA TYPE=MASS SPECTRUM
##SAMPLE DESCRIPTION=ASES Database, Dalian Institute, P.R. China
##NAMES=HP
##CAS NAME=1-((4-Methylphenyl)sulfonylamino)-4,5,6,7(1H)-tetrahydrobenzo(d)t
riazole
##MOLFORM=C13H16N4O2S
##CAS REGISTRY NO=3400-05-3
##MP= -300
##BP= -300
##MW= 292
##$RETENTION INDEX=0
##$CONDENSED SPECTRUM=NO
##NPOINTS= 20
##XYDATA=(XY..XY) 1 
    67        270
    79        649
    80        239
    81        920
    82        208
    91        589
    92        110
    95        130
   108         69
   109        999
   123         30
   137         50
   139        390
   140        317
   155         40
   175          9
   185          9
   264         19
   292         19
   293         29