##TITLE=Library Entry 12920
##JCAMP-DX=Revision 4.10 
##DATA TYPE=MASS SPECTRUM
##SAMPLE DESCRIPTION=A.A.Kutin, Moscow, Russia
##NAMES=HP
##CAS NAME=Cyclohexane-1,3-dione, 2-(1-acetyl-3,3,3-trichloropropyl)-5,5-dim
ethyl-
##MOLFORM=C13H17Cl3O3
##CAS REGISTRY NO=340014-84-8
##MP= -300
##BP= -300
##MW= 326
##$RETENTION INDEX=0
##$CONDENSED SPECTRUM=NO
##NPOINTS= 183
##XYDATA=(XY..XY) 1 
    33          2
    34          0
    35          2
    36         22
    37          3
    39        152
    40         46
    41        155
    43        999
    45          7
    47          0
    49          3
    50         15
    51         35
    53         97
    55        170
    56         29
    57         12
    59         15
    61         22
    62          4
    63         20
    65         70
    66         16
    67         32
    68         35
    69         58
    70          5
    71          7
    73         14
    74          3
    75         14
    77         26
    78         24
    79         24
    80          8
    81         21
    82         38
    83        139
    85         25
    87         19
    88          4
    89         24
    91         31
    92          5
    93         23
    94         10
    95         24
    96         20
    97         38
    99         47
   101         25
   102          6
   103          9
   104          5
   105         11
   106          3
   107         18
   109         22
   111        193
   113         22
   115         17
   116         13
   117         11
   118          5
   119         12
   121         28
   123         33
   124         12
   125         23
   127         22
   128         14
   129         28
   131         55
   132          6
   133         17
   135         18
   136          3
   137          9
   138          4
   139         13
   140          2
   141          4
   142          0
   143          3
   144          0
   145          5
   146          5
   147          9
   149         27
   151         19
   153         33
   155         56
   157         24
   158          3
   159          5
   160          0
   161          2
   162          3
   163          9
   165         81
   167        931
   168         86
   169         25
   171         12
   173          2
   175         12
   177         11
   178          1
   179          4
   180          0
   181          1
   183          5
   184          2
   185          5
   187         32
   189          9
   191         48
   192         13
   193          9
   195         28
   196         28
   197          5
   198          0
   199          0
   200          0
   203          1
   205          0
   206          0
   207          9
   208          5
   209         43
   211         81
   212         13
   213         71
   214          9
   215         16
   216          2
   217          0
   219         20
   220          2
   221          2
   227          5
   228          0
   229          4
   231          1
   237          0
   245          1
   247         15
   248          7
   249         50
   250          9
   251         29
   252          4
   253          5
   254          3
   255         14
   256          2
   257          5
   280          1
   281          2
   283          9
   284         35
   285         11
   286         29
   287          6
   288         10
   289          2
   290          3
   291         19
   292          5
   293          9
   294          1
   295          1
   311          2
   313          2
   325          2
   326         18
   327          4
   328         16
   329          1
   330          5
   332          1