##TITLE=Library Entry 82668
##JCAMP-DX=Revision 4.10 
##DATA TYPE=MASS SPECTRUM
##SAMPLE DESCRIPTION=Chemical Concepts
##NAMES=HP
##CAS NAME=Ethyl 3,3,3-trifluoro-2-(4-fluoroanilino)-2-nicotinamidopropionat
e
##MOLFORM=C17H15F4N3O3
##CAS REGISTRY NO=340032-47-5
##MP= -300
##BP= -300
##MW= 385
##$RETENTION INDEX=0
##$CONDENSED SPECTRUM=NO
##NPOINTS= 129
##XYDATA=(XY..XY) 1 
    33          1
    37          2
    38          4
    39          9
    40          8
    41          4
    42          2
    43          5
    44          9
    45          4
    47          2
    49          2
    50         34
    51        129
    52         21
    53          8
    54          2
    55          4
    56          6
    57         13
    58          2
    60          1
    61          2
    62          2
    63          6
    64          6
    65          3
    66          2
    67          2
    68          3
    69         11
    70          4
    71          1
    72          1
    73          1
    75         24
    76          9
    78        410
    79         27
    80          2
    81          3
    82          5
    83         33
    84         25
    85          3
    89          1
    90          1
    91          3
    92          2
    94         11
    95         87
    96          9
    97          1
   100          1
   102          1
   103          2
   106        999
   107         59
   108          5
   109          5
   110         22
   111         84
   112          8
   113          1
   114          1
   121          8
   122         54
   123          9
   124          1
   126          1
   133          1
   135          2
   137         14
   138          2
   140          1
   145          1
   147          1
   148          1
   150         11
   151          2
   163          1
   165          1
   170          1
   171          3
   183          1
   185          3
   186          1
   187          1
   188          2
   190         77
   191          9
   194          3
   197          1
   199          1
   203          1
   205         20
   206          3
   207          1
   208          3
   209          1
   212          1
   215          1
   216          1
   219          2
   221          1
   229          1
   230          1
   233          1
   242          2
   255          1
   261          1
   262          1
   263         49
   264          6
   265          1
   275          1
   294          1
   308          1
   309          1
   310          2
   311          5
   312        130
   313         19
   314          2
   315          1
   316          7
   317          1
   385         36
   386          6