##TITLE=Library Entry 2669
##JCAMP-DX=Revision 4.10 
##DATA TYPE=MASS SPECTRUM
##SAMPLE DESCRIPTION=A.A.Kutin, Moscow, Russia
##NAMES=HP
##CAS NAME=1,2,4-Triazolo[4,3-b]pyridazine, 6-(1-perhydroazepinyl)-3-pentafl
uoroethyl-
##MOLFORM=C13H14F5N5
##CAS REGISTRY NO=340007-49-0
##MP= -300
##BP= -300
##MW= 335
##$RETENTION INDEX=0
##$CONDENSED SPECTRUM=NO
##NPOINTS= 226
##XYDATA=(XY..XY) 1 
    33          6
    34          1
    37         34
    38        103
    39        258
    41        999
    42        451
    43        159
    44        120
    45          3
    50          8
    51         24
    52         76
    53        131
    55        468
    56        185
    57         60
    58         16
    59          2
    64        189
    65         82
    66         55
    67         81
    68        335
    69        256
    70        133
    71         39
    72          3
    75          3
    76          9
    77         18
    78         34
    79        152
    80         36
    81         62
    82        126
    83         72
    84         40
    85          3
    88          3
    90         26
    91         22
    92         42
    93         32
    94         28
    95         75
    96        100
    97        105
    98        155
    99         11
   100          6
   101          1
   102          1
   103          2
   104          7
   105         34
   106         34
   107         16
   108         17
   109         37
   110          5
   111          6
   112          2
   113          5
   114          6
   115          1
   116          2
   117          6
   118         19
   119         33
   120         27
   121         25
   122         10
   123          7
   124          2
   125          2
   126          1
   128          0
   129          1
   131         27
   133         47
   134         16
   135         35
   136          9
   137          3
   138          1
   139          2
   140         12
   141         57
   142          7
   143          4
   144          9
   145         11
   146         15
   147          8
   148         11
   149          9
   150          3
   154          0
   155          3
   156          2
   157          5
   158          9
   159          6
   160          6
   161          9
   162          7
   163          2
   164          5
   167          2
   168          3
   169         33
   170          5
   171          5
   172          3
   173          4
   174          7
   175          2
   176          0
   182          3
   183          2
   184         10
   185          1
   186          0
   188         15
   190          5
   191         12
   192          1
   194          2
   195          7
   196        154
   197         15
   198          9
   199          3
   200          1
   201          3
   202          0
   208          0
   209          1
   210          8
   211          2
   212          1
   214          7
   215         10
   216         11
   217          2
   219          3
   220          0
   222          2
   224          2
   225          5
   226          7
   227         16
   228          4
   231          0
   232         17
   233          1
   234          3
   235          0
   236          2
   237          3
   238         41
   239         62
   240         22
   241          9
   242          1
   245          3
   246         62
   247          5
   250          9
   251         14
   252         20
   253         18
   254         26
   255          4
   256          3
   260          3
   261          1
   262          1
   263          4
   264         30
   265         34
   266        104
   267         27
   268          8
   269          1
   272          4
   273          0
   274          1
   276          4
   277         10
   278         16
   279         25
   280        123
   281         30
   282          2
   285          0
   286          6
   289          4
   291         15
   292         96
   293         30
   294         16
   295          2
   300          1
   303          3
   304          2
   305          7
   306         71
   307         17
   308          5
   314          2
   315          2
   316         98
   317         32
   318          8
   319          8
   320         44
   321          8
   322          1
   330          0
   332          1
   334         88
   335        408
   336         63
   337          5