##TITLE=Library Entry 2206
##JCAMP-DX=Revision 4.10 
##DATA TYPE=MASS SPECTRUM
##SAMPLE DESCRIPTION=A.A.Kutin, Moscow, Russia
##NAMES=HP
##CAS NAME=Oxazolidin-2-one, 4-methylene-5,5-dimethyl-3-phenylamino-
##MOLFORM=C12H14N2O2
##CAS REGISTRY NO=340007-23-0
##MP= -300
##BP= -300
##MW= 218
##$RETENTION INDEX=0
##$CONDENSED SPECTRUM=NO
##NPOINTS= 95
##XYDATA=(XY..XY) 1 
    33         21
    34          4
    39        862
    40        281
    41        999
    42        225
    43        155
    44         25
    45          8
    50        116
    51        274
    52        102
    53        128
    54         83
    55        185
    56         24
    57          9
    58          8
    59          6
    61          8
    62         27
    63         90
    65        696
    66         99
    67        161
    68        180
    69        352
    70         23
    71         18
    73          7
    74         21
    77        700
    78         80
    79         24
    80         12
    82        102
    83         12
    84          3
    85          1
    86          4
    87          8
    88          1
    89          5
    91        192
    92        305
    93        167
    94         15
    95          7
    96          3
    97         15
   103         12
   105        142
   106         94
   107         30
   108          5
   109          0
   113          0
   115         12
   116         17
   117         36
   118         37
   119          9
   120          1
   127          3
   128          8
   129         11
   130         21
   131         67
   132         85
   133         32
   134         16
   135          0
   142          3
   143          3
   144          3
   145          9
   146          4
   147          1
   152          0
   156          6
   157          7
   158         15
   159         20
   160          7
   170          0
   171          5
   173        227
   174        127
   175         12
   176          0
   216          0
   217         30
   218        122
   219         15
   220          0