##TITLE=Library Entry 17957
##JCAMP-DX=Revision 4.10 
##DATA TYPE=MASS SPECTRUM
##SAMPLE DESCRIPTION=Chemical Concepts
##NAMES=HP
##CAS NAME=Formamide, N-methoxy-
##MOLFORM=C2H5NO2
##CAS REGISTRY NO=34005-41-9
##MP= -300
##BP= -300
##MW= 75
##$RETENTION INDEX=0
##$CONDENSED SPECTRUM=NO
##NPOINTS= 20
##XYDATA=(XY..XY) 1 
    26          8
    27         67
    28        181
    29        967
    30        269
    31        467
    32        805
    33         13
    42         29
    43        147
    44        295
    45        478
    46        257
    47        999
    48         15
    58          6
    60         11
    74         23
    75        384
    76         13