##TITLE=Library Entry 26852
##JCAMP-DX=Revision 4.10 
##DATA TYPE=MASS SPECTRUM
##SAMPLE DESCRIPTION=A.A.Kutin, Moscow, Russia
##NAMES=HP
##CAS NAME=Propanamide, 2,3,3,3-tetrafluoro-2-heptafluoropropoxy-N-(n-heptyl
)-
##MOLFORM=C13H16F11NO2
##CAS REGISTRY NO=340035-93-0
##MP= -300
##BP= -300
##MW= 427
##$RETENTION INDEX=0
##$CONDENSED SPECTRUM=NO
##NPOINTS= 185
##XYDATA=(XY..XY) 1 
    33          8
    34          0
    36          0
    39        160
    40         45
    41        647
    42        227
    43        546
    44         82
    45          4
    46          4
    47         13
    48          1
    50         13
    51         11
    52          5
    53         34
    54         49
    55        360
    56        268
    57        999
    58        127
    59          8
    60          7
    61          1
    62          1
    63          2
    64          6
    65          6
    66          5
    67         27
    68         40
    69        408
    70        155
    71         26
    72         77
    73          3
    74          4
    75          1
    76          7
    77          5
    78         21
    79          6
    80          2
    81         16
    82          9
    83         32
    84         19
    85         12
    86         19
    87          1
    88         13
    89          1
    90          3
    91          2
    92          2
    93          3
    95          9
    96         11
    97         45
    98         42
    99         18
   100         70
   101          4
   102          3
   104          3
   105          3
   106          0
   107          0
   108          1
   109         29
   110          3
   111          0
   112          4
   113          2
   114          7
   115          1
   116         17
   117          1
   119         31
   120          0
   121          1
   122          1
   124          1
   125          1
   126         10
   128         71
   129         64
   130          6
   131          5
   135          0
   136          0
   137          0
   138          4
   139          1
   140          7
   142        687
   143         63
   144         46
   145          2
   146          2
   147          1
   148         21
   149          2
   150         11
   151          1
   152          2
   153          0
   154          9
   155          2
   156        104
   157         64
   158         16
   159          1
   160          1
   162          3
   163          1
   164          1
   165          4
   166          2
   167         12
   169        235
   170          8
   171          2
   172          2
   173          0
   176          1
   178         25
   179          1
   182          0
   184          0
   187          0
   190          0
   192          2
   196          1
   198         10
   199          0
   210          7
   212          9
   213          0
   214          0
   223          0
   224          0
   236          0
   242          9
   243          1
   249          0
   256          1
   274          5
   275          0
   285          0
   294          1
   308          6
   310         24
   311          1
   322          0
   324          1
   328          2
   329          0
   330         28
   331          2
   336          0
   342         52
   343        259
   344         27
   345          1
   356         61
   357         23
   358          3
   368          0
   370          9
   371          3
   372          0
   384         26
   385          4
   386          0
   398          7
   399          1
   408          6
   409          0
   412          0
   422          0
   426          0
   427          7
   428          1