##TITLE=Library Entry 40550
##JCAMP-DX=Revision 4.10 
##DATA TYPE=MASS SPECTRUM
##SAMPLE DESCRIPTION=NIST Mass Spectrometry Data Center, 1990.
##NAMES=HP
##CAS NAME=Cyclopentylcarboxylic acid
##MOLFORM=C6H10O2
##CAS REGISTRY NO=3400-45-1
##MP= -300
##BP= -300
##MW= 114
##$RETENTION INDEX=0
##$CONDENSED SPECTRUM=NO
##NPOINTS= 58
##XYDATA=(XY..XY) 1 
    14          4
    15         13
    17          0
    18          2
    25          3
    26         24
    27        127
    28         32
    29         48
    30          3
    31         15
    32          1
    37         17
    38         39
    39        256
    40         71
    41        463
    42        100
    43         34
    44         13
    45         72
    47          3
    50          8
    51         16
    52          8
    53         35
    54          3
    55        132
    56          8
    57         12
    58         10
    59          5
    60         18
    61          4
    62          7
    63          8
    64          4
    65         26
    66         14
    67        105
    68        150
    69        237
    70         16
    71         21
    72          4
    73        999
    74         37
    75          5
    81          7
    86        278
    87         11
    95         11
    96         20
    97         10
    99         15
   113         34
   114         65
   115          6