##TITLE=Library Entry 89413
##JCAMP-DX=Revision 4.10 
##DATA TYPE=MASS SPECTRUM
##SAMPLE DESCRIPTION=Chemical Concepts
##NAMES=HP
##CAS NAME=2-Piperidino-6-(3-pyridyl)-4,4-bis(trifluoromethyl)-4H-1,3,5-oxad
iazine
##MOLFORM=C15H14F6N4O
##CAS REGISTRY NO=340032-85-1
##MP= -300
##BP= -300
##MW= 380
##$RETENTION INDEX=0
##$CONDENSED SPECTRUM=NO
##NPOINTS= 163
##XYDATA=(XY..XY) 1 
    33          2
    34          1
    35          1
    36          2
    37          2
    39         54
    40         27
    41        379
    42        163
    43         53
    44         11
    45          1
    47          5
    48          1
    49          3
    50         40
    51         83
    52         16
    53         25
    54         51
    55        216
    56        154
    57         19
    58          2
    59          1
    62          1
    63          3
    64          3
    65          4
    67         31
    68         58
    69        552
    70         58
    71          6
    73          1
    74          2
    75          7
    76         23
    77         45
    78        116
    79          9
    80          9
    82         91
    83        295
    84        108
    85          6
    86          1
    87          1
    89          1
    90          1
    92         58
    93          3
    94          2
    95          5
    96          8
    97          2
    98          1
   100          1
   101          1
   102          1
   103          6
   104         45
   105         66
   106        109
   107          8
   109         11
   110         21
   112        999
   113         66
   114          4
   115          1
   117          1
   119          1
   120          1
   122          3
   123          2
   124          3
   125          1
   126          1
   127          1
   128          1
   129          1
   130          1
   131          1
   132          1
   135          2
   136          1
   137          1
   138          1
   140          1
   141          3
   142         61
   143          3
   145          2
   146          3
   148          1
   150          1
   151          3
   152          1
   154          2
   156          8
   157          1
   158          1
   159          1
   160          1
   162          2
   163          1
   164          1
   165          5
   166          1
   171          4
   172          2
   173          1
   177          1
   178          9
   179          2
   180          1
   184          2
   185          2
   186          1
   187          5
   188          1
   190          2
   192         40
   193          3
   204          5
   205          2
   206          4
   207         57
   208          5
   218          1
   222          1
   227          2
   228          1
   232          4
   235          8
   236         20
   237          2
   241          1
   247          1
   248          1
   254          1
   255          1
   256          9
   257          3
   261          2
   269          2
   271          1
   274          5
   275         14
   276         63
   277          6
   283          1
   296          1
   307          1
   308          1
   309          4
   311        311
   312         48
   313          4
   379          2
   380         47
   381          8