##TITLE=Library Entry 20555
##JCAMP-DX=Revision 4.10 
##DATA TYPE=MASS SPECTRUM
##SAMPLE DESCRIPTION=NIST Mass Spectrometry Data Center, 1998.
##NAMES=HP
##CAS NAME=cis-11-Tetradecen-1-ol
##MOLFORM=C14H28O
##CAS REGISTRY NO=34010-15-6
##MP= -300
##BP= -300
##MW= 212
##$RETENTION INDEX=1678
##$CONDENSED SPECTRUM=NO
##NPOINTS= 93
##XYDATA=(XY..XY) 1 
    15          1
    26          3
    27         64
    28         17
    29        124
    30          5
    31        160
    32          1
    37          1
    38          3
    39        126
    40         27
    41        761
    42        136
    43        194
    44         20
    45         17
    46          1
    50          3
    51         11
    52          8
    53        104
    54        296
    55        999
    56        185
    57        144
    58         10
    59          3
    63          2
    65         25
    66         51
    67        626
    68        712
    69        535
    70        108
    71         54
    72          7
    73          4
    77         18
    78          5
    79         54
    80         31
    81        563
    82        785
    83        246
    84         41
    85         31
    86          4
    87          1
    91          7
    92          1
    93         15
    94         17
    95        414
    96        424
    97        110
    98         18
    99          8
   100          2
   105          1
   107          5
   108          7
   109        192
   110        145
   111         30
   112         10
   113          3
   121          3
   122          6
   123         78
   124         65
   125         11
   126          5
   127          1
   135          1
   136          3
   137         37
   138         42
   139          5
   140          1
   141          1
   151         12
   152         14
   153          2
   165          6
   166         22
   167          3
   168          1
   179          1
   184          1
   194         33
   195          5
   212          1