##TITLE=Library Entry 20565
##JCAMP-DX=Revision 4.10 
##DATA TYPE=MASS SPECTRUM
##SAMPLE DESCRIPTION=NIST Mass Spectrometry Data Center, 1998.
##NAMES=HP
##CAS NAME=11-Hexadecen-1-ol, acetate, (Z)-
##MOLFORM=C18H34O2
##CAS REGISTRY NO=34010-21-4
##MP= -300
##BP= -300
##MW= 282
##$RETENTION INDEX=2330
##$CONDENSED SPECTRUM=NO
##NPOINTS= 122
##XYDATA=(XY..XY) 1 
    14          1
    15          7
    26          2
    27         44
    28         10
    29         84
    30          2
    31          5
    37          1
    38          2
    39         80
    40         17
    41        501
    42        107
    43        827
    44         25
    45          6
    50          2
    51          6
    52          5
    53         72
    54        413
    55        999
    56        166
    57        109
    58          8
    59          3
    60          2
    61        136
    62          3
    63          2
    65         23
    66         46
    67        621
    68        413
    69        437
    70         79
    71         38
    72          5
    73         38
    74          2
    77         20
    78          6
    79         76
    80         53
    81        743
    82        914
    83        329
    84         39
    85         17
    86          3
    87          3
    91         11
    92          2
    93         22
    94         27
    95        537
    96        773
    97        204
    98         23
    99          4
   100          2
   101          2
   102          1
   105          2
   106          1
   107          8
   108         12
   109        284
   110        310
   111         70
   112          9
   113          2
   114          2
   115          1
   116          1
   121          6
   122         13
   123        146
   124        165
   125         25
   126          5
   127          2
   128          2
   129          1
   135          3
   136          8
   137         77
   138         91
   139         12
   140          7
   141          2
   142          1
   143          1
   149          1
   150          2
   151         28
   152         41
   153          7
   154          2
   155          1
   156          1
   164          1
   165         23
   166         31
   167          5
   168          1
   170          1
   179         11
   180         12
   181          2
   193          6
   194         20
   195          3
   207          1
   221          2
   222        122
   223         22
   224          2
   239          2
   281          1
   282          1