##TITLE=Library Entry 60017
##JCAMP-DX=Revision 4.10 
##DATA TYPE=MASS SPECTRUM
##SAMPLE DESCRIPTION=Chemical Concepts
##NAMES=HP
##CAS NAME=3,3,3-Trifluoro-N-(3-nitrophenyl)-2-(trifluoromethyl)propionamide
##MOLFORM=C10H6F6N2O3
##CAS REGISTRY NO=340137-93-1
##MP= -300
##BP= -300
##MW= 316
##$RETENTION INDEX=0
##$CONDENSED SPECTRUM=NO
##NPOINTS= 152
##XYDATA=(XY..XY) 1 
    33         20
    34         16
    35          4
    37         79
    38        284
    39        308
    40        240
    41        157
    42         77
    44        146
    46        118
    47         41
    50        240
    51        142
    52        326
    54         69
    55         29
    56         13
    57         28
    59         14
    60          7
    61         32
    62        130
    63        556
    64        510
    65        598
    67         13
    69        839
    71         36
    72          5
    74         74
    75        100
    76        174
    78         65
    79         63
    80        263
    81         52
    82         51
    83         16
    85         10
    86          3
    87          9
    88         13
    91        999
    92        716
    93        132
    95         20
    96          4
    97          4
    98          4
    99          3
   100          4
   101          4
   102          3
   103          3
   104          8
   106         26
   108        118
   109         16
   110         26
   111          7
   113        104
   114          5
   115          2
   117          4
   118         24
   119         21
   121          6
   122         13
   123          3
   124          2
   125          8
   127          2
   129          1
   131          3
   132         13
   134         35
   135         14
   138        739
   139         85
   140         11
   141          3
   142          4
   144          5
   145          4
   147          1
   148          2
   149          3
   150          4
   151          4
   152         10
   153         14
   154          3
   157          4
   159         49
   160          1
   161          3
   162          2
   165        291
   166         20
   167          2
   170          2
   171          6
   172          7
   173          6
   175          2
   176          1
   179        346
   180         19
   181        102
   182          9
   183          6
   184          7
   185          1
   187          8
   188          2
   195          1
   200         36
   201         11
   202          7
   203          2
   216          1
   218          1
   219          1
   222          5
   229          2
   230         15
   231          2
   249          4
   250         10
   251          2
   257          1
   258          5
   266          1
   268          4
   269         37
   270         68
   271          7
   283          1
   286         12
   287          3
   296          3
   297          1
   298          2
   299          8
   300          9
   301          4
   312          2
   313          9
   316        686
   317         77
   318          7