##TITLE=Library Entry 96749
##JCAMP-DX=Revision 4.10 
##DATA TYPE=MASS SPECTRUM
##SAMPLE DESCRIPTION=A.A.Kutin, Moscow, Russia
##NAMES=HP
##CAS NAME=N-(5-Isobutylsulfanyl-1H-[1,2,4]triazol-3-yl)-acetamide
##MOLFORM=C8H14N4OS
##CAS REGISTRY NO=340176-37-6
##MP= -300
##BP= -300
##MW= 214
##$RETENTION INDEX=0
##$CONDENSED SPECTRUM=NO
##NPOINTS= 114
##XYDATA=(XY..XY) 1 
    39         48
    40         23
    41        109
    42         33
    43        328
    44         15
    45         20
    46          7
    47          6
    48          0
    50          1
    51          2
    52          0
    53         14
    54          2
    55         19
    56          8
    57         78
    58         21
    59         18
    60         20
    61          2
    62          0
    64          0
    67          0
    68          6
    69          7
    70         34
    71          7
    72          3
    73          7
    74         31
    75         11
    76          2
    77          1
    81          1
    82          2
    83         10
    84          8
    85        131
    86         13
    87         32
    88          4
    89          1
    90          0
    91          1
    94          1
    95         21
    96          2
    97         10
    98          8
    99          2
   100          1
   101          1
   102          2
   105          0
   108          0
   109         10
   111          2
   112          4
   113          2
   115         26
   116        999
   117         87
   118         46
   119          3
   123        120
   124          9
   125         14
   126          1
   127         11
   128          6
   129        139
   130         47
   131          9
   132          1
   137          0
   139          9
   140         28
   141          8
   142          7
   143         14
   144          1
   149          2
   153          4
   154          2
   155          4
   157         70
   158        708
   159         72
   160         36
   161          2
   163          0
   166          5
   167        114
   168         12
   169          1
   171         44
   172         63
   173          7
   174          2
   181         23
   182          2
   183          2
   185          4
   195          2
   199         38
   200          5
   201          1
   213          4
   214        201
   215         22
   216          9
   217          1