##TITLE=Library Entry 1740
##JCAMP-DX=Revision 4.10 
##DATA TYPE=MASS SPECTRUM
##SAMPLE DESCRIPTION=Chemical Concepts
##NAMES=HP
##CAS NAME=3,3,3-Trifluoro-N-(4-fluorophenyl)-2-(trifluoromethyl)propionamid
e
##MOLFORM=C10H6F7NO
##CAS REGISTRY NO=340138-04-7
##MP= -300
##BP= -300
##MW= 289
##$RETENTION INDEX=0
##$CONDENSED SPECTRUM=NO
##NPOINTS= 80
##XYDATA=(XY..XY) 1 
    33         95
    36         26
    37         22
    39        999
    41        196
    42        206
    44        349
    46          4
    47         15
    50         24
    51         26
    52         13
    53         26
    55        156
    56        240
    59          3
    60          6
    61         17
    63         24
    64         15
    65          6
    66          5
    67         25
    68        145
    70         54
    71         39
    72         22
    74          4
    75         12
    77         11
    78          6
    79          5
    80          5
    81         26
    83        119
    84         35
    85         17
    87          2
    89          7
    91         38
    93          5
    94          4
    95         18
    96          5
    97          7
    98          8
    99          3
   100          3
   101          5
   105          4
   108          2
   109         21
   110         63
   111        180
   112         60
   113          9
   114          6
   121          1
   125          1
   127          2
   128          5
   132          2
   135          1
   136          1
   137          8
   138         23
   139          1
   141          5
   142          2
   143          1
   145          3
   157          1
   158          3
   161          2
   171          9
   179         11
   199          1
   283          1
   289         46
   290          3