##TITLE=Library Entry 71346
##JCAMP-DX=Revision 4.10 
##DATA TYPE=MASS SPECTRUM
##SAMPLE DESCRIPTION=A.A.Kutin, Moscow, Russia
##NAMES=HP
##CAS NAME=Piperidin-1-yl-acetic acid (2,2-dichloro-3-phenyl-cyclopropylmeth
ylene)-hydrazide
##MOLFORM=C17H21Cl2N3O
##CAS REGISTRY NO=340295-40-1
##MP= -300
##BP= -300
##MW= 353
##$RETENTION INDEX=0
##$CONDENSED SPECTRUM=NO
##NPOINTS= 185
##XYDATA=(XY..XY) 1 
    34          0
    35          1
    36          4
    37          0
    38          2
    39          9
    40          7
    41         57
    42         59
    43         18
    44         25
    45          1
    50          3
    51          7
    52          2
    53          2
    54          4
    55         47
    56         16
    57          7
    58          1
    59          0
    60          0
    61          0
    62          2
    63          6
    64          1
    65          4
    67          4
    68          8
    69         28
    70         37
    71          2
    72          0
    73          2
    74          2
    75          6
    76          4
    77         13
    78          3
    79          1
    80          1
    81          1
    82          4
    83          5
    84         49
    85          4
    86          1
    87          2
    88          2
    89          8
    90          2
    91          4
    92          0
    93          0
    94          1
    95          1
    96         23
    98        999
    99         69
   101          9
   102         15
   103          5
   104          3
   105          4
   106          0
   107          0
   108          0
   109          1
   110          0
   111          2
   112          2
   113          4
   114          7
   115         43
   116          5
   117          3
   118          0
   119          0
   120          0
   121          1
   122          3
   123          2
   124          4
   125         10
   126          6
   127         21
   128         25
   129          5
   130          5
   131          1
   132          0
   133          0
   134          0
   135          0
   136          1
   137          2
   138          1
   139          6
   140          8
   141          7
   142          5
   143          2
   144          0
   145          0
   147          0
   149         32
   150          5
   151          9
   152          1
   153          0
   154          0
   155          1
   156          1
   157          6
   158          1
   159          0
   160          0
   161          0
   162          5
   163          2
   164          2
   165          0
   166          0
   167          0
   168          0
   169          0
   170          0
   171          1
   172          2
   173          0
   174          1
   175          0
   176          2
   177          4
   178          1
   179          1
   180          0
   181          0
   183          0
   185          0
   189          0
   190          0
   191          1
   192          0
   193          0
   194          0
   195          0
   196          0
   197          0
   198          0
   199          0
   200          0
   205          0
   208          0
   211          0
   212          0
   213          0
   222          0
   231          0
   235          0
   253          0
   254          0
   262          0
   270          0
   271          0
   279          0
   280          0
   281          1
   282          5
   283          1
   284          0
   299          0
   314          0
   315          0
   316          0
   317          2
   318          9
   319          2
   320          2
   321          0
   353          0
   354          0
   355          0
   356          0