##TITLE=Library Entry 1821
##JCAMP-DX=Revision 4.10 
##DATA TYPE=MASS SPECTRUM
##SAMPLE DESCRIPTION=A.A.Kutin, Moscow, Russia
##NAMES=HP
##CAS NAME=2H-Pyrane-5-carboxamide, N-(3,4-dimethylphenyl)-2-oxo-
##MOLFORM=C14H13NO3
##CAS REGISTRY NO=340295-88-7
##MP= -300
##BP= -300
##MW= 243
##$RETENTION INDEX=0
##$CONDENSED SPECTRUM=NO
##NPOINTS= 88
##XYDATA=(XY..XY) 1 
    33          3
    34         40
    35          5
    36         19
    37         54
    38        256
    39        999
    40         29
    41        132
    42         50
    43          6
    44         28
    45          6
    48          3
    50        159
    51        393
    52        123
    53        150
    54         27
    55         43
    57          2
    62         24
    63        105
    64         59
    65        166
    66         70
    67         54
    68         21
    69         65
    71          4
    74          9
    75         16
    77        435
    78        127
    79        176
    80         13
    82         14
    84          3
    89         41
    91        226
    92         25
    93         45
    95        184
    96          1
   100          5
   102         18
   103         81
   104         37
   105         88
   106         65
   110          0
   115         20
   116         14
   117          4
   118          4
   119          5
   120         74
   121        137
   123        185
   124          1
   125          1
   127         15
   128         33
   129         28
   130         39
   131         50
   132         24
   141          2
   143         21
   144         20
   145         30
   154         21
   155         16
   156         44
   158         22
   168          4
   169          4
   170         43
   171         26
   172          2
   181          1
   184         30
   198         28
   214          0
   215         12
   242         45
   243         95
   244          5