##TITLE=Library Entry 76778
##JCAMP-DX=Revision 4.10 
##DATA TYPE=MASS SPECTRUM
##SAMPLE DESCRIPTION=A.A.Kutin, Moscow, Russia
##NAMES=HP
##CAS NAME=Oxazolidin-2-one, 4-hydroxy-4,5,5-trimethyl-3-(2-phenylethyl)-
##MOLFORM=C14H19NO3
##CAS REGISTRY NO=340265-98-7
##MP= -300
##BP= -300
##MW= 249
##$RETENTION INDEX=0
##$CONDENSED SPECTRUM=NO
##NPOINTS= 120
##XYDATA=(XY..XY) 1 
    33          8
    34          1
    36          0
    37          1
    39        141
    40         47
    41        232
    42         90
    43        476
    44         32
    45         15
    46          0
    50         23
    51         72
    52         23
    53         28
    54         22
    55         43
    56        126
    57        240
    58         37
    59        138
    60         11
    62          9
    63         31
    65        144
    67         59
    68         29
    69         28
    70         18
    71         40
    72        153
    74         19
    75          6
    77        137
    78         58
    79         75
    80         11
    81         21
    82         17
    84        143
    85        181
    86         25
    87         14
    89         24
    91        268
    92         50
    93          6
    94         11
    96        131
    97          9
    98          3
    99          1
   100          6
   101          4
   104        999
   105        199
   106         12
   107          0
   108          0
   109          6
   110          1
   112         19
   114        285
   115         19
   117          9
   118          6
   119          5
   120         14
   121          2
   122          0
   127        143
   128         14
   129          7
   130          3
   131          1
   132          3
   133          0
   135          1
   140          1
   141          0
   142          0
   143          0
   144          2
   145          2
   146          2
   147          3
   148         14
   149          2
   154          0
   155          0
   156          2
   158        256
   159         18
   160          2
   161          0
   162          2
   163         10
   164          2
   170          0
   171          0
   172          2
   173          0
   176          1
   186          3
   188          6
   190         10
   191          6
   192          0
   216          0
   229          0
   231         62
   232         17
   233          2
   234          1
   246          0
   247          1
   249        192
   250         28
   251          3