##TITLE=Library Entry 97332
##JCAMP-DX=Revision 4.10 
##DATA TYPE=MASS SPECTRUM
##SAMPLE DESCRIPTION=A.A.Kutin, Moscow, Russia
##NAMES=HP
##CAS NAME=Formhydrazide, 1-(2-phenylcyclopropyl)-N2-(3-hydroxybenzylideno)-
##MOLFORM=C17H16N2O2
##CAS REGISTRY NO=340204-21-9
##MP= -300
##BP= -300
##MW= 280
##$RETENTION INDEX=0
##$CONDENSED SPECTRUM=NO
##NPOINTS= 184
##XYDATA=(XY..XY) 1 
    36          0
    37          3
    39        154
    40         48
    41         31
    42         16
    43         31
    44         35
    45          1
    50         56
    51        101
    52         52
    53         45
    54         19
    55         48
    57         28
    58         24
    59          4
    60          1
    62         49
    63         92
    64         50
    65        173
    66         20
    67         11
    68         27
    69         19
    70         15
    71         17
    73         10
    74         19
    75         33
    76         45
    77        188
    78         92
    79         48
    80         56
    81         44
    82         14
    83         20
    84         23
    85          9
    86          8
    87         19
    89        135
    91        839
    93        147
    94         18
    95          9
    97         25
    98          9
    99          7
   101         18
   102         44
   103         49
   104         70
   105         87
   106         81
   107         85
   108        109
   109         31
   110         11
   111         18
   112         28
   113         27
   115        981
   116        351
   117        999
   118        229
   119        662
   120        140
   121         48
   122         53
   123         20
   124         10
   127        821
   128         90
   129         24
   130         35
   131         53
   132         55
   133        114
   134        135
   135        208
   136        101
   137          8
   138          4
   139          6
   140          7
   141          7
   142         17
   143         39
   144        155
   145        551
   146         62
   147         30
   148        111
   149         56
   150         19
   151         10
   152         13
   153          8
   155          4
   156          2
   157         13
   159         67
   160        117
   161         92
   162         31
   163         24
   164         19
   165         18
   166         10
   167         13
   168          7
   169          8
   171         61
   172         10
   173          3
   176         75
   177          7
   178          2
   181          2
   182          3
   183          4
   185          1
   186          1
   187          4
   188          2
   189         16
   191          3
   193          2
   194          4
   195         10
   196         53
   197         13
   199         14
   200          5
   201          6
   202         33
   203         22
   204         17
   205          2
   206          4
   207          5
   209         65
   210         90
   211         14
   215          0
   219          7
   220          8
   221          6
   223          7
   224         10
   225         58
   226         15
   227          5
   229          2
   230          0
   231         18
   232          1
   234          5
   235         24
   236         39
   237         38
   238         18
   239         11
   241          0
   243          3
   244         13
   247          2
   251         20
   252         47
   253         75
   254         13
   262          2
   263          2
   269          1
   278          3
   280        409
   281         65
   282         29
   283         15
   284          4