##TITLE=Library Entry 109683
##JCAMP-DX=Revision 4.10 
##DATA TYPE=MASS SPECTRUM
##SAMPLE DESCRIPTION=A.A.Kutin, Moscow, Russia
##NAMES=HP
##CAS NAME=9H-Purin-6-amine, 8-(2-chlorobenzylthio)-
##MOLFORM=C12H10ClN5S
##CAS REGISTRY NO=340297-27-0
##MP= -300
##BP= -300
##MW= 291
##$RETENTION INDEX=0
##$CONDENSED SPECTRUM=NO
##NPOINTS= 201
##XYDATA=(XY..XY) 1 
    33          0
    34          0
    35          0
    36          3
    37          1
    38          9
    39         28
    40         13
    41          6
    42          5
    43         33
    44         12
    45         30
    46          1
    47          0
    49          1
    50          7
    51         13
    52          3
    53         36
    54         30
    55         20
    56          1
    57          2
    58          2
    59          7
    60         13
    61          3
    62         13
    63         54
    64         12
    65         16
    66          7
    67          4
    68          5
    69          4
    70         35
    71          5
    72          6
    73         15
    74          2
    75         12
    76          2
    77          9
    78          3
    79          3
    80          8
    81          7
    82          2
    83          2
    84          3
    85         63
    86          7
    87          7
    89        153
    90         42
    91         15
    92          3
    93          1
    94          2
    95          2
    96         10
    97         11
    98          5
    99         59
   100          3
   101         18
   102          1
   103          0
   104          1
   105          1
   106          1
   107          2
   108          6
   109          1
   110          1
   111          3
   112         22
   113          3
   114          2
   115          1
   116          2
   117          1
   118          1
   119          3
   120          3
   121          9
   122          3
   123          5
   124          5
   125        999
   126         81
   127        326
   128         26
   129          2
   130          0
   131          2
   132          1
   133          1
   134          2
   135          5
   136          7
   137          0
   139         61
   140          8
   141          3
   142          3
   143          1
   144          0
   145          1
   146          1
   147          0
   148          4
   149          2
   150          3
   151          2
   152          1
   153          1
   154          0
   155         11
   156          2
   157          4
   158          1
   159          1
   160          1
   161          0
   162          1
   163          2
   164          3
   165          0
   166         44
   167         13
   168          4
   169          1
   170          1
   171          2
   173          1
   174          0
   175          1
   176          0
   177          2
   178          1
   179          2
   180          9
   181          1
   182          0
   183          0
   184          0
   185          1
   187          0
   188          0
   189          0
   190          0
   191          1
   192          2
   193          0
   194          0
   195          1
   196          1
   197          1
   198          0
   200          0
   204          0
   205          0
   206          6
   207          1
   208          0
   210          0
   211          0
   212          0
   213          0
   214          0
   221          0
   222          2
   223         30
   224          5
   225          0
   226          0
   227          0
   229          0
   231          0
   233          0
   237          0
   239          3
   240          0
   241          1
   254         13
   255         10
   256        279
   257         45
   258         68
   259         10
   260         17
   261          2
   283          0
   291        240
   292         36
   293         85
   294         13
   295          4
   296          0