##TITLE=Library Entry 4342
##JCAMP-DX=Revision 4.10 
##DATA TYPE=MASS SPECTRUM
##SAMPLE DESCRIPTION=Asinex Ltd, Moscow, Russia
##NAMES=HP
##CAS NAME=Benzenamine, N-cyclopentyl-4-(2,5-dimethyl-1H-pyrrol-1-yl)-2-nitr
o-
##MOLFORM=C17H21N3O2
##CAS REGISTRY NO=340318-94-7
##MP= -300
##BP= -300
##MW= 299
##$RETENTION INDEX=0
##$CONDENSED SPECTRUM=NO
##NPOINTS= 208
##XYDATA=(XY..XY) 1 
    39        483
    40        149
    41        999
    42        231
    43         94
    44         16
    45         12
    50         47
    51        119
    52        129
    53        220
    54        170
    55        103
    56         27
    57         43
    59          8
    61          1
    62         18
    63         79
    64         42
    65         99
    66         47
    67        142
    68         33
    69        121
    70         13
    71          8
    72          1
    73          3
    74         13
    75         42
    76         55
    77        140
    78         82
    79         59
    80         30
    81          6
    82          5
    84         18
    85         44
    86          3
    87          4
    88          9
    89         53
    90         59
    91         97
    92         50
    93         48
    94         88
    95         21
    96          7
    97         15
    98         22
    99         20
   100          2
   101         16
   102         35
   103         51
   104         66
   105         46
   106         34
   107          7
   108          2
   110          9
   111         46
   112         35
   113         22
   114         36
   115        116
   116         90
   117        123
   118         54
   119         35
   120         19
   122          1
   124          1
   125         12
   126         18
   127         55
   128         82
   129         62
   130        143
   131         56
   132         35
   133         10
   134         20
   135         79
   139          9
   140         32
   141         65
   142         91
   143        103
   144        102
   145         37
   146         11
   147          4
   150         10
   151          1
   152         16
   153         38
   154        133
   155        137
   156         95
   157         65
   158         80
   159         28
   160         12
   165          5
   166         35
   167        105
   168        156
   169        222
   170        166
   171         88
   172         40
   173         39
   174          7
   175         16
   176          2
   177          4
   178          2
   179         16
   180         26
   181         54
   182         80
   183        115
   184         90
   185        134
   186         37
   187          8
   189          2
   190          1
   192          8
   193         20
   194         32
   195         56
   196         62
   197         77
   198         31
   199         23
   200         51
   201         12
   202          1
   204          1
   205          1
   206          9
   207         24
   208         31
   209         58
   210         95
   211         84
   212         84
   213         30
   214         19
   216         47
   217          5
   219          1
   220          5
   221         27
   222         37
   223         98
   224         69
   225         49
   226         53
   227         25
   229         24
   230         45
   231         78
   232         10
   234          2
   235          7
   236         29
   237         24
   238         35
   239         19
   240         12
   241          1
   248          1
   249          7
   250         14
   251         27
   252         27
   253         45
   254         15
   255          1
   257          8
   262          3
   263         10
   264         70
   265         58
   266         39
   267          9
   269         54
   270         84
   271         16
   280         19
   281          3
   282          2
   283          1
   284         45
   285          6
   295          0
   296          8
   297         21
   298         99
   299        927
   300        169
   301         18