##TITLE=Library Entry 34210
##JCAMP-DX=Revision 4.10 
##DATA TYPE=MASS SPECTRUM
##SAMPLE DESCRIPTION=Exported from NIST MS Search
##NAMES=HP
##CAS NAME=1-Pentene, 3,3-dimethyl-
##MOLFORM=C7H14
##CAS REGISTRY NO=3404-73-7
##MP= -300
##BP= -300
##MW= 98
##$RETENTION INDEX=626
##$CONDENSED SPECTRUM=NO
##NPOINTS= 67
##XYDATA=(XY..XY) 1 
    12          2
    13          4
    14         15
    15         87
    16          2
    24          1
    25          2
    26         41
    27        348
    28         46
    29        148
    30          3
    31          1
    32          1
    36          1
    37          9
    38         26
    39        288
    40         44
    41        810
    42         51
    43        124
    44          4
    45          1
    46          1
    48          1
    49          3
    50         28
    51         47
    52         18
    53        109
    54         29
    55        404
    56        159
    57         15
    58          1
    60          1
    61          2
    62          5
    63          9
    64          1
    65         16
    66          8
    67         58
    68         39
    69        999
    70        119
    71         29
    72          2
    73          1
    74          1
    75          1
    77          5
    78          1
    79          5
    80          1
    81          7
    82          2
    83        165
    84         11
    85          1
    91          1
    95          1
    97          1
    98         90
    99          7
   100          1