##TITLE=Library Entry 20696
##JCAMP-DX=Revision 4.10 
##DATA TYPE=MASS SPECTRUM
##SAMPLE DESCRIPTION=Chemical Concepts
##NAMES=HP
##CAS NAME=Hexane, 3-methyl-4-methylene-
##MOLFORM=C8H16
##CAS REGISTRY NO=3404-67-9
##MP= -300
##BP= -300
##MW= 112
##$RETENTION INDEX=750
##$CONDENSED SPECTRUM=NO
##NPOINTS= 66
##XYDATA=(XY..XY) 1 
    24          0
    25          0
    26          7
    27        107
    28          0
    29        114
    30          1
    31          0
    35          0
    36          7
    37          2
    38          4
    39         97
    40         12
    41        311
    42         38
    43         61
    44          3
    45          1
    46          1
    47          0
    48          0
    49          1
    50          7
    51         16
    52          7
    53         56
    54         20
    55        999
    56        147
    57         36
    58          2
    61          1
    62          1
    63          4
    64          1
    65         10
    66          5
    67         55
    68         11
    69        117
    70        105
    71         11
    72          0
    74          0
    77          9
    78          1
    79          9
    80          1
    81         18
    82         21
    83        643
    84        272
    85         21
    91          1
    93          1
    95          7
    96          1
    97         29
    98          4
   104          0
   105          0
   110          3
   111          1
   112        104
   113         11