##TITLE=Library Entry 37320
##JCAMP-DX=Revision 4.10 
##DATA TYPE=MASS SPECTRUM
##SAMPLE DESCRIPTION=Chemical Concepts
##NAMES=HP
##CAS NAME=2-Heptene, 3-methyl-
##MOLFORM=C8H16
##CAS REGISTRY NO=3404-75-9
##MP= -300
##BP= -300
##MW= 112
##$RETENTION INDEX=812
##$CONDENSED SPECTRUM=NO
##NPOINTS= 30
##XYDATA=(XY..XY) 1 
    27        209
    29        141
    38         10
    39        193
    40         36
    41        874
    42        204
    43         99
    50         15
    51         26
    52         10
    53         88
    54         31
    55        900
    56        167
    57         31
    65         15
    67         78
    68         36
    69         41
    70        999
    71         78
    77         10
    79         10
    81         15
    82         10
    83        177
    84         26
   112        319
   113         26