##TITLE=Library Entry 14560
##JCAMP-DX=Revision 4.10 
##DATA TYPE=MASS SPECTRUM
##SAMPLE DESCRIPTION=CARL DJERASSI DEPT OF CHEM STANFORD UNIV STANFORD CALIF
 94305
##NAMES=HP
##CAS NAME=1,4-Naphthoquinone, 2,7-diacetyl-3,5,6,8-tetrahydroxy-
##MOLFORM=C14H10O8
##CAS REGISTRY NO=3404-89-5
##MP= -300
##BP= -300
##MW= 306
##$RETENTION INDEX=0
##$CONDENSED SPECTRUM=NO
##NPOINTS= 119
##XYDATA=(XY..XY) 1 
    40         20
    41         30
    42         40
    43        999
    44         40
    50         30
    51         50
    52         20
    53        110
    54         30
    55         50
    57         20
    61         20
    62         30
    63         40
    64         20
    65         20
    66         30
    67        100
    68         20
    69        160
    74         20
    75         20
    76         20
    77         60
    78         20
    79         30
    80         20
    81         20
    82         20
    83         20
    85         30
    90         20
    91         30
    92         20
    93         40
    94         10
    95         50
    96         20
   101         20
   103         10
   105         10
   106         10
   107         10
   108         20
   109         10
   110         20
   117         10
   119         20
   120         20
   121         10
   122         20
   123         30
   124         20
   133         10
   134         10
   135         10
   136         10
   137         10
   138         20
   147         20
   148         20
   149         10
   150         10
   151         30
   161         10
   162         10
   165         10
   166         40
   175         20
   176         10
   177         10
   179         10
   189         20
   190         40
   192         10
   193         20
   194         30
   195         10
   199         10
   203         20
   204         10
   205         10
   207         10
   208         20
   217         30
   218         40
   219         10
   221         90
   222         10
   227         20
   229         10
   232         20
   235         70
   236        200
   237         20
   245        200
   246         40
   247         50
   248         10
   250         10
   259         10
   260         70
   261         10
   262         10
   263        400
   264         70
   265         10
   273         10
   274         10
   278        100
   279         10
   288         10
   290         20
   291         20
   292         30
   306        940
   307        150
   308         30