##TITLE=Library Entry 37295
##JCAMP-DX=Revision 4.10 
##DATA TYPE=MASS SPECTRUM
##SAMPLE DESCRIPTION=NIST Mass Spectrometry Data Center, 1990.
##NAMES=HP
##CAS NAME=Hexane, 2-methyl-4-methylene-
##MOLFORM=C8H16
##CAS REGISTRY NO=3404-80-6
##MP= -300
##BP= -300
##MW= 112
##$RETENTION INDEX=734
##$CONDENSED SPECTRUM=NO
##NPOINTS= 34
##XYDATA=(XY..XY) 1 
    15         16
    26         19
    27        157
    28         64
    29         85
    39        319
    40         76
    41        545
    42        198
    43        416
    44         21
    50         25
    51         53
    52         25
    53        118
    55        857
    56        162
    57         43
    63         15
    65         32
    66         16
    67         78
    68         27
    69        144
    70        999
    71         84
    77         25
    79         27
    81         21
    83        146
    84         47
    97         27
   112        213
   113         23