##TITLE=Library Entry 3381
##JCAMP-DX=Revision 4.10 
##DATA TYPE=MASS SPECTRUM
##SAMPLE DESCRIPTION=NIST Mass Spectrometry Data Center, 1990.
##NAMES=HP
##CAS NAME=1-Pentene, 2,3-dimethyl-
##MOLFORM=C7H14
##CAS REGISTRY NO=3404-72-6
##MP= -300
##BP= -300
##MW= 98
##$RETENTION INDEX=650
##$CONDENSED SPECTRUM=NO
##NPOINTS= 37
##XYDATA=(XY..XY) 1 
    15         38
    18          5
    26         28
    27        249
    28         15
    29        160
    30          5
    37         12
    38         34
    39        381
    40         78
    41        999
    42         80
    43         61
    44          5
    50         28
    51         49
    52         20
    53        111
    54          5
    55        539
    56        152
    57         19
    62          7
    63         10
    65         26
    67         96
    69        856
    70        324
    71         17
    77         11
    79         12
    81         12
    83        225
    84         15
    98        122
    99         10