##TITLE=Library Entry 32366
##JCAMP-DX=Revision 4.10 
##DATA TYPE=MASS SPECTRUM
##SAMPLE DESCRIPTION=NIST Mass Spectrometry Data Center, 1990.
##NAMES=HP
##CAS NAME=1,3-Butadiene, 2-ethyl-
##MOLFORM=C6H10
##CAS REGISTRY NO=3404-63-5
##MP= -300
##BP= -300
##MW= 82
##$RETENTION INDEX=600
##$CONDENSED SPECTRUM=NO
##NPOINTS= 33
##XYDATA=(XY..XY) 1 
    14          8
    15         35
    26         75
    27        367
    28         87
    29         78
    32         10
    37         22
    38         70
    39        485
    40        112
    41        502
    42         76
    43         24
    49         22
    50        131
    51        158
    52         90
    53        272
    54        228
    55        101
    56         36
    63         22
    65        166
    67        999
    68         66
    69         74
    77         29
    79         64
    80         17
    81        109
    82        339
    83         27