##TITLE=Library Entry 73108
##JCAMP-DX=Revision 4.10 
##DATA TYPE=MASS SPECTRUM
##SAMPLE DESCRIPTION=CARL DJERASSI DEPT OF CHEM STANFORD UNIV STANFORD CALIF
 94305
##NAMES=HP
##CAS NAME=1-Butanamine, N-butyl-N-methyl-
##MOLFORM=C9H21N
##CAS REGISTRY NO=3405-45-6
##MP= -300
##BP= -300
##MW= 143
##$RETENTION INDEX=936
##$CONDENSED SPECTRUM=NO
##NPOINTS= 40
##XYDATA=(XY..XY) 1 
    15         10
    18         10
    27         40
    28         20
    29        100
    30         30
    31         10
    41         90
    42        100
    43         50
    44        330
    45         10
    55         20
    56         10
    57         90
    58        350
    59         10
    69         10
    70         20
    71         10
    72         30
    73         10
    83         10
    84         20
    85         10
    86         30
    87         10
    98         20
    99         10
   100        999
   101         70
   112         10
   114         10
   115         10
   126         10
   127         10
   128         10
   129         10
   142         10
   143        130