##TITLE=Library Entry 86282
##JCAMP-DX=Revision 4.10 
##DATA TYPE=MASS SPECTRUM
##SAMPLE DESCRIPTION=GAZ DE FRANCE, DELORME, PARIS, FRANCE
##NAMES=HP
##CAS NAME=Butane, 1,2,3,4-tetrachloro-
##MOLFORM=C4H6Cl4
##CAS REGISTRY NO=3405-32-1
##MP= -300
##BP= -300
##MW= 194
##$RETENTION INDEX=0
##$CONDENSED SPECTRUM=NO
##NPOINTS= 92
##XYDATA=(XY..XY) 1 
    24          2
    25         15
    26        163
    27        442
    28        124
    29         50
    35         39
    36         83
    37         54
    38         78
    39        279
    40         14
    41         40
    42         14
    43         37
    44         48
    45         13
    46          3
    47         63
    48         43
    49        334
    50        161
    51        431
    52         52
    53        279
    54         64
    55         32
    59         27
    60         32
    61        333
    62        662
    63        161
    64        210
    65         19
    73         61
    74         12
    75        403
    76         22
    77        151
    78         13
    79         23
    83        403
    84         14
    85        301
    86         13
    87        344
    88         97
    89        226
    90         42
    91         48
    92          4
    93          6
    95         11
    96        129
    97        220
    98         86
    99        140
   100         15
   101         21
   109        999
   110         54
   111        645
   112         29
   113        107
   114          5
   121         21
   122        161
   123        797
   124        183
   125        506
   126         75
   127         91
   128         10
   143         13
   144          3
   145         25
   146          3
   147         17
   148          1
   149          4
   157         32
   158        280
   159         32
   160        260
   161         21
   162         78
   163          4
   164          8
   194          5
   196          6
   198          2
   200          0