##TITLE=Library Entry 55890
##JCAMP-DX=Revision 4.10 
##DATA TYPE=MASS SPECTRUM
##SAMPLE DESCRIPTION=AIR PRODUCTS & CHEMICALS, INC BOX 538, ALLENTOWN, PA 18
105, D M PAREES
##NAMES=HP
##CAS NAME=N-Methyl-N-propyl-propylamine
##MOLFORM=C7H17N
##CAS REGISTRY NO=3405-42-3
##MP= -300
##BP= -300
##MW= 115
##$RETENTION INDEX=757
##$CONDENSED SPECTRUM=NO
##NPOINTS= 20
##XYDATA=(XY..XY) 1 
    27         61
    29         19
    30         18
    39         31
    41         86
    42        125
    43        114
    44        448
    45         13
    56         13
    57         30
    58        101
    70         19
    72         37
    84         28
    86        999
    87         65
   114         19
   115        171
   116         15