##TITLE=Library Entry 23278
##JCAMP-DX=Revision 4.10 
##DATA TYPE=MASS SPECTRUM
##SAMPLE DESCRIPTION=Chemical Concepts
##NAMES=HP
##CAS NAME=2-Pentene, 1-butoxy-
##MOLFORM=C9H18O
##CAS REGISTRY NO=34061-66-0
##MP= -300
##BP= -300
##MW= 142
##$RETENTION INDEX=0
##$CONDENSED SPECTRUM=NO
##NPOINTS= 85
##XYDATA=(XY..XY) 1 
    25          1
    26         12
    27        146
    28         39
    29        326
    30          9
    31         17
    33          1
    35          0
    36          0
    37          0
    39        130
    41        621
    42         64
    43         68
    44         66
    45         15
    46          0
    47          0
    48          0
    50          2
    51          8
    52          4
    53         36
    54         22
    55         58
    57        999
    58         59
    59          5
    60          0
    61          0
    62          1
    63          1
    64          1
    65          6
    67         55
    68        103
    69        283
    70         39
    71         93
    72          6
    73          2
    74          0
    75          0
    76          0
    78          0
    79          2
    80          0
    81          2
    82          2
    83          9
    84          3
    85         38
    86        121
    87         10
    88          0
    89          0
    91          0
    92          1
    93          1
    94          0
    95          2
    96          2
    97         12
    98          0
    99          3
   100          0
   102          0
   103          1
   104          0
   105          1
   106          1
   107          0
   108          0
   109          0
   110          1
   111          0
   113        184
   114         11
   115          1
   116          0
   117          0
   142         35
   143          3
   144          0