##TITLE=Library Entry 5510
##JCAMP-DX=Revision 4.10 
##DATA TYPE=MASS SPECTRUM
##SAMPLE DESCRIPTION=Chemical Concepts
##NAMES=HP
##CAS NAME=Ether, 3-butenyl propyl
##MOLFORM=C7H14O
##CAS REGISTRY NO=34061-75-1
##MP= -300
##BP= -300
##MW= 114
##$RETENTION INDEX=0
##$CONDENSED SPECTRUM=NO
##NPOINTS= 42
##XYDATA=(XY..XY) 1 
    27        220
    29         95
    30          4
    31         29
    33          0
    36          0
    37          2
    38          8
    39         92
    40         14
    41        174
    42         40
    43        999
    44         37
    45          4
    49          0
    50          4
    51          6
    52          3
    53         19
    54         12
    55        145
    56         19
    57         12
    58          2
    59          3
    60          0
    67          4
    68          0
    69          3
    70          0
    71          2
    72          0
    73        137
    74          6
    75          0
    83          0
    84          1
    85        110
    86          6
    87          0
   113          0