##TITLE=Library Entry 8743
##JCAMP-DX=Revision 4.10 
##DATA TYPE=MASS SPECTRUM
##SAMPLE DESCRIPTION=Chemical Concepts
##NAMES=HP
##CAS NAME=Ether, 3-butenyl pentyl
##MOLFORM=C9H18O
##CAS REGISTRY NO=34061-78-4
##MP= -300
##BP= -300
##MW= 142
##$RETENTION INDEX=0
##$CONDENSED SPECTRUM=NO
##NPOINTS= 49
##XYDATA=(XY..XY) 1 
    25         24
    26         23
    27        196
    29        248
    30          7
    31         23
    37          2
    38          6
    39        121
    40         18
    41        187
    42         82
    43        999
    44         35
    45         18
    46          0
    47          0
    49          0
    50          4
    51          7
    52          3
    53         31
    54         19
    55        198
    56         25
    57         17
    58          2
    59          4
    65          0
    66          0
    67          8
    68          2
    69         84
    70         20
    71        624
    72         34
    73          1
    81          0
    82          1
    83          0
    84          3
    85        163
    86          9
    87          1
   101         62
   102          3
   113          0
   141          0
   142          0