##TITLE=Library Entry 17646
##JCAMP-DX=Revision 4.10 
##DATA TYPE=MASS SPECTRUM
##SAMPLE DESCRIPTION=Exported from NIST MS Search
##NAMES=HP
##CAS NAME=Carbamic acid, [2-(acetyloxy)-5-chlorophenyl]-, 1-methylethyl est
er
##MOLFORM=C12H14ClNO4
##CAS REGISTRY NO=34061-88-6
##MP= -300
##BP= -300
##MW= 271
##$RETENTION INDEX=0
##$CONDENSED SPECTRUM=NO
##NPOINTS= 30
##XYDATA=(XY..XY) 1 
    43        780
    44         30
    45        999
    46         40
    78        280
    79         20
   113        200
   114        160
   115        100
   116         70
   142        120
   143        930
   144        130
   145        330
   146         40
   169        630
   170        150
   171        230
   172         50
   187        270
   188         30
   189        110
   190         10
   229        300
   230         30
   231        120
   232         10
   271         50
   272         10
   273         20