##TITLE=Library Entry 62738
##JCAMP-DX=Revision 4.10 
##DATA TYPE=MASS SPECTRUM
##SAMPLE DESCRIPTION=A.A.Kutin, Moscow, Russia
##NAMES=HP
##CAS NAME=Pyrrolidine-1,2-dicarboxylic acid, 2-monoamide, N-(2,5-dimethylph
enyl)-, benzyl ester
##MOLFORM=C21H24N2O3
##CAS REGISTRY NO=340691-45-4
##MP= -300
##BP= -300
##MW= 352
##$RETENTION INDEX=0
##$CONDENSED SPECTRUM=NO
##NPOINTS= 185
##XYDATA=(XY..XY) 1 
    33          1
    34          1
    35          0
    36          1
    37          2
    38          4
    39         49
    40         19
    41         68
    42         22
    43         27
    44         11
    45          2
    46          0
    47          0
    48          0
    50          9
    51         25
    52         12
    53         12
    54          4
    55         10
    56          4
    57          3
    58          0
    59          2
    60          0
    61          1
    62          4
    63         17
    64         10
    65         88
    66          7
    67          4
    68         34
    69         23
    70        197
    71         10
    72          0
    74          3
    75          2
    77         64
    78         17
    79         28
    80          4
    81          1
    82          0
    83          0
    84          0
    85          0
    86          0
    87          1
    89         23
    91        999
    92         78
    93          9
    94          2
    95          0
    96          1
    97          1
    98          1
    99          0
   100          0
   101          0
   102          3
   103         12
   104          8
   105         37
   106         11
   107          7
   108          2
   109          0
   111          0
   114         36
   115          2
   116          2
   117          3
   118         11
   119          8
   120         27
   121         16
   122          3
   123          0
   124          0
   125          0
   126          0
   127          0
   128          0
   129          1
   130          1
   131          1
   132          8
   133          3
   134          3
   135          1
   136          0
   137          0
   139          0
   141          0
   142          0
   143          0
   144          1
   145          1
   146          5
   147          9
   148         14
   149          2
   150          0
   152          0
   153          0
   155          0
   156          0
   157          0
   158          2
   160        213
   161         25
   162          1
   163          0
   164          0
   165          0
   166          0
   167          0
   168          0
   169          0
   170          0
   171          0
   172          0
   173          0
   174          0
   175          1
   176          0
   177          0
   178          0
   179          0
   180          0
   181          0
   182          0
   183          0
   184          0
   185          0
   186          0
   187          0
   188          0
   189          0
   190          0
   191          0
   192          0
   193          0
   194          0
   195          0
   196          0
   197          0
   199          0
   200          0
   201          1
   202          0
   204         67
   205          8
   206          1
   207          0
   210          1
   211          2
   212          0
   213          0
   214          0
   215          0
   217          7
   218          1
   219          0
   221          0
   231          0
   232          0
   238          0
   239          0
   243          0
   244          0
   245          0
   246          0
   261          0
   304          0
   349          0
   350          0
   352         27
   353          6
   354          0