##TITLE=Library Entry 46352
##JCAMP-DX=Revision 4.10 
##DATA TYPE=MASS SPECTRUM
##SAMPLE DESCRIPTION=Chemical Concepts
##NAMES=HP
##CAS NAME=2,6-Diphthalimidopyridine
##MOLFORM=C21H11N3O4
##CAS REGISTRY NO=34067-90-8
##MP= -300
##BP= -300
##MW= 369
##$RETENTION INDEX=0
##$CONDENSED SPECTRUM=NO
##NPOINTS= 163
##XYDATA=(XY..XY) 1 
    33          2
    36          2
    37          8
    38         23
    39         33
    40          6
    41          6
    42          2
    43          6
    44         21
    45          1
    50        316
    52         15
    53         14
    54          3
    55          4
    56          2
    57          4
    61          2
    62          7
    63         15
    64         21
    65          8
    66         11
    68          1
    69          4
    70          3
    71          2
    74         86
    76        999
    77         71
    79          3
    80          6
    81          2
    82          3
    83          1
    84          1
    85          1
    86          1
    87          2
    88          6
    90         26
    91         44
    92          7
    94          3
    97          2
    99          1
   102         64
   104        585
   105         43
   106          4
   107          2
   109          3
   111          1
   112          1
   113          4
   114          6
   115          6
   116          2
   117          2
   119         23
   120          4
   125          1
   126          2
   127          4
   128          7
   130         77
   131          8
   132         25
   133          5
   134          2
   139         11
   140         14
   141          4
   142          6
   143          4
   144          1
   146          1
   147          3
   148          4
   149          2
   150          1
   151          3
   152          6
   153          3
   154          2
   155          2
   156          4
   157          3
   158          5
   165          9
   166         15
   167          9
   168          4
   169          2
   171         18
   172          1
   174          7
   175          1
   177          4
   178          2
   179          3
   180          4
   181          3
   182          2
   184         84
   193         22
   194          9
   195          4
   196          3
   197          1
   208          1
   209          4
   210          1
   211          4
   212          1
   220          3
   221          8
   223        100
   224         14
   225          1
   229          1
   236          2
   237          8
   238          2
   239          4
   240          1
   241          1
   242          1
   254          1
   255          4
   256          2
   257          1
   264          1
   267          1
   268          3
   269          3
   270          1
   280         12
   281          3
   283          1
   284          2
   285          1
   296         16
   297          5
   298          1
   311          1
   312          9
   313          9
   314          2
   324          2
   325          3
   326          1
   327          2
   341        481
   342         87
   343         12
   344          1
   368         87
   369        306
   370         73
   371         10
   372          1