##TITLE=Library Entry 32363
##JCAMP-DX=Revision 4.10 
##DATA TYPE=MASS SPECTRUM
##SAMPLE DESCRIPTION=CONTINENTAL OIL CO., PONCA CITY, OKLA, USA
##NAMES=HP
##CAS NAME=Cyclopentene, 3-propyl-
##MOLFORM=C8H14
##CAS REGISTRY NO=34067-75-9
##MP= -300
##BP= -300
##MW= 110
##$RETENTION INDEX=816
##$CONDENSED SPECTRUM=NO
##NPOINTS= 74
##XYDATA=(XY..XY) 1 
    13          1
    14          5
    15         28
    16          1
    24          0
    25          1
    26         19
    27        150
    28         35
    29         47
    30          1
    36          0
    37          6
    38         19
    39        170
    40         33
    41        200
    42         17
    43         13
    44          0
    49          1
    50         14
    51         30
    52         16
    53         48
    54         24
    55         26
    56          7
    57          1
    58          0
    61          1
    62          4
    63         12
    64          4
    65         45
    66         99
    67        999
    68         90
    69         24
    70          4
    71          0
    73          0
    74          2
    75          2
    76          1
    77         33
    78         10
    79         55
    80         14
    81         67
    82         20
    83          4
    84          2
    85          0
    89          0
    90          0
    91          8
    92          2
    93          6
    94          1
    95         18
    96          4
    97          0
    98          0
   103          0
   104          0
   105          0
   106          0
   107          1
   108          5
   109          5
   110        100
   111          8
   112          0