##TITLE=Library Entry 48693
##JCAMP-DX=Revision 4.10 
##DATA TYPE=MASS SPECTRUM
##SAMPLE DESCRIPTION=A.A.Kutin, Moscow, Russia
##NAMES=HP
##CAS NAME=Bicyclo[6.1.0]non-4-ene-9-carboxamide, N-(3,4-dichlorophenyl)-
##MOLFORM=C16H17Cl2NO
##CAS REGISTRY NO=340696-73-3
##MP= -300
##BP= -300
##MW= 309
##$RETENTION INDEX=0
##$CONDENSED SPECTRUM=NO
##NPOINTS= 170
##XYDATA=(XY..XY) 1 
    35          9
    36          3
    37         15
    39        509
    40        120
    41        503
    43         84
    44          8
    47          0
    49         14
    50         50
    51        105
    52        100
    53        448
    54        189
    55        252
    56         16
    57         16
    61         15
    62         77
    63        146
    64         45
    65        233
    66        151
    67        729
    68        147
    69         38
    70          5
    71         13
    72         19
    73         59
    74         51
    75         61
    77        356
    78        110
    79        999
    80        131
    81        364
    82         43
    83         94
    84         23
    85          9
    86          7
    88         37
    89         43
    90         71
    91        344
    93        618
    94         69
    95         39
    96         12
    97         42
    98         20
    99         37
   100         10
   101         10
   102          9
   103         32
   104         42
   105        142
   106         81
   107        100
   108         21
   109         52
   110         19
   111         19
   112          7
   113          2
   114          2
   115         19
   116         16
   117         13
   118         14
   119         71
   121        598
   122         57
   124         85
   125         81
   126         42
   127         35
   128         13
   129         29
   131        356
   132         54
   133        117
   134         27
   135         74
   136         14
   137         11
   138          2
   140          2
   141          4
   143          1
   145         53
   146         16
   147         44
   148         52
   149        165
   150         20
   151          9
   152          2
   153          3
   154          2
   157          3
   158          1
   159         15
   160        141
   161        289
   162        104
   163        196
   164         48
   165         35
   166         16
   167         13
   168          4
   169          1
   171          1
   172          7
   173          2
   174          5
   177          4
   185          2
   186         10
   187         13
   188         19
   189         13
   190         14
   191          6
   192          1
   193          2
   195          0
   198          6
   199          1
   200          9
   201          5
   202          9
   203         34
   204          9
   205         19
   206          4
   207          2
   214          4
   216         16
   218          5
   226          2
   227          6
   229         40
   230          9
   231         17
   233          1
   240         10
   241          6
   242         31
   243         11
   244         19
   246          3
   250          4
   254          2
   266          6
   267          2
   268          1
   274          2
   281          1
   284          2
   307          3
   309        153
   310         29
   311         92
   312         13
   313          7