##TITLE=Library Entry 36873
##JCAMP-DX=Revision 4.10 
##DATA TYPE=MASS SPECTRUM
##SAMPLE DESCRIPTION=NIST Mass Spectrometry Data Center
##NAMES=HP
##CAS NAME=4-Hydroxyphenol bis(trifluoroacetate)
##MOLFORM=C10H4F6O4
##CAS REGISTRY NO=34065-73-1
##MP= -300
##BP= -300
##MW= 302
##$RETENTION INDEX=1030
##$CONDENSED SPECTRUM=NO
##NPOINTS= 112
##XYDATA=(XY..XY) 1 
    25          1
    26         30
    27          2
    28          5
    29          1
    31          7
    37          5
    38         21
    39          3
    41          1
    44          1
    47          1
    49          2
    50         51
    51         26
    52         48
    53         35
    54         75
    55          5
    57          8
    60          1
    61          9
    62         25
    63         73
    64         67
    65          4
    66          2
    69        999
    70         11
    71          2
    73          2
    74          8
    75         48
    76          7
    77          1
    78         15
    79         15
    80         33
    81          3
    82         52
    83        102
    84          6
    85          1
    91          2
    92         62
    93          5
    94          1
    95         28
    97        102
    98          2
    99          4
   101         56
   102          5
   107         12
   108         28
   109          4
   110          1
   111         24
   112          2
   113         15
   114          2
   119          2
   120          1
   121         22
   122          1
   123          8
   129          1
   130          1
   132          2
   133         16
   134          1
   135          2
   136          2
   139         33
   140          2
   141          6
   142          1
   149        308
   150         20
   151          2
   152          1
   157          1
   158          1
   160          1
   161          9
   162          1
   177        473
   178         37
   179          6
   180          2
   189         94
   190          8
   191          1
   199          1
   205         90
   206          8
   207          4
   227          4
   233          3
   235          3
   246         26
   247          2
   251          2
   255         60
   256          6
   257          1
   263          1
   274          4
   302        496
   303         54
   304          7
   305          1