##TITLE=Library Entry 58961
##JCAMP-DX=Revision 4.10 
##DATA TYPE=MASS SPECTRUM
##SAMPLE DESCRIPTION=A.A.Kutin, Moscow, Russia
##NAMES=HP
##CAS NAME=Pyrrolidine-1,2-dicarboxylic acid, 2-monoamide, 4-hydroxy-N-methy
l-, benzyl ester
##MOLFORM=C14H18N2O4
##CAS REGISTRY NO=340696-76-6
##MP= -300
##BP= -300
##MW= 278
##$RETENTION INDEX=0
##$CONDENSED SPECTRUM=NO
##NPOINTS= 149
##XYDATA=(XY..XY) 1 
    33         27
    34         12
    35          2
    36         17
    37          5
    38         19
    39         63
    40        151
    41         50
    42         25
    43         26
    44         74
    45          7
    46          1
    48          4
    50         24
    51         38
    52         13
    53          9
    54          9
    55         23
    56         42
    58         96
    59          5
    60          3
    61          6
    62         10
    63         32
    65        124
    66          8
    68         30
    69         27
    70          5
    71          4
    72          1
    73          2
    74          6
    75          7
    76         16
    77         56
    78         17
    79         21
    80          4
    81          2
    82          2
    84         17
    85          7
    86         34
    87          4
    88          9
    89         31
    91        999
    92         87
    93          6
    94          2
    96          1
    97          0
    98          4
    99         19
   100         12
   101          7
   102          8
   103          9
   104          9
   105         22
   106          8
   107         13
   108          9
   110          3
   112          4
   114          3
   115          5
   116          0
   117          6
   118          5
   119         15
   120         13
   121         11
   122          2
   123          2
   124          6
   125         16
   126          2
   127          3
   128          6
   129          7
   130         61
   131          8
   132         10
   134         27
   135          9
   136         16
   137          0
   139          4
   140          1
   141          7
   142          3
   143         13
   144          1
   146          2
   147          6
   148          8
   149         12
   150         10
   151          1
   152          4
   153          2
   154          1
   155          4
   156          8
   157          2
   158          4
   159          3
   161          1
   164          1
   165          1
   166          1
   167          1
   169          0
   171          2
   172          0
   174          2
   175         18
   176        107
   177         10
   178          2
   179          2
   180          6
   181          3
   184          4
   185          0
   193          2
   206          1
   208         14
   209          4
   210          7
   211          4
   212          0
   213          1
   220         95
   221         14
   222          1
   223          2
   224          3
   225          3
   234          9
   235          2
   260          3
   278          1