##TITLE=Library Entry 32736
##JCAMP-DX=Revision 4.10 
##DATA TYPE=MASS SPECTRUM
##SAMPLE DESCRIPTION=A.A.Kutin, Moscow, Russia
##NAMES=HP
##CAS NAME=Bicyclo[10.1.0]trideca-4,8-diene-13-carboxamide, N-(2,6-dichlorop
henyl)-
##MOLFORM=C20H23Cl2NO
##CAS REGISTRY NO=340696-74-4
##MP= -300
##BP= -300
##MW= 363
##$RETENTION INDEX=0
##$CONDENSED SPECTRUM=NO
##NPOINTS= 230
##XYDATA=(XY..XY) 1 
    33          2
    35          9
    36         27
    37         12
    39        360
    41        696
    42         33
    43         41
    44         10
    45          4
    49          9
    50         27
    51         80
    52         79
    53        418
    54        212
    55        354
    57         32
    60          2
    61         13
    62         32
    63         80
    65        264
    66        184
    67        999
    68        142
    69        113
    70         10
    71         10
    73         49
    74         18
    75         35
    77        376
    79        863
    80        169
    81        744
    82         68
    83        114
    84         13
    85         14
    86          5
    87          8
    88         18
    89         36
    91        750
    92        206
    93        682
    94        141
    95        334
    96         34
    97         47
    98         16
    99         31
   100         10
   101         14
   102         13
   103         43
   104         52
   105        273
   106         93
   107        289
   109        184
   111         31
   112          5
   113          6
   115         42
   116         26
   117        151
   118         59
   119        256
   120         84
   121        221
   122         38
   123         34
   124        104
   125         54
   126         54
   127         45
   128         29
   129         65
   130         35
   131        141
   132         69
   133        406
   134         72
   135        170
   136         27
   137         23
   138          8
   139          4
   140          6
   141         10
   142         13
   143         65
   144         19
   145         62
   146         32
   147         92
   148         33
   149         23
   150          7
   151         10
   152          9
   153         12
   154         17
   155         11
   156         19
   157         56
   158         42
   159        220
   160        392
   161        625
   162        176
   163        270
   164         67
   165         50
   166         24
   167         23
   168         80
   169         20
   170         29
   171         12
   172         22
   173         40
   174         87
   175        343
   176         63
   177         11
   178          9
   179          6
   180         13
   181          4
   182          8
   183          7
   184         12
   185         84
   186         21
   187         18
   188         63
   190         53
   191         10
   192         19
   193         19
   194         55
   195         17
   196         21
   197          5
   198          6
   200         14
   201         12
   202         64
   203        276
   204         57
   205         28
   206         28
   207          9
   208         10
   213          3
   214          5
   215          3
   216         20
   217          5
   218         18
   219          5
   220         15
   221          3
   222          5
   226          8
   227         11
   228         11
   229         47
   230         15
   231         26
   232         10
   233          5
   234          4
   240         46
   241         17
   242         78
   243         19
   244         38
   245          9
   246         10
   253          8
   254         12
   255         14
   256         13
   257          8
   258          7
   259          3
   260          3
   266         13
   267          5
   268         18
   269          6
   270          9
   271          3
   272          3
   274          4
   280         15
   281          6
   282         12
   283          6
   284          8
   294         18
   295          7
   296         22
   297          6
   298         10
   308          6
   309          6
   310          6
   320          3
   322          9
   323          3
   324          5
   326          3
   328         44
   329         11
   330         11
   331          3
   334          3
   335          2
   336          2
   361          4
   363        108
   364         27
   365         60
   366         14
   367          8