##TITLE=Library Entry 47146
##JCAMP-DX=Revision 4.10 
##DATA TYPE=MASS SPECTRUM
##SAMPLE DESCRIPTION=NIST Mass Spectrometry Data Center
##NAMES=HP
##CAS NAME=Bis(phenylsulfonyl)methane
##MOLFORM=C13H12O4S2
##CAS REGISTRY NO=3406-02-8
##MP= -300
##BP= -300
##MW= 296
##$RETENTION INDEX=0
##$CONDENSED SPECTRUM=NO
##NPOINTS= 48
##XYDATA=(XY..XY) 1 
    12          8
    14          8
    27         25
    28          3
    38         12
    39         81
    40          9
    41         14
    44          4
    45         37
    49          7
    50        115
    51        443
    52         25
    53         32
    62         13
    63         27
    64         20
    65        130
    66         14
    69         10
    73          9
    74         30
    75         36
    77        999
    78        104
    79         65
    81          9
    89         17
    91        459
    92         40
    94          8
    97        103
   105          7
   107        737
   108         59
   109         19
   115          6
   125        116
   126         13
   139         68
   141        269
   142         21
   143         17
   152          8
   153          7
   232         50
   233          7