##TITLE=Library Entry 84232
##JCAMP-DX=Revision 4.10 
##DATA TYPE=MASS SPECTRUM
##SAMPLE DESCRIPTION=LAC, NIDDK, NIH, Bethesda, MD 20892
##NAMES=HP
##CAS NAME=dl-Tyrosine ethyl ester
##MOLFORM=C11H15NO3
##CAS REGISTRY NO=34081-17-9
##MP= -300
##BP= -300
##MW= 209
##$RETENTION INDEX=0
##$CONDENSED SPECTRUM=NO
##NPOINTS= 85
##XYDATA=(XY..XY) 1 
    41          9
    42         22
    43         33
    44          5
    45         10
    46         43
    47          7
    50          7
    51         23
    52         17
    53         30
    54          7
    55         14
    56          7
    57         20
    58          5
    59         10
    62          4
    63         15
    64          5
    65         33
    66          9
    68         47
    70          0
    74        342
    75         18
    76          3
    77        136
    78         35
    79         33
    80         19
    81         12
    82          2
    83          1
    84          2
    88          1
    89         13
    90         10
    91        162
    92         16
    93          5
    94         16
    95          3
    97          1
   102        688
   103        201
   104         15
   105          6
   106         38
   107        999
   108        612
   109         50
   110          3
   116          4
   117         12
   118         19
   119         42
   120         22
   121          4
   122          0
   124          1
   130          5
   131          1
   132          2
   133          7
   134         30
   135         87
   136        835
   137         74
   138          4
   143          1
   147          7
   148          0
   162          2
   163          2
   164          1
   181          5
   182          1
   192         35
   193          6
   194          1
   209        348
   210         99
   211         11
   212          0