##TITLE=Library Entry 79640
##JCAMP-DX=Revision 4.10 
##DATA TYPE=MASS SPECTRUM
##SAMPLE DESCRIPTION=Chemical Concepts
##NAMES=HP
##CAS NAME=9,10-Ethenoanthracene, 9,10-dihydro-9,10-dimethyl-11,12-dibenzoyl
-
##MOLFORM=C32H24O2
##CAS REGISTRY NO=34086-32-3
##MP= -300
##BP= -300
##MW= 440
##$RETENTION INDEX=0
##$CONDENSED SPECTRUM=NO
##NPOINTS= 182
##XYDATA=(XY..XY) 1 
    26          0
    27          3
    28          4
    29          3
    31          2
    32          1
    39          2
    41          4
    42          1
    43         11
    44          3
    45          1
    47          0
    50          2
    51         18
    52          1
    53          0
    55          3
    56          1
    57          8
    58          1
    63          1
    65          0
    67          0
    69          1
    70          3
    71          4
    73          0
    74          0
    75          2
    76          4
    77        201
    78         17
    79          1
    81          0
    83          1
    84          0
    85          0
    87          0
    88          1
    89          1
    91          3
    95          0
    97          1
    98          0
   101          1
   102          1
   103          2
   104          2
   105        999
   106         76
   107          5
   112          1
   113          2
   114          0
   115          2
   117          2
   119          2
   120          0
   121          1
   126          1
   127          5
   128          3
   129          3
   130          0
   138          0
   139          1
   145          0
   149         10
   150          2
   151          3
   152          3
   153          1
   163          1
   164          1
   165          9
   166          2
   167          4
   175          0
   176          4
   177          3
   178         13
   179          5
   180          1
   181          1
   182          0
   187          2
   188          2
   189         20
   190         13
   191         68
   192         11
   193          1
   194          1
   199          0
   200          2
   201          2
   202         15
   203         15
   204         10
   205         40
   206        138
   207         24
   208          2
   211          0
   212          1
   213         11
   214          5
   215         32
   216          8
   217          1
   224          0
   225          1
   226          5
   227          4
   228          7
   229          7
   230         25
   231          5
   232          1
   233          0
   234          0
   237          0
   239          1
   242          0
   243          3
   244          0
   250          0
   252          0
   255          0
   256          0
   257          2
   258          0
   261          0
   262          0
   263          1
   264          0
   265          1
   274          1
   275          0
   276          5
   277          2
   278          1
   279          2
   280          0
   285          0
   287          2
   288          1
   289         10
   290          4
   291          9
   292         10
   293          2
   294          0
   300          1
   301          1
   302          4
   303          3
   304          1
   305          2
   306          1
   307          9
   308          2
   315          0
   316          0
   317          3
   318          7
   319         66
   320         28
   321          5
   322          0
   333          0
   334          9
   335         91
   336         25
   337          3
   425          1
   439          0
   440        111
   441         38
   442          7
   443          0