##TITLE=Library Entry 59174
##JCAMP-DX=Revision 4.10 
##DATA TYPE=MASS SPECTRUM
##SAMPLE DESCRIPTION=Japan AIST/NIMC Database- Spectrum MS-IW-1818
##NAMES=HP
##CAS NAME=1,3-Bis(2-tosylethyl)urea
##MOLFORM=C19H24N2O5S2
##CAS REGISTRY NO=34087-15-5
##MP= -300
##BP= -300
##MW= 424
##$RETENTION INDEX=0
##$CONDENSED SPECTRUM=NO
##NPOINTS= 154
##XYDATA=(XY..XY) 1 
    15         15
    17          2
    18         29
    26          3
    27         24
    28         22
    29          3
    30        205
    31          3
    32          1
    37          1
    38          9
    39         86
    40         12
    41         38
    42        104
    43        700
    44        261
    45         11
    46          1
    47          1
    48          1
    50         20
    51         44
    52         11
    53          9
    54          1
    55          3
    56         14
    57          2
    58          2
    59          2
    60          1
    61          4
    62         17
    63         70
    64         19
    65        248
    66         15
    67          9
    68          1
    69          6
    70        105
    71          6
    72          1
    73          2
    74          6
    75          7
    76          5
    77         57
    78         19
    79         33
    80          7
    81          1
    82          1
    83          1
    84          1
    85          6
    86         16
    87         20
    88          3
    89         69
    90         35
    91        999
    92        317
    93         30
    94          3
    95          3
    96          1
    97          2
    99          2
   102          1
   103          5
   104          5
   105         30
   106         15
   107        254
   108         40
   109          3
   110          1
   111          9
   112          4
   113          6
   114          2
   115          2
   116          1
   117          5
   118         11
   119         13
   120          3
   121          6
   122          4
   123          5
   124          4
   130          1
   131          1
   132          5
   133        168
   134         23
   135          3
   137          3
   138          2
   139        186
   140         20
   141          9
   142          1
   146          1
   149          1
   150          3
   151          1
   153          1
   154          1
   155        362
   156        123
   157         37
   158          7
   159          1
   160          2
   161         16
   162          2
   170          7
   171          1
   177          1
   178          1
   181          1
   182         26
   183          6
   184          2
   186          1
   197         13
   198          7
   199          8
   200         64
   201          7
   202          3
   204          1
   205          5
   206          2
   225         64
   226         40
   227          8
   228          2
   255          9
   256          1
   267          2
   268         68
   269         62
   270         10
   271          3
   332         30
   333          6
   334          2
   360          3
   424          2