##TITLE=Library Entry 90209
##JCAMP-DX=Revision 4.10 
##DATA TYPE=MASS SPECTRUM
##SAMPLE DESCRIPTION=A.A.Kutin, Moscow, Russia
##NAMES=HP
##CAS NAME=Hydrazine, 1,2-bis(4-methylfurazan-3-yl)-
##MOLFORM=C6H8N6O2
##CAS REGISTRY NO=340996-13-6
##MP= -300
##BP= -300
##MW= 196
##$RETENTION INDEX=0
##$CONDENSED SPECTRUM=NO
##NPOINTS= 111
##XYDATA=(XY..XY) 1 
    33          4
    34          0
    37         16
    38         54
    39         93
    40        214
    41        405
    42        668
    43         72
    44         12
    45          2
    46          0
    47          0
    48          0
    49          1
    51         73
    52        170
    53        304
    54        155
    55         86
    57        443
    58        881
    60          4
    61          0
    62          0
    63          1
    64          4
    66         59
    67        151
    68        332
    69         43
    71         58
    72        119
    73          2
    74          0
    75          0
    76          0
    77          1
    79          8
    80         20
    81         20
    82         28
    84        887
    85        187
    86          7
    87          1
    88          0
    89          0
    91          2
    92          2
    94         57
    95         43
    96          4
    97          3
    98          9
    99         30
   100          1
   101          0
   103          0
   104          0
   105          0
   106          1
   107          2
   108          3
   109          9
   111         45
   113        999
   114         36
   115          2
   116          0
   117          0
   118          0
   119          1
   120          1
   121          1
   122          0
   125        115
   126          6
   128          0
   129          5
   130          0
   132          0
   133          1
   134          1
   135          0
   136          0
   137          0
   139          7
   140          0
   141          0
   146          0
   149          1
   150          2
   151          1
   152          0
   155          7
   156          0
   165          0
   166          0
   167          0
   169          0
   179          0
   180          0
   181          0
   182          0
   186          0
   194          7
   196        261
   197         21
   198          2
   199          0