##TITLE=Library Entry 22956
##JCAMP-DX=Revision 4.10 
##DATA TYPE=MASS SPECTRUM
##SAMPLE DESCRIPTION=A.A.Kutin, Moscow, Russia
##NAMES=HP
##CAS NAME=Pyrimidine-5-carboxylic acid, 1,4-dihydro-4-(2-furyl)-1,6-dimethy
l-2-methylthio-, ethyl ester
##MOLFORM=C14H18N2O3S
##CAS REGISTRY NO=340968-07-2
##MP= -300
##BP= -300
##MW= 294
##$RETENTION INDEX=0
##$CONDENSED SPECTRUM=NO
##NPOINTS= 206
##XYDATA=(XY..XY) 1 
    33         59
    34         24
    35          5
    36         23
    37         14
    38         55
    39        229
    40        110
    41         91
    42        349
    43         64
    44         52
    45         67
    46         18
    47         27
    48          3
    50         24
    51         83
    52         53
    53         70
    54         44
    56        999
    57         45
    58         22
    59         24
    60          9
    61         11
    62         22
    63         86
    64         53
    65        129
    66         66
    67         63
    68         25
    69         37
    70         13
    71         15
    72         49
    73         50
    74         62
    75         14
    76         18
    77         84
    78         37
    79         47
    80         59
    81         59
    82         36
    83         22
    84         12
    85          9
    86          7
    88         61
    89         35
    90         26
    91         66
    92         32
    93         26
    94         24
    95         19
    96         13
    97         30
    98          4
    99          4
   100          5
   101          8
   102          7
   103          8
   104         18
   105         21
   106         24
   107         21
   108         51
   110         19
   111          8
   112          9
   113          3
   114          2
   115          1
   116          4
   117         16
   118         32
   119         61
   120         91
   121         42
   122         18
   123          5
   124         14
   125         11
   126          6
   127          6
   128          7
   129          9
   130          6
   131          8
   132         17
   133         19
   134         19
   135          9
   136         13
   137          8
   138         34
   139         10
   140          3
   141          1
   142          5
   143          0
   144          3
   145         13
   146         19
   147         29
   148         90
   149         14
   150         11
   151          7
   152          8
   153          9
   154         11
   155          2
   156          3
   158          2
   159          9
   160          9
   161          7
   162         13
   163          9
   164         42
   165         10
   166          5
   167         31
   168          4
   169          1
   171          7
   172          6
   173          6
   174         22
   175         15
   176         30
   177         10
   178         13
   179          9
   180         34
   181         10
   182          2
   183          1
   184          3
   185         11
   186          2
   187          5
   188         12
   189          6
   190          4
   191         15
   192         32
   193         14
   194          3
   195          1
   197          2
   198          6
   199         34
   200          3
   201          5
   203          1
   204          3
   205          8
   206         11
   207         28
   208          4
   209          1
   213         13
   215          3
   218          0
   219         10
   221        424
   222         56
   223         20
   224          3
   227         31
   228          1
   233         19
   234          1
   235          4
   236          0
   239          1
   241          1
   242          1
   249         13
   250          3
   251          4
   256          0
   261          2
   265         49
   266          6
   267          2
   270          1
   280          9
   281          1
   282          1
   284          1
   292          1
   294         96
   295         14
   296          6
   297          1
   299          2
   300          5