##TITLE=Library Entry 18270
##JCAMP-DX=Revision 4.10 
##DATA TYPE=MASS SPECTRUM
##SAMPLE DESCRIPTION=Chemical Concepts
##NAMES=HP
##CAS NAME=9,10-Diazatetracyclo[6.2.0(2,7).0(3,6).0(5,8)]dec-9-ene, N1-oxide
##MOLFORM=C8H8N2O
##CAS REGISTRY NO=34098-80-1
##MP= -300
##BP= -300
##MW= 148
##$RETENTION INDEX=0
##$CONDENSED SPECTRUM=NO
##NPOINTS= 95
##XYDATA=(XY..XY) 1 
    25          4
    26         72
    27         94
    28         38
    29         21
    30         62
    31         18
    36          2
    37         50
    38        135
    39        943
    40        114
    41        104
    42         24
    43         38
    44         40
    45         16
    46          4
    49         18
    50        209
    51        368
    52        999
    53         71
    54         18
    55         26
    56         11
    57         32
    58          2
    59          2
    60         16
    61         24
    62         61
    63        185
    64         63
    65        671
    66        116
    67         72
    68        261
    69         26
    70          7
    71         17
    73         11
    74         28
    75         24
    76         37
    77        128
    78        304
    79         42
    80        658
    81        336
    82         23
    83         11
    84          4
    85          9
    86          5
    87         10
    88          6
    89        112
    90         91
    91        601
    92        196
    93         70
    94         24
    95          8
    96          5
    97         10
    98          3
    99          4
   101          3
   102         24
   103        112
   104         82
   105         18
   106          1
   109          4
   111          4
   112          2
   113          2
   115          3
   116         25
   117        204
   118         67
   119        204
   120         24
   121         24
   122          6
   123          3
   125          2
   127          3
   129          5
   131         11
   132          2
   147          7
   149         76
   150          7