##TITLE=Library Entry 79795
##JCAMP-DX=Revision 4.10 
##DATA TYPE=MASS SPECTRUM
##SAMPLE DESCRIPTION=A.A.Kutin, Moscow, Russia
##NAMES=HP
##CAS NAME=2-[(Benzo[b]thiophen-3(2H)-on-2-ylidene}methyl]phenyl benzoate
##MOLFORM=C22H14O3S
##CAS REGISTRY NO=340968-24-3
##MP= -300
##BP= -300
##MW= 358
##$RETENTION INDEX=0
##$CONDENSED SPECTRUM=NO
##NPOINTS= 182
##XYDATA=(XY..XY) 1 
    33          2
    34          0
    36          0
    37          1
    38          5
    39         18
    40          8
    41          2
    42          1
    43          4
    44          3
    45         12
    46          0
    47          0
    50         43
    51         86
    52          7
    55          3
    57          5
    58          1
    59          0
    60          1
    61          1
    62          7
    63         19
    64          2
    65          2
    66          0
    67          0
    68          3
    69         21
    70          3
    71          4
    73          2
    74         12
    75         21
    77        527
    78         29
    79          2
    81          3
    82          7
    83          1
    84          1
    85          1
    86          2
    87          3
    88          3
    89         14
    90          2
    91          3
    92          2
    93          8
    94          4
    95          4
    96          0
    97          1
    98          2
    99          1
   101          3
   102          3
   105        999
   106         65
   108         15
   109          2
   110          1
   111          1
   112          2
   113          2
   114          2
   115          2
   116          0
   117          1
   118          1
   119          3
   120          8
   121         20
   122          3
   123          1
   124          0
   125          1
   126          5
   127          5
   128          1
   129          0
   130          0
   132          2
   133          1
   134          1
   135          0
   136          4
   137          1
   138          2
   139          3
   140          0
   143          0
   145          5
   146          1
   147          1
   148          1
   149          3
   150          4
   151         10
   152         29
   153          9
   154          0
   155          0
   156          0
   157          0
   158          2
   159          0
   160          0
   161          1
   162          1
   163          7
   164          8
   165         26
   166          3
   167          0
   169          3
   170          3
   171          8
   172          1
   173          0
   174          0
   176          0
   177          0
   179          0
   181          3
   182          0
   183          0
   184          0
   186          0
   187          0
   192          0
   193          0
   194          2
   195         12
   196          7
   197         26
   198          4
   199          1
   200          0
   207          0
   208          2
   209          0
   215          0
   220          0
   221          0
   222          0
   223          1
   224          7
   225          3
   226          0
   227          0
   233          0
   234          3
   237        234
   238         32
   239         10
   240          2
   241          0
   243          0
   251          1
   253          8
   254          1
   255          0
   256          0
   268          0
   269          0
   283          0
   285          0
   294          0
   296          3
   297          0
   298          0
   299          0
   300          0
   314          0
   356          0
   358          6
   359          1
   360          0