##TITLE=Library Entry 82647
##JCAMP-DX=Revision 4.10 
##DATA TYPE=MASS SPECTRUM
##SAMPLE DESCRIPTION=A.A.Kutin, Moscow, Russia
##NAMES=HP
##CAS NAME=N-[2-(3,4-Dichloro-phenoxy)-5-trifluoromethyl-phenyl]-nicotinamid
e
##MOLFORM=C19H11Cl2F3N2O2
##CAS REGISTRY NO=341014-27-5
##MP= -300
##BP= -300
##MW= 426
##$RETENTION INDEX=0
##$CONDENSED SPECTRUM=NO
##NPOINTS= 226
##XYDATA=(XY..XY) 1 
    33          0
    34          1
    35          0
    36          4
    37          1
    38          5
    39         10
    40         21
    41          4
    42          2
    43          4
    44          5
    45          2
    46          0
    48          0
    49          1
    50         20
    51        110
    52         15
    53          5
    54          0
    55          3
    56          1
    57          3
    59          1
    61          0
    62          4
    63         17
    64          4
    65          4
    66          1
    67          0
    68          0
    69          4
    70          1
    71          1
    72          1
    73          3
    74          8
    75         15
    76          6
    77         30
    78        427
    79         28
    80          1
    81          1
    82          1
    83          1
    84          3
    85          2
    86          0
    87          1
    88          1
    89          5
    90          1
    91          6
    92          2
    93          1
    94          0
    95          2
    96          2
    97          1
    98          1
    99          4
   100          1
   101          4
   102          0
   103          1
   106        999
   107         71
   108          7
   109         12
   110          4
   111          5
   112          1
   113          2
   114          0
   115          5
   116          1
   118          5
   119          3
   120          2
   121          1
   122          4
   123          4
   124          2
   125          2
   126          3
   127          1
   128          1
   129          0
   130          1
   131          1
   132          2
   133          5
   134          1
   135         21
   136          3
   137          0
   138          0
   139          0
   140          0
   141          0
   142          2
   143          0
   144          1
   145          5
   146          1
   147          4
   148          2
   149          2
   150         10
   151          2
   152          1
   153          1
   155          0
   157          0
   158          2
   159         30
   160          3
   161         20
   162          6
   163          4
   164          2
   165          0
   166          0
   168          0
   169          0
   170          0
   171          1
   172          0
   173          0
   174          1
   175          1
   176          1
   177          1
   178          0
   180          0
   181          0
   182          0
   183          0
   184          0
   185          0
   186          0
   187          0
   188          5
   189          2
   190          4
   191          2
   192          0
   195          0
   196          0
   197          0
   198          0
   200          4
   201          5
   202          2
   203          0
   204          0
   205          1
   206          0
   207          0
   209          0
   210          0
   211          0
   214          0
   215          0
   216          0
   217          0
   220          0
   221          0
   222          4
   223          1
   224          0
   225          0
   227          0
   229          0
   236          0
   237          1
   238          0
   239          0
   241          0
   242          0
   243          1
   244          0
   245          1
   246          2
   247          0
   250          1
   251          0
   252          0
   256          0
   257          0
   261          2
   262          4
   263          4
   265        192
   266         31
   267          2
   268          0
   272          0
   274         14
   275          1
   276          4
   277          0
   278          0
   282          0
   283          1
   284          2
   285          5
   286          1
   287          1
   304          1
   309          1
   311          1
   312          0
   321          0
   339          1
   340          0
   407          0
   409          0
   424          2
   426         25
   427          6
   428         13
   430          3