##TITLE=Library Entry 83184
##JCAMP-DX=Revision 4.10 
##DATA TYPE=MASS SPECTRUM
##SAMPLE DESCRIPTION=Japan AIST/NIMC Database- Spectrum MS-IW-8135
##NAMES=HP
##CAS NAME=Benzenamine, 2,2'-(1,2-ethanediyl)bis-
##MOLFORM=C14H16N2
##CAS REGISTRY NO=34124-14-6
##MP= -300
##BP= -300
##MW= 212
##$RETENTION INDEX=0
##$CONDENSED SPECTRUM=NO
##NPOINTS= 79
##XYDATA=(XY..XY) 1 
    27          2
    30          2
    39          9
    40          1
    41          2
    42          1
    50          2
    51          9
    52          5
    53          7
    54          3
    62          1
    63          5
    64          2
    65          8
    66          4
    67          2
    75          1
    76          3
    77         62
    78         16
    79         51
    80          7
    82          1
    83          3
    88          1
    89          7
    90          4
    91         11
    92          2
    93          5
    94          2
    95          1
    96          3
    97          1
    98          1
   102          1
   103          1
   104          9
   105          5
   106        999
   107         89
   108          3
   115          1
   116          1
   117          6
   118         19
   119         20
   120          3
   128          1
   130          1
   151          1
   152          1
   164          1
   165          4
   166          1
   167          2
   168          1
   176          1
   177          1
   178          1
   179          1
   180          3
   181          1
   182          1
   191          1
   192          2
   193          6
   194         15
   195          7
   196          1
   207          1
   208          3
   209          4
   210          1
   211          2
   212        292
   213         46
   214          3