##TITLE=Library Entry 57366
##JCAMP-DX=Revision 4.10 
##DATA TYPE=MASS SPECTRUM
##SAMPLE DESCRIPTION=NIST Mass Spectrometry Data Center
##NAMES=HP
##CAS NAME=Trisulfide, methyl 2-propenyl
##MOLFORM=C4H8S3
##CAS REGISTRY NO=34135-85-8
##MP= -300
##BP= -300
##MW= 152
##$RETENTION INDEX=1142
##$CONDENSED SPECTRUM=NO
##NPOINTS= 83
##XYDATA=(XY..XY) 1 
    26          4
    27         15
    29          2
    32         11
    33          4
    34          2
    35          1
    36          1
    37         15
    38         36
    39        293
    40         23
    41        435
    42         15
    43          1
    44         10
    45        500
    46        104
    47        245
    48         18
    49         11
    50          1
    53          8
    54          4
    55          6
    56          1
    57          8
    58         24
    59         21
    60         10
    61         30
    62          2
    63          1
    64        190
    65         24
    66         21
    67          2
    68          5
    69         33
    70          6
    71         82
    72         32
    73        980
    74         43
    75         43
    76          6
    77          7
    78         14
    79        179
    80         25
    81         17
    82          2
    85          6
    86          1
    87        999
    88        122
    89         51
    90          6
    91          3
    93          1
    96         12
    97          3
    98          2
   103         42
   104         10
   105         55
   106          7
   107          5
   108          1
   109          1
   110          5
   111        180
   112         14
   113         25
   114          2
   115          1
   119          1
   120          1
   152         84
   153          6
   154         11
   155          1
   156          1