##TITLE=Library Entry 96688
##JCAMP-DX=Revision 4.10 
##DATA TYPE=MASS SPECTRUM
##SAMPLE DESCRIPTION=NIST Mass Spectrometry Data Center, 1990.
##NAMES=HP
##CAS NAME=o-Ethylbenzonitrile
##MOLFORM=C9H9N
##CAS REGISTRY NO=34136-59-9
##MP= -300
##BP= -300
##MW= 131
##$RETENTION INDEX=0
##$CONDENSED SPECTRUM=NO
##NPOINTS= 64
##XYDATA=(XY..XY) 1 
    14          3
    15         12
    16          1
    17          1
    18          0
    26         11
    27         45
    28         10
    29          4
    32          1
    37         15
    38         27
    39         81
    40          7
    41          5
    44          1
    48          1
    49          9
    50         76
    51         91
    52         28
    53          9
    54          1
    61         16
    62         32
    63         85
    64         38
    65         26
    66          4
    73          7
    74         33
    75         57
    76         68
    77         94
    78         23
    79          4
    85          3
    86          5
    87         10
    88         24
    89        186
    90         36
    91         22
    92          1
    97          1
    98          3
    99          7
   100          8
   101         20
   102         37
   103        113
   104         59
   105          5
   112          1
   114         12
   116        999
   117         92
   118          4
   127          4
   128         12
   130        232
   131        317
   132         34
   133          1