##TITLE=Library Entry 75781
##JCAMP-DX=Revision 4.10 
##DATA TYPE=MASS SPECTRUM
##SAMPLE DESCRIPTION=Exported from NIST MS Search
##NAMES=HP
##CAS NAME=.alpha.-D-Glucopyranoside, 1,3,4,6-tetra-O-methyl-.beta.-D-fructo
furanosyl 2,3,4-tri-O-methyl-6-O-(2,3,4,6-tetra-O-methyl-.alpha.-D-galactopy
ranosyl)-
##MOLFORM=C29H54O16
##CAS REGISTRY NO=34141-00-9
##MP= -300
##BP= -300
##MW= 658
##$RETENTION INDEX=0
##$CONDENSED SPECTRUM=NO
##NPOINTS= 31
##XYDATA=(XY..XY) 1 
    45        639
    59         70
    71        519
    75        420
    88        979
    99        116
   101        999
   111        440
   115        145
   127        166
   129         24
   131         70
   143        135
   145        155
   155        155
   159         85
   187        839
   205         15
   219        999
   235         71
   249         19
   275          7
   279          7
   293         12
   305          8
   307          9
   359          1
   391          2
   409         12
   423          7
   483         63