##TITLE=Library Entry 69114
##JCAMP-DX=Revision 4.10 
##DATA TYPE=MASS SPECTRUM
##SAMPLE DESCRIPTION=A.A.Kutin, Moscow, Russia
##NAMES=HP
##CAS NAME=Thiophene-2-carboxaldehyde, (4-amino-5-ethyl-1,2,4-triazol-3-yl)h
ydrazone
##MOLFORM=C9H12N6S
##CAS REGISTRY NO=341492-85-1
##MP= -300
##BP= -300
##MW= 236
##$RETENTION INDEX=0
##$CONDENSED SPECTRUM=NO
##NPOINTS= 137
##XYDATA=(XY..XY) 1 
    33         84
    34         51
    35          1
    38        153
    39        431
    40         58
    41         92
    42         85
    43        239
    44         41
    45        234
    46         15
    47         14
    48          2
    49          8
    50         48
    51         78
    52        143
    53         74
    54         93
    55         55
    56        210
    57        255
    58        106
    59         17
    60          7
    61          9
    62         27
    63         71
    64         21
    65         32
    66         28
    67         14
    68         38
    69        166
    70        398
    71         89
    72         18
    73         10
    74          2
    75          6
    76          9
    77          9
    78         12
    79         12
    80         16
    81         43
    82         43
    83         95
    84         45
    85         59
    86          6
    87          2
    89          1
    90          1
    91          5
    92          5
    93         21
    95        220
    96        999
    97        111
    98         95
    99          8
   100          1
   102          3
   103          6
   104          2
   105          3
   106          2
   107          1
   108         13
   109         59
   110        254
   111        163
   112         62
   113        250
   114         14
   115          0
   118          9
   119          2
   120         11
   121          0
   122         12
   123         37
   124         37
   125         29
   126         95
   127         52
   128          4
   130          1
   131          0
   132          0
   133          0
   135         17
   136         10
   137        103
   138         10
   139          7
   144          4
   146          0
   148          6
   149          4
   150          3
   151          5
   152         67
   153          6
   154          2
   158          1
   159          4
   160          0
   162          0
   163          2
   164          1
   165          5
   171          0
   175          0
   177          2
   178          1
   180         29
   181          3
   182          1
   189          0
   190          2
   191          2
   192         43
   193          5
   194          1
   207          8
   208          0
   218          0
   219          0
   234          5
   235         11
   236        211
   237         24
   238         11
   239          0