##TITLE=Library Entry 18016
##JCAMP-DX=Revision 4.10 
##DATA TYPE=MASS SPECTRUM
##SAMPLE DESCRIPTION=MUS2 A. Mujsce, AT&T Bell Labs., Murray Hill, N.J., USA
##NAMES=HP
##CAS NAME=1-Decanethiol, 3,3,4,4,5,5,6,6,7,7,8,8,9,9,10,10,10-heptadecafluo
ro-
##MOLFORM=C10H5F17S
##CAS REGISTRY NO=34143-74-3
##MP= -300
##BP= -300
##MW= 480
##$RETENTION INDEX=0
##$CONDENSED SPECTRUM=NO
##NPOINTS= 158
##XYDATA=(XY..XY) 1 
    45        121
    46         89
    47        999
    48         26
    49         45
    50          9
    51         56
    56          3
    57         14
    58         23
    59         33
    60         22
    61        207
    62         10
    63         19
    64         13
    65         97
    69        403
    70          5
    71          4
    75         12
    77        128
    78         15
    83          7
    87          2
    88          5
    89         13
    90          3
    91         31
    92          2
    93         25
    95         41
    96          4
   100         81
   101          4
   102          2
   104          1
   106          3
   107         19
   108         13
   109         41
   110          7
   111         31
   112          7
   113         20
   115         15
   117          2
   119        158
   120          8
   121          8
   122          5
   125          4
   126          5
   127         11
   128          2
   131        151
   132          5
   133          4
   137          2
   138          6
   139          6
   140         12
   141          6
   143          5
   144          2
   146          1
   147          3
   149          2
   150          4
   151          4
   152          2
   157          6
   158          2
   159          2
   160          2
   163          3
   169         48
   172         22
   181         20
   182          1
   183          2
   188          1
   190          1
   191          1
   192          1
   193          2
   195          3
   197          1
   200          2
   208          1
   214          1
   219          3
   227          1
   231          5
   241          1
   243          1
   251          1
   254          1
   256          1
   271          1
   272          1
   273          1
   275          1
   278          1
   281          3
   287          1
   289          2
   290          1
   293          2
   294          1
   308          1
   311          1
   313          7
   314          1
   319          2
   321          1
   331          1
   335          1
   337          1
   343          1
   351          1
   353          1
   357          4
   359          1
   363          6
   375          1
   377         25
   378          2
   381          7
   391          1
   399          1
   402          1
   407          2
   409          3
   410          1
   413          3
   416          1
   418          1
   421          9
   424          1
   427         25
   428          3
   432          1
   440          1
   441          7
   456          1
   457          2
   459          2
   460          3
   461          5
   466          1
   467          1
   477         11
   478          7
   480        616
   481         69
   482         24
   483          3