##TITLE=Library Entry 58564
##JCAMP-DX=Revision 4.10 
##DATA TYPE=MASS SPECTRUM
##SAMPLE DESCRIPTION=A.A.Kutin, Moscow, Russia
##NAMES=HP
##CAS NAME=Benzaldehyde, 4-chloro-, (4-amino-1,2,4-triazol-3-yl)hydrazone
##MOLFORM=C9H9ClN6
##CAS REGISTRY NO=341500-70-7
##MP= -300
##BP= -300
##MW= 236
##$RETENTION INDEX=0
##$CONDENSED SPECTRUM=NO
##NPOINTS= 151
##XYDATA=(XY..XY) 1 
    33          5
    35         92
    39         49
    41         33
    42         69
    43        226
    44         15
    46          2
    47          1
    48          2
    49         15
    50         95
    51         60
    53         61
    54          8
    56         28
    57         65
    58          7
    59          2
    60          7
    61         30
    62         80
    63        155
    64         13
    65          3
    66          1
    68         47
    70         99
    72         13
    73         48
    74         66
    75        218
    76         58
    77         44
    78          6
    79          1
    80          1
    82          5
    84         85
    85        367
    86         38
    87         41
    89        999
    90         55
    91          7
    92          3
    93          1
    95          2
    96          8
    98        247
    99        161
   101         47
   102         72
   103         23
   104          5
   105          1
   106          0
   107          0
   108          2
   109          4
   111        183
   112         32
   113         55
   114         10
   115          6
   116          9
   117         19
   118         26
   119          8
   120          2
   124        969
   126        375
   127         25
   128          5
   129         11
   130         15
   131          3
   132          0
   133          0
   134          1
   136         18
   137         60
   138        142
   139         90
   140         64
   141         25
   142          7
   143          2
   144          2
   145          2
   146          1
   148          0
   149          1
   150         14
   151         21
   152         71
   153         19
   154         22
   155          7
   157        105
   158         12
   159          1
   160          0
   162          1
   163         17
   164          7
   165         26
   167          9
   168          1
   170          0
   171          3
   172          4
   173          3
   174          1
   175          0
   176          0
   177          1
   178          4
   180         36
   182         13
   184          4
   185          1
   189          0
   190          2
   192         54
   193          8
   194         14
   195          1
   197          0
   199          0
   201          5
   202          1
   204          0
   205          1
   207          8
   208          2
   209          2
   210          0
   211          0
   217          0
   218          1
   219          7
   221          5
   222          0
   223          0
   230          0
   231          0
   236        726
   238        271
   239         24
   248          0