##TITLE=Library Entry 82638
##JCAMP-DX=Revision 4.10 
##DATA TYPE=MASS SPECTRUM
##SAMPLE DESCRIPTION=A.A.Kutin, Moscow, Russia
##NAMES=HP
##CAS NAME=Pyridine-3-carbohydrazide, N2-[5-(2-methoxy-5-nitrophenyl)-2-furf
urylideno]-
##MOLFORM=C18H14N4O5
##CAS REGISTRY NO=341500-63-8
##MP= -300
##BP= -300
##MW= 366
##$RETENTION INDEX=0
##$CONDENSED SPECTRUM=NO
##NPOINTS= 160
##XYDATA=(XY..XY) 1 
    33          3
    37          1
    38          8
    39         21
    40         16
    41          9
    42         12
    43         20
    44         17
    45          8
    50         78
    51        256
    52         45
    53         18
    54          6
    55         16
    56          7
    57          4
    60          3
    62         13
    63         39
    65         15
    66          2
    67          0
    68          1
    69          3
    71          1
    72          0
    73         15
    74         19
    75         49
    76         49
    78        694
    79        157
    81        187
    82         20
    83          6
    86          6
    87          9
    88         15
    89         30
    91         24
    92          7
    93          5
    94          3
    95          2
    98          2
    99          5
   100         11
   101         27
   102         23
   103         19
   104         24
   106        999
   107         64
   108          4
   111          3
   113         29
   114         41
   115         76
   116         24
   117          9
   118          9
   119         16
   120          7
   121          8
   122         36
   123         11
   124          0
   125          5
   126         19
   127         53
   128         40
   129         23
   130         27
   131         24
   132         12
   133         15
   134         57
   135          6
   137          1
   138          1
   139          4
   140          3
   141          8
   142         21
   143         27
   144         19
   145          6
   146          5
   147         13
   148          7
   149          1
   150          2
   152          2
   154          4
   155         11
   156         12
   157         21
   158         13
   159         24
   160          6
   161          3
   163          5
   165          1
   166          2
   168          2
   169          7
   170         18
   171         36
   172          7
   173          5
   174          4
   176         12
   177          1
   178          4
   180         19
   183         11
   184          9
   185         30
   186        128
   187         18
   188          4
   189          4
   190          7
   198         21
   199          6
   200          1
   202          3
   203          1
   204          3
   205          2
   212          0
   214         30
   215          4
   216         13
   219          1
   228          1
   229          2
   230          1
   231          2
   232         18
   233          1
   241          4
   242         15
   244        457
   245         52
   246          7
   247          0
   261          1
   263          1
   276          1
   309          6
   336          5
   337          2
   364          6
   366        164
   367         25
   368          1
   370          1