##TITLE=Library Entry 2353
##JCAMP-DX=Revision 4.10 
##DATA TYPE=MASS SPECTRUM
##SAMPLE DESCRIPTION=A.A.Kutin, Moscow, Russia
##NAMES=HP
##CAS NAME=4H-Pyrane-3-carboxylic acid, 6-amino-5-cyano-4-(4-chlorophenyl)-2
-methyl-, allyl ester
##MOLFORM=C17H15ClN2O3
##CAS REGISTRY NO=341501-05-1
##MP= -300
##BP= -300
##MW= 330
##$RETENTION INDEX=0
##$CONDENSED SPECTRUM=NO
##NPOINTS= 189
##XYDATA=(XY..XY) 1 
    33         47
    34          7
    36         58
    37         19
    39        513
    40        176
    41        999
    43        802
    44        225
    45         14
    50         63
    51         70
    52         30
    53         27
    54         11
    55         34
    56         15
    57         27
    58         10
    59          3
    61          9
    62         24
    63         68
    64         38
    65         25
    66         52
    67        239
    68         21
    69         13
    70          8
    71          6
    72          1
    73         19
    74         35
    75         99
    76         36
    77         41
    78         20
    79         21
    80          4
    81          4
    82          5
    83          8
    84         16
    85         50
    86         12
    87         21
    88         15
    89         23
    90         22
    91         15
    92          4
    93          3
    95          2
    96          2
    97          7
    98          9
    99         21
   100         17
   101         41
   102         29
   103         20
   104          8
   105         31
   106         10
   107          4
   108          0
   109          1
   110          8
   111         27
   112         18
   113         24
   114         17
   115         22
   116          8
   117          3
   118          8
   119         13
   120          2
   121          1
   123          3
   124          5
   125         14
   126         28
   127         39
   128         34
   129         10
   130         28
   131          4
   132          8
   133         23
   134         68
   135         14
   136         24
   137         19
   138         33
   139         69
   140         42
   141         17
   142          4
   143          3
   144          4
   146          1
   147          2
   148          3
   149         18
   150          6
   151          7
   152         10
   153         16
   154          9
   155          6
   156          6
   157          0
   158          4
   160          1
   161         64
   162         27
   163         23
   164         22
   165         31
   166         19
   167         19
   168          5
   171          4
   173         15
   174         19
   175         13
   176         13
   178        180
   179         41
   180          5
   181          8
   182          4
   183          1
   184          4
   187          4
   188          6
   189          9
   190          6
   191          2
   192          2
   193          2
   195          4
   200          8
   201          7
   202          7
   203          8
   204          3
   205          4
   206          1
   207          6
   208          5
   209         14
   210          2
   215          5
   216          6
   217         20
   219        385
   220         46
   221          5
   228          7
   229         18
   230          5
   231          4
   236          5
   237          3
   243          3
   244          7
   245         26
   246          8
   247          8
   254          1
   257          4
   258          1
   271          0
   272          4
   273          7
   275          2
   286         10
   288         15
   289        153
   290         24
   291         46
   292          5
   329          2
   330         13
   331          2
   332          3