##TITLE=Library Entry 68569
##JCAMP-DX=Revision 4.10 
##DATA TYPE=MASS SPECTRUM
##SAMPLE DESCRIPTION=A.A.Kutin, Moscow, Russia
##NAMES=HP
##CAS NAME=Acetonitrile, 2-(2-fluorophenylhydrazono)-2-(4-phenyl-2-thiazolyl
)-
##MOLFORM=C17H11FN4S
##CAS REGISTRY NO=341500-80-9
##MP= -300
##BP= -300
##MW= 322
##$RETENTION INDEX=0
##$CONDENSED SPECTRUM=NO
##NPOINTS= 195
##XYDATA=(XY..XY) 1 
    33         21
    34          2
    36          1
    37          7
    38         27
    39         78
    40         28
    41          9
    42          8
    43         48
    44         22
    45        109
    47         10
    50         69
    51        121
    52         38
    53          8
    54          1
    55          5
    56         12
    57         76
    58         13
    59          4
    60          2
    61          9
    62         34
    63         84
    64         21
    65         17
    66          4
    67          3
    68         11
    69         65
    70         63
    71          9
    72          5
    74         50
    75        187
    76         74
    77        151
    78         15
    79          6
    81         26
    82         53
    83        134
    84         17
    85          6
    86          4
    87         11
    89        180
    90         88
    91         61
    93         30
    95        999
    96         58
    97         18
    98          4
    99          6
   100         17
   101         26
   102        171
   103         59
   104         28
   105          6
   106          5
   107          7
   108         32
   109         47
   110         19
   111          8
   112          3
   113          2
   114          8
   115          8
   116         18
   117         13
   118          2
   119          1
   120          4
   121         15
   123        471
   124         29
   125          1
   126          3
   127         13
   128         23
   129          7
   130          2
   131          4
   132         13
   133         59
   134        390
   135         47
   136         20
   137          2
   138          1
   139          3
   140          5
   141          2
   142          1
   143          1
   145         33
   146          9
   147         12
   148          1
   149          0
   151          0
   152          1
   153          9
   155         29
   156          8
   157          1
   158          3
   159         16
   160          9
   161         45
   162          1
   163          1
   164          2
   165          4
   166          1
   167          0
   170         10
   172        212
   173         24
   174         14
   175          2
   179          0
   183          1
   184          0
   186          8
   187          4
   188          1
   189          2
   191          0
   192          0
   196          1
   197          3
   198         14
   199         49
   200         22
   201         10
   202          4
   203          1
   207          0
   208          0
   211          0
   212          2
   213          1
   214          0
   218          0
   225          0
   226          0
   227          1
   228          0
   229          1
   232          0
   240          0
   241          0
   242          1
   246          1
   248          1
   249          1
   254          0
   257          0
   258          0
   260          1
   266          1
   267          6
   268          4
   269          1
   270          0
   271          0
   272          2
   273         12
   274         30
   275         13
   276          3
   277          0
   283          0
   289          0
   293         31
   294         31
   295         10
   296          2
   301          0
   303          0
   316          0
   317          2
   318          4
   319         10
   322        339
   323         62
   324         19
   325          3