##TITLE=Library Entry 86167
##JCAMP-DX=Revision 4.10 
##DATA TYPE=MASS SPECTRUM
##SAMPLE DESCRIPTION=A.A.Kutin, Moscow, Russia
##NAMES=HP
##CAS NAME=1,3,5-Triazin-2(3H)-one, 4,6-bis(phenylthio)-
##MOLFORM=C15H11N3OS2
##CAS REGISTRY NO=341536-90-1
##MP= -300
##BP= -300
##MW= 313
##$RETENTION INDEX=0
##$CONDENSED SPECTRUM=NO
##NPOINTS= 212
##XYDATA=(XY..XY) 1 
    33          4
    34          4
    35          1
    36         10
    37          8
    38         32
    39        235
    40         19
    41         20
    42         11
    43         17
    44         30
    45         87
    46          9
    47          4
    50         96
    51        376
    52         23
    53          8
    54          7
    55         16
    56          8
    57         23
    58         32
    59         20
    60         11
    61          5
    62         13
    63         43
    65        411
    66        104
    67         26
    69        240
    70         19
    71         17
    72          2
    73          6
    74         21
    75         22
    77        581
    78         53
    80         19
    81         20
    82         43
    83         26
    84         55
    85        155
    86        351
    87         17
    88         16
    89          2
    90          9
    91         42
    92          8
    94         73
    95          8
    96         10
    97          4
    98          2
    99          1
   100          0
   101          1
   102         11
   103          7
   104          6
   105          9
   106          4
   109        999
   110        773
   111         76
   112         37
   113          3
   114          1
   115          2
   116          1
   117          4
   119        129
   120         54
   121         24
   122          5
   123          8
   124          2
   125          2
   126          1
   127          1
   128          2
   129          3
   130          0
   131          0
   132          1
   134         89
   135         61
   136        190
   137         41
   138         14
   139          6
   140          4
   141          4
   142          1
   143          2
   145        126
   146         11
   147          4
   148          5
   149          9
   150         43
   151          5
   152          7
   153          5
   154          2
   155          1
   156          4
   157          2
   158          0
   159          1
   161        174
   162         23
   163          9
   164          2
   166         17
   167          4
   168          9
   169        100
   170         12
   171          3
   172          1
   174          4
   175          5
   176         26
   177         67
   178         78
   179         10
   180          4
   181          2
   182          0
   183          0
   184          5
   185          3
   186          1
   187          0
   189          0
   190          0
   192          6
   193         24
   194         40
   195          8
   196          5
   197          0
   198          0
   200          0
   202         12
   204        492
   205         55
   206         25
   207          2
   208          0
   209          0
   210          2
   211          1
   212          1
   213          0
   217          0
   218          2
   219          0
   220          7
   221         25
   222          4
   223          3
   224          1
   225          0
   231          5
   232          0
   234          0
   235          1
   236         16
   237          4
   238          1
   239          0
   242          0
   247          0
   248          2
   249          2
   250          1
   251          1
   252          0
   253          0
   255         30
   256          5
   257          1
   264          0
   265          0
   266          0
   267          1
   269         23
   270          3
   271          2
   277          0
   278          0
   279          3
   280          1
   281          0
   284          1
   285          0
   296          5
   297          1
   298          0
   312        225
   313        386
   314         90
   315         41
   316          6
   317          1