##TITLE=Library Entry 56018
##JCAMP-DX=Revision 4.10 
##DATA TYPE=MASS SPECTRUM
##SAMPLE DESCRIPTION=Japan AIST/NIMC Database- Spectrum MS-NW-7844
##NAMES=HP
##CAS NAME=N(1),N(1)-Diethyl-1,2-butanediamine
##MOLFORM=C8H20N2
##CAS REGISTRY NO=34155-37-8
##MP= -300
##BP= -300
##MW= 144
##$RETENTION INDEX=0
##$CONDENSED SPECTRUM=NO
##NPOINTS= 51
##XYDATA=(XY..XY) 1 
    15          8
    17          4
    18          1
    26          3
    27         23
    28         42
    29         42
    30        151
    31          2
    32          3
    39          5
    40          2
    41         21
    42         44
    43         18
    44         26
    50          9
    52          2
    53          3
    54          5
    55          9
    56         28
    57         12
    58        214
    59          9
    68          3
    69          3
    70          9
    71          9
    72        122
    73          8
    74          3
    82          2
    83          3
    84          3
    85          5
    86        999
    87        127
    88         10
    98          2
    99          3
   100          2
   111          3
   112          3
   113          1
   114          8
   115          9
   123          1
   127          2
   128          1
   144          4