##TITLE=Library Entry 63613
##JCAMP-DX=Revision 4.10 
##DATA TYPE=MASS SPECTRUM
##SAMPLE DESCRIPTION=Exported from NIST MS Search
##NAMES=HP
##CAS NAME=Benzonitrile, m-phenethyl-
##MOLFORM=C15H13N
##CAS REGISTRY NO=34176-91-5
##MP= -300
##BP= -300
##MW= 207
##$RETENTION INDEX=0
##$CONDENSED SPECTRUM=NO
##NPOINTS= 29
##XYDATA=(XY..XY) 1 
    39         75
    40          6
    41         21
    43         14
    50         23
    51         51
    52         16
    62         12
    63         46
    64         16
    65        155
    66         13
    75         18
    76         20
    77         37
    78         14
    89         55
    90         17
    91        999
    92         75
    93          5
   102         10
   103          9
   116         30
   117          4
   141         13
   207        204
   208         38
   209          3