##TITLE=Library Entry 80248
##JCAMP-DX=Revision 4.10 
##DATA TYPE=MASS SPECTRUM
##SAMPLE DESCRIPTION=Chuck Anderson, Aldrich Chemical Co.
##NAMES=HP
##CAS NAME=Furfuryl benzoate
##MOLFORM=C12H10O3
##CAS REGISTRY NO=34171-46-5
##MP= -300
##BP= -300
##MW= 202
##$RETENTION INDEX=0
##$CONDENSED SPECTRUM=NO
##NPOINTS= 69
##XYDATA=(XY..XY) 1 
    14          1
    15          1
    26          5
    27         50
    28          4
    29         10
    31          0
    36          1
    37          3
    38          9
    39         29
    40          2
    41         12
    42          3
    43          1
    44          2
    45          1
    49          1
    50         42
    51        126
    52         94
    53        154
    54          7
    55          1
    62          1
    63          2
    65          1
    68          1
    69          6
    73          1
    74         13
    75          6
    76         14
    77        321
    78         23
    79          7
    80         59
    81        947
    82         42
    83          2
    91          1
    94          0
    95         18
    96          3
    97         67
    98          2
   101         16
   104          1
   105        999
   106         63
   107          3
   115          5
   116          1
   122          8
   123          3
   127          2
   128         10
   129         18
   130          3
   155          0
   156          6
   157         36
   158          4
   173          1
   184          2
   201          1
   202        247
   203         26
   204          2