##TITLE=Library Entry 41201
##JCAMP-DX=Revision 4.10 
##DATA TYPE=MASS SPECTRUM
##SAMPLE DESCRIPTION=Exported from NIST MS Search
##NAMES=HP
##CAS NAME=6-Bromohexanoic acid, TMS derivative
##MOLFORM=C9H19BrO2Si
##CAS REGISTRY NO=34176-76-6
##MP= -300
##BP= -300
##MW= 266
##$RETENTION INDEX=0
##$CONDENSED SPECTRUM=NO
##NPOINTS= 66
##XYDATA=(XY..XY) 1 
    40         15
    41        269
    42        117
    43         97
    44         39
    45        202
    46         16
    47        108
    53         18
    55        268
    56         17
    57         21
    58         45
    59         41
    60         21
    61         75
    67         18
    68         12
    69        780
    70         56
    71         10
    72         51
    73        999
    74        118
    75        730
    76         54
    77         33
    85         10
    86         13
    97        271
    98         19
    99         49
   101         19
   107         12
   109         13
   116         31
   117        324
   118         32
   119         14
   129         58
   132        355
   133         38
   134         16
   137        287
   138         23
   139        294
   140         22
   141         18
   143         16
   145         42
   152         15
   154         15
   159         13
   171         42
   187         87
   188         13
   209         14
   211         11
   251        126
   252         18
   253        127
   254         18
   266          4
   267          2
   268          4
   269          2