##TITLE=Library Entry 42163
##JCAMP-DX=Revision 4.10 
##DATA TYPE=MASS SPECTRUM
##SAMPLE DESCRIPTION=Exported from NIST MS Search
##NAMES=HP
##CAS NAME=11-Bromoundecanoic acid, TMS derivative
##MOLFORM=C14H29BrO2Si
##CAS REGISTRY NO=34176-85-7
##MP= -300
##BP= -300
##MW= 336
##$RETENTION INDEX=0
##$CONDENSED SPECTRUM=NO
##NPOINTS= 84
##XYDATA=(XY..XY) 1 
    40         12
    41        307
    42         66
    43        193
    44         30
    45        119
    47         63
    53         25
    54         24
    55        426
    56         81
    57        110
    58         34
    59         32
    60         14
    61         61
    67         57
    68         28
    69        340
    70         72
    71         53
    72         45
    73        999
    74        110
    75        696
    76         52
    77         33
    79         22
    81         66
    82         22
    83        325
    84         55
    85         29
    86         10
    89         12
    93         31
    95         33
    96         10
    97        140
    98         32
    99         20
   101         13
   107         30
   109         27
   111         41
   112         19
   116         49
   117        739
   118         72
   119         33
   121         12
   123         14
   125         56
   129        210
   130         30
   131         31
   132        603
   133         83
   134         30
   137         75
   139         80
   143         14
   145        192
   146         26
   147         11
   149        123
   150         17
   157         10
   159         22
   167         69
   171         14
   185         10
   187         11
   199         12
   201         13
   241         36
   257        101
   258         21
   321         66
   322         12
   323         66
   324         13
   336         10
   338         11