##TITLE=Library Entry 58717
##JCAMP-DX=Revision 4.10 
##DATA TYPE=MASS SPECTRUM
##SAMPLE DESCRIPTION=Asinex Ltd, Moscow, Russia
##NAMES=HP
##CAS NAME=Benzaldehyde, 4-methoxy-3-(4-nitrobenzyloxy)-
##MOLFORM=C15H13NO5
##CAS REGISTRY NO=341942-07-2
##MP= -300
##BP= -300
##MW= 287
##$RETENTION INDEX=0
##$CONDENSED SPECTRUM=NO
##NPOINTS= 110
##XYDATA=(XY..XY) 1 
    37          8
    38         46
    39        111
    40         21
    41         61
    42          3
    43          4
    46         47
    50        191
    51        398
    52        226
    53         62
    55         23
    61         23
    62        143
    63        436
    64        212
    65        201
    67        148
    68          9
    69          3
    74         43
    75         53
    76         82
    77        370
    78        611
    79        387
    80        159
    81         15
    82          0
    83          2
    85          1
    86         15
    87         27
    89        999
    90        724
    91        100
    92         30
    93         23
    95        800
    96         39
    97          2
   101          0
   102          4
   103          7
   104         29
   105         81
   106        184
   107         58
   108         48
   109         29
   110          1
   113          1
   115         22
   116          0
   119        117
   120         79
   121         72
   122         47
   123         39
   124          1
   126          1
   127          3
   128          3
   133          2
   134         11
   136        462
   137         45
   139         20
   141         21
   142          2
   149         43
   151        862
   152         86
   153         16
   154          1
   165          8
   166          4
   167          0
   168          5
   169          6
   170          1
   176          2
   178          2
   181          4
   196          2
   197          4
   209          0
   210          1
   211          2
   212          1
   225          7
   226          4
   228         18
   230          5
   240          3
   241         18
   242          7
   258          7
   259         74
   260         11
   269          3
   270         21
   271          2
   277          2
   278          4
   287        906
   288        141
   289         21
   290          1