##TITLE=Library Entry 46890
##JCAMP-DX=Revision 4.10 
##DATA TYPE=MASS SPECTRUM
##SAMPLE DESCRIPTION=A.A.Kutin, Moscow, Russia
##NAMES=HP
##CAS NAME=2H-1,2,3-Triazole, 2-methyl-5-nitro-4-phenoxy-, 1-oxide
##MOLFORM=C9H8N4O4
##CAS REGISTRY NO=341938-68-9
##MP= -300
##BP= -300
##MW= 236
##$RETENTION INDEX=0
##$CONDENSED SPECTRUM=NO
##NPOINTS= 86
##XYDATA=(XY..XY) 1 
    37          2
    38         14
    39         11
    40          2
    41          9
    43        130
    44          0
    45          2
    46         12
    48          3
    50         95
    51         63
    53         26
    54          6
    61          6
    63         46
    64         65
    65         51
    66          9
    67         12
    68          6
    69         14
    70          6
    72          0
    74         47
    77        999
    78         93
    79         16
    81         51
    82         78
    83         80
    84          1
    85          1
    86          2
    89        148
    90         27
    92        186
    93        187
    94         46
    95          3
    96          3
    97          5
   102          4
   103         19
   104         77
   105         76
   107        127
   108        161
   109         88
   110          5
   111          1
   112          0
   115          0
   117         19
   118          6
   119          3
   120          5
   121          2
   122          0
   123          0
   127          0
   128         29
   130          2
   132          3
   133          1
   134          2
   135          3
   143          5
   144        119
   145        152
   147          3
   148          4
   149          0
   158          0
   160         30
   162         47
   163          4
   189          0
   190          5
   191          0
   203          0
   220          2
   234          1
   236        165
   237         10
   238          0