##TITLE=Library Entry 64252
##JCAMP-DX=Revision 4.10 
##DATA TYPE=MASS SPECTRUM
##SAMPLE DESCRIPTION=A.A.Kutin, Moscow, Russia
##NAMES=HP
##CAS NAME=Acetohydrazide, 2-phenyl-N2-(2-bromo-3-phenylpropenylideno)-
##MOLFORM=C17H15BrN2O
##CAS REGISTRY NO=341936-35-4
##MP= -300
##BP= -300
##MW= 342
##$RETENTION INDEX=0
##$CONDENSED SPECTRUM=NO
##NPOINTS= 183
##XYDATA=(XY..XY) 1 
    33          0
    34          1
    36          0
    37          1
    38          8
    39         64
    40         22
    41         20
    42          3
    43         10
    44          8
    45          2
    46          2
    49          0
    50         21
    51         46
    52         14
    53          3
    54          0
    55          2
    56          1
    57          4
    58          0
    60          1
    61          2
    62         18
    63         69
    64         19
    65        172
    66         10
    67          0
    68          1
    69          2
    70          1
    71          2
    72          0
    73          1
    74         12
    75         19
    76         20
    77         37
    78         10
    79          4
    80          4
    81          2
    82          3
    83          1
    84          1
    86          6
    87         10
    88         13
    89        101
    91        999
    92        163
    93          7
    95          2
    96          0
    97          0
    98          1
    99          1
   100          2
   101          9
   102         45
   103          8
   104          9
   105          6
   106          3
   107          0
   108          0
   109          0
   110          0
   111          1
   112          1
   113         11
   114         16
   115        179
   116         27
   117         31
   118         40
   119         10
   120          1
   121          0
   122          0
   123          2
   124          0
   125          0
   127          2
   128         18
   129          8
   130          3
   131          0
   132          0
   133          0
   134          9
   135          5
   136          1
   137          0
   139          0
   141          0
   143         20
   144         66
   145         29
   146          5
   147         15
   148          2
   149         15
   150          0
   151          0
   152          0
   153          0
   155          0
   156          0
   157          0
   158          0
   160          0
   161          1
   163          0
   165          0
   166          0
   167          0
   169          0
   171          3
   172          0
   173          0
   177          0
   178          0
   180          0
   181          0
   182          0
   183          0
   184          0
   185          0
   187          0
   189          0
   190          0
   191          0
   193          1
   194          0
   195          1
   196          0
   197          0
   202          0
   203          0
   204          0
   205          1
   207         16
   208          8
   209         16
   210          8
   211          0
   213          0
   216          0
   217          0
   218          0
   219          0
   221          0
   223         26
   225         27
   226          4
   227          0
   231          0
   233          0
   234          0
   235          0
   245          0
   249          0
   251          0
   255          0
   258          0
   259          1
   260          4
   263        364
   264         68
   265          6
   266          0
   267          0
   283          0
   322          0
   341          1
   342          1
   343          1
   344          1
   345          0