##TITLE=Library Entry 86226
##JCAMP-DX=Revision 4.10 
##DATA TYPE=MASS SPECTRUM
##SAMPLE DESCRIPTION=A.A.Kutin, Moscow, Russia
##NAMES=HP
##CAS NAME=2-Propene-1-sulfonamide, 3,3-dichloro-N-(2,4,5-trichlorophenyl)-
##MOLFORM=C9H6Cl5NO2S
##CAS REGISTRY NO=341938-64-5
##MP= -300
##BP= -300
##MW= 367
##$RETENTION INDEX=0
##$CONDENSED SPECTRUM=NO
##NPOINTS= 186
##XYDATA=(XY..XY) 1 
    33          0
    35         13
    36         10
    37         42
    38         71
    39        136
    41          1
    43          0
    44          2
    45          5
    47         36
    48         47
    49         62
    50         10
    51         21
    52         19
    53          2
    55          5
    56          0
    57          1
    58          0
    60         18
    61         50
    62         68
    64         39
    65         12
    66          1
    67          1
    68          1
    69          3
    72         76
    73        218
    74         56
    75         70
    76         13
    77          3
    78          1
    79          3
    80          4
    83        172
    85        121
    86         14
    87         35
    88         41
    89         10
    90          1
    91          0
    92          1
    93          1
    94          2
    95          6
    96         31
    97        108
    98         31
    99         45
   100          7
   101          3
   103          1
   104          0
   105          1
   107         82
   109        999
   111        637
   113        103
   115          0
   117          2
   118          2
   119          5
   121          6
   122         12
   124         59
   125          8
   126         15
   127          2
   129          0
   131         22
   132         13
   133         18
   134          8
   135          6
   136          2
   137          1
   138          0
   139          0
   141          3
   143          8
   145          7
   146          2
   147          1
   148          1
   149          0
   151          1
   153          0
   154          0
   155          0
   156          1
   158         45
   159         47
   160         31
   161         31
   162          8
   163          6
   164          2
   167        230
   169        226
   171         79
   173         12
   174          1
   175          0
   178          1
   179          3
   180          3
   182          2
   183          1
   184          1
   185          1
   186          2
   187          1
   188          1
   189          0
   190          0
   191          0
   194         85
   195         25
   196         71
   197         21
   198         30
   199          8
   200          8
   201          1
   202          0
   206          7
   207          4
   208          6
   210          4
   211          0
   212          1
   219          0
   220          1
   222          2
   223          0
   229          0
   231          3
   232         38
   233         17
   234         36
   235         13
   236         11
   237          4
   238          1
   240          0
   241          0
   242          4
   243          1
   244          3
   245          0
   246          1
   248          0
   266          3
   268        101
   270        135
   271         16
   272         55
   274         16
   275          0
   276          1
   302          1
   303         11
   304          4
   305         17
   306          3
   307         10
   308          1
   309          3
   311          0
   333          0
   366          0
   367         40
   369         67
   370          8
   371         41
   372          5
   373         13
   374          1
   375          2
   376          0