##TITLE=Library Entry 83930
##JCAMP-DX=Revision 4.10 
##DATA TYPE=MASS SPECTRUM
##SAMPLE DESCRIPTION=A.A.Kutin, Moscow, Russia
##NAMES=HP
##CAS NAME=Phenol, 2-(3,5-dimethylpyrid-2-yl)metyleneamino-4-nitro-
##MOLFORM=C14H13N3O3
##CAS REGISTRY NO=341936-48-9
##MP= -300
##BP= -300
##MW= 271
##$RETENTION INDEX=0
##$CONDENSED SPECTRUM=NO
##NPOINTS= 128
##XYDATA=(XY..XY) 1 
    33          1
    34          7
    37          8
    39        153
    40        155
    41         52
    42         38
    43         16
    44         35
    45          6
    46          6
    50         76
    51        139
    52         87
    53        125
    54         33
    55          5
    56          9
    57          6
    61          3
    62         23
    63         99
    64         59
    65         76
    66         58
    67         11
    68          1
    69          3
    70         12
    72          4
    73          3
    74         29
    75         36
    76         59
    77        289
    79        257
    80         46
    81         12
    82          1
    83          4
    84         12
    85         14
    87          4
    88          4
    89         20
    90         39
    91         34
    92         99
    93         16
    94         17
    95          5
    96          1
    97          8
    98         16
   100          1
   101          6
   102         12
   103         13
   104         32
   106        430
   107        999
   108         88
   109          4
   112          3
   114          1
   116         13
   117         14
   118          6
   119         10
   120          2
   121          2
   122          5
   127         23
   128          2
   130          6
   131          6
   132         15
   133         87
   134         10
   142          1
   143          3
   144          8
   146          3
   154          8
   155         20
   156          4
   157         12
   158          9
   160          3
   167          4
   168         11
   169         13
   170          5
   171          5
   172          5
   179          4
   180          1
   181          3
   182         12
   183         19
   184          2
   185          8
   191          1
   193          6
   194          1
   195         21
   196          7
   197          7
   198          2
   207          2
   210          3
   212          1
   213          9
   223          4
   224          8
   225          5
   240          1
   241         14
   243          1
   244          1
   247          1
   254          6
   256         10
   269          1
   270         38
   271        196
   272         26
   273          1