##TITLE=Library Entry 64771
##JCAMP-DX=Revision 4.10 
##DATA TYPE=MASS SPECTRUM
##SAMPLE DESCRIPTION=A.A.Kutin, Moscow, Russia
##NAMES=HP
##CAS NAME=Benzaldehyde, 3,4-dimethoxy-, dibenzylhydrazone
##MOLFORM=C23H24N2O2
##CAS REGISTRY NO=341938-76-9
##MP= -300
##BP= -300
##MW= 360
##$RETENTION INDEX=0
##$CONDENSED SPECTRUM=NO
##NPOINTS= 211
##XYDATA=(XY..XY) 1 
    33          1
    34          1
    35          0
    36          2
    37          2
    38         12
    39         67
    40         28
    41         26
    42          3
    43          8
    44          6
    45         15
    47          1
    48          0
    50         26
    51         59
    52         13
    53         14
    54          2
    55         10
    56          1
    57          4
    58          0
    59          2
    60          0
    61          1
    62          9
    63         50
    64         49
    65        153
    66         16
    67          3
    68          1
    69          4
    70          1
    71          3
    72          0
    73          0
    74          3
    75         13
    76         25
    77        104
    78         23
    79         71
    80          7
    81          3
    82          2
    83          2
    84          1
    85          1
    86          0
    87          1
    89         46
    91        999
    92        138
    93          9
    94          5
    95          5
    96          1
    97          1
    98          0
    99          0
   100          0
   102          9
   103         23
   104         17
   105         64
   106         19
   107         73
   108          6
   109          2
   110          0
   111          2
   112          0
   113          1
   115          7
   116          3
   117         17
   118          7
   119         16
   120         32
   121         11
   122          4
   123          1
   124          2
   125          3
   126          1
   127          2
   128          4
   129          7
   130          2
   131          8
   132          2
   133          3
   135         80
   136          7
   137          7
   138          2
   139          2
   140          1
   141          4
   142          1
   143          1
   144          0
   145          0
   146          1
   147          1
   148          7
   150        201
   151         28
   152          8
   153          6
   154          3
   155          4
   156          0
   157          0
   158          0
   159          0
   160          0
   161          1
   162          1
   163          6
   164          6
   165         22
   166         17
   167         14
   168          3
   169          1
   170          1
   171          1
   172          0
   174          0
   175          1
   176          2
   177         10
   178         42
   179         21
   180          4
   181         11
   182          3
   183          4
   184          0
   185          0
   187          0
   188          0
   189          0
   191          8
   192          2
   193          4
   194         26
   195         16
   196          6
   197          3
   198          1
   199          0
   200          0
   205          0
   206          0
   207          1
   208          4
   209         30
   210         31
   211         11
   212          1
   213          0
   219          0
   221          0
   222          0
   223          0
   224          1
   225          4
   226         18
   227          5
   228          0
   233          0
   234          0
   235          0
   237          1
   238          1
   239          2
   240          2
   241         18
   242          3
   243          0
   244          0
   247          0
   251          0
   252          0
   253          0
   254          0
   255          0
   264          0
   265          0
   267          4
   269         75
   270         13
   271          1
   283          2
   284          0
   300          0
   301          0
   344          0
   345          1
   346          0
   356          7
   357         10
   360        231
   361         54
   362          7
   363          0