##TITLE=Library Entry 12726
##JCAMP-DX=Revision 4.10 
##DATA TYPE=MASS SPECTRUM
##SAMPLE DESCRIPTION=A.A.Kutin, Moscow, Russia
##NAMES=HP
##CAS NAME=1,2,4-Triazole, 1-acetyl-3-acetylamino-5-propylthio-
##MOLFORM=C9H14N4O2S
##CAS REGISTRY NO=341936-92-3
##MP= -300
##BP= -300
##MW= 242
##$RETENTION INDEX=0
##$CONDENSED SPECTRUM=NO
##NPOINTS= 64
##XYDATA=(XY..XY) 1 
    38          7
    39         92
    40        148
    41        113
    43        999
    44         52
    45         26
    46          8
    50         16
    52          4
    53          7
    55         34
    56          7
    57         21
    58         11
    59          6
    60         10
    64          3
    65          3
    67          8
    69         17
    71          3
    74          3
    77          7
    81          7
    84         13
    85         77
    86         11
    91         12
    95          3
    98         10
   103          3
   109          5
   111         19
   112          4
   116        328
   117         16
   125         12
   129         27
   130          6
   135          2
   140         10
   143         47
   152          5
   153         44
   154          3
   156          3
   158        329
   159         13
   160          4
   167          6
   171         18
   172         26
   180          3
   185         30
   193          4
   200        225
   201          8
   202          3
   214          3
   227          4
   231          2
   242         62
   243          5