##TITLE=Library Entry 7185
##JCAMP-DX=Revision 4.10 
##DATA TYPE=MASS SPECTRUM
##SAMPLE DESCRIPTION=Chemical Concepts
##NAMES=HP
##CAS NAME=6-(1,4-Benzodioxan-2-ylcarbonylhydrazonomethyl)uracil
##MOLFORM=C14H12N4O5
##CAS REGISTRY NO=341940-46-3
##MP= -300
##BP= -300
##MW= 316
##$RETENTION INDEX=0
##$CONDENSED SPECTRUM=NO
##NPOINTS= 109
##XYDATA=(XY..XY) 1 
    34         42
    35         45
    36         75
    38        128
    39        183
    40        250
    41        546
    42        436
    43        999
    44        397
    45        233
    48        271
    49         70
    50        361
    51        491
    52        736
    53        360
    54        437
    55        962
    56        224
    57        282
    58         48
    59         16
    60         26
    62         96
    63        227
    64        404
    65        120
    66        109
    68        653
    69        163
    70        152
    71        103
    72         24
    73         21
    74         38
    75         52
    76         97
    77        393
    78        151
    79        274
    80        244
    81        434
    82        112
    83         96
    84         68
    85         64
    86         40
    90          9
    91         29
    92         65
    93         30
    94         33
    95         32
    96         25
    97         65
    98         42
    99         12
   104          9
   105         23
   107        321
   109        299
   110        312
   111         53
   112         62
   113         21
   119         20
   120         42
   121        139
   122         25
   123          6
   124         16
   125         15
   126         68
   127         32
   129         11
   132         14
   134        238
   135        603
   136        133
   137         26
   138         18
   139          9
   144          6
   149          8
   150         25
   151          7
   152         23
   153         46
   154         69
   155         18
   156         22
   157         10
   158          9
   160         10
   161         26
   162         47
   163        152
   164         17
   171         60
   178          8
   179         26
   194        102
   195          9
   205          7
   207          9
   208         29
   316        126
   317         12