##TITLE=Library Entry 81017
##JCAMP-DX=Revision 4.10 
##DATA TYPE=MASS SPECTRUM
##SAMPLE DESCRIPTION=Chuck Anderson, Aldrich Chemical Co.
##NAMES=HP
##CAS NAME=2-Fluorobenzophenone
##MOLFORM=C13H9FO
##CAS REGISTRY NO=342-24-5
##MP= -300
##BP= -300
##MW= 200
##$RETENTION INDEX=0
##$CONDENSED SPECTRUM=NO
##NPOINTS= 76
##XYDATA=(XY..XY) 1 
    26          4
    27         24
    28          4
    29          2
    31          5
    32          1
    37          3
    38          7
    39         17
    45          1
    49          3
    50         73
    51        188
    52         12
    53          4
    57          7
    61          4
    62         11
    63         15
    68         16
    69         29
    70          6
    72          0
    73         12
    74         53
    75        185
    76         60
    77        610
    78         41
    81          5
    83          1
    85         24
    86         33
    87          6
    90          2
    92          3
    93          6
    94         25
    95        275
    96         22
    98          5
    99          5
   100          3
   101          1
   104          8
   105        999
   106         78
   107          8
   120          3
   122          5
   123        746
   124         56
   125          9
   126          3
   131          0
   133          3
   144          5
   146          1
   150         10
   151         18
   152         11
   153          1
   168          3
   169          7
   170         27
   171         17
   172         23
   173          2
   179          3
   180         44
   181          8
   183          4
   199         33
   200        506
   201         70
   202          6