##TITLE=Library Entry 79246
##JCAMP-DX=Revision 4.10 
##DATA TYPE=MASS SPECTRUM
##SAMPLE DESCRIPTION=Chemical Concepts
##NAMES=HP
##CAS NAME=Benzamide, N-(2-acetyloxybenzylidenamino)
##MOLFORM=C16H14N2O3
##CAS REGISTRY NO=342008-36-0
##MP= -300
##BP= -300
##MW= 282
##$RETENTION INDEX=0
##$CONDENSED SPECTRUM=NO
##NPOINTS= 96
##XYDATA=(XY..XY) 1 
    14          4
    15         22
    16          2
    17         13
    18         57
    20          4
    26          1
    27         10
    28         21
    29          3
    31          1
    32          3
    37          1
    38          5
    39         17
    40          1
    41          4
    43        168
    44         12
    45          1
    50         26
    51        103
    52         15
    53          6
    54          1
    55          3
    56          1
    57          3
    61          1
    62          3
    63         11
    64          8
    65          9
    66          2
    67          1
    68          1
    69          1
    70          1
    71          1
    73          1
    74          5
    75          7
    77        428
    78         41
    79         17
    80          6
    81          1
    83          1
    89          1
    90          5
    91          9
    92          3
    93          2
   102          3
   103          7
   105        999
   106         77
   107          8
   108          2
   111          1
   112          1
   113          1
   117          1
   118          3
   119         55
   120         15
   121         53
   122        386
   123         28
   124          1
   133          6
   134          2
   135          2
   139          4
   141          1
   147          2
   152          1
   155          1
   156          1
   160          1
   161          9
   162          2
   164         69
   165          8
   166          1
   171          2
   181          1
   183          1
   222          9
   223          3
   238          1
   240         67
   241          9
   242          1
   282         13
   283          2