##TITLE=Library Entry 12352
##JCAMP-DX=Revision 4.10 
##DATA TYPE=MASS SPECTRUM
##SAMPLE DESCRIPTION=R.BAKER DEPT. OF CHEM., THE UNIVERSITY, SOUTHAMPTON, UK
##NAMES=HP
##CAS NAME=1,4-Methanobiphenylen-2-ol, 3-chloro-1,2,3,4,4a,8b-hexahydro-, ac
etate, (1.alpha.,2.alpha.,3.alpha.,4.alpha.,4a.alpha.,8b.alpha.)-
##MOLFORM=C15H15ClO2
##CAS REGISTRY NO=34208-70-3
##MP= -300
##BP= -300
##MW= 262
##$RETENTION INDEX=0
##$CONDENSED SPECTRUM=NO
##NPOINTS= 14
##XYDATA=(XY..XY) 1 
    43        999
    77        230
    91        110
   115        110
   128        110
   129        300
   141        260
   142        720
   155        130
   167        330
   202        250
   227        110
   262         30
   264         10