##TITLE=Library Entry 88517
##JCAMP-DX=Revision 4.10 
##DATA TYPE=MASS SPECTRUM
##SAMPLE DESCRIPTION=W. KELLY UNILEVER RESEARCH COLWORTH/WELWYN, BEDFORD U.K
.
##NAMES=HP
##CAS NAME=Isomaltol
##MOLFORM=C6H6O3
##CAS REGISTRY NO=3420-59-5
##MP= -300
##BP= -300
##MW= 126
##$RETENTION INDEX=981
##$CONDENSED SPECTRUM=NO
##NPOINTS= 31
##XYDATA=(XY..XY) 1 
    26         80
    27        120
    29         80
    37         16
    38         18
    39         27
    40          7
    41         18
    42         50
    43        270
    44         83
    51         14
    52         14
    53         48
    54         43
    55        220
    56         19
    58         50
    67         10
    69         18
    71         10
    72          6
    83         45
    84         52
    97         10
   108          6
   111        999
   112         60
   126        630
   127         44
   128          6