##TITLE=Library Entry 72578
##JCAMP-DX=Revision 4.10 
##DATA TYPE=MASS SPECTRUM
##SAMPLE DESCRIPTION=NIST Mass Spectrometry Data Center, 1994
##NAMES=HP
##CAS NAME=2,4-Dichloro-.omega.-nitrostyrene
##MOLFORM=C8H5Cl2NO2
##CAS REGISTRY NO=34209-97-7
##MP= -300
##BP= -300
##MW= 217
##$RETENTION INDEX=0
##$CONDENSED SPECTRUM=NO
##NPOINTS= 119
##XYDATA=(XY..XY) 1 
    16          3
    17          9
    18         24
    25          9
    30        401
    35         22
    36         36
    37         96
    38         86
    39         63
    46         85
    47         22
    48         15
    49        116
    50        400
    51        241
    52         18
    55          7
    60         28
    61        145
    62        168
    63        185
    64         20
    68        119
    69         48
    71          8
    72         43
    73        174
    74        389
    75        535
    76         58
    77          8
    84         95
    85        130
    86        112
    87         99
    88         35
    89        120
    90         64
    91         16
    96         22
    97         77
    98        179
    99        999
   100        195
   101        182
   102         45
   103          6
   106          6
   107         11
   108         38
   109        180
   110         55
   111         94
   112         25
   113         25
   114         22
   115         14
   117         10
   118         12
   119         13
   120          7
   121         14
   122          6
   123        157
   124         62
   125         69
   126         53
   127         22
   128         17
   129          6
   130         13
   132          9
   133         30
   134         58
   135        564
   136        586
   137        228
   138        213
   139         24
   140          9
   145         19
   146         29
   147         15
   148         22
   149         10
   150         58
   151          9
   152        754
   153         73
   154        246
   155         26
   156          8
   159        147
   160         21
   161         98
   162         11
   163         19
   165         10
   166         27
   168         12
   170        553
   171        117
   172        362
   173        114
   174         82
   175         42
   176         11
   182        660
   183         55
   184        210
   185         40
   186          9
   187         20
   217        251
   218         25
   219        174
   220         14
   221         23