##TITLE=Library Entry 66759
##JCAMP-DX=Revision 4.10 
##DATA TYPE=MASS SPECTRUM
##SAMPLE DESCRIPTION=Japan AIST/NIMC Database- Spectrum MS-IW-1830
##NAMES=HP
##CAS NAME=1-(3-Chloropropyl)-3-phenylurea
##MOLFORM=C10H13ClN2O
##CAS REGISTRY NO=3420-63-1
##MP= -300
##BP= -300
##MW= 212
##$RETENTION INDEX=0
##$CONDENSED SPECTRUM=NO
##NPOINTS= 67
##XYDATA=(XY..XY) 1 
    15          1
    26          2
    27         11
    28         14
    29          3
    30         24
    36          2
    37          2
    38          7
    39         38
    40          7
    41         46
    42          5
    43          3
    44          6
    49          6
    50          9
    51         27
    52          9
    53          2
    54          5
    55          1
    56         10
    57          1
    58          5
    61          1
    62          3
    63         13
    64         17
    65         70
    66         54
    67          6
    74          3
    75          3
    76          4
    77         67
    78         24
    79          5
    80          1
    90          2
    91         23
    92         57
    93        999
    94         80
    95          2
   104          2
   105          1
   106          7
   107          1
   118          3
   119         39
   120         23
   121          2
   132          1
   134          1
   135          4
   147         11
   148          2
   149          1
   175         41
   176         22
   177          7
   211          2
   212        129
   213         15
   214         42
   215          5