##TITLE=Library Entry 20285
##JCAMP-DX=Revision 4.10 
##DATA TYPE=MASS SPECTRUM
##SAMPLE DESCRIPTION=Japan AIST/NIMC Database- Spectrum MS-IW-4722
##NAMES=HP
##CAS NAME=Oxiranedodecanoic acid, 3-octyl-, cis-
##MOLFORM=C22H42O3
##CAS REGISTRY NO=3420-36-8
##MP= -300
##BP= -300
##MW= 354
##$RETENTION INDEX=0
##$CONDENSED SPECTRUM=NO
##NPOINTS= 305
##XYDATA=(XY..XY) 1 
    14          1
    15          2
    17         15
    18         22
    25          1
    26          9
    27         87
    28         44
    29        226
    30          6
    31         14
    32          1
    37          2
    38          3
    39         80
    40         17
    41        642
    42        158
    43        660
    44         41
    45         51
    46          1
    47          1
    50          3
    51          8
    52          6
    53         51
    54        169
    55        999
    56        361
    57        636
    58        105
    59         64
    60        144
    61         23
    62          2
    63          3
    64          2
    65         17
    66         53
    67        508
    68        441
    69        980
    70        315
    71        419
    72         40
    73        201
    74         20
    75          3
    76          2
    77         29
    78         17
    79        114
    80        104
    81        563
    82        807
    83        886
    84        316
    85        242
    86         26
    87         97
    88          9
    89          5
    90          1
    91         60
    92         23
    93         94
    94        113
    95        626
    96        506
    97        563
    98        485
    99        107
   100         44
   101         92
   102         15
   103          6
   104         11
   105         46
   106         16
   107         76
   108         68
   109        327
   110        195
   111        265
   112        175
   113        130
   114         60
   115         68
   116         43
   117         20
   118         12
   119         47
   120         16
   121         96
   122         48
   123        165
   124        309
   125        186
   126        148
   127         76
   128         28
   129        153
   130         35
   131         27
   132          8
   133         41
   134         26
   135         67
   136         34
   137        111
   138         88
   139         64
   140         57
   141        105
   142         78
   143         69
   144         28
   145         30
   146          8
   147         31
   148         26
   149         56
   150         65
   151         86
   152         72
   153         58
   154         36
   155        453
   156        105
   157         46
   158          7
   159          8
   160          4
   161         12
   162          9
   163         40
   164         20
   165         39
   166         45
   167         60
   168         28
   169         53
   170         51
   171         32
   172          7
   173         12
   174          9
   175         97
   176         53
   177         57
   178         15
   179         19
   180         26
   181         44
   182         36
   183         45
   184         13
   185         11
   186          4
   187         22
   188          6
   189          6
   190          4
   191         10
   192         38
   193        113
   194         59
   195         99
   196         38
   197         14
   198          9
   199          6
   200         13
   201          6
   202          3
   203          5
   204          3
   205         23
   206         14
   207         11
   208         10
   209         45
   210        119
   211        412
   212        134
   213        216
   214         32
   215          6
   216          2
   217          3
   218          2
   219          6
   220          7
   221          8
   222          9
   223        168
   224         71
   225         20
   226          4
   227         26
   228          6
   229         11
   230          3
   231          6
   232          2
   233          5
   234          4
   235          8
   236          8
   237         16
   238         41
   239         21
   240          6
   241        273
   242         66
   243         10
   244          2
   245          2
   246          1
   247          4
   248          3
   249          5
   250          5
   251         14
   252          9
   253          7
   254          3
   255          6
   256         20
   257          5
   258          1
   259          1
   260          1
   261          3
   262          4
   263          5
   264          4
   265          8
   266          6
   267          2
   268          1
   269          6
   270          2
   271          1
   273          1
   275          2
   276          6
   277          6
   278          5
   279          8
   280          6
   281          3
   282          1
   283          3
   284          1
   286          2
   288          1
   289          2
   290          5
   291          3
   292          5
   293          8
   294          7
   295         13
   296          5
   297          2
   298          4
   299          1
   300          5
   301          2
   302          2
   303          2
   306          1
   307          6
   308          6
   309          2
   310          1
   311          4
   312          1
   314          1
   316          2
   317          2
   318         12
   319          7
   320         31
   321          9
   322          1
   325          1
   326          9
   327          2
   332          3
   333          1
   334          4
   335          8
   336         52
   337         29
   338          9
   339          2
   340          1
   352          1
   353          1
   354         28
   355          9
   356          1