##TITLE=Library Entry 78602
##JCAMP-DX=Revision 4.10 
##DATA TYPE=MASS SPECTRUM
##SAMPLE DESCRIPTION=A.A.Kutin, Moscow, Russia
##NAMES=HP
##CAS NAME=Benzohydrazide, N2-(5-bromo-2-methoxybenzylideno)-
##MOLFORM=C15H13BrN2O2
##CAS REGISTRY NO=342002-47-5
##MP= -300
##BP= -300
##MW= 332
##$RETENTION INDEX=0
##$CONDENSED SPECTRUM=NO
##NPOINTS= 213
##XYDATA=(XY..XY) 1 
    34          7
    35          0
    36          3
    37         24
    38         46
    39         91
    40         21
    41         50
    43         63
    44         20
    45         13
    46          1
    47          1
    48          2
    50        229
    51        393
    52         37
    53         26
    55         34
    57         37
    59          3
    60          4
    61         16
    62         46
    63         95
    64         23
    65         41
    66          7
    67          4
    68          3
    69         13
    70         11
    71         13
    73         23
    74         63
    75         84
    76        113
    77        793
    78         71
    79         12
    80          4
    81          7
    82          5
    83          7
    84          7
    85          4
    86          9
    87         12
    88         18
    89         87
    90         78
    91         68
    92         11
    93          7
    95         15
    96          2
    97          3
    98          2
    99          3
   101          8
   102          7
   103         17
   105        999
   106         62
   107          6
   108          0
   109          1
   110          2
   112          6
   113          3
   115          5
   117          5
   118         34
   119         15
   120          4
   121         17
   122          8
   123         18
   124          2
   125          2
   127          3
   128          4
   129          4
   130          1
   131          3
   132          4
   133         25
   135          9
   136         15
   137          1
   139          3
   140          1
   141          2
   142          3
   143          3
   144          3
   145          2
   146          1
   147          6
   148         27
   149          3
   150          1
   151          2
   152          4
   153          2
   155         12
   156          5
   157         12
   158          3
   159          1
   160          0
   161          0
   163          0
   164          0
   165          3
   167          2
   168          8
   169         15
   170         12
   171         20
   172          7
   173          4
   175          3
   176          0
   178          0
   179          0
   180          1
   181          1
   182          5
   183          6
   184          6
   185          8
   186          1
   187          1
   188          0
   189          0
   192          0
   193          0
   194          0
   195          1
   196          4
   197          8
   198          5
   199          6
   200          1
   201          0
   202          0
   203          0
   204          1
   205          0
   206          0
   207          1
   208          4
   209         10
   211        228
   213        223
   214         22
   215          1
   217          0
   218          0
   219          0
   221          0
   222          0
   223          0
   224          0
   226          1
   227          0
   228          0
   229          0
   234          0
   237          0
   238          0
   241          0
   244          0
   247          0
   248          0
   249          0
   250          0
   251          0
   253          4
   254          1
   255          0
   256          0
   257          0
   259          0
   261          0
   264          0
   265          0
   282          0
   283          1
   284          0
   287          0
   290          0
   291          2
   292          0
   295          0
   296          0
   298          0
   300          4
   301          2
   302          2
   303          1
   304          0
   305          0
   318          0
   326          0
   328          0
   329          1
   330          2
   331          2
   332         12
   334         12
   335          1