##TITLE=Library Entry 12655
##JCAMP-DX=Revision 4.10 
##DATA TYPE=MASS SPECTRUM
##SAMPLE DESCRIPTION=W.K.ROHWEDDER US DEPT. OF AGRICULT., PEORIA, ILLINOIS,
 USA
##NAMES=HP
##CAS NAME=Nonanoic acid, 9-oxo-, 1-methylethyl ester
##MOLFORM=C12H22O3
##CAS REGISTRY NO=34208-02-1
##MP= -300
##BP= -300
##MW= 214
##$RETENTION INDEX=0
##$CONDENSED SPECTRUM=NO
##NPOINTS= 121
##XYDATA=(XY..XY) 1 
    15         12
    17          5
    18         30
    19          1
    26          5
    27        209
    28        117
    29        201
    30          7
    31         30
    38          4
    39        157
    40          6
    41        667
    42        196
    43        999
    44        110
    45         93
    46          3
    47          4
    48          3
    49          4
    51          7
    52          3
    53         51
    54         74
    55        644
    56         99
    57        323
    58         49
    59        334
    60        520
    61         85
    62          5
    63          7
    65          8
    66         21
    67        406
    68        174
    69        293
    70         77
    71         90
    72         12
    73        305
    74         41
    75          6
    77         10
    78          4
    79         66
    80         44
    81        153
    82        159
    83        350
    84        153
    85         67
    86         26
    87        108
    88         10
    89          2
    91         17
    92         13
    93         58
    94        131
    95        191
    96         30
    97        102
    98        193
    99         39
   100         15
   101        101
   102        136
   103         17
   104          2
   105          2
   107         49
   108         35
   109        396
   110        120
   111        265
   112         55
   113         13
   114          3
   115         51
   116         18
   117          6
   118          7
   119         19
   120          5
   121          6
   123          5
   124         17
   125         57
   126         71
   127         14
   128         44
   129        245
   130         23
   131          2
   135         19
   136         94
   137         21
   138          8
   139          4
   141          5
   142          4
   143          3
   144        174
   145         22
   146          2
   152          5
   153         59
   154        213
   155        843
   156         84
   157          8
   158          5
   171         92
   172         28
   173         10
   186         17
   187          3