##TITLE=Library Entry 53121
##JCAMP-DX=Revision 4.10 
##DATA TYPE=MASS SPECTRUM
##SAMPLE DESCRIPTION=Chemical Concepts
##NAMES=HP
##CAS NAME=Succinic acid, di-(-)-menthyl ester
##MOLFORM=C24H42O4
##CAS REGISTRY NO=34212-59-4
##MP= -300
##BP= -300
##MW= 394
##$RETENTION INDEX=0
##$CONDENSED SPECTRUM=NO
##NPOINTS= 96
##XYDATA=(XY..XY) 1 
    26          1
    27         38
    28         20
    29         66
    30          0
    31          0
    36          0
    39         21
    40          9
    41        191
    42         14
    43        150
    44          5
    45          3
    50          0
    51          1
    52          0
    53         20
    54         27
    55        391
    56         43
    57        345
    58         13
    59          1
    65          5
    66          1
    67        113
    68         41
    69        266
    70         21
    71         51
    72          1
    73         12
    74          0
    77          7
    78          0
    79         27
    80         78
    81        597
    82        194
    83        999
    84         61
    85          5
    86          0
    87          0
    91          5
    92          0
    93         15
    94         78
    95        563
    96        132
    97        128
    98          8
    99          2
   100          0
   101         70
   102          1
   103          0
   105          0
   107          1
   108          0
   109         45
   110         19
   111          6
   112          5
   113          6
   118          1
   119        885
   120         36
   121          6
   122          0
   123        181
   124         16
   125          0
   136          1
   137         57
   138        881
   139        593
   140         56
   141         13
   142          0
   154         22
   155         81
   156         11
   157          0
   161          0
   183          0
   213          0
   239          0
   241          1
   255          0
   256          0
   257         65
   258          8
   259          0
   395          0