##TITLE=Library Entry 20728
##JCAMP-DX=Revision 4.10 
##DATA TYPE=MASS SPECTRUM
##SAMPLE DESCRIPTION=N.W. Davies, Centr. Sci. Lab., Univ. Tasmania, Hobart,
 Australia
##NAMES=HP
##CAS NAME=2-Butenoic acid, 2-methyl-, dodecahydro-8-hydroxy-8a-methyl-3,5-b
is(methylene)-2-oxonaphtho[2,3-b]furan-4-yl ester, [3ar-[3a.alpha.,4.alpha.(
Z),4a.alpha.,8.beta.,8a.beta.,9a.beta.]]-
##MOLFORM=C20H26O5
##CAS REGISTRY NO=34226-89-6
##MP= -300
##BP= -300
##MW= 346
##$RETENTION INDEX=0
##$CONDENSED SPECTRUM=NO
##NPOINTS= 137
##XYDATA=(XY..XY) 1 
    26         19
    27        196
    31         21
    38         13
    39        214
    41        316
    42         23
    43        152
    44         26
    45         26
    50         11
    51         37
    52         18
    53        166
    54         71
    55        999
    56         59
    57         45
    63         15
    65         54
    66         13
    67         64
    68         18
    69         82
    70          9
    71         30
    73          5
    74         13
    77         85
    78         37
    79         93
    80         22
    81         53
    82         59
    83        879
    84         67
    85         21
    91        147
    92         25
    93         67
    94         14
    95         43
    96         13
    97         23
    99          7
   100         26
   101         27
   103         24
   104         19
   105         89
   106         28
   107         50
   108         19
   109         40
   110         10
   111         10
   115         30
   116         13
   117         45
   118         14
   119         53
   120         20
   121         29
   122         14
   123         17
   124          7
   127          6
   128         17
   129         31
   130         17
   131         43
   132         21
   133         26
   134          9
   135         20
   136         11
   137         10
   138          5
   141         16
   142         13
   143         41
   144         20
   145         37
   146         14
   147         22
   148         13
   149         10
   155         10
   156         17
   157         50
   158         16
   159         41
   160         14
   161         31
   162         11
   163          9
   167         30
   168          9
   169         16
   170          5
   171         19
   172         14
   173         20
   174         17
   175         26
   176          9
   182         19
   183         40
   184         12
   185         30
   186         14
   187         19
   188         15
   189         20
   190          8
   199         21
   200         24
   201         20
   202         73
   203         25
   204         28
   205          7
   206          7
   211          5
   213        116
   214         17
   215         12
   217         13
   218          7
   228        158
   229         31
   230         31
   231         18
   232          7
   246         84
   247         15
   248         21