##TITLE=Library Entry 59898
##JCAMP-DX=Revision 4.10 
##DATA TYPE=MASS SPECTRUM
##SAMPLE DESCRIPTION=MUS157 A. Mujsce, AT&T Bell Labs., Murray Hill, N.J., U
SA
##NAMES=HP
##CAS NAME=Carbamic acid, phenyl-, phenylmethyl ester
##MOLFORM=C14H13NO2
##CAS REGISTRY NO=3422-02-4
##MP= -300
##BP= -300
##MW= 227
##$RETENTION INDEX=0
##$CONDENSED SPECTRUM=NO
##NPOINTS= 76
##XYDATA=(XY..XY) 1 
    18          1
    26          1
    27          2
    28          2
    29          2
    31          1
    37          3
    38         10
    39         40
    40          5
    41          5
    42          0
    45          1
    49          1
    50         17
    51         36
    52         16
    53          4
    54          1
    61          4
    62         10
    63         38
    64         31
    65        154
    66         12
    67          0
    73          1
    74          5
    75          4
    76          5
    77         67
    78         12
    79         36
    80          3
    81          0
    86          1
    87          1
    88          1
    89         26
    91        999
    92        103
    93         10
    94          0
   104          3
   105          8
   106         17
   107         26
   108         28
   109          2
   119         70
   120          9
   121          0
   135          0
   137          0
   141          0
   148          0
   149          0
   152          0
   153          0
   154          0
   165          0
   166          0
   167          1
   168          1
   180          1
   182         39
   183         83
   184         12
   185          0
   196          0
   209          1
   210          0
   227        125
   228         20
   229          2
   230          0