##TITLE=Library Entry 82621
##JCAMP-DX=Revision 4.10 
##DATA TYPE=MASS SPECTRUM
##SAMPLE DESCRIPTION=A.A.Kutin, Moscow, Russia
##NAMES=HP
##CAS NAME=Pyrrolidin-2-one, 1-(3-pyridylcarbonyl)-
##MOLFORM=C10H10N2O2
##CAS REGISTRY NO=34236-73-2
##MP= -300
##BP= -300
##MW= 190
##$RETENTION INDEX=0
##$CONDENSED SPECTRUM=NO
##NPOINTS= 78
##XYDATA=(XY..XY) 1 
    33         20
    34          4
    37         13
    38         28
    39         77
    40         77
    41         98
    42         35
    43         16
    44         19
    45          0
    47          0
    50        192
    51        368
    52         59
    53         32
    54         13
    56        113
    57          7
    60          0
    61          0
    62          1
    63          4
    64          5
    65          6
    66          6
    67          5
    68          7
    69         17
    70          6
    71          1
    73          0
    75         14
    76         29
    78        784
    79        201
    80         11
    81          2
    84        147
    85          9
    90          0
    91          2
    92          3
    93          5
    94          5
    95          3
    96          0
   103          3
   106        999
   107        110
   108          5
   109          0
   111          0
   112          2
   117          1
   118          3
   119          5
   120          3
   121          8
   122         28
   123          3
   131          1
   133          9
   134         37
   135          7
   136          0
   145          1
   147          9
   148          9
   149          1
   151          0
   162        136
   163          9
   164          0
   173          0
   187          7
   190        519
   191         37