##TITLE=Library Entry 94589
##JCAMP-DX=Revision 4.10 
##DATA TYPE=MASS SPECTRUM
##SAMPLE DESCRIPTION=Chemical Concepts
##NAMES=HP
##CAS NAME=1-(3,4-Dichlorophenyl)cyclopropanecarboxylic acid
##MOLFORM=C10H8Cl2O2
##CAS REGISTRY NO=342386-78-1
##MP= -300
##BP= -300
##MW= 230
##$RETENTION INDEX=0
##$CONDENSED SPECTRUM=NO
##NPOINTS= 88
##XYDATA=(XY..XY) 1 
    34         29
    35         42
    36        140
    37        103
    39        506
    40         74
    41         29
    43         53
    44        183
    45        725
    46         23
    49         39
    50        115
    51        185
    52         33
    55         84
    56         73
    57         45
    61         67
    62         94
    63        247
    64         26
    65         84
    69         36
    72         41
    73        139
    74        212
    75        231
    76         30
    77         80
    84         91
    86        200
    87         73
    88        103
    89        138
    91         32
    97         60
    99         95
   101         60
   102         24
   103         91
   107         72
   109         67
   110         28
   111         82
   113        129
   114        179
   115        999
   116        261
   117         38
   123         93
   125         66
   131         46
   132         40
   133         41
   135         25
   136         31
   145         35
   147         32
   149        763
   150        359
   151        336
   152        142
   153         52
   159         74
   160         35
   161        100
   167        188
   168         29
   169         84
   170         27
   171         36
   173         33
   177         36
   184        171
   185        212
   186        169
   187        130
   188         49
   189         25
   195         81
   196         52
   197         42
   212        171
   214         89
   230        550
   232        427
   234         52