##TITLE=Library Entry 2561
##JCAMP-DX=Revision 4.10 
##DATA TYPE=MASS SPECTRUM
##SAMPLE DESCRIPTION=A.A.Kutin, Moscow, Russia
##NAMES=HP
##CAS NAME=Imidazole-5-carboxamide, 1-butyl-4-nitro-2-propyl-N-(2-hydroxyeth
yl)-
##MOLFORM=C13H22N4O4
##CAS REGISTRY NO=342371-76-0
##MP= -300
##BP= -300
##MW= 298
##$RETENTION INDEX=0
##$CONDENSED SPECTRUM=NO
##NPOINTS= 130
##XYDATA=(XY..XY) 1 
    33         10
    38         22
    39        311
    41        999
    42        187
    43        494
    44         85
    45         73
    46          8
    50         16
    51         49
    52         90
    53        132
    54        123
    55        228
    56        112
    57        179
    58         15
    60         13
    62          8
    63          7
    64         14
    65         20
    66         68
    67         92
    68         92
    69         83
    70        183
    71        111
    72          7
    76          7
    77         26
    78         59
    79         51
    80         66
    81         40
    82         69
    83         33
    84         26
    85          2
    89          1
    91         30
    92         30
    93         29
    94         37
    95         80
    96         22
    97         14
    98          1
   100          2
   105         54
   106         19
   107         32
   108         39
   110         51
   111         55
   112          5
   115          5
   118          7
   119         18
   121         54
   122         35
   123         17
   124         30
   125         12
   126         10
   127          1
   133          4
   135        150
   136        161
   137         38
   138         37
   139          9
   149         48
   150         68
   151         30
   152         37
   153          5
   154         10
   155          6
   161          3
   162          3
   163         35
   164         32
   165         20
   166         14
   167         14
   168          4
   177          3
   178         37
   179         32
   180         32
   182         46
   183         10
   184          1
   189          1
   191         12
   192         10
   194         29
   195         48
   196         14
   197          8
   208         43
   209         47
   210         14
   212         17
   219          2
   221         13
   222         19
   223         44
   225          2
   235          2
   236         11
   238        365
   239         43
   243          4
   251         16
   254          2
   255         39
   256          2
   263         15
   265          1
   267         88
   268         14
   269          4
   279          3
   280         42
   281         28
   283          1
   298         10