##TITLE=Library Entry 9998
##JCAMP-DX=Revision 4.10 
##DATA TYPE=MASS SPECTRUM
##SAMPLE DESCRIPTION=A.A.Kutin, Moscow, Russia
##NAMES=HP
##CAS NAME=Butanoic acid, 2-(hexahydro-6-methyl-2-thioxo-4-pyrimidinyl)-3-ox
o-, ethyl ester
##MOLFORM=C11H18N2O3S
##CAS REGISTRY NO=342394-50-7
##MP= -300
##BP= -300
##MW= 258
##$RETENTION INDEX=0
##$CONDENSED SPECTRUM=NO
##NPOINTS= 136
##XYDATA=(XY..XY) 1 
    33         28
    34         20
    36          4
    37          1
    39        154
    40         96
    41        242
    42        325
    43        999
    44        523
    45         54
    46          7
    47          4
    48          0
    50          5
    51          8
    52         17
    53         43
    54         46
    55         89
    56         46
    57         86
    58        172
    59         64
    60        140
    61         16
    62          6
    63          3
    64          6
    65         26
    66         29
    67         85
    68        112
    69        125
    70        265
    71         30
    72         11
    73          8
    74         11
    75          9
    77         34
    78          7
    79         13
    80         10
    81         23
    82         62
    83         42
    84        113
    86        867
    88         82
    89          3
    90          1
    91          3
    92         11
    93         10
    95         56
    96         64
    97         25
    98         16
    99         11
   100         37
   101         47
   102         20
   103         22
   104          3
   106          1
   107          2
   108          8
   109         16
   110         51
   111         62
   112         56
   113        201
   115        173
   116         25
   117         10
   119          1
   120          2
   121          3
   124          4
   125         14
   126         62
   127        177
   128        284
   129        462
   130         80
   131         24
   132          3
   135          3
   136          5
   137          2
   138          9
   139          5
   141         22
   143        248
   144         45
   145         15
   146          1
   151          4
   152         11
   153         22
   154         11
   155          3
   156         15
   157          5
   158          1
   167          9
   168         10
   169         92
   171         34
   173          7
   182          1
   183          9
   184         32
   185         76
   186        352
   187         44
   188         12
   189          2
   195          0
   211          3
   212          7
   213         20
   214          4
   215         15
   216          3
   229          0
   243          2
   254          2
   255         13
   256         31
   257         27
   258        502
   259         64
   260         25
   261          1