##TITLE=Library Entry 89021
##JCAMP-DX=Revision 4.10 
##DATA TYPE=MASS SPECTRUM
##SAMPLE DESCRIPTION=A.A.Kutin, Moscow, Russia
##NAMES=HP
##CAS NAME=Thiomorpholine-3-carboxylic acid, 6-[2-(4-fluorophenylamino)-2-ox
oethyl]-5-oxo-
##MOLFORM=C15H17FN2O4S
##CAS REGISTRY NO=342394-45-0
##MP= -300
##BP= -300
##MW= 340
##$RETENTION INDEX=0
##$CONDENSED SPECTRUM=NO
##NPOINTS= 182
##XYDATA=(XY..XY) 1 
    33         30
    34          4
    35          2
    36          3
    38          3
    39          8
    40         32
    41         26
    42         35
    43         92
    44         49
    45         59
    46         13
    47         14
    48          2
    49          0
    50          2
    51          2
    52          4
    53          8
    54         19
    55        245
    56         31
    57         26
    58         23
    59        143
    60         16
    61         23
    62         16
    63         10
    64          4
    65          3
    66          0
    67         12
    68         13
    69         10
    70         16
    71         14
    72         32
    73         39
    74         35
    75         31
    76         26
    77          3
    78          2
    80          3
    81          3
    82         20
    83         66
    84         34
    85         61
    86         95
    87         60
    88         22
    89          6
    90          5
    91          3
    92          1
    94          6
    95         49
    96         15
    97          4
    98         17
    99          9
   100         32
   101         22
   102         27
   103          5
   104          4
   105         10
   106          0
   107          0
   108          3
   109         36
   110        157
   111        999
   112         70
   114        109
   115         11
   116         13
   117          4
   118          2
   119          2
   121          0
   122         10
   123          2
   124         16
   125          1
   128        373
   129         41
   130         28
   131          8
   132         32
   133         30
   135         11
   136          6
   137         38
   138         84
   139         10
   140          6
   141          0
   142          3
   146          8
   147          3
   148          5
   150          3
   151          1
   152          2
   153          3
   154         11
   155         24
   156        159
   157         31
   158         23
   159         12
   160         83
   161         16
   162          7
   163          6
   164         14
   165          3
   166          6
   168         15
   169          1
   171          2
   172          3
   174         25
   175          2
   176          1
   178          1
   179          0
   183          1
   184         29
   185          1
   186          3
   187          1
   188         14
   189          2
   190          4
   191          2
   192         17
   193          9
   194          7
   195          2
   196         15
   197          1
   198          2
   201        239
   202        106
   203         21
   204          6
   205          0
   211          0
   212         81
   213          8
   214          3
   215          1
   222          1
   223          0
   224          4
   225          0
   226          1
   227          4
   229        573
   230        333
   231         63
   232         19
   233          1
   238          0
   239          5
   249          0
   267         16
   268          1
   271          0
   318          1
   320          0
   322          0
   338          0
   340        231
   341         42
   342         15
   343          2