##TITLE=Library Entry 82800
##JCAMP-DX=Revision 4.10 
##DATA TYPE=MASS SPECTRUM
##SAMPLE DESCRIPTION=A.A.Kutin, Moscow, Russia
##NAMES=HP
##CAS NAME=Piperidin-4-one, 3-heptyl-2,6-diphenyl-
##MOLFORM=C24H31NO
##CAS REGISTRY NO=342431-25-8
##MP= -300
##BP= -300
##MW= 349
##$RETENTION INDEX=0
##$CONDENSED SPECTRUM=NO
##NPOINTS= 158
##XYDATA=(XY..XY) 1 
    33         87
    34          5
    37          2
    40        206
    41        203
    43        272
    44         36
    45          6
    50         22
    51         42
    52         17
    53         28
    55        775
    57         65
    58          7
    59          0
    60          5
    63         13
    65         37
    66          5
    67         20
    69         84
    70         13
    71         13
    74          2
    75          5
    77        151
    78         78
    79         60
    81         24
    83         30
    84          7
    85          1
    89         28
    91        234
    92         22
    93          5
    94          4
    95          6
    96          7
    97         25
    98         13
   104        790
   106        999
   107         61
   109          3
   110          2
   111         12
   112          1
   113          0
   115         79
   116         62
   117        130
   118         36
   119         19
   120         14
   121          0
   122          0
   125          1
   127          7
   128         34
   129         32
   131        216
   132         88
   133         16
   134          1
   139         10
   140          2
   141          9
   142          3
   143          7
   145         53
   146        116
   147         20
   148          3
   152          9
   153          3
   155          1
   156          1
   157          4
   158          5
   159         15
   160         18
   161          5
   165         17
   166         10
   167         25
   168          1
   169          0
   172         15
   173          7
   174         17
   175          4
   178          1
   179          0
   180          0
   188         10
   189          1
   191          6
   194        360
   195        155
   196         23
   197          1
   202          7
   203          2
   204          2
   206         19
   208        658
   209        121
   210         13
   211          1
   216         22
   217         40
   218          8
   220          1
   222          3
   223          1
   224          2
   230          3
   236          5
   237          4
   242          0
   243          4
   244         12
   245         12
   246          1
   247          1
   248          7
   249          5
   250         15
   251         64
   252         13
   253          0
   257          0
   258         11
   259          1
   261         11
   262         18
   264        524
   265         92
   266          9
   278         10
   279          1
   292          3
   293          4
   306         59
   307         14
   320         21
   321          4
   332          2
   334          2
   335          3
   345          1
   346          5
   347         11
   349        334
   350         69
   351          7