##TITLE=Library Entry 15600
##JCAMP-DX=Revision 4.10 
##DATA TYPE=MASS SPECTRUM
##SAMPLE DESCRIPTION=Dr. Jiri Zamecnik, DCIEM, North York, Canada, GP Librar
y
##NAMES=HP
##CAS NAME=Benzeneacetonitrile, 3,4-dimethoxy-.alpha.-[3-(methylamino)propyl
]-.alpha.-(1-methylethyl)-
##MOLFORM=C17H26N2O2
##CAS REGISTRY NO=34245-14-2
##MP= -300
##BP= -300
##MW= 290
##$RETENTION INDEX=0
##$CONDENSED SPECTRUM=NO
##NPOINTS= 44
##XYDATA=(XY..XY) 1 
    44        999
    45         23
    57         84
    58          9
    59          8
    70         41
    71          4
    73         16
    91          3
   103          2
   109          3
   115          3
   119          2
   128          2
   138          7
   146          2
   151         10
   152          7
   160          2
   164         54
   165          6
   174          4
   179          5
   180          8
   185         10
   189          5
   190          3
   202          5
   203          7
   204          5
   216         11
   219          9
   222          5
   231          4
   245          2
   247         28
   248          5
   259          6
   260          1
   262          2
   273          0
   275          3
   290         31
   291          6