##TITLE=Library Entry 5323
##JCAMP-DX=Revision 4.10 
##DATA TYPE=MASS SPECTRUM
##SAMPLE DESCRIPTION=Exported from NIST MS Search
##NAMES=HP
##CAS NAME=4(3H)-Pteridinone, 2,6-dimethyl-
##MOLFORM=C8H8N4O
##CAS REGISTRY NO=34244-77-4
##MP= -300
##BP= -300
##MW= 176
##$RETENTION INDEX=0
##$CONDENSED SPECTRUM=NO
##NPOINTS= 21
##XYDATA=(XY..XY) 1 
    40         90
    41         80
    42        999
    43         40
    44         40
    52         70
    53        130
    54         30
    65         30
    66         40
    67         40
    79         60
    80        110
   106         40
   107         60
   108         70
   109         40
   149        480
   150         40
   176        750
   177         90