##TITLE=Library Entry 30580
##JCAMP-DX=Revision 4.10 
##DATA TYPE=MASS SPECTRUM
##SAMPLE DESCRIPTION=NIST Mass Spectrometry Data Center, 1998.
##NAMES=HP
##CAS NAME=Acetamide, 2-chloro-N-(ethoxymethyl)-N-(2-ethyl-6-methylphenyl)-
##MOLFORM=C14H20ClNO2
##CAS REGISTRY NO=34256-82-1
##MP= -300
##BP= -300
##MW= 269
##$RETENTION INDEX=1875
##$CONDENSED SPECTRUM=NO
##NPOINTS= 197
##XYDATA=(XY..XY) 1 
    14          4
    15         11
    16          1
    25          1
    26          7
    27         72
    28         26
    29        189
    30          1
    31        423
    32          5
    33          1
    35          1
    36          2
    37          1
    38          7
    39         81
    40         12
    41        134
    42         51
    43         40
    44          7
    45         27
    46          2
    47          2
    48          4
    49         88
    50         19
    51         98
    52         33
    53         42
    54         10
    55         10
    56          6
    57          3
    58          2
    59        999
    60         33
    61          4
    62          9
    63         47
    64         20
    65        126
    66         21
    67          9
    68          2
    69          1
    70          1
    73         24
    74          6
    75         14
    76         27
    77        312
    78         78
    79        116
    80         13
    81          3
    82          1
    86          2
    87          4
    88          4
    89         55
    90         49
    91        327
    92         46
    93         47
    94          7
    95          1
    98          1
    99          2
   100          1
   101          8
   102         34
   103        105
   104         65
   105         88
   106         44
   107         37
   108         20
   109         11
   110          1
   113          1
   115        117
   116         58
   117        331
   118        155
   119        104
   120        105
   121         26
   122          3
   125          1
   126          1
   127          5
   128         19
   129         14
   130        153
   131        149
   132        484
   133        215
   134        197
   135         57
   136         37
   137          6
   138          1
   139          2
   140          2
   141          4
   142         24
   143         20
   144        122
   145         85
   146        839
   147        356
   148        347
   149         41
   150          3
   152          1
   153          1
   154          3
   155          1
   156         12
   157          8
   158         70
   159         23
   160        145
   161         43
   162        696
   163         96
   164         70
   165          9
   166          3
   167          1
   168          3
   169          1
   170          3
   171          1
   172         11
   173          1
   174        399
   175         63
   176         93
   177         12
   178          7
   179          1
   180         11
   181          3
   182         13
   183          2
   184         16
   185          2
   186          7
   187          6
   188         84
   189         13
   190         54
   191         24
   192         35
   193         21
   194         55
   195         13
   196         22
   197          3
   198          3
   204          6
   205          1
   206          4
   207          1
   208         31
   209          5
   210        139
   211         22
   212        125
   213         17
   214         29
   215          3
   216          7
   217          1
   218          1
   220         21
   221          4
   223        446
   224        226
   225        171
   226         74
   227          9
   228          1
   234        161
   235         26
   236          3
   240         19
   241          3
   242          6
   243          1
   269         58
   270          9
   271         19
   272          3