##TITLE=Library Entry 4234
##JCAMP-DX=Revision 4.10 
##DATA TYPE=MASS SPECTRUM
##SAMPLE DESCRIPTION=Exported from NIST MS Search
##NAMES=HP
##CAS NAME=3H-v-Triazolo[4,5-d]pyrimidine, 7-[(3-methyl-2-butenyl)amino]-
##MOLFORM=C9H12N6
##CAS REGISTRY NO=34257-66-4
##MP= -300
##BP= -300
##MW= 204
##$RETENTION INDEX=0
##$CONDENSED SPECTRUM=NO
##NPOINTS= 78
##XYDATA=(XY..XY) 1 
    27        175
    28        270
    29         94
    30         50
    38         31
    39        229
    40         79
    41        999
    42         84
    43         93
    44         10
    45         20
    50         10
    51         36
    52         34
    53        224
    54        148
    55         72
    56         37
    57         44
    65         86
    66        151
    67        220
    68        213
    69        374
    70         43
    78         15
    79         31
    80         65
    81        186
    82         70
    83         27
    84         89
    85         13
    90         12
    91         13
    92         60
    93         37
    94         81
    95         37
    96         17
    97         10
   104          8
   105         24
   106         81
   107        134
   108         77
   109         34
   117         37
   118         17
   119         94
   120         36
   121         51
   122         24
   131         13
   132         31
   133         72
   134        320
   135        124
   136        103
   137         41
   144         48
   145         12
   146         13
   147         15
   148         58
   149         75
   158         27
   159         24
   160         51
   161        151
   162         84
   163         12
   175        365
   176         62
   189        100
   204        410
   205         62