##TITLE=Library Entry 41743
##JCAMP-DX=Revision 4.10 
##DATA TYPE=MASS SPECTRUM
##SAMPLE DESCRIPTION=C.R.ENZELL SWEDISH TOBACCO CO., STOCKHOLM, SWEDEN
##NAMES=HP
##CAS NAME=Rhodoviolascin
##MOLFORM=C42H60O2
##CAS REGISTRY NO=34255-08-8
##MP= -300
##BP= -300
##MW= 596
##$RETENTION INDEX=0
##$CONDENSED SPECTRUM=NO
##NPOINTS= 275
##XYDATA=(XY..XY) 1 
    14          1
    15          7
    18          3
    25          1
    26          4
    27         15
    28          9
    29         16
    30          3
    31         12
    32          5
    33          1
    37          1
    38          4
    39         21
    40          4
    41         23
    42          4
    43         30
    44          2
    45          8
    46          1
    49          1
    50          8
    51         16
    52          7
    53          9
    54          1
    55         17
    56          2
    57          4
    58          1
    59          4
    61          1
    62          4
    63          9
    64          2
    65         13
    66          2
    67          7
    68          1
    69          9
    70          1
    71          1
    72          1
    73        999
    74         60
    75          5
    76          2
    77         26
    78         12
    79         20
    80          3
    81         10
    82          1
    83          2
    85          3
    86          1
    87          1
    89          5
    90          2
    91        159
    92          2
    93          1
    94          2
    95          9
    96          1
    97          1
    98          1
    99          1
   101          1
   102          2
   103         11
   104          5
   105         60
   106         80
   107         16
   108          1
   109          5
   110          1
   111          1
   115          7
   116          3
   117          8
   118          2
   119         18
   120          3
   121          4
   122          1
   123          1
   127          2
   128          8
   129         10
   130          5
   131         11
   132          3
   133          8
   134          2
   135          2
   137          1
   139          1
   141          6
   142          7
   143         13
   144          5
   145         15
   146          3
   147          5
   148          1
   149          1
   151          1
   152          2
   153          3
   154          2
   155          6
   156          6
   157         11
   158          3
   159          7
   160          1
   161          2
   163          1
   165          4
   166          2
   167          4
   168          2
   169          7
   170          3
   171          6
   172          2
   173          5
   174          1
   175          2
   176          1
   178          2
   180          2
   182          3
   183          7
   184          2
   185          4
   186          1
   187          2
   188          1
   189          1
   190          1
   191          1
   192          1
   193          3
   194          3
   195          5
   196          2
   197          6
   198          2
   199          3
   200          1
   201          2
   202          1
   203          1
   204          1
   205          1
   206          1
   207          3
   208          2
   209          7
   210          2
   211          4
   212          1
   213          2
   215          1
   216          1
   217          1
   218          1
   219          1
   220          1
   221          3
   222          1
   223          3
   224          1
   225          2
   226          1
   227          1
   228          1
   229          1
   230          1
   231          1
   232          1
   233          1
   234          1
   235          2
   236          1
   237          2
   238          1
   239          2
   240          1
   241          1
   243          1
   245          1
   246          1
   247          1
   248          1
   249          1
   250          1
   251          1
   252          1
   253          1
   254          1
   257          1
   259          1
   261          1
   262          1
   263          1
   264          1
   265          2
   266          1
   267          1
   271          1
   273          1
   275          1
   276          1
   277          1
   278          1
   279          1
   280          1
   284          1
   286          1
   287          1
   289          1
   291          1
   293          1
   299          1
   301          1
   303          1
   311          1
   312          1
   320          1
   325          1
   329          1
   331          1
   344          1
   345          1
   352          1
   355          1
   366          1
   367          1
   370          1
   371          1
   384          8
   385          4
   386          1
   387          1
   398          4
   399          1
   417          5
   418          1
   419          1
   426          2
   427          1
   428          1
   438          1
   458          5
   459          2
   460          1
   476          1
   490         32
   491         10
   492          4
   493          1
   504          1
   523          1
   532          1
   564          1
   565          1
   594          0
   595          0
   596          5