##TITLE=Library Entry 2253
##JCAMP-DX=Revision 4.10 
##DATA TYPE=MASS SPECTRUM
##SAMPLE DESCRIPTION=MASS SPECTROMETRY CENTER, UNIV. OF UTAH ALDRICH 10247-4
##NAMES=HP
##CAS NAME=Benzothiazolium, 3-(2-propenyl)-2-[3-[3-(2-propenyl)-2(3H)-benzot
hiazolylidene]-1-propenyl]-, iodide
##MOLFORM=C23H21IN2S2
##CAS REGISTRY NO=34263-37-1
##MP= -300
##BP= -300
##MW= 516
##$RETENTION INDEX=0
##$CONDENSED SPECTRUM=NO
##NPOINTS= 209
##XYDATA=(XY..XY) 1 
    12         14
    15         40
    25         10
    26         53
    27         96
    28         27
    29         42
    31         25
    32         16
    33         13
    34         27
    35         11
    36         54
    37         75
    38        170
    39        828
    40        129
    41        999
    42        104
    43         46
    44        184
    45        182
    46         10
    47          6
    49          4
    50         63
    51         77
    52         27
    53         24
    54         26
    55         32
    56         14
    57         34
    58         65
    59         11
    60          5
    61         13
    62         27
    63        106
    64         54
    65        107
    66         18
    67         30
    68          3
    69        261
    70         34
    71         53
    73          8
    74         18
    75         33
    76         37
    77         77
    78         28
    79         18
    81         65
    82        106
    83         23
    84          7
    85          8
    87          5
    88          4
    89         25
    90         32
    91         34
    92          6
    93         28
    94          7
    95         21
    96         23
    97         10
   100         21
   101         12
   102         37
   103         32
   104         53
   105         25
   106          9
   107         22
   108        189
   109        166
   110         27
   111          7
   113          4
   114          5
   115         21
   116         26
   117         22
   120         11
   121         39
   122         13
   126          3
   127        181
   128        139
   129         20
   130          6
   131          4
   133          9
   134         19
   135         56
   136         71
   137          9
   138          6
   139          6
   140         27
   141         22
   145         35
   146         44
   147         26
   148        122
   149        403
   150         50
   151         26
   152          8
   153         10
   154         47
   155          5
   158          4
   159         14
   160         55
   161         27
   162         37
   163         12
   164          4
   165         26
   166         16
   167         17
   168        260
   169         13
   170          4
   171          6
   172         75
   173        413
   174        279
   175         84
   176         22
   177          6
   178          8
   179          4
   180         11
   184          6
   185         21
   186        185
   187         91
   188         41
   189         34
   190          5
   193         16
   197         16
   198        121
   199         99
   200        190
   201         39
   202         34
   203          5
   204         52
   205          6
   209          4
   210         17
   211         17
   212         96
   213         91
   214         41
   215         13
   216          5
   221         19
   222          4
   223         16
   224         31
   225         13
   226         12
   227          4
   236          4
   237         12
   238          5
   239          6
   240          7
   242          7
   252          4
   274         21
   275         25
   282          8
   305         33
   306         82
   307        407
   308        151
   309         66
   310         19
   319         32
   320         14
   321          4
   331          9
   332          4
   333         49
   334         13
   343         11
   344         36
   345         23
   346         17
   347         63
   348        147
   349         46
   350         20
   357         10
   358         11
   359          9
   387          5
   388         41
   389          9
   390          7