##TITLE=Library Entry 15925
##JCAMP-DX=Revision 4.10 
##DATA TYPE=MASS SPECTRUM
##SAMPLE DESCRIPTION=Japan AIST/NIMC Database- Spectrum MS-IW-1964
##NAMES=HP
##CAS NAME=N-Acetyl-dl-alanine methylamide
##MOLFORM=C6H12N2O2
##CAS REGISTRY NO=34276-27-2
##MP= -300
##BP= -300
##MW= 144
##$RETENTION INDEX=0
##$CONDENSED SPECTRUM=NO
##NPOINTS= 45
##XYDATA=(XY..XY) 1 
    14          3
    15         57
    16          1
    26          3
    27         15
    28         63
    29          9
    30        138
    31          6
    32         18
    39          2
    40          4
    41         11
    42         83
    43        253
    44        999
    45         55
    46          2
    53          1
    54          2
    55         13
    56         17
    57          8
    58        109
    59         23
    60          9
    68          4
    69          9
    70          6
    71          2
    72        157
    73          7
    83          1
    84          4
    85          8
    86        432
    87        807
    88         39
    89          2
   101          8
   113          1
   114          4
   126          3
   129          4
   144          4