##TITLE=Library Entry 100316
##JCAMP-DX=Revision 4.10 
##DATA TYPE=MASS SPECTRUM
##SAMPLE DESCRIPTION=Div. of Experiment Therapeutics WRAIR, WRAMC, Washingto
n DC 20307
##NAMES=HP
##CAS NAME=1,4-Bis[3,4-dimethylphenyl]-2,3-butanedione
##MOLFORM=C20H22O2
##CAS REGISTRY NO=34277-93-5
##MP= -300
##BP= -300
##MW= 294
##$RETENTION INDEX=0
##$CONDENSED SPECTRUM=NO
##NPOINTS= 178
##XYDATA=(XY..XY) 1 
    41         81
    43         22
    45         75
    46          0
    47          1
    49          2
    51        137
    53         70
    55         12
    57          9
    58         11
    59          4
    60          1
    61          1
    62          6
    63         60
    65         63
    66          5
    67          4
    69          4
    71          1
    72          1
    73          1
    74         10
    75          9
    77        174
    79        127
    80          3
    81          3
    82          1
    83          2
    84          4
    86          8
    87          3
    89         25
    91        228
    92         15
    93         10
    94          3
    95          0
    96          3
    97          0
    98          2
   101          1
   103        113
   105        270
   106         20
   107         60
   109          3
   110          1
   111          2
   113          1
   115         70
   117        121
   119        999
   120         74
   121         12
   122          3
   124          0
   125          0
   126          1
   127          6
   128          2
   129         16
   131         20
   133        361
   135        130
   136          4
   137          0
   138          0
   139          2
   140          0
   141          4
   143          6
   144          3
   146        117
   147         17
   149         39
   150         48
   151          6
   153          4
   154          0
   155          2
   156          0
   157          2
   158          0
   159          8
   161          0
   162          3
   163          7
   164         18
   165          0
   166          1
   167          1
   169          0
   171          1
   173          2
   174          1
   175          1
   176          3
   177          1
   178         12
   179          3
   180          6
   181          0
   185          0
   187          2
   189          8
   191         20
   192          8
   193          5
   194          3
   195          0
   197          0
   201          2
   202          5
   203          8
   205         14
   206         11
   207          2
   208          3
   209          3
   210          0
   211          0
   215          4
   216          0
   217          3
   219         10
   220          7
   221          8
   223         29
   224          1
   225          1
   228          0
   229          0
   231          1
   232          3
   233          4
   234         15
   235         22
   236         16
   237         31
   238          1
   239         12
   240          2
   245          1
   246          0
   247          5
   248          3
   249          5
   250          7
   252         19
   253          6
   254          0
   256          0
   259          2
   260          0
   261          2
   262          1
   263          7
   264         19
   265          1
   266          8
   267          2
   268          2
   269          0
   273          0
   274          0
   275          1
   277          0
   278          6
   279         28
   280          6
   292          0
   293          2
   294         11
   295          2
   296          0