##TITLE=Library Entry 109130
##JCAMP-DX=Revision 4.10 
##DATA TYPE=MASS SPECTRUM
##SAMPLE DESCRIPTION=Chemical Concepts
##NAMES=HP
##CAS NAME=2-(3-Chlorobenzylthio)benzothiazole
##MOLFORM=C14H10ClNS2
##CAS REGISTRY NO=342806-16-0
##MP= -300
##BP= -300
##MW= 291
##$RETENTION INDEX=0
##$CONDENSED SPECTRUM=NO
##NPOINTS= 108
##XYDATA=(XY..XY) 1 
    34         10
    35         12
    36         42
    37         40
    38        101
    39        318
    40         83
    41         48
    43         48
    44         85
    45        190
    46         11
    47          7
    49          9
    50        109
    51        106
    52         23
    53          8
    55         33
    56         22
    57         34
    58         60
    59         11
    61         33
    63        400
    64         74
    65         44
    67         12
    69        184
    70         49
    71         28
    73         62
    74         24
    75         80
    76         33
    77         38
    78         35
    80         51
    81         31
    82        106
    83         18
    84         19
    85         14
    86         11
    87         16
    89        357
    90        126
    91         36
    92          5
    93         16
    94         11
    95         33
    96         20
    97         11
    99        118
   101         47
   102         51
   103          9
   105          9
   106          9
   108        228
   109         26
   110         12
   111          9
   112         10
   120          7
   121         30
   122         89
   123         24
   125        999
   127        392
   133         19
   135         28
   136         19
   139         14
   148         36
   149          6
   155         19
   156          7
   157          6
   165          9
   166        109
   167         33
   168         12
   171          6
   179         16
   180         40
   181          5
   222          9
   223        118
   224         24
   225          7
   255          8
   256         21
   257         18
   258        142
   259         29
   260         51
   261          9
   276          8
   287          5
   288          7
   289          9
   291        313
   292         52
   293        109
   294         18
   295          9