##TITLE=Library Entry 19573
##JCAMP-DX=Revision 4.10 
##DATA TYPE=MASS SPECTRUM
##SAMPLE DESCRIPTION=MASS SPECTROMETRY CENTER, UNIV. OF UTAH ALDRICH 12831-7
##NAMES=HP
##CAS NAME=2-Quinuclidinecarboxylic acid, 3-oxo-, ethyl ester
##MOLFORM=C10H15NO3
##CAS REGISTRY NO=34286-16-3
##MP= -300
##BP= -300
##MW= 197
##$RETENTION INDEX=0
##$CONDENSED SPECTRUM=NO
##NPOINTS= 67
##XYDATA=(XY..XY) 1 
    14          9
    15        176
    26         48
    27        382
    28        288
    29        476
    30         95
    31        254
    35        106
    36        903
    37         25
    38        319
    39        309
    40        111
    41        831
    42        975
    43        220
    44         51
    45        134
    46         28
    52          4
    53        108
    54        262
    55        999
    56        145
    57         45
    58         92
    59         10
    62         17
    65          5
    66          5
    67        247
    68        725
    69        425
    70         64
    80         42
    81         56
    82        314
    83        110
    84         10
    86        122
    88          6
    94         80
    95        145
    96        961
    97        446
    98         60
    99         10
   100         55
   110         71
   112         42
   123        106
   124        177
   125        102
   126        108
   128         95
   140        520
   141         89
   151        175
   152         57
   153         81
   154         69
   168         26
   169        605
   170         72
   197        141
   198         16