##TITLE=Library Entry 96476
##JCAMP-DX=Revision 4.10 
##DATA TYPE=MASS SPECTRUM
##SAMPLE DESCRIPTION=A. SHOEB
##NAMES=HP
##CAS NAME=1,2,4-Thiadiazole-3,5-diamine
##MOLFORM=C2H4N4S
##CAS REGISTRY NO=34283-30-2
##MP= -300
##BP= -300
##MW= 116
##$RETENTION INDEX=0
##$CONDENSED SPECTRUM=NO
##NPOINTS= 3
##XYDATA=(XY..XY) 1 
    43        510
    74        930
   116        999