##TITLE=Library Entry 44074
##JCAMP-DX=Revision 4.10 
##DATA TYPE=MASS SPECTRUM
##SAMPLE DESCRIPTION=G.A.REINECCIUS UNIV. OF MINNESOTA, ST. PAUL, MINN., USA
##NAMES=HP
##CAS NAME=D-Gluconic acid, 6TMS derivative
##MOLFORM=C24H60O7Si6
##CAS REGISTRY NO=34290-52-3
##MP= -300
##BP= -300
##MW= 628
##$RETENTION INDEX=2043
##$CONDENSED SPECTRUM=NO
##NPOINTS= 70
##XYDATA=(XY..XY) 1 
    45         28
    59         16
    72         14
    73        999
    74         80
    75         78
   101         10
   103        147
   104         14
   117         65
   129         39
   131         20
   133         49
   143         20
   147        322
   148         55
   149         38
   157         19
   189         59
   190         16
   191         40
   204         80
   205        250
   206         56
   207         36
   217        175
   218         40
   219         47
   220         16
   221         35
   229         22
   245         13
   277         70
   278         21
   279         13
   291         24
   292        297
   293         97
   294         49
   295         10
   299         13
   305        143
   306         51
   307         86
   308         24
   309         11
   319        219
   320         69
   321         55
   322         15
   331         19
   333        331
   334        103
   335         56
   336         12
   345         13
   359         60
   360         19
   361         11
   393         11
   394         11
   422         10
   423        100
   424         38
   425         21
   433         39
   434         16
   435         53
   436         19
   437         11