##TITLE=Library Entry 53734
##JCAMP-DX=Revision 4.10 
##DATA TYPE=MASS SPECTRUM
##SAMPLE DESCRIPTION=I. A. ERMAKOV
##NAMES=HP
##CAS NAME=Piperidine, 1-[(3-oxo-1-azabicyclo[2.2.2]oct-2-yl)carbonyl]-
##MOLFORM=C13H20N2O2
##CAS REGISTRY NO=34291-64-0
##MP= -300
##BP= -300
##MW= 236
##$RETENTION INDEX=0
##$CONDENSED SPECTRUM=NO
##NPOINTS= 44
##XYDATA=(XY..XY) 1 
    41        360
    42        390
    43        425
    44        600
    45        180
    53         40
    54         80
    55        300
    56        390
    57        390
    58         80
    60        120
    67         90
    68        140
    69        290
    70        150
    71        120
    72         50
    81         80
    82        180
    83        170
    84        999
    85        440
    86         70
    95         80
    96        180
    97        320
    98        180
    99         50
   112         80
   125         80
   138        100
   142         80
   153        210
   164         80
   165         20
   167        120
   170        200
   179         40
   180         30
   208        320
   209         50
   236        200
   237         40