##TITLE=Library Entry 51434
##JCAMP-DX=Revision 4.10 
##DATA TYPE=MASS SPECTRUM
##SAMPLE DESCRIPTION=Exported from NIST MS Search
##NAMES=HP
##CAS NAME=13-Hexacosyne
##MOLFORM=C26H50
##CAS REGISTRY NO=34291-68-4
##MP= -300
##BP= -300
##MW= 362
##$RETENTION INDEX=0
##$CONDENSED SPECTRUM=NO
##NPOINTS= 80
##XYDATA=(XY..XY) 1 
    41        520
    42         50
    43        830
    44         20
    52         20
    53         50
    54        300
    55        700
    56        100
    57        450
    58         10
    65         20
    66         50
    67        780
    68        300
    69        500
    70         50
    71        150
    77         30
    78         20
    79        180
    80        130
    81        980
    82        999
    83        620
    84         30
    85         50
    91         30
    93        100
    94        100
    95        870
    96        980
    97        500
    98         30
   107         30
   108         20
   109        450
   110        200
   111        180
   112         10
   121         30
   122         20
   123        250
   124        120
   125         50
   135         20
   136         10
   137        150
   138         80
   139         20
   151         30
   152         50
   153         20
   165         20
   166         50
   167         20
   179         70
   180        300
   181         30
   193         10
   194        200
   195        120
   196         10
   207         20
   208         30
   209         10
   221         10
   222         20
   235         30
   236         30
   249        150
   250        300
   251         30
   263         10
   264         80
   265         10
   278         10
   362        200
   363         80
   364         10