##TITLE=Library Entry 31612
##JCAMP-DX=Revision 4.10 
##DATA TYPE=MASS SPECTRUM
##SAMPLE DESCRIPTION=A.A.Kutin, Moscow, Russia
##NAMES=HP
##CAS NAME=Pyridine, 2,3,5-tribromo-6-methyl-
##MOLFORM=C6H4Br3N
##CAS REGISTRY NO=3430-15-7
##MP= -300
##BP= -300
##MW= 327
##$RETENTION INDEX=0
##$CONDENSED SPECTRUM=NO
##NPOINTS= 110
##XYDATA=(XY..XY) 1 
    36         81
    37        480
    38        484
    39        746
    40         85
    41         22
    42         71
    44         99
    48         50
    49        296
    50        209
    51        239
    52        109
    60         75
    61        391
    62        576
    63        999
    64        439
    65         43
    71         14
    74         52
    75        199
    76         32
    79        227
    80         60
    81        218
    82         55
    84        123
    86        125
    87        127
    88        250
    89        177
    90        886
    91        115
    93        129
    95         72
   103         11
   104         33
   105         39
   106         66
   107         24
   108         34
   115         21
   116         63
   117        156
   118         85
   119        136
   120         17
   123         50
   124        109
   125         88
   127         27
   128        223
   129         47
   130        233
   131         21
   140         12
   141        109
   142        113
   143        140
   144        122
   145         35
   146         14
   153         15
   154         37
   155         17
   156         38
   158         10
   160         20
   163         13
   164         34
   165         34
   166         16
   168        565
   169        475
   170        581
   171        455
   172         39
   173         16
   184         16
   195         13
   197         26
   198         10
   199         16
   206         34
   207         17
   208         69
   209         32
   210         38
   211         17
   221        156
   222         15
   223        299
   224         24
   225        141
   247         27
   248        319
   249         81
   250        609
   251         75
   252        290
   253         25
   327        309
   328         29
   329        860
   330         70
   331        803
   332         64
   333        267
   334         19