##TITLE=Library Entry 3367
##JCAMP-DX=Revision 4.10 
##DATA TYPE=MASS SPECTRUM
##SAMPLE DESCRIPTION=D.HENNEBERG, MAX-PLANCK INSTITUTE, MULHEIM, WEST GERMAN
Y
##NAMES=HP
##CAS NAME=3-Hexadecene, (Z)-
##MOLFORM=C16H32
##CAS REGISTRY NO=34303-81-6
##MP= -300
##BP= -300
##MW= 224
##$RETENTION INDEX=1587
##$CONDENSED SPECTRUM=NO
##NPOINTS= 100
##XYDATA=(XY..XY) 1 
    22          0
    24          0
    25          2
    26         12
    27        133
    28         13
    29        332
    30          9
    31          3
    32          1
    33          0
    35          2
    36          5
    37          9
    38          4
    39        114
    40         25
    41        999
    42        232
    43        897
    44         14
    45          0
    46          0
    49          1
    50          4
    51          8
    52          6
    53         61
    54        137
    55        924
    56        671
    57        846
    58         37
    62          1
    63          3
    64          0
    65         14
    66         21
    67        194
    68        178
    69        971
    70        639
    71        348
    72         16
    73          0
    75          1
    76          0
    77         11
    78          6
    79         25
    80         10
    81         86
    82        172
    83        633
    84        335
    85        163
    86         10
    88          0
    91          5
    92          2
    93          5
    94          1
    95         30
    96         79
    97        484
    98        162
    99         26
   100          1
   105          1
   107          1
   108          0
   109         12
   110         31
   111        215
   112         85
   113         13
   115          0
   123          3
   124         15
   125         78
   126         46
   127          5
   138          7
   139         18
   140         18
   141          2
   152          2
   153          8
   154         12
   155          1
   166          0
   167          3
   168          5
   180          0
   181          2
   182          1
   195          0
   196          6
   224         52
   225          9