##TITLE=Library Entry 3294
##JCAMP-DX=Revision 4.10 
##DATA TYPE=MASS SPECTRUM
##SAMPLE DESCRIPTION=W.Holscher ET AL.J.Agr.Food Chem.,40,655(1992)
##NAMES=HP
##CAS NAME=3-Mercapto-3-methylbutanol
##MOLFORM=C5H12OS
##CAS REGISTRY NO=34300-94-2
##MP= -300
##BP= -300
##MW= 120
##$RETENTION INDEX=972
##$CONDENSED SPECTRUM=NO
##NPOINTS= 38
##XYDATA=(XY..XY) 1 
    34         15
    37         17
    38         28
    39        404
    40         92
    41        999
    42         97
    43        209
    44         51
    45        127
    47         62
    49         11
    50         17
    53         88
    55         83
    56         55
    57         66
    58         15
    59         88
    61         15
    63         13
    65         13
    67         70
    68         92
    69        681
    70         22
    71        204
    72         18
    73         15
    74         15
    75         94
    85         53
    86        163
    87         92
    88         11
    89          9
   103         11
   120         15