##TITLE=Library Entry 84672
##JCAMP-DX=Revision 4.10 
##DATA TYPE=MASS SPECTRUM
##SAMPLE DESCRIPTION=Philip Morris R&D
##NAMES=HP
##CAS NAME=2-Cyclohexen-1-one, 4-(3-hydroxy-1-butenyl)-3,5,5-trimethyl-
##MOLFORM=C13H20O2
##CAS REGISTRY NO=34318-21-3
##MP= -300
##BP= -300
##MW= 208
##$RETENTION INDEX=1647
##$CONDENSED SPECTRUM=NO
##NPOINTS= 79
##XYDATA=(XY..XY) 1 
    38          6
    39         80
    40         25
    41        105
    42          7
    43        271
    44         10
    45        201
    46          4
    50          2
    51         16
    52         11
    53         40
    54          8
    55         52
    56         11
    57         16
    58          9
    59          4
    60          3
    62          2
    63          5
    65         27
    66         12
    67         40
    68          5
    69         37
    70          4
    71         25
    77         44
    78         12
    79         51
    80         31
    81         50
    82         21
    83         16
    84          2
    85          3
    90          5
    91         60
    92          9
    93         18
    94         16
    95        100
    96          7
    97          3
    99          2
   103          3
   105         13
   106          6
   107         65
   108        999
   109        262
   110         25
   111          6
   115          2
   117          3
   119          6
   121          9
   122          6
   123         33
   124          9
   133          6
   134          7
   135         64
   136          7
   137         19
   138          8
   147          2
   149          7
   150          5
   151         17
   152        183
   153         18
   165         17
   166          3
   175          4
   193          6
   208         24