##TITLE=Library Entry 50916
##JCAMP-DX=Revision 4.10 
##DATA TYPE=MASS SPECTRUM
##SAMPLE DESCRIPTION=Chemical Concepts
##NAMES=HP
##CAS NAME=Bicyclo[2.2.1]heptane-2-acetic acid, 5-methoxycarbonyl-, methyl e
ster
##MOLFORM=C12H18O4
##CAS REGISTRY NO=34314-04-0
##MP= -300
##BP= -300
##MW= 226
##$RETENTION INDEX=0
##$CONDENSED SPECTRUM=NO
##NPOINTS= 136
##XYDATA=(XY..XY) 1 
    26         12
    27        231
    28         22
    29        140
    30         20
    31         69
    33         22
    38         18
    39        435
    40        107
    41        614
    42         84
    43        161
    44         12
    50         24
    51        104
    52         73
    53        290
    54        168
    55        420
    56         27
    57         34
    58         13
    59        658
    60         21
    61         13
    62          5
    63         36
    64         12
    65        252
    66        826
    67        619
    68        115
    69         66
    70          8
    71         70
    72          9
    73          3
    74        327
    75         41
    76         14
    78        463
    79        263
    80        962
    81        999
    82         41
    83         30
    84         21
    85         55
    86          4
    87        684
    88         81
    89         14
    90          8
    91        494
    92        399
    93        696
    94        104
    95         77
    96         20
    97         70
    98         27
    99        238
   100        120
   101         45
   102          8
   103         29
   104         12
   105        173
   106        355
   107        642
   108        192
   109         61
   110         14
   111        116
   112         16
   113         17
   114          7
   115         29
   116         61
   117        139
   118         27
   119         38
   120        141
   121        216
   122         29
   123         20
   124         24
   125        107
   126         29
   127         38
   128         73
   129          9
   133         55
   134        374
   135        248
   136         29
   137         25
   138        231
   139         51
   140         75
   141         10
   145          6
   146         11
   147          4
   148          6
   149         24
   150         63
   151         41
   152        348
   153        205
   154         21
   155          5
   160         10
   161         15
   162        394
   163         50
   164          5
   165         27
   166        771
   167        290
   168         32
   169          4
   176        104
   177         17
   178          3
   179          8
   180          2
   185         27
   186          2
   194        972
   195        567
   196         73
   197          5
   226         26
   227          4