##TITLE=Library Entry 53771
##JCAMP-DX=Revision 4.10 
##DATA TYPE=MASS SPECTRUM
##SAMPLE DESCRIPTION=C.BOTTEGHI ZURICH TECHNICAL COLLEGE, ZURICH, SWITZERLAN
D
##NAMES=HP
##CAS NAME=Furan, 2,3-dihydro-4-methyl-
##MOLFORM=C5H8O
##CAS REGISTRY NO=34314-83-5
##MP= -300
##BP= -300
##MW= 84
##$RETENTION INDEX=761
##$CONDENSED SPECTRUM=NO
##NPOINTS= 33
##XYDATA=(XY..XY) 1 
    15         10
    18         30
    26         50
    27        310
    28        150
    29        360
    30         10
    31         40
    37         15
    38         30
    39        440
    40         45
    41        450
    42         25
    43         70
    44         40
    45         20
    50         50
    51         60
    52         25
    53        210
    54        125
    55        970
    56        190
    57         25
    65         10
    66         10
    69        140
    81         15
    82         20
    83        480
    84        999
    85         80