##TITLE=Library Entry 42206
##JCAMP-DX=Revision 4.10 
##DATA TYPE=MASS SPECTRUM
##SAMPLE DESCRIPTION=O A MAMER, MCGILL UNIVERSITY, MONTRE
##NAMES=HP
##CAS NAME=Lactic acid dimer, bis(trimethylsilyl)-
##MOLFORM=C12H26O5Si2
##CAS REGISTRY NO=343224-19-1
##MP= -300
##BP= -300
##MW= 306
##$RETENTION INDEX=1394
##$CONDENSED SPECTRUM=NO
##NPOINTS= 59
##XYDATA=(XY..XY) 1 
    26         16
    27         23
    28         12
    29         23
    31          9
    32         25
    43         71
    44         35
    45        124
    46         11
    47         34
    51         11
    55        116
    56         50
    58         55
    59         52
    60         11
    61         33
    66         42
    67         15
    72         33
    73        999
    74         94
    75        184
    76         17
    86         12
    87         25
    88        106
    89         13
   101         30
   102         30
   103         17
   115         11
   116         16
   117        828
   118         91
   119         51
   129         80
   130         19
   131         24
   133         26
   145         34
   147        189
   148         33
   149         21
   162         12
   185         14
   191         63
   192         14
   215         23
   218         67
   219         90
   220         10
   221         11
   227         19
   233         10
   262         14
   291         44
   292         15