##TITLE=Library Entry 89912
##JCAMP-DX=Revision 4.10 
##DATA TYPE=MASS SPECTRUM
##SAMPLE DESCRIPTION=Exported from NIST MS Search
##NAMES=HP
##CAS NAME=.alpha.-d-Glucofuranose, 6-amino-6-deoxy-1,2:3,5-bis-O-(1-methyle
thylidene)-
##MOLFORM=C12H21NO5
##CAS REGISTRY NO=34322-93-5
##MP= -300
##BP= -300
##MW= 259
##$RETENTION INDEX=0
##$CONDENSED SPECTRUM=NO
##NPOINTS= 53
##XYDATA=(XY..XY) 1 
    30        202
    43        717
    55        148
    56         77
    57        113
    58        151
    59        533
    60         70
    61         16
    68         78
    69         60
    70         73
    71         99
    72         74
    73         73
    80         19
    81         59
    83         60
    84        149
    85        265
    97         78
    98         54
    99         50
   100        184
   101         89
   113        999
   114        173
   126         76
   127         86
   129        148
   142         80
   143         55
   144         27
   154         41
   155         39
   156         34
   157         17
   158         13
   159         34
   160         49
   171        144
   172         53
   184         24
   185         32
   186         26
   201         17
   202         16
   215         13
   229        153
   230         25
   244         34
   245          7
   259         15