##TITLE=Library Entry 21827
##JCAMP-DX=Revision 4.10 
##DATA TYPE=MASS SPECTRUM
##SAMPLE DESCRIPTION=Dmitri Zagorevskii, Scientific Instruments & Applicatio
ns
##NAMES=HP
##CAS NAME=2,6-Methano-3-benzazocine-8-carboxylic acid, 3-(cyclopropylmethyl
)-1,2,3,4,5,6-hexahydro-6,11-dimethyl-, methyl ester, (2R,6R,11R)-rel-
##MOLFORM=C20H27NO2
##CAS REGISTRY NO=343265-88-3
##MP= -300
##BP= -300
##MW= 313
##$RETENTION INDEX=0
##$CONDENSED SPECTRUM=NO
##NPOINTS= 141
##XYDATA=(XY..XY) 1 
    39        182
    41        182
    42        208
    44         23
    51         17
    52          8
    53        102
    55        999
    56        114
    58         44
    59        162
    67         24
    68         69
    69          8
    70        113
    71         54
    76          7
    77         35
    81          7
    82         77
    83          7
    84         89
    89         18
    90         11
    91         42
    92          7
    93         13
    94          5
    95         23
    96         30
    97          4
    98         20
    99         47
   102         17
   103         10
   104          3
   105         20
   106          3
   108         19
   110         57
   111         10
   112          9
   115        144
   116         27
   117         18
   118          5
   120         72
   121         69
   122         25
   123         24
   124        143
   125         14
   127         67
   128        145
   129        111
   130         33
   131         19
   132          5
   134          9
   136         85
   138          6
   139         19
   141        181
   142         88
   143         57
   144         27
   145         12
   146          3
   148          5
   150         21
   152         20
   153         39
   154         26
   155         79
   156         78
   157         53
   158          8
   159         12
   162          5
   164        275
   165         40
   166          6
   167         11
   168          5
   169         39
   170         22
   171         21
   172          8
   173          5
   175          5
   177          7
   180          4
   181          4
   183         55
   184         15
   185         43
   186          4
   187          6
   188         17
   189          8
   196          4
   197         10
   199         18
   201         22
   202         14
   203          8
   209          3
   211          6
   212          9
   215         17
   216         22
   217          7
   226         10
   227          7
   228         11
   229          8
   230         12
   242         22
   243          5
   244         30
   245          4
   254          4
   255          3
   257          3
   258         52
   259          9
   270          8
   271         68
   272        616
   273        112
   274          9
   282         30
   284         58
   285         11
   298        267
   299         57
   300          5
   312        150
   313        401
   314         91
   315         10