##TITLE=Library Entry 2888
##JCAMP-DX=Revision 4.10 
##DATA TYPE=MASS SPECTRUM
##SAMPLE DESCRIPTION=W.K.ROHWEDDER US DEPT. OF AGRICULT., PEORIA, ILLINOIS,
 USA
##NAMES=HP
##CAS NAME=Nonanoic acid, 9-oxo-, ethyl ester
##MOLFORM=C11H20O3
##CAS REGISTRY NO=3433-16-7
##MP= -300
##BP= -300
##MW= 200
##$RETENTION INDEX=1505
##$CONDENSED SPECTRUM=NO
##NPOINTS= 130
##XYDATA=(XY..XY) 1 
    15         74
    16          5
    17         35
    18         65
    19          5
    26         39
    27        511
    28        171
    29        938
    30         26
    31         70
    32          6
    37          9
    38         14
    39        316
    40         67
    41        999
    42        260
    43        688
    44        178
    45        251
    46          8
    47          9
    48          4
    49          3
    50          5
    51         19
    52         10
    53        104
    54        111
    55        995
    56        134
    57        352
    58        117
    59         83
    60        599
    61        390
    62         12
    63          9
    65         20
    66         22
    67        399
    68        160
    69        375
    70        399
    71         98
    72         20
    73        479
    74         60
    75         12
    77         19
    78          6
    79         86
    80         52
    81        177
    82        149
    83        624
    84        176
    85         67
    86         20
    87         93
    88        943
    89         89
    90          7
    91         20
    92         12
    93         65
    94        115
    95        114
    96         28
    97        146
    98        207
    99         40
   100          9
   101        640
   102         55
   103          5
   105          4
   107         50
   108         65
   109        286
   110         91
   111        496
   112         69
   113         16
   114          5
   115        121
   116         14
   117          6
   118          7
   119         13
   120          4
   121          8
   122          3
   123          6
   124         26
   125         57
   126         56
   127         15
   128         29
   129        177
   130         20
   135         18
   136        186
   137         49
   138         11
   139          5
   141          6
   142          3
   143         46
   144         35
   145          4
   149          3
   152         36
   153         20
   154        140
   155        542
   156         67
   157        575
   158         70
   159          8
   169          3
   170         11
   171         31
   172        296
   173         34
   174          3
   182         24
   183          4
   201          3