##TITLE=Library Entry 79530
##JCAMP-DX=Revision 4.10 
##DATA TYPE=MASS SPECTRUM
##SAMPLE DESCRIPTION=Japan AIST/NIMC Database- Spectrum MS-IW-7641
##NAMES=HP
##CAS NAME=dl-2-Benzamidopentanoic acid
##MOLFORM=C12H15NO3
##CAS REGISTRY NO=34337-10-5
##MP= -300
##BP= -300
##MW= 221
##$RETENTION INDEX=0
##$CONDENSED SPECTRUM=NO
##NPOINTS= 129
##XYDATA=(XY..XY) 1 
    15          1
    17          5
    18          1
    26          7
    27         23
    28         24
    29         11
    30          3
    36          1
    37          5
    38          8
    39         27
    40          3
    41         23
    42          3
    43         13
    44         15
    45          3
    49          3
    50         37
    51         77
    52         14
    53         14
    54         10
    55         13
    56         10
    57          4
    58          1
    61          1
    62          3
    63          7
    64          4
    65          2
    66          1
    67          2
    68          3
    69          2
    70         17
    71          4
    72          3
    73          4
    74         11
    75         18
    76         77
    77        341
    78         29
    79          4
    80          3
    81          5
    82         19
    83          3
    84          1
    85          2
    88          3
    89          3
    90          2
    91          4
    95          1
    97          1
    98          9
    99          4
   100          4
   101          2
   102          5
   103        195
   104         36
   105        999
   106         91
   107          6
   111          1
   115          6
   116          7
   117          6
   118          2
   119          6
   120          2
   121         26
   122         25
   123          2
   127          3
   128          5
   129          6
   130         27
   131          5
   132          3
   133         11
   134          4
   135          5
   139          3
   140          1
   141          1
   143          1
   144          2
   145          1
   146          9
   147         69
   148         22
   149          4
   153          1
   154          4
   155          6
   156          9
   157          6
   158          3
   159          4
   160          3
   161        106
   162         12
   163          1
   173          2
   174         30
   175         15
   176        110
   177         26
   178          5
   179        274
   180         26
   181          3
   185          4
   192          2
   201         10
   202          2
   203         53
   204         12
   205          1
   206          1
   220          3
   221         25
   222          4