##TITLE=Library Entry 62916
##JCAMP-DX=Revision 4.10 
##DATA TYPE=MASS SPECTRUM
##SAMPLE DESCRIPTION=A.A.Kutin, Moscow, Russia
##NAMES=HP
##CAS NAME=Acetohydrazide, 2-phenyl-N2-(2-hydroxynaphth-1-ylmethylene)-
##MOLFORM=C19H16N2O2
##CAS REGISTRY NO=34334-88-8
##MP= -300
##BP= -300
##MW= 304
##$RETENTION INDEX=0
##$CONDENSED SPECTRUM=NO
##NPOINTS= 137
##XYDATA=(XY..XY) 1 
    33          8
    34         10
    35         11
    36         22
    37         17
    38         41
    39        253
    40        222
    41        111
    42         55
    43         81
    44         96
    45         26
    46          8
    48          2
    50         71
    51        126
    52         42
    53         34
    55         80
    56         18
    57         37
    58          6
    60         10
    61         21
    62         54
    63        141
    65        318
    66         18
    67         15
    69         37
    70         19
    71         15
    73         13
    74         48
    75         58
    76         39
    77         81
    78         34
    79         13
    80          6
    81          9
    82          5
    83         12
    84         19
    86         19
    87         35
    88         26
    89        110
    91        999
    92        200
    93         14
    94          5
    95         12
    96          3
    97          9
    99         15
   100          9
   101         24
   102         56
   103         26
   104          9
   105          8
   106          5
   107          4
   108         10
   109          5
   110          4
   111          9
   112          8
   113         44
   114         75
   115        130
   116         22
   117          7
   118         23
   119         11
   120          2
   121          4
   122          7
   123         46
   124          7
   125         21
   126         45
   127        121
   128        198
   129         47
   130         29
   131         13
   132          3
   134         19
   135         33
   136         80
   137         11
   138          7
   139         14
   140         49
   141         46
   142         15
   143         11
   144         12
   145          3
   149          6
   151          4
   152         17
   153         14
   154          7
   155         25
   156         15
   157         35
   158         13
   159          4
   166          2
   167         11
   168         79
   169        599
   170        144
   171         43
   172          9
   173          1
   183          9
   184         56
   185         55
   186         36
   187          5
   189          0
   191          0
   199          0
   205         12
   207          2
   213         15
   214          1
   222          1
   229          0
   233          2
   304         67
   305         15