##TITLE=Library Entry 23061
##JCAMP-DX=Revision 4.10 
##DATA TYPE=MASS SPECTRUM
##SAMPLE DESCRIPTION=Chemical Concepts
##NAMES=HP
##CAS NAME=Pentane-1,3-diol dipropionate, 2-methyl-
##MOLFORM=C12H22O4
##CAS REGISTRY NO=343318-72-9
##MP= -300
##BP= -300
##MW= 230
##$RETENTION INDEX=0
##$CONDENSED SPECTRUM=NO
##NPOINTS= 75
##XYDATA=(XY..XY) 1 
    25          1
    26         13
    27         80
    28         31
    29        289
    30          8
    31         15
    32          7
    37          1
    38          1
    39         22
    40          2
    41         53
    42         30
    43         18
    44          5
    45          5
    50          0
    51          1
    52          0
    53          6
    54          3
    55         56
    56         24
    57        999
    58         33
    59         13
    60          0
    63          0
    65          1
    66          0
    67         20
    68          3
    69         12
    70         14
    71         18
    72          1
    73          1
    74          2
    75         27
    76          1
    77          0
    79          1
    80          0
    81          2
    82         51
    83         35
    84          2
    85          3
    86          1
    87          2
    97          0
    98          1
    99         16
   100         20
   101          4
   109          0
   114          0
   115         20
   116          1
   117          1
   126          0
   127         41
   128          3
   129          0
   131         45
   132          2
   133          0
   143          0
   145         11
   146          0
   156          1
   157          0
   173          0
   201          2