##TITLE=Library Entry 89666
##JCAMP-DX=Revision 4.10 
##DATA TYPE=MASS SPECTRUM
##SAMPLE DESCRIPTION=Exported from NIST MS Search
##NAMES=HP
##CAS NAME=3-Penten-2-one, 4-(dimethylamino)-
##MOLFORM=C7H13NO
##CAS REGISTRY NO=3433-62-3
##MP= -300
##BP= -300
##MW= 127
##$RETENTION INDEX=0
##$CONDENSED SPECTRUM=NO
##NPOINTS= 45
##XYDATA=(XY..XY) 1 
    37         10
    38         20
    39        100
    40         30
    41        130
    42        340
    43        300
    44        690
    45         50
    46         20
    50         10
    51         10
    52         10
    53         20
    54         20
    55        100
    56        270
    57         10
    58         10
    65         20
    66         20
    67         50
    68         90
    69        130
    70         60
    71         20
    72         70
    80         10
    81         10
    82         40
    83         20
    84        380
    85         30
    94         20
    95         30
    96         20
    97         10
    98         20
   108         20
   110        480
   111         40
   112        999
   113         70
   127        850
   128         70