##TITLE=Library Entry 12442
##JCAMP-DX=Revision 4.10 
##DATA TYPE=MASS SPECTRUM
##SAMPLE DESCRIPTION=Exported from NIST MS Search
##NAMES=HP
##CAS NAME=Glucitol, 6-deoxy-6-fluoro-, pentaacetate, D-
##MOLFORM=C16H23FO10
##CAS REGISTRY NO=34339-89-4
##MP= -300
##BP= -300
##MW= 394
##$RETENTION INDEX=0
##$CONDENSED SPECTRUM=NO
##NPOINTS= 82
##XYDATA=(XY..XY) 1 
    43        999
    44         20
    45         40
    55         20
    57         10
    60         20
    61         10
    68         30
    69         20
    70         10
    73         20
    85         50
    86         60
    87         20
    88         10
    97         30
    98         10
    99         10
   100         20
   101         40
   102         10
   103        250
   104         20
   105         10
   110         40
   111         20
   112         10
   113         40
   115        300
   116         50
   117         70
   118         30
   127         90
   128        270
   129         30
   130        120
   131         30
   135         20
   139         50
   145        650
   146         40
   147        200
   148         30
   152         40
   153         40
   157        150
   158         70
   159        100
   160         60
   168         10
   170        200
   171         20
   172        100
   173         70
   175         50
   177         90
   187        180
   188         20
   189        100
   190         20
   201         20
   207         20
   214         10
   217        300
   218         30
   219        200
   220         20
   229         10
   230         10
   232        110
   233         20
   249        350
   250         40
   259         20
   274         30
   289         80
   290         10
   292         60
   321        120
   322         20
   335        100
   336         20