##TITLE=Library Entry 71113
##JCAMP-DX=Revision 4.10 
##DATA TYPE=MASS SPECTRUM
##SAMPLE DESCRIPTION=Japan AIST/NIMC Database- Spectrum MS-NW-5450
##NAMES=HP
##CAS NAME=(1-Ethyl-2-pyrrolidinyl)methanol
##MOLFORM=C7H15NO
##CAS REGISTRY NO=3433-34-9
##MP= -300
##BP= -300
##MW= 129
##$RETENTION INDEX=0
##$CONDENSED SPECTRUM=NO
##NPOINTS= 81
##XYDATA=(XY..XY) 1 
    14          2
    15         15
    16          1
    17         17
    18         16
    26          9
    27         62
    28         39
    29         61
    30         37
    31         23
    32          1
    37          1
    38          3
    39         35
    40          9
    41         91
    42         62
    43         70
    44         39
    45          3
    46          1
    50          3
    51          5
    52          6
    53         13
    54         26
    55         41
    56         51
    57         16
    58         26
    59          2
    65          3
    66          2
    67         15
    68         58
    69         20
    70        259
    71         24
    72          8
    73          2
    74          5
    77          1
    78          2
    79          4
    80         12
    81          5
    82         30
    83         11
    84         15
    85          3
    86          8
    88          2
    92          1
    93          2
    94          6
    95          5
    96         65
    97         19
    98        999
    99         72
   100          8
   101          1
   106          1
   107          1
   108          6
   109          6
   110         13
   111         21
   112          9
   113          1
   114         18
   115          1
   123          1
   124          1
   125          2
   126          1
   127          2
   128         14
   129          7
   130          1