##TITLE=Library Entry 13490
##JCAMP-DX=Revision 4.10 
##DATA TYPE=MASS SPECTRUM
##SAMPLE DESCRIPTION=NIST Mass Spectrometry Data Center
##NAMES=HP
##CAS NAME=2-(4-Biphenylyl)-2-propanol
##MOLFORM=C15H16O
##CAS REGISTRY NO=34352-74-4
##MP= -300
##BP= -300
##MW= 212
##$RETENTION INDEX=0
##$CONDENSED SPECTRUM=NO
##NPOINTS= 99
##XYDATA=(XY..XY) 1 
    15         39
    16          1
    18          2
    19          1
    27         20
    28          5
    29         16
    31         24
    37          1
    39         31
    40          4
    41         18
    43        999
    44         23
    45          3
    50         20
    51         40
    52          8
    53          3
    55          1
    57          4
    58          1
    59         18
    61          2
    62          8
    63         26
    64          5
    65          8
    69          2
    70          1
    74         11
    75         18
    76         36
    77         31
    78          6
    79          1
    82          6
    83         11
    85          1
    86          4
    87          8
    88          8
    89         16
    91          8
    94          1
    95          1
    98         32
   100          2
   101          5
   102         12
   103          2
   105          1
   106          2
   110          1
   111          1
   113          3
   115         20
   116          3
   117          1
   125          3
   126         15
   127         14
   128         12
   129          3
   137          1
   139          8
   140          1
   141          4
   150         13
   151         35
   152        104
   153         56
   154         36
   155         11
   156          1
   163          2
   165         19
   166          5
   167         12
   168          4
   169         11
   170          2
   176          6
   177          6
   178         23
   179         14
   180          4
   181         19
   182          3
   189          1
   191          1
   194         19
   195         10
   197        365
   198         55
   199          5
   212         85
   213         14
   214          1