##TITLE=Library Entry 29203
##JCAMP-DX=Revision 4.10 
##DATA TYPE=MASS SPECTRUM
##SAMPLE DESCRIPTION=Japan AIST/NIMC Database- Spectrum MS-IW-3430
##NAMES=HP
##CAS NAME=Dobutamine
##MOLFORM=C18H23NO3
##CAS REGISTRY NO=34368-04-2
##MP= -300
##BP= -300
##MW= 301
##$RETENTION INDEX=0
##$CONDENSED SPECTRUM=NO
##NPOINTS= 150
##XYDATA=(XY..XY) 1 
    15          1
    17          1
    18          3
    26          1
    27         12
    28         25
    29         10
    30         92
    31          2
    39         26
    40          5
    41         21
    42         18
    43          9
    44         54
    45          2
    50          6
    51         32
    52         11
    53         17
    54          5
    55         27
    56         89
    57         79
    58        999
    59         57
    60          1
    61          1
    62          2
    63          9
    64          4
    65         30
    66          9
    67          7
    68          4
    69          5
    70         55
    71         10
    72          3
    74          1
    75          2
    76          2
    77         97
    78         35
    79         23
    80          5
    81          8
    82          3
    83          3
    84          6
    85          2
    87          1
    89         12
    90          6
    91         81
    92          9
    93          5
    94         10
    95          5
    96          2
    97          3
    98          1
   101          1
   102          2
   103          9
   104          3
   105         16
   106         28
   107        657
   108         59
   109          8
   110          5
   111          2
   115          5
   116          1
   117          4
   118          3
   119         34
   120         28
   121         13
   122          7
   123         67
   124         20
   125          2
   127          2
   128          2
   129          2
   130          1
   131          5
   132          4
   133         36
   134          8
   135          7
   136         26
   137        183
   138         17
   139          2
   141          2
   144          1
   145          3
   146          3
   147         11
   148         22
   149         10
   150          4
   151          4
   152         11
   153          5
   154          1
   155          1
   159          1
   160          2
   161          2
   162         12
   163          5
   164          8
   165          4
   166          1
   167          1
   168          1
   169          1
   174          1
   175          2
   176         30
   177         18
   178        811
   179        112
   180        139
   181         15
   182          3
   191          1
   192          3
   193          4
   194          3
   195          1
   215          7
   216          1
   230          3
   278          1
   284          1
   286          8
   287          1
   297          6
   298          2
   299          9
   300         10
   301         76
   302         16
   303          3
   304          1