##TITLE=Library Entry 81508
##JCAMP-DX=Revision 4.10 
##DATA TYPE=MASS SPECTRUM
##SAMPLE DESCRIPTION=Chemical Concepts
##NAMES=HP
##CAS NAME=4-Methylthio-1,3-diphenylhex-5-en-1-one
##MOLFORM=C19H20OS
##CAS REGISTRY NO=343616-73-9
##MP= -300
##BP= -300
##MW= 296
##$RETENTION INDEX=0
##$CONDENSED SPECTRUM=NO
##NPOINTS= 174
##XYDATA=(XY..XY) 1 
    27         17
    29         10
    31          2
    38          3
    39         37
    40          7
    41         36
    42          6
    43         23
    44         12
    45         60
    46          4
    47         19
    48          6
    49          2
    50         21
    51         96
    52         12
    53         23
    54          5
    55         18
    56          8
    57         20
    58          3
    59         12
    60          4
    61         16
    62          5
    63         16
    64          6
    65         25
    66          6
    67          5
    68          4
    69         13
    70          6
    71         15
    72         12
    73          6
    74         10
    75         11
    76         28
    77        449
    78         69
    79         13
    80          3
    81          8
    82          4
    83          9
    84          4
    85          9
    86          3
    87        372
    88         30
    89         32
    90          7
    91         49
    92          8
    93          4
    94          3
    95          9
    96          3
    97          8
    98          3
    99          4
   101          5
   102         18
   103         46
   104         71
   105        999
   106         91
   107         10
   109          6
   110          3
   111          2
   113          6
   114          4
   115         68
   116         14
   117         11
   118          4
   119          5
   120         11
   121          8
   122          3
   123          3
   124          3
   125          4
   126          5
   127         28
   128        103
   129        259
   130         44
   131         25
   132         10
   133          5
   134          5
   135          5
   136          3
   137          3
   139          4
   141         17
   142         10
   143         13
   144          9
   145          7
   147          5
   159          5
   160          7
   161         31
   162          4
   163          6
   164          3
   165          9
   166          4
   167         11
   168          4
   169          3
   173          2
   174          2
   175          6
   176        480
   177         76
   178         37
   179          9
   180          2
   181          2
   182          2
   183          7
   184          2
   185          4
   186          6
   187          2
   189         12
   190          5
   191         16
   192          9
   193          4
   202          3
   203          3
   204          2
   207          7
   208          3
   209         21
   210          7
   217          3
   218          4
   219          3
   220          5
   221          4
   222          3
   224          3
   230          2
   231          3
   232          3
   233         18
   234          5
   235          2
   236          3
   237          2
   246          4
   247          5
   248         15
   249         97
   250         22
   251          6
   262          5
   263          2
   264         14
   265          5
   266          2
   296         20
   297          6
   298          2