##TITLE=Library Entry 12428
##JCAMP-DX=Revision 4.10 
##DATA TYPE=MASS SPECTRUM
##SAMPLE DESCRIPTION=NIST Mass Spectrometry Data Center, 2010
##NAMES=HP
##CAS NAME=D-Arabinononitrile, 2,3,4,5-tetraacetate
##MOLFORM=C13H17NO8
##CAS REGISTRY NO=34360-54-8
##MP= -300
##BP= -300
##MW= 315
##$RETENTION INDEX=1710
##$CONDENSED SPECTRUM=NO
##NPOINTS= 81
##XYDATA=(XY..XY) 1 
    15         10
    27          1
    28          3
    29          3
    31          1
    39          2
    40          1
    41          2
    42         15
    43        999
    44         23
    45          4
    51          1
    52          2
    54          1
    55          3
    56          1
    57          2
    60          3
    61          4
    66          1
    68          1
    69          1
    70          3
    71          1
    73          8
    74          1
    83          1
    84          1
    85          4
    86          5
    87          1
    93          1
    94          1
    98          1
    99          6
   100          1
   101          1
   102          4
   103         80
   104          4
   105          1
   111          4
   112          7
   113          1
   115         77
   116          7
   117          1
   123          1
   125          1
   126          1
   127          1
   128          1
   129          4
   130          1
   133          1
   138          2
   140          5
   141         13
   142          2
   144          1
   145         90
   146          6
   147          1
   153         10
   154          4
   157         19
   158          3
   170          1
   171          3
   172          1
   175          5
   180          2
   183          2
   196          1
   200         10
   201          1
   213          2
   217          4
   242          8
   243          1