##TITLE=Library Entry 11383
##JCAMP-DX=Revision 4.10 
##DATA TYPE=MASS SPECTRUM
##SAMPLE DESCRIPTION=NIST Mass Spectrometry Data Center, 2010
##NAMES=HP
##CAS NAME=Lyxononitrile, 2,3,4,5-tetraacetate, d-
##MOLFORM=C13H17NO8
##CAS REGISTRY NO=34360-56-0
##MP= -300
##BP= -300
##MW= 315
##$RETENTION INDEX=1705
##$CONDENSED SPECTRUM=NO
##NPOINTS= 79
##XYDATA=(XY..XY) 1 
    15          9
    27          2
    28          3
    29          3
    31          1
    39          2
    40          1
    41          2
    42         14
    43        999
    44         22
    45          4
    51          1
    52          2
    54          1
    55          3
    56          1
    57          2
    60          3
    61          4
    66          1
    68          1
    69          1
    70          3
    71          1
    73          8
    74          1
    83          1
    84          1
    85          4
    86          5
    87          1
    93          1
    94          1
    99          6
   100          1
   101          1
   102          4
   103         77
   104          3
   111          3
   112          6
   113          1
   115         92
   116          8
   117          1
   123          1
   125          1
   126          1
   128          1
   129          4
   130          1
   133          1
   138          1
   140          5
   141         15
   142          1
   144          1
   145         85
   146          6
   147          1
   153          9
   154          3
   157         20
   158          2
   170          1
   171          3
   172          1
   175          8
   176          1
   180          1
   183          2
   200          6
   201          1
   213          2
   217          7
   218          1
   242          5
   243          1