##TITLE=Library Entry 51238
##JCAMP-DX=Revision 4.10 
##DATA TYPE=MASS SPECTRUM
##SAMPLE DESCRIPTION=R.MALOJCIC DEPT. CHEM., UNIV. OF ZAGREB, ZAGREB, YUGOSL
AVIA
##NAMES=HP
##CAS NAME=Endo,endo-1,2,3,4,4a,5,8,8a-octahydro-1,4:5,8-dimethano-naphthale
n-anti-2-ol
##MOLFORM=C12H16O
##CAS REGISTRY NO=34378-86-4
##MP= -300
##BP= -300
##MW= 176
##$RETENTION INDEX=0
##$CONDENSED SPECTRUM=NO
##NPOINTS= 80
##XYDATA=(XY..XY) 1 
    26         12
    27        110
    28         42
    29         43
    31         26
    32         15
    38         11
    39        225
    40         60
    41        191
    42         16
    43         53
    44         14
    50         15
    51         73
    52         35
    53         84
    54         28
    55         65
    57         26
    63         30
    64         12
    65        155
    66        512
    67        182
    68         27
    69         22
    70         12
    77        210
    78         83
    79        226
    80        100
    81         92
    82        999
    83         89
    89         17
    91        270
    92        114
    93        100
    94        180
    95         63
    96         19
   102         12
   103         34
   104         43
   105         56
   106         26
   107         66
   108        118
   109        117
   110         35
   115         73
   116         36
   117         95
   118         20
   119         28
   120         20
   121         23
   122         12
   127         15
   128         35
   129         54
   130         45
   131         35
   132         23
   133         50
   134         25
   135         70
   136         15
   143         21
   145         12
   147         35
   148         23
   157          7
   158         18
   161         13
   174          9
   175         10
   176        126
   177         17