##TITLE=Library Entry 67830
##JCAMP-DX=Revision 4.10 
##DATA TYPE=MASS SPECTRUM
##SAMPLE DESCRIPTION=F.CHASTRETTE,LAB. CHIM. ORG. PHYS.,UNIV. LYON,VILLEURBA
NNE,FR.
##NAMES=HP
##CAS NAME=2-(2-Furyl)-2,5-dimethyltetrahydrofuran
##MOLFORM=C10H14O2
##CAS REGISTRY NO=343788-24-9
##MP= -300
##BP= -300
##MW= 166
##$RETENTION INDEX=0
##$CONDENSED SPECTRUM=NO
##NPOINTS= 11
##XYDATA=(XY..XY) 1 
    43        840
    44        700
    55        370
    95        999
    99        340
   110        170
   111        450
   122        100
   123        110
   151        720
   166        210