##TITLE=Library Entry 22090
##JCAMP-DX=Revision 4.10 
##DATA TYPE=MASS SPECTRUM
##SAMPLE DESCRIPTION=Chemical Concepts
##NAMES=HP
##CAS NAME=3,3-Dimethylpyrrolidine-2,5-dione
##MOLFORM=C6H9NO2
##CAS REGISTRY NO=3437-29-4
##MP= -300
##BP= -300
##MW= 127
##$RETENTION INDEX=0
##$CONDENSED SPECTRUM=NO
##NPOINTS= 68
##XYDATA=(XY..XY) 1 
    26         12
    27         64
    28         68
    29         43
    30          3
    31          6
    36          2
    37          7
    38         20
    39        149
    40         46
    41        475
    42         39
    43         14
    44         18
    45          4
    46          1
    49          1
    50          9
    51         10
    52          6
    53         16
    54         12
    55         70
    56        999
    57         55
    58          1
    59          1
    64          1
    65          1
    66          1
    67          3
    68          4
    69         19
    70         19
    71          3
    72          0
    74          1
    75          1
    76          2
    77          4
    78          1
    79          1
    81          2
    82          3
    83          6
    84         51
    85          5
    86          1
    87          0
    91          4
    92          1
    93          2
    94          1
    95          2
    96          1
    97          2
    98          2
    99        130
   100          8
   104          2
   105          2
   106          1
   112          2
   113          0
   127        258
   128         16
   129          2