##TITLE=Library Entry 21220
##JCAMP-DX=Revision 4.10 
##DATA TYPE=MASS SPECTRUM
##SAMPLE DESCRIPTION=Chemical Concepts
##NAMES=HP
##CAS NAME=(6-Methyl-tetrahydropyran-2-yl)-acetonitrile
##MOLFORM=C8H13NO
##CAS REGISTRY NO=343868-07-5
##MP= -300
##BP= -300
##MW= 139
##$RETENTION INDEX=0
##$CONDENSED SPECTRUM=NO
##NPOINTS= 90
##XYDATA=(XY..XY) 1 
    26         29
    27        222
    28         92
    29        161
    30          6
    31         12
    37          8
    38         21
    39        275
    40         93
    41        631
    42        494
    43        471
    44         42
    45        194
    46          5
    49          2
    50         12
    51         30
    52         29
    53        106
    54        103
    55        999
    56         69
    57         74
    58         21
    59          6
    60          2
    61          1
    62          1
    63          6
    64          9
    65         24
    66         34
    67        323
    68        739
    69        127
    70        292
    71         66
    72         27
    73          3
    74          4
    75          5
    76          3
    77         12
    78          5
    79         45
    80         72
    81        771
    82         67
    83         43
    84          9
    85          6
    91          6
    92          4
    93         11
    94         52
    95         51
    96        290
    97         57
    98         28
    99        910
   100         61
   101          3
   103          1
   104          2
   105          3
   106         10
   107         11
   108          4
   109          2
   110          7
   111          5
   112          5
   113          3
   115          2
   116          2
   117          2
   120          7
   121          3
   122         23
   123          7
   124        609
   125         48
   126          5
   137          2
   138         49
   139         74
   140          9
   141          1