##TITLE=Library Entry 53616
##JCAMP-DX=Revision 4.10 
##DATA TYPE=MASS SPECTRUM
##SAMPLE DESCRIPTION=Chuck Anderson, Aldrich Chemical Co.
##NAMES=HP
##CAS NAME=N-Methyl-L-prolinol
##MOLFORM=C6H13NO
##CAS REGISTRY NO=34381-71-0
##MP= -300
##BP= -300
##MW= 115
##$RETENTION INDEX=0
##$CONDENSED SPECTRUM=NO
##NPOINTS= 42
##XYDATA=(XY..XY) 1 
    15         15
    18          2
    26          5
    27         29
    28         33
    29         24
    30         18
    31         17
    32          0
    36          3
    38          3
    39         24
    40          6
    41         41
    42        218
    43         18
    44         33
    51          0
    53          6
    54         11
    55         23
    56          9
    57         26
    58          7
    65          0
    67         14
    68          9
    69         10
    70         35
    71          1
    72          7
    80          9
    81          5
    82        131
    83         16
    84        999
    85         58
    86          8
    94          0
    96          4
   114         10
   115         10