##TITLE=Library Entry 66922
##JCAMP-DX=Revision 4.10 
##DATA TYPE=MASS SPECTRUM
##SAMPLE DESCRIPTION=Japan AIST/NIMC Database- Spectrum MS-NW-4662
##NAMES=HP
##CAS NAME=Pyrimidine, 4-methyl-
##MOLFORM=C5H6N2
##CAS REGISTRY NO=3438-46-8
##MP= -300
##BP= -300
##MW= 94
##$RETENTION INDEX=853
##$CONDENSED SPECTRUM=NO
##NPOINTS= 49
##XYDATA=(XY..XY) 1 
    12          2
    13          2
    14          4
    15         15
    24          1
    25          6
    26        127
    27         23
    28        109
    29          2
    30          3
    32          5
    36          6
    37         40
    38         69
    39        210
    40        275
    41         69
    42         45
    43          6
    44          2
    46          1
    48          1
    49          3
    50          9
    51         29
    52        107
    53        244
    54         19
    55          3
    62          3
    63          9
    64         16
    65         11
    66         45
    67        215
    68         17
    69          1
    72          1
    75          2
    77          8
    78          1
    79         78
    80          5
    92          2
    93         33
    94        999
    95         63
    96          2