##TITLE=Library Entry 49302
##JCAMP-DX=Revision 4.10 
##DATA TYPE=MASS SPECTRUM
##SAMPLE DESCRIPTION=Chemical Concepts
##NAMES=HP
##CAS NAME=2-Cyclohexenylidenemalononitrile
##MOLFORM=C9H8N2
##CAS REGISTRY NO=343864-64-2
##MP= -300
##BP= -300
##MW= 144
##$RETENTION INDEX=0
##$CONDENSED SPECTRUM=NO
##NPOINTS= 105
##XYDATA=(XY..XY) 1 
    25          2
    26         39
    27        207
    28          1
    29         22
    30          0
    36          1
    37         39
    38         71
    39        302
    40         63
    41        120
    42         14
    45          1
    48          1
    49         10
    50         87
    51        149
    52         76
    53         73
    54         25
    55         11
    56          1
    57          1
    58          5
    59          0
    60          1
    61         27
    62         75
    63        129
    64         93
    65         83
    66        588
    67         48
    68          5
    69          2
    70          1
    71          5
    72          3
    73          3
    74         16
    75         63
    76         77
    77        265
    78        195
    79        999
    80         79
    81          6
    82          1
    83          2
    84          4
    85          2
    86         11
    87         29
    88         72
    89        158
    90        197
    91         65
    92         11
    93         10
    94          3
    95          2
    96          1
    97         44
    98          3
    99          5
   100          9
   101         18
   102        185
   103         40
   104         59
   105         17
   106          2
   107          0
   109          1
   110          1
   111          1
   112          3
   113          5
   114         53
   115         62
   116        342
   117        314
   118         97
   119          7
   120          0
   123          1
   125          0
   126          0
   127          5
   128         15
   129        566
   130         55
   131          3
   132          1
   134          0
   139          1
   140          2
   141         17
   142         46
   143        790
   144        876
   145        104
   146          6
   147          0