##TITLE=Library Entry 22017
##JCAMP-DX=Revision 4.10 
##DATA TYPE=MASS SPECTRUM
##SAMPLE DESCRIPTION=Chemical Concepts
##NAMES=HP
##CAS NAME=Cyclopropane, 2-chloro-1-ethyl-1-methyl-
##MOLFORM=C6H11Cl
##CAS REGISTRY NO=343926-09-0
##MP= -300
##BP= -300
##MW= 118
##$RETENTION INDEX=0
##$CONDENSED SPECTRUM=NO
##NPOINTS= 78
##XYDATA=(XY..XY) 1 
    24          1
    25          6
    26         63
    27        389
    28         96
    29        193
    30          4
    31          6
    33          1
    35          3
    36         19
    37         13
    38         34
    39        353
    40         68
    41        973
    42         72
    43         93
    44         13
    45          2
    47          2
    48          3
    49         19
    50         48
    51         91
    52         29
    53        577
    54         68
    55        973
    56        999
    57         48
    58          2
    59          2
    60          1
    61         13
    62         23
    63         26
    64          7
    65         59
    66         11
    67        221
    68         22
    69         87
    70          7
    71          3
    73          8
    74          3
    75         74
    76         92
    77         38
    78         33
    79         19
    80          2
    81         20
    82         47
    83        771
    84         50
    85          3
    86          0
    87          7
    88         19
    89        558
    90         62
    91        178
    92         19
    93          0
    95          0
    97          1
   102          1
   103         21
   104          2
   105          7
   106          0
   117          1
   118         37
   119          2
   120         12
   121          0