##TITLE=Library Entry 21060
##JCAMP-DX=Revision 4.10 
##DATA TYPE=MASS SPECTRUM
##SAMPLE DESCRIPTION=Chemical Concepts
##NAMES=HP
##CAS NAME=Cyclopropane, 1-bromo-2,2-diethyl-
##MOLFORM=C7H13Br
##CAS REGISTRY NO=343926-55-6
##MP= -300
##BP= -300
##MW= 176
##$RETENTION INDEX=0
##$CONDENSED SPECTRUM=NO
##NPOINTS= 79
##XYDATA=(XY..XY) 1 
    25          2
    26         32
    27        206
    28          3
    29        127
    30          2
    31          1
    36          3
    37          5
    38         19
    39        203
    40         42
    41        336
    42         97
    43         64
    44          1
    45          1
    46          1
    47          0
    49          2
    50         15
    51         38
    52         16
    53         72
    54         29
    55        999
    56         46
    57         10
    61          2
    62          2
    63          9
    64          2
    65         32
    66         14
    67        210
    68         28
    69         50
    70         85
    71          5
    74          0
    75          2
    77         10
    78          1
    79         20
    80         14
    81         33
    82         12
    83          2
    85          0
    91          1
    92          0
    93          2
    94          1
    95          3
    96         12
    97        368
    98         25
    99          2
   103          1
   105          1
   106          2
   107          2
   108          2
   109          2
   118          0
   119         21
   120          1
   121         21
   131          0
   133          1
   134          0
   135          1
   146          1
   147         21
   148          2
   149         21
   150          1
   176          0
   178          0