##TITLE=Library Entry 27780
##JCAMP-DX=Revision 4.10 
##DATA TYPE=MASS SPECTRUM
##SAMPLE DESCRIPTION=A.A.Kutin, Moscow, Russia
##NAMES=HP
##CAS NAME=5H-1,4-Diazepin-5-one, hexahydro-2,2,7,7-tetramethyl-
##MOLFORM=C9H18N2O
##CAS REGISTRY NO=34392-00-2
##MP= -300
##BP= -300
##MW= 170
##$RETENTION INDEX=0
##$CONDENSED SPECTRUM=NO
##NPOINTS= 88
##XYDATA=(XY..XY) 1 
    33          3
    34          3
    36          1
    39        193
    41        364
    42        468
    44         34
    46          1
    48          2
    50          6
    51         16
    53         69
    55        244
    56         80
    58        999
    60         17
    62          1
    63          4
    65         15
    66         10
    67         33
    68         16
    69         20
    70         37
    71         11
    72          7
    73          5
    74          2
    75          3
    77         12
    79         23
    80         29
    81         36
    82         44
    83         32
    84         10
    85          1
    86          1
    87          0
    89          0
    91          3
    93         12
    94         27
    95         24
    96         65
    98        168
   101          0
   103          0
   105          4
   106          3
   107          5
   108         13
   109          8
   110         45
   112         11
   113          3
   114          8
   117          0
   118          0
   120         19
   121          9
   122         44
   123         16
   124          6
   126          0
   127          0
   128          0
   129          0
   133          0
   134          0
   135          1
   136         12
   137         34
   138         14
   139         11
   140          1
   141          0
   143          0
   148          0
   149          1
   150          0
   151          0
   153         39
   155        183
   157          1
   161          0
   170         65
   171          6