##TITLE=Library Entry 41053
##JCAMP-DX=Revision 4.10 
##DATA TYPE=MASS SPECTRUM
##SAMPLE DESCRIPTION=D.HENNEBERG, MAX-PLANCK INSTITUTE, MULHEIM, WEST GERMAN
Y
##NAMES=HP
##CAS NAME=Silane, ethyltrimethyl-
##MOLFORM=C5H14Si
##CAS REGISTRY NO=3439-38-1
##MP= -300
##BP= -300
##MW= 102
##$RETENTION INDEX=550
##$CONDENSED SPECTRUM=NO
##NPOINTS= 44
##XYDATA=(XY..XY) 1 
    26          1
    27         10
    28          8
    29         22
    30          1
    31         19
    32          2
    33          1
    38          1
    41          2
    42         23
    43        117
    44         28
    45         88
    46          6
    47          2
    52          1
    53         17
    54          3
    55         24
    56          4
    57         18
    58         31
    59        462
    60         32
    61         18
    65          2
    66          3
    67          4
    69          2
    70          4
    71          7
    72         13
    73        999
    74         92
    75         29
    85          1
    86          2
    87        236
    88         24
    89          9
   102         26
   103          2
   104          1