##TITLE=Library Entry 37023
##JCAMP-DX=Revision 4.10 
##DATA TYPE=MASS SPECTRUM
##SAMPLE DESCRIPTION=A.Pleshkova, Nesmeyanov Inst.Org.Elem.Cpds, Moscow
##NAMES=HP
##CAS NAME=1-n-Butoxy-2,3-dimethyldiaziridine
##MOLFORM=C8H17NO
##CAS REGISTRY NO=343928-70-1
##MP= -300
##BP= -300
##MW= 143
##$RETENTION INDEX=0
##$CONDENSED SPECTRUM=NO
##NPOINTS= 16
##XYDATA=(XY..XY) 1 
    41        380
    42        245
    43        210
    44         25
    45         90
    46         11
    54         15
    55         90
    56        100
    57        195
    58         25
    70        999
    71         50
    72          9
   143          5
   144          1