##TITLE=Library Entry 26222
##JCAMP-DX=Revision 4.10 
##DATA TYPE=MASS SPECTRUM
##SAMPLE DESCRIPTION=Chemical Concepts
##NAMES=HP
##CAS NAME=1-(5-Ethyl-tetrahydrofuran-2-yl)-3,3-dimethyl-butan-2-one
##MOLFORM=C12H22O2
##CAS REGISTRY NO=343942-34-7
##MP= -300
##BP= -300
##MW= 198
##$RETENTION INDEX=0
##$CONDENSED SPECTRUM=NO
##NPOINTS= 107
##XYDATA=(XY..XY) 1 
    25          4
    27         72
    28         16
    29        200
    30          8
    31         16
    36          2
    38          3
    39         86
    40         17
    41        304
    42         67
    43        142
    44         10
    45          7
    50          3
    51          8
    52          3
    53         28
    54         24
    55        270
    56         66
    57        999
    58         53
    59         35
    63          3
    65          9
    66          4
    67         28
    68          9
    69         53
    70         49
    71         74
    72         12
    73          4
    76          2
    77         10
    78          3
    79         13
    80          4
    81        555
    82         44
    83         69
    84         21
    85        388
    86         30
    87          7
    89          2
    91         16
    92          3
    93          7
    94          3
    95         63
    96         26
    97         17
    98         20
    99        839
   100         67
   101          6
   103          2
   104          6
   105         13
   106          2
   107          4
   108          2
   109          9
   110          3
   111          8
   112          4
   113         11
   114          7
   115          5
   119          2
   121          3
   122          2
   123         40
   124          6
   125          6
   126         10
   127         18
   128          3
   129          3
   131          2
   133          4
   137          5
   138          2
   139          4
   140          5
   141        379
   142        174
   143         18
   144          2
   155          2
   156         13
   157          2
   160          4
   165          3
   167          5
   168          2
   169         18
   170          3
   180          6
   181          2
   183          2
   197          4
   198          6
   199          3