##TITLE=Library Entry 83432
##JCAMP-DX=Revision 4.10 
##DATA TYPE=MASS SPECTRUM
##SAMPLE DESCRIPTION=G. Lange, Inst. Org. Chem., Univ. Wurzburg, Germany
##NAMES=HP
##CAS NAME=1,3-Dioxolan-4-one, 2-isopropyl-5-phenyl-
##MOLFORM=C12H14O3
##CAS REGISTRY NO=343954-08-5
##MP= -300
##BP= -300
##MW= 206
##$RETENTION INDEX=0
##$CONDENSED SPECTRUM=NO
##NPOINTS= 63
##XYDATA=(XY..XY) 1 
    38         12
    39        126
    40         29
    41        265
    42         20
    43        250
    44         30
    45          9
    50         27
    51        125
    52         34
    53         21
    54          4
    55         30
    56        592
    57         59
    58         17
    59         10
    62         15
    63         68
    64         35
    65         14
    69          3
    71         53
    72         14
    73          5
    74          4
    75         13
    76         11
    77        354
    78         69
    79        478
    80         31
    88         11
    89        170
    90        252
    91        125
    92         13
   104         12
   105        278
   106         43
   107        999
   108         75
   109          4
   115          3
   117          7
   118        104
   119         62
   120         12
   123          4
   129         11
   131          4
   133          8
   135        262
   136         24
   143         10
   147         42
   148          4
   161         16
   162        388
   163         64
   164          5
   206          3