##TITLE=Library Entry 85474
##JCAMP-DX=Revision 4.10 
##DATA TYPE=MASS SPECTRUM
##SAMPLE DESCRIPTION=NIST Mass Spectrometry Data Center
##NAMES=HP
##CAS NAME=2,6-Dibromo-4-fluoroaniline
##MOLFORM=C6H4Br2FN
##CAS REGISTRY NO=344-18-3
##MP= -300
##BP= -300
##MW= 267
##$RETENTION INDEX=0
##$CONDENSED SPECTRUM=NO
##NPOINTS= 125
##XYDATA=(XY..XY) 1 
    16          1
    25          3
    26          5
    27          4
    31         82
    32          2
    33          5
    36         10
    37         51
    38         41
    39          9
    40          2
    41          8
    44         20
    46          2
    48          5
    49         22
    50         35
    51         41
    52        184
    53         52
    54        192
    56        101
    57         75
    58          7
    59          7
    60         25
    61        127
    62        116
    63         76
    64         31
    65         44
    66          2
    67          1
    68          7
    69          4
    70         12
    71          2
    72          4
    73         10
    74         21
    75         16
    76         38
    77          6
    78         11
    79         41
    80         89
    81        419
    82        246
    83         39
    84          7
    86         11
    87         15
    88         27
    89         75
    90         15
    91          6
    92         19
    93         52
    94        107
   104          5
   105          4
   106         35
   107         69
   108        999
   109        557
   110         36
   111         11
   112          1
   113          9
   115          2
   116          5
   117          7
   118          7
   119          7
   120          1
   121          2
   124          1
   128          3
   129          1
   130          6
   131          1
   132          4
   133         62
   134        120
   135         60
   137         25
   138          2
   139          2
   140          3
   141          7
   142          5
   143          6
   144          2
   145          1
   154          1
   156          2
   158          2
   159         12
   160         19
   161         68
   162         21
   163         54
   164          3
   168          4
   169          1
   170          3
   171          1
   172          1
   174          1
   186          9
   187         47
   188        116
   189         52
   190        104
   191          8
   239          4
   241         10
   243          4
   267        412
   268         39
   269        775
   270         58
   271        381
   272         25