##TITLE=Library Entry 15036
##JCAMP-DX=Revision 4.10 
##DATA TYPE=MASS SPECTRUM
##SAMPLE DESCRIPTION=R.G.ZALSKIE U.S. DEPT. OF AGRICULTURE, FARGO, N. DAKOTA
, US
##NAMES=HP
##CAS NAME=1,4:5,8-Dimethanonaphthalene-2,3-diol, 5,6,7,8,9,9-hexachloro-1,2
,3,4,4a,5,8,8a-octahydro-, diacetate, (1.alpha.,2.alpha.,3.beta.,4.alpha.,4a
.beta.,5.beta.,8.beta.,8a.beta.)-
##MOLFORM=C16H14Cl6O4
##CAS REGISTRY NO=34408-22-5
##MP= -300
##BP= -300
##MW= 480
##$RETENTION INDEX=0
##$CONDENSED SPECTRUM=NO
##NPOINTS= 434
##XYDATA=(XY..XY) 1 
    26         14
    27         25
    28         11
    29          1
    30          6
    31          1
    35          5
    36         33
    37          1
    38         10
    39         13
    40          6
    41         22
    42         14
    43        999
    44         77
    45          9
    46          1
    47          1
    48          0
    49          1
    50          3
    51          8
    52          3
    53          8
    54          2
    55          8
    56          2
    57          0
    58          1
    59          1
    60          9
    61          8
    62          2
    63          4
    64          1
    65         12
    66         19
    67         26
    68          3
    69          5
    70          1
    71          2
    72          1
    73          4
    74          6
    75          5
    76          1
    77         26
    78          6
    79         53
    80          6
    81          7
    82         14
    83          6
    84          2
    85          4
    86         14
    87          3
    88          1
    89          2
    90          0
    91          4
    92          1
    93          2
    94          1
    95          8
    96          6
    97          4
    98          3
    99          6
   100          2
   101          4
   102         17
   103          4
   104          1
   105          6
   106          3
   107        178
   108         27
   109          7
   110          3
   111          3
   112          1
   113          3
   114          1
   115          2
   116         13
   117          3
   118          1
   119          3
   120          1
   121         13
   122          3
   123          3
   124          3
   125          1
   126          5
   127          2
   128          1
   129          1
   130          1
   131          2
   132          2
   133          3
   134          1
   135          3
   136          1
   137          2
   138          1
   139          3
   140          1
   141          4
   142          1
   143          5
   144          8
   145          2
   146          1
   147          2
   148          1
   149          7
   150          2
   151          2
   152          1
   153          0
   154          0
   155          1
   156          1
   157          2
   158          1
   159          2
   160          5
   161          3
   162          5
   163          2
   164          1
   165          2
   166          1
   167         17
   168          3
   169          3
   170          3
   171          2
   172          2
   173          6
   174          2
   175          3
   176          1
   177          1
   178          1
   179          1
   180          1
   181          7
   182          2
   183          4
   184          2
   185          3
   186          2
   187          1
   188          1
   189          1
   190          1
   191          4
   192          1
   193          6
   194          3
   195          9
   196          4
   197          6
   198          6
   199          2
   200          2
   201          5
   202          2
   203          6
   204          3
   205          4
   206          3
   207          5
   208          3
   209          6
   210          3
   211          3
   212          1
   213          1
   214          2
   215          1
   216          3
   217          4
   218          2
   219          3
   220          3
   221          2
   222          2
   223          1
   224          1
   225          2
   226          1
   227          3
   228          2
   229          3
   230          8
   231          6
   232         10
   233          5
   234          4
   235         23
   236          4
   237         36
   238          5
   239         23
   240          4
   241         10
   242          3
   243         10
   244          4
   245          9
   246          4
   247          4
   248          2
   249          1
   250          2
   251          2
   252          1
   253          3
   254          3
   255          3
   256          3
   257          3
   258          2
   259          2
   260          2
   261         13
   262          2
   263         18
   264          4
   265         17
   266          6
   267         13
   268          6
   269          6
   270          6
   271         12
   272          9
   273         12
   274          7
   275          6
   276          4
   277          7
   278          4
   279         11
   280          5
   281          8
   282          3
   283          2
   284          2
   285          1
   286          2
   287          2
   288          4
   289          3
   290          5
   291          3
   292          3
   293          2
   294          3
   295          2
   296          3
   297          4
   298          3
   299         14
   300          5
   301         19
   302          6
   303         12
   304          4
   305         10
   306         11
   307         11
   308         13
   309          7
   310          7
   311          4
   312          5
   313          2
   314          4
   315          2
   316          3
   317          2
   318          2
   319          4
   320          2
   321          4
   322          2
   323          2
   324          3
   325          8
   326          3
   327         10
   328          4
   329          7
   330          3
   331          7
   332          2
   333          2
   334          1
   335          1
   336          1
   337          1
   338          1
   339          1
   340          1
   341          1
   342          4
   343          4
   344          8
   345          7
   346          6
   347          5
   348          3
   349          3
   350          2
   351          3
   352          2
   353          3
   354          1
   355          2
   356          1
   357          1
   358          1
   359          1
   360          3
   361          2
   362          5
   363          2
   364          4
   365          2
   366          3
   367          1
   368          2
   369          1
   370          1
   371          1
   372          1
   373          1
   374          1
   375          1
   376          1
   377          1
   378          1
   379          2
   380          2
   381          3
   382          1
   383          2
   384          1
   385         12
   386          8
   387         20
   388          8
   389         13
   390          6
   391          6
   392          3
   393          3
   394          2
   395          6
   396          3
   397         10
   398          3
   399          8
   400          3
   401          4
   402          3
   403         21
   404          8
   405         35
   406          9
   407         25
   408          7
   409         10
   410          4
   411          3
   412          3
   413          3
   414          3
   415          2
   416          2
   417          3
   418          2
   419          3
   420          3
   421          3
   422          2
   423          3
   424          2
   425          2
   426          2
   427          2
   428          2
   429          2
   430          2
   431          1
   432          2
   433          2
   434          2
   435          1
   436          2
   437         23
   438          4
   439         45
   440          8
   441         39
   442          7
   443         17
   444          6
   445        184
   446         39
   447        297
   448         59
   449        190
   450         38
   451         65
   452         13
   453         12
   454          4
   455          3
   480          6
   481          2
   482         11
   483          3
   484         10
   485          3
   486          4