##TITLE=Library Entry 78924
##JCAMP-DX=Revision 4.10 
##DATA TYPE=MASS SPECTRUM
##SAMPLE DESCRIPTION=Japan AIST/NIMC Database- Spectrum MS-NW-2494
##NAMES=HP
##CAS NAME=N-Benzoyl-.beta.-alanine
##MOLFORM=C10H11NO3
##CAS REGISTRY NO=3440-28-6
##MP= -300
##BP= -300
##MW= 193
##$RETENTION INDEX=0
##$CONDENSED SPECTRUM=NO
##NPOINTS= 79
##XYDATA=(XY..XY) 1 
    15          4
    17          3
    18         11
    26          3
    27         17
    28          9
    29          2
    30          7
    37          1
    38          4
    39          8
    40          1
    41          2
    42          7
    43          8
    44          4
    45          8
    46          2
    49          1
    50         29
    51         99
    52          8
    53          1
    55          8
    56          4
    60          2
    62          1
    63          3
    64          1
    65          2
    70         16
    71          9
    72          1
    73          2
    74          9
    75          9
    76         22
    77        373
    78         31
    79          2
    87          2
    88        174
    89          7
    90          1
    91          1
    92          1
    98          3
   102          1
   103         40
   104         17
   105        999
   106         76
   107          4
   116          2
   118          1
   119          2
   120          1
   121          6
   122          3
   123          1
   130          3
   131          3
   132          4
   133         18
   134         11
   135          1
   139          1
   146          9
   147         40
   148         20
   149          3
   158          1
   175         39
   176         16
   177          2
   192         13
   193        139
   194         15
   195          1