##TITLE=Library Entry 100214
##JCAMP-DX=Revision 4.10 
##DATA TYPE=MASS SPECTRUM
##SAMPLE DESCRIPTION=TNO Volatile Compounds in Food - Chemical Concepts
##NAMES=HP
##CAS NAME=Pyrazine, isopropenyl-
##MOLFORM=C7H8N2
##CAS REGISTRY NO=34413-32-6
##MP= -300
##BP= -300
##MW= 120
##$RETENTION INDEX=0
##$CONDENSED SPECTRUM=NO
##NPOINTS= 18
##XYDATA=(XY..XY) 1 
    26         64
    27         41
    38         41
    39        147
    40         37
    41        125
    52         62
    53         55
    60          9
    65         56
    66         39
    67        124
    74          0
    78         68
    92         39
    94         28
   119        999
   120        349