##TITLE=Library Entry 28376
##JCAMP-DX=Revision 4.10 
##DATA TYPE=MASS SPECTRUM
##SAMPLE DESCRIPTION=Div. of Experiment Therapeutics WRAIR, WRAMC, Washingto
n DC 20307
##NAMES=HP
##CAS NAME=4-Amino-1-hexanol
##MOLFORM=C6H15NO
##CAS REGISTRY NO=344240-78-4
##MP= -300
##BP= -300
##MW= 117
##$RETENTION INDEX=0
##$CONDENSED SPECTRUM=NO
##NPOINTS= 47
##XYDATA=(XY..XY) 1 
    41        366
    42        242
    43        412
    44        188
    45         31
    46         14
    47          7
    48          3
    52         16
    53         52
    54         89
    55        119
    56        205
    57         84
    58        999
    59         44
    60          8
    61          1
    62          1
    63          2
    65          7
    66          3
    67         22
    68         34
    69         26
    70        290
    71        450
    72         44
    73          8
    74          5
    77          3
    78          1
    85          4
    86         44
    87        131
    88        171
    89          7
    98         10
    99         33
   100         13
   101          6
   102          8
   103          1
   115          0
   116          1
   117          9
   118          1