##TITLE=Library Entry 8401
##JCAMP-DX=Revision 4.10 
##DATA TYPE=MASS SPECTRUM
##SAMPLE DESCRIPTION=Exported from NIST MS Search
##NAMES=HP
##CAS NAME=2H-Oxocin-2-methanol, 7-bromo-8-ethyl-3,6,7,8-tetrahydro-.alpha.-
2-penten-4-ynyl-, acetate, [2R-[2.alpha.[R*(E)],7.beta.,8.alpha.]]-
##MOLFORM=C17H23BrO3
##CAS REGISTRY NO=3442-58-8
##MP= -300
##BP= -300
##MW= 354
##$RETENTION INDEX=0
##$CONDENSED SPECTRUM=NO
##NPOINTS= 134
##XYDATA=(XY..XY) 1 
    40        246
    41        340
    42         49
    43        999
    44         98
    50         24
    51         49
    52         24
    53        246
    54        135
    55        135
    56         24
    57         49
    59         22
    60         19
    61         24
    62         19
    63         34
    64         24
    65        148
    66         61
    67        827
    68         98
    69        125
    70         27
    71         24
    73         17
    77        172
    78        209
    79        321
    80         98
    81        395
    82         42
    83         44
    84         14
    85         14
    91        123
    92         24
    93        123
    94         24
    95         49
    96         19
    97         24
   103         24
   104         24
   105         51
   106        130
   107         93
   108         98
   109        518
   110         32
   115         96
   116         64
   117        177
   118         56
   119         54
   120         37
   121         49
   122         24
   123         46
   124         24
   125         42
   127         24
   128         37
   129        143
   130        121
   131        133
   132         37
   133         56
   134         64
   135         49
   136         22
   140         44
   141         27
   142         54
   143         24
   144         98
   145         49
   146         98
   147         37
   148         86
   149         86
   151         24
   155         24
   157         49
   159         96
   160         44
   163         24
   164         24
   165        123
   166         19
   167         17
   171         24
   173        111
   174         24
   175         24
   177         29
   179         24
   185         32
   187         32
   188        123
   189         32
   190        123
   191         29
   197         49
   199         19
   215        172
   216         24
   217         56
   218         24
   219         42
   229         24
   231         24
   233         19
   241         19
   242         24
   243         24
   244         19
   253         14
   255         19
   257         12
   275          9
   294         93
   295         19
   296         93
   297         19
   312         12
   314         12
   325         14
   327         14
   354         24
   355         12
   356         24
   357         12