##TITLE=Library Entry 15363
##JCAMP-DX=Revision 4.10 
##DATA TYPE=MASS SPECTRUM
##SAMPLE DESCRIPTION=T. BRYCE UNILEVER RESEARCH COLWORTH/WELWYN, BEDFORD U.K
.
##NAMES=HP
##CAS NAME=1-Octanamine, N-methyl-N-nitroso-
##MOLFORM=C9H20N2O
##CAS REGISTRY NO=34423-54-6
##MP= -300
##BP= -300
##MW= 172
##$RETENTION INDEX=0
##$CONDENSED SPECTRUM=NO
##NPOINTS= 43
##XYDATA=(XY..XY) 1 
    27        229
    29        247
    30        134
    31        116
    39         90
    41        349
    42        515
    43        985
    44        999
    45        176
    53         21
    54         26
    55        229
    56        129
    57        565
    58        282
    59         74
    61        118
    67         19
    68         15
    69        212
    70        178
    71         79
    72         21
    73        544
    74        388
    75         47
    81         10
    82         19
    83         56
    84        166
    85         26
    86         10
    87         70
    98         33
   101         12
   112         35
   140         15
   142        106
   143         14
   155        371
   156         40
   172         38