##TITLE=Library Entry 39187
##JCAMP-DX=Revision 4.10 
##DATA TYPE=MASS SPECTRUM
##SAMPLE DESCRIPTION=Chemical Concepts
##NAMES=HP
##CAS NAME=5-Methoxycyclooctanol
##MOLFORM=C9H18O2
##CAS REGISTRY NO=344325-93-5
##MP= -300
##BP= -300
##MW= 158
##$RETENTION INDEX=0
##$CONDENSED SPECTRUM=NO
##NPOINTS= 83
##XYDATA=(XY..XY) 1 
    27         26
    28         20
    29         80
    30         11
    31         38
    33         22
    39         18
    40          6
    41        260
    42         58
    43        151
    44         53
    45        114
    46          5
    53         21
    54        101
    55        190
    56         60
    57        164
    58        301
    59        109
    60         17
    61        213
    62          3
    65          6
    66         12
    67        162
    68         39
    69        103
    70        116
    71        999
    72        318
    73         32
    74         12
    75          3
    76          6
    77         11
    78          8
    79         79
    80        126
    81         46
    82        103
    83        137
    84        215
    85         96
    86         26
    87         32
    88          4
    91          8
    92          3
    93         69
    94          7
    95         22
    96         10
    97        330
    98        324
    99         34
   100          7
   101         57
   102          7
   107          7
   108         40
   109         24
   110          4
   111        101
   112         63
   113         12
   114          2
   115         93
   116          7
   124          2
   125         13
   126         55
   127         12
   128          3
   129         34
   130         19
   131          2
   139          2
   140         22
   141          2
   143          2
   158          2