##TITLE=Library Entry 76868
##JCAMP-DX=Revision 4.10 
##DATA TYPE=MASS SPECTRUM
##SAMPLE DESCRIPTION=Chemical Concepts
##NAMES=HP
##CAS NAME=2-Methylheptane, 4-(t-butyldimethylsilyloxy)-3-nitro-
##MOLFORM=C14H31NO3Si
##CAS REGISTRY NO=344351-74-2
##MP= -300
##BP= -300
##MW= 289
##$RETENTION INDEX=0
##$CONDENSED SPECTRUM=NO
##NPOINTS= 178
##XYDATA=(XY..XY) 1 
    27         29
    28          9
    29         54
    30         99
    31          5
    39         25
    40          3
    41        124
    42         10
    43         83
    44          6
    45         44
    46          3
    47         32
    51          2
    52          1
    53         11
    54          5
    55        106
    56         22
    57         98
    58         23
    59         99
    60         12
    61         45
    62          2
    63          3
    64          1
    65          3
    66          1
    67         15
    68          7
    69        162
    70         16
    71         17
    72          7
    73        498
    74         49
    75        844
    76         47
    77         74
    78          3
    79          6
    80          3
    81         24
    82          7
    83         13
    84          5
    85         20
    86          5
    87          7
    88          2
    89         40
    90          5
    91         15
    92          2
    93          5
    94          2
    95         17
    96          4
    97         16
    98          5
    99         21
   100          6
   101         26
   102          6
   103        132
   104        999
   105        141
   106         39
   107          4
   108          1
   109         11
   110         39
   111         69
   112         24
   113         12
   114          3
   115         67
   116         40
   117         11
   118          9
   119          5
   120          5
   121          8
   123          2
   124          2
   125          4
   126          2
   127          7
   128          7
   129         33
   130          8
   131         99
   132         74
   133         16
   134         50
   135          5
   136          1
   139          2
   140          8
   141          6
   142          2
   143         42
   144         23
   145         71
   146        253
   147        106
   148         26
   149         12
   150          2
   151          1
   154          2
   155          0
   157          6
   158          3
   159        118
   160        392
   161         56
   162         20
   163          3
   164          0
   165          2
   169          3
   170          1
   171         12
   172          2
   173         39
   174          8
   175          3
   176        336
   177         41
   178         16
   179          1
   180          2
   181          1
   183          1
   184          2
   185         15
   186          6
   187        349
   188         49
   189         18
   190         36
   191          3
   192          1
   193          2
   194          0
   199          6
   200         11
   201        108
   202         78
   203         19
   204          4
   207          2
   214          6
   215          1
   216          5
   217          1
   218         16
   219          2
   227          5
   228          1
   229          3
   230          2
   231          1
   232         71
   233         40
   234          9
   235          2
   241         13
   242          3
   243         42
   244         10
   245          4
   246         31
   247          5
   248          1