##TITLE=Library Entry 13662
##JCAMP-DX=Revision 4.10 
##DATA TYPE=MASS SPECTRUM
##SAMPLE DESCRIPTION=Exported from NIST MS Search
##NAMES=HP
##CAS NAME=Tetradecanoic acid, 2-hydroxy-1-(hydroxymethyl)ethyl ester
##MOLFORM=C17H34O4
##CAS REGISTRY NO=3443-83-2
##MP= -300
##BP= -300
##MW= 302
##$RETENTION INDEX=0
##$CONDENSED SPECTRUM=NO
##NPOINTS= 115
##XYDATA=(XY..XY) 1 
    26         20
    27        220
    28         70
    29        500
    30         20
    31        130
    32         10
    39        120
    40         30
    41        750
    42        200
    43        999
    44        110
    45        150
    46         10
    47         10
    53         50
    54         70
    55        730
    56        250
    57        870
    58         50
    59         40
    60        290
    61        170
    67        110
    68         70
    69        420
    70        110
    71        420
    72         30
    73        360
    74        710
    75        220
    76         10
    77         10
    79         30
    80         20
    81        100
    82         60
    83        260
    84        520
    85        260
    86         20
    87        190
    88         20
    89         10
    91         10
    93         50
    94         20
    95        120
    96         50
    97        200
    98        770
    99         90
   100         20
   101         60
   102         10
   107         20
   108         10
   109         70
   110         30
   111        130
   112        260
   113         50
   115         60
   116        200
   117         30
   121         30
   123         30
   124         20
   125         50
   126         50
   127         20
   129        190
   130         20
   134        430
   135         40
   137         20
   138         10
   139         20
   140         30
   143         60
   147         60
   153         10
   154         80
   155         20
   157         20
   166         20
   167         20
   168         30
   169         10
   171         30
   176         20
   181         10
   185         80
   186         10
   199         40
   209         10
   210         70
   211        960
   212        160
   213         20
   228        130
   229        270
   230         40
   241         10
   242         80
   243         10
   271        140
   272         20
   284         10
   285         30
   302         10
   303         10