##TITLE=Library Entry 20510
##JCAMP-DX=Revision 4.10 
##DATA TYPE=MASS SPECTRUM
##SAMPLE DESCRIPTION=NIST Mass Spectrometry Data Center
##NAMES=HP
##CAS NAME=17-Octadecynoic acid
##MOLFORM=C18H32O2
##CAS REGISTRY NO=34450-18-5
##MP= -300
##BP= -300
##MW= 280
##$RETENTION INDEX=2199
##$CONDENSED SPECTRUM=NO
##NPOINTS= 204
##XYDATA=(XY..XY) 1 
    15          1
    16          1
    17          2
    26          3
    27         63
    28         19
    29        115
    30          5
    31          7
    35          1
    36          5
    37          2
    38          5
    39        120
    40         35
    41        605
    42        101
    43        389
    44         20
    45         82
    46          2
    47          1
    50          6
    51         22
    52         16
    53        143
    54        275
    55        999
    56        121
    57        182
    58         27
    59         52
    60        227
    61         27
    62          2
    63          3
    64          3
    65         42
    66         42
    67        609
    68        308
    69        409
    70         59
    71         66
    72          9
    73        139
    74         13
    75          7
    76          2
    77         41
    78         12
    79        145
    80         83
    81        881
    82        546
    83        304
    84        123
    85         40
    86          8
    87         30
    88          3
    89          2
    90          1
    91         34
    92         10
    93         70
    94         73
    95        493
    96        432
    97        250
    98        191
    99         29
   100         17
   101         26
   102          4
   103          3
   104          5
   105         16
   106          5
   107         43
   108         38
   109        214
   110         99
   111         90
   112         46
   113         18
   114         17
   115         15
   116          5
   117          4
   118          4
   119         14
   120          5
   121         42
   122         22
   123         78
   124         31
   125         34
   126         17
   127         22
   128         17
   129         13
   130          3
   131          6
   132          3
   133         13
   134          6
   135         29
   136         18
   137         32
   138         18
   139         14
   140          8
   141          7
   142          4
   143          3
   144          2
   145          4
   146          1
   147          7
   148          4
   149         19
   150         10
   151         16
   152          9
   153          8
   154          5
   155          3
   156          2
   157          2
   158          1
   159          3
   160          2
   161          4
   162          3
   163          9
   164          6
   165          7
   166          3
   167          6
   168          5
   169          3
   170          3
   171          2
   172          1
   173          3
   174          1
   175          2
   176          1
   177          4
   178          3
   179          3
   180          3
   181          5
   182          2
   183          1
   185          2
   187          1
   189          1
   190          1
   191          3
   192          1
   193          2
   194          1
   195          3
   196          2
   198          1
   199          1
   201          2
   202          1
   203          1
   204          1
   205          3
   206          1
   207          1
   208          1
   209          2
   210          1
   211          1
   213          1
   216          1
   217          1
   219          1
   220          1
   221          1
   222          1
   223          3
   224          1
   233          1
   234          1
   235          1
   236          1
   237          2
   247          1
   248          1
   249          1
   250          1
   251          1
   252          1
   261          1
   263          1
   264          1
   265          1
   277          1