##TITLE=Library Entry 2180
##JCAMP-DX=Revision 4.10 
##DATA TYPE=MASS SPECTRUM
##SAMPLE DESCRIPTION=B. Derendyaev, Novosibirsk Institute of Organic Chemist
ry
##NAMES=HP
##CAS NAME=1-Butene, 3-methyl-3-[(3-methyl-2-butenyl)oxy]-
##MOLFORM=C10H18O
##CAS REGISTRY NO=34454-77-8
##MP= -300
##BP= -300
##MW= 154
##$RETENTION INDEX=0
##$CONDENSED SPECTRUM=NO
##NPOINTS= 72
##XYDATA=(XY..XY) 1 
    26         35
    27        258
    29        240
    30          9
    31         11
    33          1
    34          3
    36          4
    37         20
    38         36
    39        360
    40         98
    41        999
    42         99
    43         70
    45          4
    46          1
    48          2
    49          5
    50        103
    51         42
    52         18
    53        143
    54         25
    55        137
    56         22
    57         99
    58          5
    59          2
    61          3
    62          5
    63          1
    64         18
    65          7
    66        123
    67         57
    68        332
    69        103
    70         39
    71          2
    76          3
    77          1
    78          3
    79          1
    80          5
    81          6
    82          4
    83         27
    84         11
    85        110
    86         10
    87          1
    91          3
    92          1
    93          3
    94          1
    95          4
    96          1
   105          1
   106          1
   107          2
   109          4
   110         14
   111          4
   112          1
   121          1
   123          1
   124          1
   139        154
   140         14
   141          1
   154          1