##TITLE=Library Entry 4920
##JCAMP-DX=Revision 4.10 
##DATA TYPE=MASS SPECTRUM
##SAMPLE DESCRIPTION=NIST Mass Spectrometry Data Center, 1994
##NAMES=HP
##CAS NAME=Formamide, N,N-bis(2-cyanoethyl)-
##MOLFORM=C7H9N3O
##CAS REGISTRY NO=3445-84-9
##MP= -300
##BP= -300
##MW= 151
##$RETENTION INDEX=0
##$CONDENSED SPECTRUM=NO
##NPOINTS= 53
##XYDATA=(XY..XY) 1 
    12          5
    13         10
    14         16
    15         58
    16          0
    18          3
    25          9
    26         89
    27        192
    28        416
    29        194
    30        142
    37          8
    38         24
    39         38
    40        112
    41        168
    42        999
    43         92
    44          7
    50          3
    51         35
    52        101
    53         35
    54        420
    55         55
    56         81
    57         10
    58         66
    65          2
    66          6
    67         11
    68          5
    69          7
    70         16
    71          9
    79          6
    81         25
    83        714
    84         38
    94          2
    95         22
    96          7
    97         38
    98          9
   111        147
   112         11
   120          2
   122          4
   123          9
   124          6
   151         28
   152          4