##TITLE=Library Entry 17273
##JCAMP-DX=Revision 4.10 
##DATA TYPE=MASS SPECTRUM
##SAMPLE DESCRIPTION=Chemical Concepts
##NAMES=HP
##CAS NAME=Dodecane, 1-(methoxymethoxy)-
##MOLFORM=C14H30O2
##CAS REGISTRY NO=34458-41-8
##MP= -300
##BP= -300
##MW= 230
##$RETENTION INDEX=0
##$CONDENSED SPECTRUM=NO
##NPOINTS= 140
##XYDATA=(XY..XY) 1 
    26          2
    27         30
    28         16
    29         95
    30          5
    31         15
    33          4
    34          1
    35          1
    36          1
    37          1
    39         25
    40          8
    41        192
    42         63
    43        230
    44         20
    45        999
    46         24
    47         10
    50          1
    51          2
    52          1
    53         12
    54         26
    55        186
    56         92
    57        214
    58         15
    59          6
    60          1
    61         19
    63          5
    64          0
    65          2
    66         11
    67         44
    68        131
    69        183
    70         90
    71        165
    72         19
    73          4
    74          5
    75        236
    76         13
    77         17
    78          1
    79          4
    80          6
    81         54
    82        179
    83        172
    84         60
    85        105
    86         32
    87          6
    88          1
    91          2
    92          1
    93          2
    94          4
    95         46
    96        120
    97        138
    98         47
    99         25
   100         12
   101          2
   103          0
   104          2
   105          3
   106          2
   107          0
   108          2
   109         40
   110         50
   111         81
   112         29
   113         21
   114          3
   115          1
   117          1
   118         10
   119          2
   120          0
   121          1
   122          1
   123         21
   124         28
   125         25
   126         16
   127          9
   128          1
   129          1
   131          0
   132          0
   133          1
   134          2
   135          0
   136          1
   137         23
   138         37
   139         16
   140         30
   141          7
   142          1
   149         15
   150          1
   151          7
   152         29
   153          4
   154         24
   155          6
   156          2
   157          0
   165          1
   166         36
   167          7
   168         23
   169         16
   170          9
   171          1
   178          0
   179          1
   180         19
   181          3
   182          0
   183          2
   184          2
   185         24
   186          3
   197         10
   198          1
   199         14
   200          1
   212          2
   215          2
   229          5
   230          0