##TITLE=Library Entry 83555
##JCAMP-DX=Revision 4.10 
##DATA TYPE=MASS SPECTRUM
##SAMPLE DESCRIPTION=M. IKEDA
##NAMES=HP
##CAS NAME=Pyridinium, 2-methyl-1-[(phenylsulfonyl)amino]-, hydroxide, inner
 salt
##MOLFORM=C12H12N2O2S
##CAS REGISTRY NO=34456-58-1
##MP= -300
##BP= -300
##MW= 248
##$RETENTION INDEX=0
##$CONDENSED SPECTRUM=NO
##NPOINTS= 34
##XYDATA=(XY..XY) 1 
    41         20
    44         20
    50         60
    51        240
    52         90
    53        130
    63         30
    64         30
    65         60
    66         80
    67         30
    77        280
    78        800
    79         50
    80        280
    81         30
    91         30
    92        110
    93        230
    94         30
   105         40
   106         40
   107        999
   108         80
   141         30
   144         20
   157         30
   168        180
   169         50
   183         70
   184        150
   185         30
   248        130
   249         30