##TITLE=Library Entry 10487
##JCAMP-DX=Revision 4.10 
##DATA TYPE=MASS SPECTRUM
##SAMPLE DESCRIPTION=Institute of Organic Chemistry, Novosibirsk, USSR 1988
##NAMES=HP
##CAS NAME=Methyl 8-oxononanoate
##MOLFORM=C10H18O3
##CAS REGISTRY NO=34455-70-4
##MP= -300
##BP= -300
##MW= 186
##$RETENTION INDEX=0
##$CONDENSED SPECTRUM=NO
##NPOINTS= 82
##XYDATA=(XY..XY) 1 
    29         39
    31         14
    32         44
    33          2
    39         45
    41        131
    42         32
    43        999
    44         10
    45         33
    46          6
    48          4
    53          4
    54          6
    55        131
    56         12
    57         14
    58        253
    59         84
    60          9
    61          3
    65          4
    66          2
    67         19
    68         34
    69        362
    70         13
    71         64
    73          4
    79          2
    83         91
    84         35
    85         26
    87        212
    88         23
    89          9
    91          2
    93         11
    94          6
    95         34
    97        433
    98         31
    99          2
   100          3
   101         34
   104          9
   105          4
   108          9
   109         99
   110         12
   111         56
   112         19
   113         43
   116         50
   117          2
   118          3
   119          2
   121          9
   126         31
   127         19
   128         88
   129        424
   130         34
   131          2
   132         47
   133          2
   134          2
   136          4
   137         11
   139         11
   144          9
   145          6
   148          2
   154         29
   155         66
   168          9
   171         14
   172         11
   173          2
   183          1
   186          9
   187         29