##TITLE=Library Entry 71112
##JCAMP-DX=Revision 4.10 
##DATA TYPE=MASS SPECTRUM
##SAMPLE DESCRIPTION=NIST Mass Spectrometry Data Center, 1990.
##NAMES=HP
##CAS NAME=N-(2-Hydroxyethyl)-2-pyrrolidone
##MOLFORM=C6H11NO2
##CAS REGISTRY NO=3445-11-2
##MP= -300
##BP= -300
##MW= 129
##$RETENTION INDEX=0
##$CONDENSED SPECTRUM=NO
##NPOINTS= 73
##XYDATA=(XY..XY) 1 
    13          3
    14         15
    15         88
    16          1
    17          6
    18         25
    19         13
    26         45
    27        173
    28        341
    29         90
    30         82
    31         89
    32          4
    33          1
    34          2
    35          1
    36          1
    37          6
    38         17
    39        140
    40         60
    41        478
    42        354
    43        322
    44         81
    45         41
    46          1
    49          1
    50          1
    51          5
    52          9
    53         13
    54         31
    55         47
    56         78
    57         23
    58          6
    59          1
    60          3
    64          1
    65          1
    66          2
    68        132
    69        316
    70        707
    71         68
    72          7
    73          1
    74         10
    77          0
    78          1
    80         12
    81          1
    82         11
    83         12
    84         27
    85          0
    86        196
    87         10
    88          1
    98        999
    99        145
   100         15
   101          5
   109          1
   111        149
   112         13
   114        149
   115          8
   125          0
   129        136
   130         11