##TITLE=Library Entry 49737
##JCAMP-DX=Revision 4.10 
##DATA TYPE=MASS SPECTRUM
##SAMPLE DESCRIPTION=D.HENNEBERG, MAX-PLANCK INSTITUTE, MULHEIM, WEST GERMAN
Y
##NAMES=HP
##CAS NAME=Cyclopropane, trimethylmethylene-
##MOLFORM=C7H12
##CAS REGISTRY NO=34462-28-7
##MP= -300
##BP= -300
##MW= 96
##$RETENTION INDEX=0
##$CONDENSED SPECTRUM=NO
##NPOINTS= 63
##XYDATA=(XY..XY) 1 
    25          1
    26         19
    27        214
    28         30
    29         74
    30          2
    33          0
    35          0
    36          0
    37          8
    38         25
    39        357
    40         68
    41        493
    42         72
    43         56
    45          7
    46          8
    47          1
    49          5
    50         42
    51         81
    52         36
    53        348
    54        168
    55        215
    56        141
    57         20
    58          2
    60          1
    61          3
    62          9
    63         13
    64          5
    65         64
    66         41
    67        262
    68        147
    69         20
    70          7
    71          2
    72          5
    73          2
    74          5
    75          7
    76          2
    77        118
    78         20
    79        289
    80         29
    81        999
    82         73
    83          5
    85          9
    86          1
    88          2
    91         22
    92          6
    93         14
    94         30
    95         42
    96        303
    97         26