##TITLE=Library Entry 46673
##JCAMP-DX=Revision 4.10 
##DATA TYPE=MASS SPECTRUM
##SAMPLE DESCRIPTION=LAC, NIDDK, NIH, Bethesda, MD 20892
##NAMES=HP
##CAS NAME=.beta.-Bromobenzeneethanamine
##MOLFORM=C8H10BrN
##CAS REGISTRY NO=344737-89-9
##MP= -300
##BP= -300
##MW= 199
##$RETENTION INDEX=0
##$CONDENSED SPECTRUM=NO
##NPOINTS= 65
##XYDATA=(XY..XY) 1 
    41         13
    42          9
    43          9
    44          2
    45          4
    48         24
    49        141
    50        196
    51        885
    52         68
    53         10
    54          1
    55          6
    56          9
    57         31
    58          0
    61          0
    62         12
    63         44
    64         12
    65         36
    66          4
    67          2
    68          7
    69         34
    70          9
    71          8
    72          0
    73          7
    74         51
    75         55
    76         66
    77        999
    78        154
    79         17
    80          8
    81         20
    82          7
    83         13
    87         10
    88         11
    89         14
    90          1
    91         12
    92          5
   168          5
   169         67
   170          7
   171         69
   172         10
   173         27
   174          3
   181         14
   183        472
   184         65
   185        475
   186         24
   187          1
   189          2
   197          0
   199        491
   200         86
   201        456
   202         65
   203          6