##TITLE=Library Entry 54094
##JCAMP-DX=Revision 4.10 
##DATA TYPE=MASS SPECTRUM
##SAMPLE DESCRIPTION=Exported from NIST MS Search
##NAMES=HP
##CAS NAME=Pyrrolidine, 2-decyl-1-methyl-
##MOLFORM=C15H31N
##CAS REGISTRY NO=3447-07-2
##MP= -300
##BP= -300
##MW= 225
##$RETENTION INDEX=0
##$CONDENSED SPECTRUM=NO
##NPOINTS= 26
##XYDATA=(XY..XY) 1 
    55        180
    56         10
    57        150
    58         10
    67         35
    69         40
    70         38
    82         57
    84        999
    85         80
    94        350
    95        120
    96         10
    98         25
   108         40
   110         55
   120          7
   136          9
   150          3
   164          2
   178          3
   221         12
   222          3
   223          1
   224          2
   225          1