##TITLE=Library Entry 54095
##JCAMP-DX=Revision 4.10 
##DATA TYPE=MASS SPECTRUM
##SAMPLE DESCRIPTION=Exported from NIST MS Search
##NAMES=HP
##CAS NAME=Pyrrolidine, 1-methyl-2-octyl-
##MOLFORM=C13H27N
##CAS REGISTRY NO=3447-06-1
##MP= -300
##BP= -300
##MW= 197
##$RETENTION INDEX=0
##$CONDENSED SPECTRUM=NO
##NPOINTS= 20
##XYDATA=(XY..XY) 1 
    55         50
    57         15
    67         14
    69         14
    70         18
    82         54
    84        999
    85         80
    94        100
    95         22
    98         13
   108         10
   110         70
   120          3
   136          5
   193          5
   194          1
   195          3
   196          3
   197          1