##TITLE=Library Entry 53774
##JCAMP-DX=Revision 4.10 
##DATA TYPE=MASS SPECTRUM
##SAMPLE DESCRIPTION=Exported from NIST MS Search
##NAMES=HP
##CAS NAME=Pyrrolidine, 2-hexyl-1-methyl-
##MOLFORM=C11H23N
##CAS REGISTRY NO=3447-05-0
##MP= -300
##BP= -300
##MW= 169
##$RETENTION INDEX=0
##$CONDENSED SPECTRUM=NO
##NPOINTS= 18
##XYDATA=(XY..XY) 1 
    55         80
    57         50
    67         20
    69         25
    70         23
    82         45
    84        999
    85         80
    94         50
    95         15
    98          7
   108          7
   110         23
   165         25
   166          5
   167          3
   168          5
   169          3