##TITLE=Library Entry 53775
##JCAMP-DX=Revision 4.10 
##DATA TYPE=MASS SPECTRUM
##SAMPLE DESCRIPTION=Exported from NIST MS Search
##NAMES=HP
##CAS NAME=Pyrrolidine, 2-butyl-1-methyl-
##MOLFORM=C9H19N
##CAS REGISTRY NO=3447-03-8
##MP= -300
##BP= -300
##MW= 141
##$RETENTION INDEX=0
##$CONDENSED SPECTRUM=NO
##NPOINTS= 19
##XYDATA=(XY..XY) 1 
    55         90
    56         10
    57         30
    67         15
    69         20
    70         30
    82         50
    84        999
    85         80
    94         10
    95          2
    98         10
   110         13
   112          5
   137          2
   138          1
   139          2
   140         10
   141          8