##TITLE=Library Entry 20663
##JCAMP-DX=Revision 4.10 
##DATA TYPE=MASS SPECTRUM
##SAMPLE DESCRIPTION=J. SHAW, BORRISTON RESEARCH, ROCKVILLE, MD, USA
##NAMES=HP
##CAS NAME=Cisanilide
##MOLFORM=C13H18N2O
##CAS REGISTRY NO=34484-77-0
##MP= -300
##BP= -300
##MW= 218
##$RETENTION INDEX=0
##$CONDENSED SPECTRUM=NO
##NPOINTS= 89
##XYDATA=(XY..XY) 1 
    12          2
    15        190
    16         14
    17         62
    18        220
    19          1
    27        402
    28        408
    29        320
    30         96
    31          4
    32          1
    39        622
    41        854
    42        495
    43        146
    44         81
    45          6
    46          3
    50         52
    51        148
    52         53
    53         77
    55        999
    56        195
    57         46
    58          7
    60          5
    63        110
    65        418
    66         94
    67        118
    68         60
    70        543
    71         33
    72          3
    73          3
    74          9
    75          7
    77        246
    78         22
    79         19
    80         19
    81         30
    83        909
    84        414
    85         20
    87         46
    91        122
    92        154
    93        232
    94         21
    96          9
    97         14
    98         80
    99          6
   100          2
   102         16
   104          8
   105          3
   106          6
   107          1
   108          1
   111          1
   117          2
   119        110
   120         43
   121          3
   126        706
   127         57
   128          2
   130          2
   131          1
   132          4
   133          4
   135         31
   136          3
   147          4
   149          1
   161          5
   175          1
   176         12
   177          1
   203         25
   204          2
   217         13
   218        219
   219         41
   220          4