##TITLE=Library Entry 37444
##JCAMP-DX=Revision 4.10 
##DATA TYPE=MASS SPECTRUM
##SAMPLE DESCRIPTION=V.Zaikin,Topchiev Inst.Petrochem.Synth.,Moscow
##NAMES=HP
##CAS NAME=Trichloroacetic acid, 2-octyl ester
##MOLFORM=C10H17Cl3O2
##CAS REGISTRY NO=344883-74-5
##MP= -300
##BP= -300
##MW= 274
##$RETENTION INDEX=0
##$CONDENSED SPECTRUM=NO
##NPOINTS= 122
##XYDATA=(XY..XY) 1 
    22          3
    26         10
    27         74
    28         18
    29        121
    30          2
    31          2
    35         12
    36         88
    37          4
    38         27
    39         87
    40         21
    41        405
    42        194
    43        492
    44         18
    45         22
    47         13
    48          3
    49          7
    50         12
    51         12
    52         12
    53         32
    54         30
    55        543
    56        470
    57        839
    58         46
    59          6
    60          1
    63          6
    65          6
    66          4
    67         51
    68         69
    69        421
    70        999
    71        792
    72         45
    73          6
    74          4
    75          3
    76         15
    77         12
    78          5
    79         22
    80          1
    81         26
    82        124
    83        658
    84        449
    85         46
    86          9
    87          3
    91          6
    92          2
    93          5
    94          2
    95          7
    96          4
    97        179
    98         14
    99          3
   104         20
   105          4
   109          1
   110        191
   111         55
   112        455
   113        157
   114         16
   115          3
   117        523
   118          6
   119        506
   120          5
   121        165
   122          2
   123         15
   125          2
   127         28
   128          5
   129         27
   130          4
   131          3
   133          2
   135          1
   140          1
   145         20
   146          2
   147         21
   148          6
   149          5
   154          5
   155         27
   156          4
   157         21
   158          2
   159          2
   161         87
   162          2
   163         93
   164          2
   165         34
   167          5
   188          5
   189        212
   190         18
   191        206
   192         10
   193         68
   194          3
   195          6
   203          1
   205          1
   217          5
   219          4
   221          1
   239         11
   241          6