##TITLE=Library Entry 99823
##JCAMP-DX=Revision 4.10 
##DATA TYPE=MASS SPECTRUM
##SAMPLE DESCRIPTION=A.A.Kutin, Moscow, Russia
##NAMES=HP
##CAS NAME=Carbazole, 9-(4-methylbenzoyl)-
##MOLFORM=C20H15NO
##CAS REGISTRY NO=344874-84-6
##MP= -300
##BP= -300
##MW= 285
##$RETENTION INDEX=0
##$CONDENSED SPECTRUM=NO
##NPOINTS= 101
##XYDATA=(XY..XY) 1 
    33          1
    39         34
    41         11
    42          0
    43          0
    44          0
    45          0
    50          3
    51         12
    52          1
    53          0
    55          0
    56          0
    57          0
    63         24
    65        106
    67          0
    69          0
    74          1
    75          6
    76          2
    77          1
    78          0
    82          0
    83          0
    84          0
    86          1
    87          4
    89         29
    91        328
    92         15
    96          0
    98          0
    99          1
   100          2
   101          1
   102          0
   104          0
   105          0
   110          0
   111          0
   112          0
   113          7
   114          2
   115          5
   116          3
   119        999
   120         61
   122          0
   125          0
   126          1
   127          1
   128          0
   133          0
   137          2
   139         21
   140         22
   141          2
   142          2
   150          0
   151          0
   152          0
   153          0
   162          0
   164          4
   166         42
   167          4
   168          0
   176          0
   178          0
   180          0
   182          0
   193          0
   202          0
   213          0
   214          0
   224          0
   226          0
   228          0
   238          0
   239          0
   240          0
   241          2
   242          0
   251          0
   252          1
   253          1
   254          2
   255          0
   256          0
   267          0
   269          0
   280          1
   282          6
   283          5
   285        215
   286         37
   287          3
   288          0
   296          0
   299          0