##TITLE=Library Entry 3022
##JCAMP-DX=Revision 4.10 
##DATA TYPE=MASS SPECTRUM
##SAMPLE DESCRIPTION=Chemical Concepts
##NAMES=HP
##CAS NAME=2-Ethyl-3-vinyloxirane
##MOLFORM=C6H10O
##CAS REGISTRY NO=34485-78-4
##MP= -300
##BP= -300
##MW= 98
##$RETENTION INDEX=0
##$CONDENSED SPECTRUM=NO
##NPOINTS= 52
##XYDATA=(XY..XY) 1 
    25          3
    26         74
    27        422
    28        111
    29        551
    30         30
    31        172
    35          4
    36          2
    37         38
    38        113
    39        921
    40        215
    41        999
    42        477
    43        124
    44         19
    45          9
    47         11
    48          4
    49         15
    50         31
    51         37
    52         13
    53         52
    54         62
    55        421
    56         85
    57        960
    58         53
    59         64
    65         15
    66          6
    67         34
    68         58
    69        721
    70        123
    71         18
    77         12
    78          4
    79         41
    80         37
    81         17
    82          7
    83        356
    84         24
    85         31
    86          4
    95          8
    96          4
    97         52
    98         57