##TITLE=Library Entry 86749
##JCAMP-DX=Revision 4.10 
##DATA TYPE=MASS SPECTRUM
##SAMPLE DESCRIPTION=Asinex Ltd, Moscow, Russia
##NAMES=HP
##CAS NAME=Ethanone, 2-(2-fluorophenoxy)-1-(3,5-dimethyl-1-pyrazolyl)-
##MOLFORM=C13H13FN2O2
##CAS REGISTRY NO=344956-93-0
##MP= -300
##BP= -300
##MW= 248
##$RETENTION INDEX=0
##$CONDENSED SPECTRUM=NO
##NPOINTS= 131
##XYDATA=(XY..XY) 1 
    33          1
    34          1
    37          1
    38          8
    39         71
    40         52
    41         87
    42         87
    43          6
    44         12
    45          1
    48          0
    49          0
    50         12
    51         18
    52         15
    53         20
    54         18
    55         12
    56         13
    57         30
    58          1
    60          0
    61          1
    62          4
    63         14
    64         11
    65         23
    66         21
    67         14
    68         65
    69         18
    70          6
    71          1
    73          0
    74          6
    75         67
    76         13
    77         23
    78          2
    79         21
    80         19
    81         19
    82         37
    83         47
    84          3
    86          0
    87          0
    92         12
    93          5
    94         14
    95        210
    96        303
    97        299
    98         18
   101          0
   102          0
   103          0
   104          0
   105          2
   106          0
   107          6
   108         22
   109        999
   110         80
   111         15
   112         15
   113          1
   117          0
   118          0
   121          0
   122          2
   123        164
   124         43
   125         63
   126          4
   127          0
   128          0
   129          1
   130          1
   131          0
   132          3
   133          2
   134          0
   135          2
   136          3
   137        148
   138         13
   139          1
   148          2
   149          1
   150          2
   151          1
   152         26
   153          6
   155          0
   157          5
   158          0
   159          0
   160          0
   161          0
   163          0
   169          0
   170          7
   171          8
   172          1
   173          0
   175          1
   176          1
   177          1
   178          0
   189         18
   190        107
   191        115
   192         12
   193          0
   198          0
   199          4
   200          0
   201          0
   203         11
   204          2
   205          1
   217          1
   218         20
   219         33
   220          4
   230          0
   248        315
   249         48
   250          4