##TITLE=Library Entry 18916
##JCAMP-DX=Revision 4.10 
##DATA TYPE=MASS SPECTRUM
##SAMPLE DESCRIPTION=TNO Volatile Compounds in Food - Chemical Concepts
##NAMES=HP
##CAS NAME=4-Octenoic acid, ethyl ester, (Z)-
##MOLFORM=C10H18O2
##CAS REGISTRY NO=34495-71-1
##MP= -300
##BP= -300
##MW= 170
##$RETENTION INDEX=1187
##$CONDENSED SPECTRUM=NO
##NPOINTS= 87
##XYDATA=(XY..XY) 1 
    25         19
    26         26
    27        544
    28        147
    29        915
    30          3
    31         27
    32          9
    34          4
    38          9
    39        340
    40         60
    41        769
    42        122
    43        292
    44         12
    45        112
    46          5
    51         29
    52         27
    53        141
    54        299
    55        999
    56        103
    57        146
    58         10
    59          5
    60        318
    61        244
    62         13
    64          3
    65         26
    66         27
    67        456
    68         89
    69         92
    70        166
    71        189
    72          1
    73         72
    74         14
    75          5
    77         22
    78          2
    79         38
    80         13
    81        332
    82        557
    83        211
    84         11
    85         20
    86          3
    87         18
    88        569
    89         20
    91         11
    93          5
    94          3
    95        127
    96        305
    97        121
    98          4
    99         85
   100         16
   101         49
   102          5
   103          4
   107          7
   109          9
   110          4
   111          9
   113         23
   115          3
   119          3
   123         26
   124        200
   125        151
   126          9
   127         12
   128         19
   130          2
   141         15
   147          4
   148         11
   166          3
   170         38
   171         14