##TITLE=Library Entry 63292
##JCAMP-DX=Revision 4.10 
##DATA TYPE=MASS SPECTRUM
##SAMPLE DESCRIPTION=Japan AIST/NIMC Database- Spectrum MS-IW-3090
##NAMES=HP
##CAS NAME=2-Benzylidenecyclohexanol
##MOLFORM=C13H16O
##CAS REGISTRY NO=34492-42-7
##MP= -300
##BP= -300
##MW= 188
##$RETENTION INDEX=0
##$CONDENSED SPECTRUM=NO
##NPOINTS= 144
##XYDATA=(XY..XY) 1 
    15          3
    17          2
    18          9
    26          3
    27         57
    28          8
    29         35
    30          1
    31         12
    37          1
    38          8
    39        120
    40         15
    41        116
    42         15
    43         71
    44          8
    45          4
    50         30
    51        102
    52         27
    53         48
    54         15
    55         96
    56         14
    57         28
    58          9
    59          1
    60          4
    61          2
    62         18
    63         73
    64         30
    65        101
    66         28
    67         85
    68         18
    69         52
    70         22
    71         30
    72         15
    73          6
    74         15
    75         23
    76         40
    77        179
    78        127
    79        211
    80         23
    81         73
    82         71
    83         50
    84         60
    85         25
    86          7
    87         10
    88          7
    89         56
    90         14
    91        999
    92        291
    93         31
    94          5
    95         14
    96         10
    97        605
    98         45
    99          5
   100          2
   101          9
   102         45
   103         97
   104        143
   105        109
   106         12
   107         18
   108          2
   109         10
   110         93
   111         16
   112          2
   113          8
   114          9
   115        338
   116        114
   117        291
   118         64
   119         15
   120         43
   121          8
   122          1
   125          1
   126          9
   127         83
   128        188
   129        283
   130         54
   131        291
   132         38
   133         25
   134          7
   135          1
   138          1
   139         15
   140          6
   141        217
   142        161
   143         51
   144         63
   145        228
   146        100
   147         26
   148          2
   149          2
   150          1
   151          6
   152         29
   153         41
   154         38
   155        131
   156         17
   157         15
   158          7
   159        302
   160         48
   161          5
   163          2
   164          3
   165         22
   166          6
   167         14
   168          6
   169         63
   170        357
   171         57
   172         16
   173          9
   174          1
   185         10
   186          9
   187         45
   188        745
   189        106
   190          9