##TITLE=Library Entry 107300
##JCAMP-DX=Revision 4.10 
##DATA TYPE=MASS SPECTRUM
##SAMPLE DESCRIPTION=NIST Mass Spectrometry Data Center, 1990.
##NAMES=HP
##CAS NAME=p-Fluorobenzophenone
##MOLFORM=C13H9FO
##CAS REGISTRY NO=345-83-5
##MP= -300
##BP= -300
##MW= 200
##$RETENTION INDEX=0
##$CONDENSED SPECTRUM=NO
##NPOINTS= 78
##XYDATA=(XY..XY) 1 
    18          1
    26          4
    27         20
    31          4
    37          6
    38         10
    39         23
    45          5
    49         12
    50        134
    51        275
    52         16
    53          3
    57         12
    61          6
    62         14
    63         19
    67          2
    68         17
    69         28
    70          5
    71          2
    72          3
    73         13
    74         74
    75        236
    76         75
    77        510
    78         32
    81          5
    83          4
    84          4
    85         32
    86         48
    87          4
    92          6
    93         10
    94         52
    95        536
    96         37
    98          8
    99          9
   100          3
   105        796
   106         69
   107          6
   109          2
   110          3
   111          3
   119          2
   120          6
   123        999
   124         79
   125         10
   126          2
   131          3
   133          3
   144          8
   145          3
   146          3
   149          4
   150          9
   151         11
   152          7
   157          2
   168          8
   169         17
   170         51
   171         31
   172         18
   180          6
   181          5
   182          3
   183          9
   199        157
   200        854
   201        120
   202          9