##TITLE=Library Entry 86448
##JCAMP-DX=Revision 4.10 
##DATA TYPE=MASS SPECTRUM
##SAMPLE DESCRIPTION=Japan AIST/NIMC Database- Spectrum MS-NW-7760
##NAMES=HP
##CAS NAME=Benzene, 1-(chloromethyl)-2-fluoro-
##MOLFORM=C7H6ClF
##CAS REGISTRY NO=345-35-7
##MP= -300
##BP= -300
##MW= 144
##$RETENTION INDEX=984
##$CONDENSED SPECTRUM=NO
##NPOINTS= 75
##XYDATA=(XY..XY) 1 
    26          3
    27          4
    28          1
    31         11
    32          1
    35          3
    36          4
    37          7
    38         10
    39         29
    40          1
    43          5
    44         18
    45          1
    49          4
    50         22
    51         18
    52          3
    53          2
    54         13
    56          7
    57         50
    58          2
    59         11
    60          1
    61         11
    62         24
    63         37
    64          4
    65          1
    67          1
    68          4
    69          5
    70          5
    71          1
    72          6
    73          6
    74          7
    75          7
    76          2
    77          1
    80          4
    81         26
    82          8
    83        121
    84          6
    85          4
    86          5
    87          5
    88          2
    89         17
    90          2
    91          2
    93          2
    94          2
    95          1
    97          1
    99          1
   104          1
   105          3
   106          1
   107         59
   108         20
   109        999
   110         78
   111          3
   117          5
   119          1
   123          1
   125          1
   143         39
   144        230
   145         29
   146         75
   147          6