##TITLE=Library Entry 56899
##JCAMP-DX=Revision 4.10 
##DATA TYPE=MASS SPECTRUM
##SAMPLE DESCRIPTION=A.A.Kutin, Moscow, Russia
##NAMES=HP
##CAS NAME=Indole-2(3H)-one, 1-diethylaminomethyl-3-(3-tolylimino)-
##MOLFORM=C20H23N3O
##CAS REGISTRY NO=345259-10-1
##MP= -300
##BP= -300
##MW= 321
##$RETENTION INDEX=0
##$CONDENSED SPECTRUM=NO
##NPOINTS= 180
##XYDATA=(XY..XY) 1 
    36          0
    37          1
    38          5
    39         33
    40          8
    41         20
    42         74
    43         12
    44         15
    45          2
    50          8
    51         18
    52          6
    53          3
    54          4
    55          3
    56         40
    57         16
    58        138
    59          6
    60          0
    61          1
    62          7
    63         27
    64         13
    65        127
    66          6
    67          0
    68          0
    69          1
    70          6
    71          4
    72          8
    73          2
    74          2
    75          7
    76         11
    77         14
    78          3
    79          2
    80          0
    81          0
    82          0
    84          2
    86        999
    87         53
    88          4
    89         33
    90         27
    91        150
    92         12
    93          1
    96          1
    98          0
   100          0
   101          0
   102         14
   103         18
   104          4
   105          2
   106          3
   107          1
   109          0
   110          2
   111          1
   112          2
   113          0
   114          1
   115          1
   116          7
   117          8
   118          7
   119          3
   120          4
   121          0
   125          0
   126          0
   127          0
   128          0
   129         12
   130         11
   131          4
   132          2
   133          0
   138          0
   139          1
   140          1
   141          0
   142          0
   143          0
   144          3
   145          6
   146          2
   147          1
   148          0
   149          0
   150          0
   151          1
   152          2
   153          2
   154          1
   155          0
   157          0
   159          0
   163          0
   164          2
   165          7
   166          3
   167          1
   168          0
   171          0
   174          0
   175          0
   176          0
   177          2
   178          3
   179          2
   180          4
   181          6
   182          4
   183          1
   184          3
   185          1
   186          1
   189          0
   190          2
   191          2
   192         14
   193          7
   194          3
   195          1
   202          0
   203          0
   204          4
   205          7
   206          8
   207         19
   208         59
   209         11
   210          6
   211          0
   212          5
   213          0
   214          1
   215          0
   217          0
   219          4
   220          4
   221         42
   222         35
   223          5
   224          0
   225          0
   232          0
   233          0
   234          2
   235        111
   236         49
   237         10
   238          1
   239          2
   241          0
   248          0
   249         32
   250        217
   251         39
   252          4
   262          0
   263          0
   266          2
   268          0
   269          2
   270          0
   271          2
   273          0
   274          0
   292          0
   321         13
   322          3
   323          0