##TITLE=Library Entry 23559
##JCAMP-DX=Revision 4.10 
##DATA TYPE=MASS SPECTRUM
##SAMPLE DESCRIPTION=Japan AIST/NIMC Database- Spectrum MS-NW-5394
##NAMES=HP
##CAS NAME=1-Hexanol, 3,5,5-trimethyl-
##MOLFORM=C9H20O
##CAS REGISTRY NO=3452-97-9
##MP= -300
##BP= -300
##MW= 144
##$RETENTION INDEX=1049
##$CONDENSED SPECTRUM=NO
##NPOINTS= 64
##XYDATA=(XY..XY) 1 
    15          6
    17          2
    18          7
    26          3
    27         65
    28         14
    29        141
    30          4
    31         62
    32          2
    38          2
    39         64
    40         12
    41        316
    42         51
    43        180
    44          7
    45         15
    46          1
    50          2
    51          5
    52          2
    53         16
    54          4
    55        204
    56        298
    57        999
    58         48
    59          6
    60          1
    65          3
    66          1
    67         10
    68          9
    69        288
    70         90
    71         72
    72          4
    73          3
    77          2
    79          2
    81          3
    82          2
    83         67
    84         10
    85         29
    86         15
    87         73
    88          5
    89          1
    95          2
    96          1
    97          4
    98         10
    99          3
   100          2
   101          2
   109          3
   111         60
   112          7
   113          1
   126          2
   129         40
   130          4