##TITLE=Library Entry 66886
##JCAMP-DX=Revision 4.10 
##DATA TYPE=MASS SPECTRUM
##SAMPLE DESCRIPTION=A.A.Kutin, Moscow, Russia
##NAMES=HP
##CAS NAME=Phosphonic acid, (2-chloro-2-phenylethenyl)-bis(phenylamido)-
##MOLFORM=C20H18ClN2OP
##CAS REGISTRY NO=345256-68-0
##MP= -300
##BP= -300
##MW= 368
##$RETENTION INDEX=0
##$CONDENSED SPECTRUM=NO
##NPOINTS= 198
##XYDATA=(XY..XY) 1 
    36         28
    38         33
    39        133
    40         28
    41         29
    42          6
    43         14
    44         47
    45          1
    46         15
    47         54
    48          0
    50         34
    51         73
    52         35
    53         12
    54          8
    55         14
    56          5
    57         12
    58          0
    59          0
    61          4
    63         86
    65        528
    66         77
    67         12
    69         13
    70          5
    71          4
    72          1
    74         24
    75         38
    76         67
    77        142
    78         14
    80         14
    81          5
    82          5
    83         14
    84          4
    85          5
    86          3
    87          6
    89         45
    90         45
    91        136
    92        495
    93        999
    94        116
    95         13
    96          2
    97          3
    98          5
    99          4
   101         45
   102        144
   103         38
   104         14
   105         25
   106          7
   107          7
   108          7
   109         13
   110          9
   111          3
   112          2
   113          3
   114          4
   115         16
   116         21
   117          9
   118          5
   119         13
   120         19
   122         89
   124          2
   125         10
   126          6
   127         13
   128          7
   129          4
   131          4
   132          3
   133          5
   135         18
   136         14
   138        221
   139         55
   140         23
   141          5
   143          2
   144          2
   145          8
   147         10
   148          1
   149          7
   150          6
   151          9
   152         18
   153         11
   154          4
   155         22
   156         15
   157         17
   158          5
   162         12
   163         15
   165        100
   166         39
   167         36
   168         10
   169         14
   170          6
   171         11
   173        117
   175         48
   176          6
   177          7
   178          8
   179          8
   180         14
   181         22
   182         31
   183        136
   185         55
   186          2
   190          8
   191         24
   192         63
   193        338
   194        125
   195         21
   199          1
   200          0
   201          0
   207          2
   208          0
   209          7
   210         14
   211         16
   212         28
   213         31
   214          9
   215          9
   217          0
   220          2
   222         54
   223          9
   224          1
   225          3
   226          2
   227          5
   229         53
   230         20
   231         17
   232          1
   236          1
   237          7
   238         42
   239         84
   240        492
   241         79
   243         36
   244          4
   254          2
   255          3
   256          3
   266          0
   268          3
   269          2
   270          1
   272          1
   273          0
   274         19
   275        102
   276         39
   277         38
   278         12
   284          5
   285          5
   309          0
   315          0
   318          0
   331         11
   332         71
   333         80
   334         13
   335          1
   348          4
   349          1
   364          1
   365          4
   368        560
   369        124
   370        176
   371         36
   372          2