##TITLE=Library Entry 69996
##JCAMP-DX=Revision 4.10 
##DATA TYPE=MASS SPECTRUM
##SAMPLE DESCRIPTION=Japan AIST/NIMC Database- Spectrum MS-NW-9159
##NAMES=HP
##CAS NAME=1-Eicosene
##MOLFORM=C20H40
##CAS REGISTRY NO=3452-07-1
##MP= -300
##BP= -300
##MW= 280
##$RETENTION INDEX=1994
##$CONDENSED SPECTRUM=NO
##NPOINTS= 118
##XYDATA=(XY..XY) 1 
    15          2
    26          1
    27         27
    28          8
    29        111
    30          2
    39         33
    40          7
    41        359
    42         77
    43        579
    44         18
    51          1
    52          1
    53         19
    54         69
    55        570
    56        503
    57        898
    58         38
    59          1
    65          4
    66         13
    67        109
    68        117
    69        576
    70        545
    71        511
    72         28
    73          1
    77          3
    79          8
    80          7
    81         92
    82        288
    83        879
    84        340
    85        328
    86         20
    91          1
    93          2
    94          3
    95         48
    96        209
    97        999
    98        281
    99        126
   100          9
   108          1
   109         24
   110        110
   111        598
   112        186
   113         71
   114          6
   122          2
   123         15
   124         74
   125        329
   126        152
   127         54
   128          5
   136          1
   137         10
   138         59
   139        197
   140         96
   141         33
   142          3
   151          3
   152         41
   153        117
   154         94
   155         29
   156          3
   165          1
   166         34
   167         93
   168         60
   169         17
   170          2
   179          1
   180         24
   181         55
   182         60
   183         16
   184          1
   194         22
   195         51
   196         37
   197          9
   198          1
   208         13
   209         28
   210         42
   211         10
   212          1
   222         10
   223         29
   224         21
   225          6
   236          5
   237         13
   238         25
   239          7
   240          1
   250          5
   251         16
   252         52
   253         10
   254          1
   265          1
   278          2
   279          2
   280        230
   281         54
   282         10
   283          1