##TITLE=Library Entry 31614
##JCAMP-DX=Revision 4.10 
##DATA TYPE=MASS SPECTRUM
##SAMPLE DESCRIPTION=Chemical Concepts
##NAMES=HP
##CAS NAME=2-(3,4-Dichlorophenyl)-5-(3,5-dichlorosalicylideneamino)benzoxazo
le
##MOLFORM=C20H10Cl4N2O2
##CAS REGISTRY NO=345257-80-9
##MP= -300
##BP= -300
##MW= 450
##$RETENTION INDEX=0
##$CONDENSED SPECTRUM=NO
##NPOINTS= 167
##XYDATA=(XY..XY) 1 
    35         67
    36        190
    37         22
    38        165
    39        130
    40         22
    41         69
    42         27
    43         82
    44        164
    45         18
    47         11
    49         33
    50        187
    51        268
    52        162
    53        163
    54         25
    55         58
    56         23
    57         42
    58          9
    59          9
    61        112
    62        341
    63        999
    64        231
    65         63
    66         16
    67         14
    68         13
    69         35
    70         19
    71         26
    72         32
    73        124
    74        203
    75        385
    76        113
    77         68
    78         69
    79        107
    80         77
    81         26
    82         13
    83         33
    84         59
    85         78
    86         51
    87         74
    88         61
    89         58
    91        900
    92        111
    93         24
    94         31
    95         17
    96         22
    97         87
    98         46
    99         99
   100         91
   101         31
   102         22
   103         19
   104         14
   105         13
   106         19
   107         28
   109        215
   110        110
   111        166
   112         57
   113         47
   114         13
   115         10
   116         26
   118         41
   119          9
   121          9
   122          9
   123         23
   124         27
   125         38
   126         58
   127         26
   128         11
   131         17
   132         16
   133         22
   134         11
   135         24
   136         36
   137         20
   138         27
   139         61
   140         18
   141         16
   144         13
   145         67
   146         50
   147         39
   148         31
   149         23
   150         15
   151         23
   152         46
   153         37
   154          9
   157          9
   158         11
   159         18
   160         18
   161         20
   162         30
   163         20
   164         24
   170         11
   171         54
   172         23
   173         52
   174         29
   175         24
   176         31
   177         12
   180         11
   186         12
   187         32
   188         67
   189         36
   190         37
   191         13
   192          9
   193         17
   194         15
   195         10
   198         19
   199         11
   200         12
   207         23
   208         15
   209         15
   216         17
   224         14
   225         33
   226         33
   227         39
   228          9
   234         15
   235          9
   250         15
   251         12
   252          9
   262         32
   263         37
   264         24
   265         19
   278          9
   289         16
   291          9
   449         30
   450         75
   451         42
   452        107
   454         75
   455         10
   456          9