##TITLE=Library Entry 13193
##JCAMP-DX=Revision 4.10 
##DATA TYPE=MASS SPECTRUM
##SAMPLE DESCRIPTION=A.Pleshkova, Nesmeyanov Inst.Org.Elem.Cpds, Moscow
##NAMES=HP
##CAS NAME=N-(1-Carboxy-1-carbomethoxyethoxy)-2,2-bis(trifluoromethyl)azirid
ine
##MOLFORM=C9H9F6NO5
##CAS REGISTRY NO=345290-70-2
##MP= -300
##BP= -300
##MW= 325
##$RETENTION INDEX=0
##$CONDENSED SPECTRUM=NO
##NPOINTS= 35
##XYDATA=(XY..XY) 1 
    33         74
    34          4
    42         17
    43        999
    44         68
    45         33
    55         63
    59        157
    60         21
    69         96
    70          5
    75         84
    76          6
    99         20
   102         52
   103        252
   104         12
   109         64
   110          5
   113         72
   114          6
   128        271
   129         11
   131         26
   132         10
   158         54
   159         41
   160          4
   178        552
   179         70
   180          8
   266         74
   267          1
   280         41
   281          1