##TITLE=Library Entry 81785
##JCAMP-DX=Revision 4.10 
##DATA TYPE=MASS SPECTRUM
##SAMPLE DESCRIPTION=A.A.Kutin, Moscow, Russia
##NAMES=HP
##CAS NAME=Methyl 4-(5-benzoyl-2-thienyl)butyrate
##MOLFORM=C16H16O3S
##CAS REGISTRY NO=345258-50-6
##MP= -300
##BP= -300
##MW= 288
##$RETENTION INDEX=0
##$CONDENSED SPECTRUM=NO
##NPOINTS= 152
##XYDATA=(XY..XY) 1 
    33          5
    34          3
    38         26
    39         83
    40         40
    41         32
    42         34
    43         69
    44         44
    45        100
    46          3
    47          3
    48          0
    50         82
    51        186
    52         26
    53         22
    54          7
    55         38
    56          5
    57         13
    58         17
    59         40
    60          3
    61          4
    62         10
    63         21
    64         12
    65         55
    66         18
    67          4
    68          7
    69         44
    70         56
    71         24
    72          3
    74         57
    75         31
    77        698
    78         53
    79         30
    80          3
    81          5
    82          9
    83          7
    84          7
    85          7
    86          4
    87          4
    88          1
    89          8
    90          4
    91         17
    92          2
    93          5
    95         54
    96         99
    97         26
    98          6
    99          2
   100         11
   101          6
   102          4
   105        999
   106         62
   107          6
   108         11
   109         28
   110          9
   111          9
   112          1
   113          2
   114          6
   115         13
   116          0
   121         14
   122         10
   123         33
   124         19
   125          5
   126          3
   127          9
   128         19
   129         16
   130          1
   133          0
   134          4
   137        487
   138         37
   139         26
   140          4
   141          3
   145          0
   147          0
   149          0
   150          5
   151         26
   152          7
   153          6
   154          0
   158          0
   165          1
   167          0
   168          0
   169          0
   171         21
   172         32
   173        121
   174         15
   175          4
   179          3
   181         12
   182          1
   183          2
   184          5
   185         13
   186         15
   187          9
   188          1
   195          0
   196          0
   197          5
   198          1
   199          6
   200         21
   201         83
   202         17
   203          3
   209          0
   211         19
   213         64
   214        350
   215        700
   216        111
   217         36
   218          3
   227          3
   228         15
   229         11
   230          2
   231          0
   256          5
   257         35
   258          5
   259          0
   273          0
   274          9
   275          0
   288        386
   289         61
   290         17
   291          1