##TITLE=Library Entry 48954
##JCAMP-DX=Revision 4.10 
##DATA TYPE=MASS SPECTRUM
##SAMPLE DESCRIPTION=D.HENNEBERG, MAX-PLANCK INSTITUTE, MULHEIM, WEST GERMAN
Y
##NAMES=HP
##CAS NAME=Cyclohexane, 1,2-diethenyl-4-(1-methylethylidene)-, cis-
##MOLFORM=C13H20
##CAS REGISTRY NO=34528-95-5
##MP= -300
##BP= -300
##MW= 176
##$RETENTION INDEX=0
##$CONDENSED SPECTRUM=NO
##NPOINTS= 154
##XYDATA=(XY..XY) 1 
    23          0
    24          1
    25          0
    26         12
    27        249
    28         69
    29        163
    30          3
    31          0
    32          2
    33          1
    34          0
    35          0
    36          1
    37          5
    38         10
    39        358
    40         91
    41        763
    42         61
    43        253
    44          4
    45          2
    46          1
    47          0
    48          1
    49          1
    50         23
    51         98
    52         56
    53        292
    54         86
    55        498
    56         43
    57         41
    58         18
    59         14
    60          8
    61          1
    62          9
    63         36
    64         23
    65        163
    66        100
    67        629
    68        127
    69        146
    70         19
    71         18
    72         10
    73          9
    74         13
    75         21
    76         12
    77        394
    78        203
    79        999
    80        328
    81        265
    82         94
    83        211
    84         22
    85         10
    86          3
    87          3
    88          2
    89         17
    90         10
    91        795
    92        237
    93        540
    94        148
    95        229
    96         44
    97          8
    98          1
    99          0
   100          0
   101          7
   102          9
   103         37
   104         26
   105        561
   106        191
   107        678
   108        188
   109        101
   110         10
   111          1
   112          0
   113          1
   114          2
   115         42
   116         17
   117         57
   118         19
   119        265
   120        183
   121        314
   122        379
   123         39
   124          3
   125          1
   126          1
   127          8
   128         24
   129         30
   130         14
   131         47
   132         17
   133        457
   134        101
   135         77
   136          7
   137          0
   139         12
   140          0
   141          8
   142          8
   143          5
   144          3
   145         17
   146          7
   147        141
   148         84
   149         10
   150          1
   151          1
   152          3
   153          3
   154          1
   155          9
   156          2
   157         19
   158          3
   159         40
   160          8
   161        254
   162         36
   163          1
   165          0
   166          0
   167          0
   168          2
   169          0
   170          6
   171          1
   172         12
   173          2
   174         19
   175          7
   176        372
   177         56
   178          3