##TITLE=Library Entry 47901
##JCAMP-DX=Revision 4.10 
##DATA TYPE=MASS SPECTRUM
##SAMPLE DESCRIPTION=A.A.Kutin, Moscow, Russia
##NAMES=HP
##CAS NAME=Acetohydrazide, 2-methoxyphenoxy-N2-(2-thienylmethylene)-
##MOLFORM=C14H14N2O3S
##CAS REGISTRY NO=345259-30-5
##MP= -300
##BP= -300
##MW= 290
##$RETENTION INDEX=0
##$CONDENSED SPECTRUM=NO
##NPOINTS= 129
##XYDATA=(XY..XY) 1 
    33          1
    37         20
    38         65
    39        303
    41        111
    42         98
    43         39
    44         31
    45        248
    46         12
    47         17
    50        134
    51        244
    52        304
    53        155
    54         78
    55         89
    56          6
    57         63
    58         61
    59         22
    60          3
    61         15
    62         39
    63        232
    64        181
    65        201
    66         67
    67         73
    69        143
    70        263
    71        108
    72         21
    73          8
    74         26
    75         19
    76         71
    77        999
    78        103
    79        107
    80        101
    81        240
    82         52
    83         68
    84         29
    85         42
    91         44
    92        505
    93         92
    94         58
    95        443
    96        378
    97        141
    98        322
    99         30
   100         16
   102          2
   103          4
   105         88
   106         34
   107         87
   108        100
   109        520
   110        326
   111        108
   112         57
   113          8
   115         19
   116          3
   117          1
   118         15
   119         16
   120         25
   121        202
   122        921
   123        799
   124        708
   125        201
   126         58
   127         15
   129          7
   130         16
   131          1
   132         20
   133         10
   134         16
   135         29
   136         18
   137        391
   138         74
   139        406
   140         38
   141         16
   145         15
   147          6
   148         10
   149         59
   150        761
   151         79
   152         24
   153         53
   154          1
   158          1
   159          8
   164          1
   165          2
   166         12
   167        646
   168         58
   169         36
   171          5
   175          1
   177          1
   180          3
   181        224
   182         28
   183          6
   189          2
   201          1
   217          9
   218          3
   232         13
   259         11
   260          1
   283          1
   290        957
   291        171
   292         59
   293          2