##TITLE=Library Entry 27415
##JCAMP-DX=Revision 4.10 
##DATA TYPE=MASS SPECTRUM
##SAMPLE DESCRIPTION=A.A.Kutin, Moscow, Russia
##NAMES=HP
##CAS NAME=Benzimidazole-1-carboxamide, 5,6-dimethyl-N-(2,2-dichloroethenyl)
-N-(1-methylpropyl)-
##MOLFORM=C16H19Cl2N3O
##CAS REGISTRY NO=345259-31-6
##MP= -300
##BP= -300
##MW= 339
##$RETENTION INDEX=0
##$CONDENSED SPECTRUM=NO
##NPOINTS= 225
##XYDATA=(XY..XY) 1 
    35          2
    36         10
    38          1
    39        185
    40         35
    41        683
    42         61
    43         43
    44         19
    45          2
    48          4
    49          4
    50         18
    51         48
    52         37
    53         43
    54         17
    55         98
    57        999
    58         35
    59          1
    60         16
    61          5
    62         10
    63         39
    64         17
    65        101
    66         20
    67          8
    68          8
    69         23
    70         30
    71         24
    72          3
    73          7
    74         23
    75         23
    76         43
    77         67
    78         37
    79         17
    80          5
    81          8
    82         15
    83         23
    84         21
    85          4
    86          5
    87          7
    88         12
    89         71
    90         83
    91        298
    92         37
    93          8
    95         30
    96          3
    97         26
    98          2
    99          4
   101          8
   102         68
   103         52
   104         46
   105         22
   106          8
   107          2
   109          7
   110          8
   111         22
   112         15
   113         16
   114          8
   115         23
   116        282
   117        126
   118        285
   119         35
   120         11
   121          5
   122         45
   124         43
   125          6
   126          7
   128         10
   129         21
   130         27
   131        457
   132         53
   133          7
   134          0
   135          2
   136         24
   137         38
   138         95
   139         35
   140         62
   141         12
   142         16
   143         25
   144         48
   145        417
   146        625
   147         79
   148          5
   150         11
   152         12
   153          0
   154          4
   155         10
   156          7
   157         31
   158         17
   159         13
   160          1
   164          1
   165          3
   166         10
   167         50
   168         13
   169         35
   170         14
   171         53
   173        324
   174         41
   175          3
   177          0
   178          2
   180          6
   181          2
   182          2
   183          3
   184         15
   185         12
   186          3
   187         19
   188          3
   189          5
   191         19
   192          9
   193         17
   194         23
   195         15
   196         32
   197          5
   198          6
   199          1
   200          9
   201          1
   202         10
   203          3
   204          7
   205         52
   206          5
   207         16
   208          2
   210          1
   211          1
   212         20
   213         28
   214         14
   215          3
   218         18
   219          5
   220          7
   221          9
   223          1
   224          1
   225          1
   227          0
   229          1
   232          5
   233          5
   234          2
   240         15
   241          7
   242         12
   243          1
   244          2
   246         16
   247        110
   248        769
   249        153
   250        245
   251         38
   252          1
   254          3
   255          1
   256         12
   257          1
   258          7
   260          6
   268         19
   269         19
   270          9
   271          3
   274         10
   275          3
   276          1
   282         10
   283         13
   284          6
   285          4
   286          3
   287          2
   288          0
   301          2
   302         11
   303         37
   304        304
   305         63
   306         99
   307         12
   308          1
   310          2
   312          1
   315          1
   316          6
   338          3
   339        138
   340         25
   341         88
   342         12
   343         15
   344          1