##TITLE=Library Entry 9492
##JCAMP-DX=Revision 4.10 
##DATA TYPE=MASS SPECTRUM
##SAMPLE DESCRIPTION=Japan AIST/NIMC Database- Spectrum MS-NW-3015
##NAMES=HP
##CAS NAME=1-Nonyne
##MOLFORM=C9H16
##CAS REGISTRY NO=3452-09-3
##MP= -300
##BP= -300
##MW= 124
##$RETENTION INDEX=884
##$CONDENSED SPECTRUM=NO
##NPOINTS= 73
##XYDATA=(XY..XY) 1 
    14          1
    15          8
    25          1
    26         16
    27        270
    28         23
    29        295
    30          6
    37          6
    38         21
    39        286
    40         72
    41        753
    42        191
    43        999
    44         34
    45          2
    49          1
    50         22
    51         46
    52         31
    53        177
    54        324
    55        596
    56        259
    57        120
    58          5
    59          1
    60          3
    61          2
    62          4
    63         10
    64          2
    65         46
    66         42
    67        789
    68        349
    69        218
    70         54
    71          7
    72          1
    73          2
    74          2
    75          1
    77         36
    78          9
    79        117
    80         41
    81        924
    82        230
    83        100
    84         54
    85         27
    86          2
    89          1
    91         13
    92          2
    93         23
    94          8
    95        467
    96         60
    97          5
    98          2
    99          1
   105          3
   107          3
   109         52
   110          7
   111          1
   120          1
   122          1
   123          8
   124          3