##TITLE=Library Entry 79190
##JCAMP-DX=Revision 4.10 
##DATA TYPE=MASS SPECTRUM
##SAMPLE DESCRIPTION=NIST Mass Spectrometry Data Center, 1994
##NAMES=HP
##CAS NAME=Diethyl Benzoylmethylphosphonate
##MOLFORM=C12H17O4P
##CAS REGISTRY NO=3453-00-7
##MP= -300
##BP= -300
##MW= 256
##$RETENTION INDEX=0
##$CONDENSED SPECTRUM=NO
##NPOINTS= 106
##XYDATA=(XY..XY) 1 
    14          2
    15          9
    16          0
    18          1
    26         10
    27         65
    28         26
    29        114
    30          4
    31         13
    38          2
    39         18
    40          2
    41          6
    42         16
    43         26
    44          2
    45         12
    47         14
    48          3
    49          4
    50         28
    51        111
    52         11
    53          1
    61          3
    62          5
    63         13
    64          1
    65         56
    66          2
    69          3
    74          7
    75          9
    77        362
    78         66
    79         18
    80          2
    81         55
    82          2
    89         13
    91         71
    92          8
    93          4
    94          4
    95          6
    96          9
    97         13
    99          3
   102         16
   103         47
   105        999
   106         80
   107         10
   109         24
   110          1
   115          0
   117          1
   118          7
   120        140
   121         17
   123         68
   124         25
   125         10
   126          1
   127          1
   128          2
   129          2
   130          2
   131         10
   132         20
   133          6
   134          1
   137          3
   141         14
   142          1
   146        113
   147         32
   148          3
   149          1
   150          1
   151         30
   152          1
   153          1
   165          2
   169          1
   172          5
   179          5
   181          1
   183         21
   184          2
   199          3
   200          9
   201         19
   202          1
   209          2
   210          4
   211         24
   212          4
   213          0
   227         14
   228          9
   229         15
   238          4
   256         38
   257          7