##TITLE=Library Entry 57124
##JCAMP-DX=Revision 4.10 
##DATA TYPE=MASS SPECTRUM
##SAMPLE DESCRIPTION=TNO Volatile Compounds in Food - Chemical Concepts
##NAMES=HP
##CAS NAME=2,2-Dimethoxybutane
##MOLFORM=C6H14O2
##CAS REGISTRY NO=3453-99-4
##MP= -300
##BP= -300
##MW= 118
##$RETENTION INDEX=749
##$CONDENSED SPECTRUM=NO
##NPOINTS= 56
##XYDATA=(XY..XY) 1 
    24          2
    25         40
    27        251
    29        560
    30         49
    31        188
    33         16
    34          4
    36          4
    38          8
    39        131
    40        270
    41        242
    42         91
    43        950
    44         63
    45        351
    46          2
    47        119
    49          6
    50          4
    51          8
    52         16
    53         44
    54         20
    55        817
    56         80
    57        180
    58         15
    59         81
    60          7
    62          4
    63          7
    65         11
    71         68
    72         11
    73          3
    74          5
    75          4
    76          3
    81          2
    82          1
    83          1
    84          1
    85         35
    86         74
    87        999
    88         40
    89        822
    90         34
    91         62
    92         46
    93          2
   103         93
   104          8
   105          2