##TITLE=Library Entry 98313
##JCAMP-DX=Revision 4.10 
##DATA TYPE=MASS SPECTRUM
##SAMPLE DESCRIPTION=Japan AIST/NIMC Database- Spectrum MS-NW-6332
##NAMES=HP
##CAS NAME=2,4,6-Trimethylbenzenesulfonic acid
##MOLFORM=C9H12O3S
##CAS REGISTRY NO=3453-83-6
##MP= -300
##BP= -300
##MW= 200
##$RETENTION INDEX=0
##$CONDENSED SPECTRUM=NO
##NPOINTS= 133
##XYDATA=(XY..XY) 1 
    12          2
    14          2
    15         16
    16          9
    17          1
    18          3
    26         11
    27         98
    28          7
    29         18
    31          4
    32         12
    37          9
    38         34
    39        263
    40         36
    41        125
    42          8
    43         20
    44          3
    45         15
    46          2
    47          2
    48         74
    49          5
    50         75
    51        220
    52         77
    53         96
    54          9
    55          9
    56          1
    57         10
    58          9
    59          5
    60          1
    61         13
    62         39
    63        122
    64         38
    65        173
    66         26
    67         17
    68          2
    69          9
    70          3
    71          3
    72          1
    73          7
    74         34
    75         41
    76         32
    77        299
    78        145
    79        122
    80         12
    81          9
    82         16
    83          3
    84          2
    85          4
    86          9
    87         13
    88          5
    89         54
    90         23
    91        514
    92         77
    93         29
    94          4
    95          3
    96          2
    97          5
    98          8
    99          4
   100          1
   101          7
   102         47
   103        388
   104         94
   105        359
   106         61
   107         25
   108          4
   109          4
   110          2
   111          3
   112          1
   113          3
   114          4
   115        201
   116         58
   117        756
   118        999
   119        338
   120        244
   121         50
   122          7
   123          3
   125          2
   128          1
   132          3
   133          9
   134        299
   135        116
   136         28
   137          7
   138          2
   139          3
   141          1
   147          2
   149          5
   150          5
   151          4
   152          9
   153          3
   154          2
   164         37
   165         27
   166          5
   167          3
   168          1
   169          1
   182          9
   183          3
   184          3
   185          5
   198         10
   199          3
   200        473
   201         58
   202         33
   203          3