##TITLE=Library Entry 97545
##JCAMP-DX=Revision 4.10 
##DATA TYPE=MASS SPECTRUM
##SAMPLE DESCRIPTION=NIST Mass Spectrometry Data Center, 1998.
##NAMES=HP
##CAS NAME=Benzene, 1-ethenyl-4-ethyl-
##MOLFORM=C10H12
##CAS REGISTRY NO=3454-07-7
##MP= -300
##BP= -300
##MW= 132
##$RETENTION INDEX=1073
##$CONDENSED SPECTRUM=NO
##NPOINTS= 62
##XYDATA=(XY..XY) 1 
    15          2
    26          3
    27         18
    29          2
    37          2
    38          7
    39         50
    40          4
    41          7
    49          1
    50         31
    51         72
    52         18
    53         16
    54          2
    57         18
    61          4
    62         16
    63         51
    64         22
    65         51
    66         10
    73          2
    74         17
    75         17
    76         16
    77         77
    78         29
    79         14
    80          1
    85          2
    86          5
    87          6
    88          2
    89         31
    90          6
    91        141
    92         11
    98          4
    99          1
   101          6
   102         36
   103         39
   104         20
   105         30
   106          3
   113          2
   114          3
   115        250
   116         72
   117        999
   118         99
   119          5
   126          4
   127         15
   128         31
   129         18
   130          7
   131         36
   132        411
   133         45
   134          2