##TITLE=Library Entry 25425
##JCAMP-DX=Revision 4.10 
##DATA TYPE=MASS SPECTRUM
##SAMPLE DESCRIPTION=Chemical Concepts
##NAMES=HP
##CAS NAME=Docosane, 1,22-dibromo-
##MOLFORM=C22H44Br2
##CAS REGISTRY NO=34540-49-3
##MP= -300
##BP= -300
##MW= 466
##$RETENTION INDEX=0
##$CONDENSED SPECTRUM=NO
##NPOINTS= 287
##XYDATA=(XY..XY) 1 
    24          0
    26          1
    27         52
    29        114
    30          2
    31          0
    34          0
    35          0
    36          0
    37          0
    38          0
    39         31
    41        423
    42         74
    43        612
    44         12
    45          2
    46          0
    47          0
    48          0
    49          0
    50          0
    51          1
    52          0
    53         18
    54         32
    55        629
    56        115
    57        999
    58         40
    59          0
    60          0
    61          0
    62          0
    63          0
    64          0
    65          2
    66          3
    67         50
    68         32
    69        426
    70         80
    71        649
    72         30
    73          0
    74          0
    75          0
    76          0
    77          2
    78          0
    79          5
    80          6
    81         31
    82         31
    83        275
    84         36
    85        410
    86         26
    87          0
    89          0
    91          1
    92          0
    93          1
    94          0
    95         17
    96         17
    97        186
    98         24
    99        167
   100         11
   101          0
   102          0
   103          0
   104          0
   105          0
   106          0
   107         11
   108          0
   109         10
   110          5
   111         89
   112         12
   113        108
   114          8
   115          0
   117          0
   118          0
   119          0
   120          0
   121          9
   122          0
   123          8
   124          3
   125         32
   126          5
   127         77
   128          7
   129          0
   130          0
   131          0
   132          0
   133          0
   134          1
   135        115
   136          7
   137        112
   138          6
   139         12
   140          3
   141         50
   142          5
   143          0
   147          0
   148         11
   149         44
   150         14
   151         41
   152          2
   153          6
   154          2
   155         32
   156          4
   157          0
   161          1
   162          6
   163         30
   164          7
   165         27
   166          2
   167          3
   168          1
   169         25
   170          4
   171          0
   174          0
   175          1
   176          1
   177         27
   178          3
   179         26
   180          2
   181          2
   182          1
   183         19
   184          2
   185          0
   187          0
   188          0
   189          1
   190          1
   191         23
   192          3
   193         20
   194          2
   195          0
   196          0
   197         12
   198          2
   199          0
   200          0
   201          0
   202          0
   203          1
   204          0
   205         19
   206          2
   207         19
   208          2
   209          0
   210          0
   211          8
   212          1
   213          0
   215          0
   216          0
   217          1
   218          0
   219         18
   220          2
   221         16
   222          2
   223          0
   224          0
   225          5
   226          0
   227          0
   228          0
   229          0
   230          0
   231          0
   232          0
   233         14
   234          2
   235         12
   236          1
   237          0
   238          0
   239          2
   240          0
   244          0
   245          0
   246          0
   247         12
   248          2
   249         11
   250          1
   251          0
   252          0
   253          0
   254          0
   255          0
   256          0
   258          0
   259          0
   260          0
   261         10
   262          1
   263          9
   264          1
   265          0
   266          0
   267          0
   272          0
   273          0
   274          0
   275         10
   276          2
   277          8
   278          2
   279          0
   281          0
   286          0
   287          0
   288          0
   289          8
   290          1
   291          8
   292          1
   293          0
   301          0
   302          0
   303          7
   304          1
   305          7
   306          1
   307          0
   308          0
   309          0
   310          0
   315          0
   316          0
   317          6
   318          1
   319          6
   320          1
   321          0
   330          0
   331          3
   332          1
   333          4
   334          0
   343          0
   344          0
   345          2
   346          0
   347          2
   348          0
   358          0
   359          0
   360          0
   361          0
   365          0
   373          0
   375          0
   386          1
   387         55
   388         15
   389         62
   390         13
   391          2
   392          0
   466          1
   467          0
   468          3
   469          0
   470          1
   471          0