##TITLE=Library Entry 75966
##JCAMP-DX=Revision 4.10 
##DATA TYPE=MASS SPECTRUM
##SAMPLE DESCRIPTION=A. PIHLAJA
##NAMES=HP
##CAS NAME=1,3-Oxathiane, 2,2,4,6-tetramethyl-, cis-
##MOLFORM=C8H16OS
##CAS REGISTRY NO=34560-79-7
##MP= -300
##BP= -300
##MW= 160
##$RETENTION INDEX=0
##$CONDENSED SPECTRUM=NO
##NPOINTS= 46
##XYDATA=(XY..XY) 1 
    40         30
    41         80
    42        100
    43        270
    44         10
    45         20
    53         60
    54         20
    55        140
    56         20
    58        250
    59        190
    60        940
    61        260
    62         50
    67        170
    68        420
    69        660
    70        230
    73         30
    74        160
    75         20
    85         20
    87        140
    88         20
    98         20
    99         30
   100         30
   101         30
   102        999
   103        100
   104         70
   111         20
   115         30
   127         20
   129         20
   131         20
   134         20
   145        430
   146         70
   147         40
   158         50
   159         20
   160        330
   161         50
   162         20