##TITLE=Library Entry 78283
##JCAMP-DX=Revision 4.10 
##DATA TYPE=MASS SPECTRUM
##SAMPLE DESCRIPTION=Chemical Concepts
##NAMES=HP
##CAS NAME=Benzoic acid, 3-(1-ethoxyethoxy)butyl ester
##MOLFORM=C15H22O4
##CAS REGISTRY NO=345624-84-2
##MP= -300
##BP= -300
##MW= 266
##$RETENTION INDEX=0
##$CONDENSED SPECTRUM=NO
##NPOINTS= 77
##XYDATA=(XY..XY) 1 
    26          7
    27         55
    28         13
    29         77
    30          1
    31         55
    38          3
    39         14
    41        101
    43         59
    45        294
    46         13
    47          7
    50         22
    51         93
    52          8
    53          6
    54         13
    55        238
    56         26
    57         20
    59          1
    61          4
    65          3
    69          2
    70          1
    71         22
    72        102
    73        636
    74         30
    75         13
    76         25
    77        434
    78         26
    79         28
    80          1
    83          5
    85          1
    87          1
    89         10
    90          1
    91          5
    94          2
    97          2
    98          5
    99          2
   100         19
   101          2
   103          2
   104          8
   105        999
   106         83
   107          5
   115          3
   117          6
   121          1
   122        129
   123        297
   124         23
   125          1
   129          2
   131          1
   134         13
   135          3
   149         11
   150         26
   151          3
   161          5
   175          1
   176          9
   177        614
   178         80
   179         11
   193         20
   194          2
   221          9
   222          1