##TITLE=Library Entry 66120
##JCAMP-DX=Revision 4.10 
##DATA TYPE=MASS SPECTRUM
##SAMPLE DESCRIPTION=G.S. GROENEWOLD, THE BRISTOL-MYERS CO., SYRACUSE, N.Y.,
 USA
##NAMES=HP
##CAS NAME=3-Methylenecycloheptene
##MOLFORM=C8H12
##CAS REGISTRY NO=34564-56-2
##MP= -300
##BP= -300
##MW= 108
##$RETENTION INDEX=0
##$CONDENSED SPECTRUM=NO
##NPOINTS= 18
##XYDATA=(XY..XY) 1 
    39        210
    41        140
    51         81
    52         47
    53         75
    54         35
    65        100
    66         59
    67         96
    77        460
    78        110
    79        560
    80        240
    91        450
    93        999
   105         30
   107         67
   108        500