##TITLE=Library Entry 84005
##JCAMP-DX=Revision 4.10 
##DATA TYPE=MASS SPECTRUM
##SAMPLE DESCRIPTION=MASS SPECTROMETRY CENTER, UNIV. OF UTAH ALDRICH 11544-4
##NAMES=HP
##CAS NAME=Benzeneacetonitrile, 5-fluoro-2-nitro-
##MOLFORM=C8H5FN2O2
##CAS REGISTRY NO=3456-75-5
##MP= -300
##BP= -300
##MW= 180
##$RETENTION INDEX=0
##$CONDENSED SPECTRUM=NO
##NPOINTS= 110
##XYDATA=(XY..XY) 1 
    12          4
    20         15
    26         29
    27        124
    29         17
    30        187
    31        115
    33         44
    36          2
    37         49
    38         65
    39        106
    40         17
    41          6
    42          0
    43          3
    44          9
    45         26
    46         25
    49         24
    50        135
    51         76
    52         31
    53          4
    54        136
    55         13
    56         53
    57        358
    58         23
    59         28
    60          3
    61         69
    62        107
    63        126
    64         59
    65         15
    67         11
    68         63
    69         44
    70         92
    71         16
    73         20
    74         71
    75        149
    76         62
    77         20
    78          5
    79          1
    80         40
    81        194
    82        204
    83        172
    84         38
    85         30
    86         34
    87         76
    88         65
    89         32
    90         24
    92         25
    93         35
    94         87
    95        238
    96         69
    97        324
    98         39
    99         18
   100         23
   101          0
   102         57
   103         14
   104          4
   105         42
   106        132
   107        999
   108        663
   109        512
   110        173
   111         60
   112         15
   113         28
   114         40
   115         31
   116          0
   120         19
   121         32
   122         90
   123         51
   124         18
   125         44
   126          0
   130          1
   132        136
   133        156
   134        273
   135        254
   136         89
   137         58
   138         26
   149         10
   150         47
   151         10
   152          1
   153        435
   154         35
   162         10
   163        406
   164         54
   180        136
   181         21