##TITLE=Library Entry 17929
##JCAMP-DX=Revision 4.10 
##DATA TYPE=MASS SPECTRUM
##SAMPLE DESCRIPTION=MINISTRY OF TECH. E.R.D.E., WALTHAM ABBEY, UK
##NAMES=HP
##CAS NAME=1,3-Propanediol, dinitrate
##MOLFORM=C3H6N2O6
##CAS REGISTRY NO=3457-90-7
##MP= -300
##BP= -300
##MW= 166
##$RETENTION INDEX=1093
##$CONDENSED SPECTRUM=NO
##NPOINTS= 34
##XYDATA=(XY..XY) 1 
    12          2
    13          3
    14          9
    15         30
    16          6
    24          2
    25          2
    26         10
    27         42
    28         71
    29        129
    30        151
    31         22
    39          5
    40          2
    41         10
    42         22
    43         81
    44         19
    45         20
    46        999
    47          5
    55         10
    56          8
    57         23
    58          7
    59          6
    60          7
    71         14
    73          5
    76        163
    85          4
    90          5
   104          2