##TITLE=Library Entry 25866
##JCAMP-DX=Revision 4.10 
##DATA TYPE=MASS SPECTRUM
##SAMPLE DESCRIPTION=D.HENNEBERG, MAX-PLANCK INSTITUTE, MULHEIM, WEST GERMAN
Y
##NAMES=HP
##CAS NAME=Propanoic acid, 2,2-dimethyl-, anhydride with diethylborinic acid
##MOLFORM=C9H19BO2
##CAS REGISTRY NO=34574-27-1
##MP= -300
##BP= -300
##MW= 170
##$RETENTION INDEX=0
##$CONDENSED SPECTRUM=NO
##NPOINTS= 71
##XYDATA=(XY..XY) 1 
    26          3
    27         15
    28         13
    29         77
    30          2
    31          6
    37          0
    38          1
    39         11
    40         12
    41        125
    42         13
    43         10
    44          1
    45          3
    51          0
    52          0
    53          3
    54          2
    55         11
    56         50
    57        999
    58         45
    59         29
    60          1
    67          0
    68          7
    69         27
    70          7
    71         13
    72          0
    73          0
    74          0
    75          0
    77          0
    78          0
    83          0
    84          7
    85        235
    86         12
    87          4
    88          3
    91          1
    96          0
    97          1
    98          0
    99          1
   101          0
   102          1
   111          0
   112          3
   113         12
   114          1
   115          0
   123          0
   124          3
   125          7
   126          2
   127          6
   128          1
   129          3
   133          0
   140          9
   141         36
   142          3
   143          0
   147          0
   155          0
   159          0
   168          0
   169          0