##TITLE=Library Entry 41111
##JCAMP-DX=Revision 4.10 
##DATA TYPE=MASS SPECTRUM
##SAMPLE DESCRIPTION=RADIAN CORP
##NAMES=HP
##CAS NAME=d-Mannose
##MOLFORM=C6H12O6
##CAS REGISTRY NO=3458-28-4
##MP= -300
##BP= -300
##MW= 180
##$RETENTION INDEX=0
##$CONDENSED SPECTRUM=NO
##NPOINTS= 148
##XYDATA=(XY..XY) 1 
    14          3
    15         16
    16          4
    17         18
    18         72
    19         29
    20          1
    25          4
    26         17
    27         62
    28        161
    29        378
    30         80
    31        354
    32         63
    33          7
    35         12
    36         75
    37          9
    38         32
    39         40
    40         16
    41        110
    42        176
    43        478
    44        282
    45        173
    46         18
    47         38
    48          2
    49         18
    50          8
    51          9
    52          5
    53         19
    54         29
    55        173
    56        150
    57        257
    58         98
    59         40
    60        598
    61        355
    62         19
    63          5
    64          5
    65          6
    66         11
    67         28
    68         36
    69        133
    70         46
    71        262
    72        130
    73        999
    74        117
    75         20
    76         11
    77         38
    78          4
    79         16
    80          6
    81         37
    82         19
    83         51
    84         34
    85        111
    86         80
    87         43
    88         17
    89         38
    90         33
    91         46
    92          8
    93         17
    94         10
    95         23
    96         23
    97         61
    98         41
    99         15
   100         10
   101         58
   102         54
   103        127
   104         12
   105          8
   106          3
   107          8
   108          3
   109         10
   110         10
   111         18
   112         10
   113         24
   114          9
   115         19
   116         14
   117          7
   118          3
   119         35
   120          7
   121         27
   122          5
   123          8
   124          6
   125          7
   126          6
   127         10
   128          4
   129         24
   130          5
   131         63
   132          8
   133         25
   134          4
   135          6
   136          5
   137          7
   138         42
   139          6
   140          3
   141          3
   142          3
   143          5
   144          7
   145          5
   146          1
   147          5
   148          2
   149         92
   150          9
   151          5
   152          4
   153          2
   155          2
   157          5
   158          1
   159          2
   160          3
   161          3
   162          1
   163          3
   164          3
   165          3
   166          2
   179          1
   180          1