##TITLE=Library Entry 16538
##JCAMP-DX=Revision 4.10 
##DATA TYPE=MASS SPECTRUM
##SAMPLE DESCRIPTION=V.A.Korolev, Moscow, Russia
##NAMES=HP
##CAS NAME=3,6-Dichloro-1-benzothiophene-2-carboxamide
##MOLFORM=C9H5Cl2NOS
##CAS REGISTRY NO=34586-85-1
##MP= -300
##BP= -300
##MW= 245
##$RETENTION INDEX=0
##$CONDENSED SPECTRUM=NO
##NPOINTS= 121
##XYDATA=(XY..XY) 1 
    35         86
    36         64
    37        148
    38         92
    39         25
    40          7
    42          7
    43        101
    44        999
    45        125
    47         43
    48         29
    49         96
    50         99
    51         38
    52         11
    56         12
    57         35
    58         11
    59         14
    60         63
    61        154
    62        106
    63         60
    64         16
    65         32
    68         31
    69        169
    70         16
    71         25
    72         51
    73        117
    74         84
    75         66
    76         20
    77         23
    79         20
    80         21
    81         91
    82         67
    83         74
    84         77
    85         86
    86        117
    87        150
    88         20
    89          3
    91         14
    92         26
    93        177
    94         17
    95         16
    96         24
    97         53
    98         26
    99         21
   101         18
   102          9
   103         25
   104          4
   105         56
   106         28
   107         19
   108         15
   109         19
   111         10
   116         10
   117         18
   118          6
   119         13
   120         15
   121         26
   122         31
   123         99
   124         15
   125         26
   127          6
   129         14
   130         26
   131         81
   132         94
   133         13
   134          8
   146         10
   147          7
   148          5
   155         30
   157        143
   158         15
   159         90
   160          7
   161         11
   166        256
   167         97
   168        101
   169         30
   170          5
   182          6
   184          2
   189          9
   191          3
   201        136
   202        138
   203        100
   204         90
   205         21
   206         13
   210          7
   212          2
   229        499
   230         49
   231        343
   232         33
   233         65
   234          6
   245        421
   246         48
   247        295
   248         32
   249         57
   250          6