##TITLE=Library Entry 23994
##JCAMP-DX=Revision 4.10 
##DATA TYPE=MASS SPECTRUM
##SAMPLE DESCRIPTION=Insect Chem. Ecol. Lab., USDA, Beltsville, MD 20705
##NAMES=HP
##CAS NAME=Chloroacetic acid, heptyl ester
##MOLFORM=C9H17ClO2
##CAS REGISTRY NO=34589-22-5
##MP= -300
##BP= -300
##MW= 192
##$RETENTION INDEX=1297
##$CONDENSED SPECTRUM=NO
##NPOINTS= 132
##XYDATA=(XY..XY) 1 
    41        813
    42        434
    43        818
    44         49
    45         83
    46          3
    47          9
    48         21
    49        288
    50         19
    51        106
    52          9
    53         57
    54         52
    55        465
    56        655
    57        999
    58         55
    59         10
    60          4
    61          1
    62          1
    63          7
    64          1
    65         11
    66          4
    67         29
    68         37
    69        324
    70        299
    71        102
    72         10
    73          6
    74          1
    76         47
    77        760
    78         32
    79        252
    80          7
    81         11
    82          5
    83        234
    84         39
    85         84
    86          8
    87          5
    88          0
    89          0
    90          0
    91          2
    92          7
    93          3
    94          5
    95         44
    96          3
    97         36
    98        341
    99        177
   100         12
   101         14
   102          1
   103          0
   104          0
   105          1
   106          2
   107          2
   108          1
   109          3
   110          1
   111          3
   112          0
   113          3
   114          2
   115         16
   116          1
   117          1
   118          0
   119          0
   120         20
   121        474
   122         27
   123        156
   124          7
   125          2
   126          0
   127          0
   128          1
   129          1
   131          1
   132          0
   133          0
   134          0
   135          2
   136          0
   137          2
   138          1
   139          1
   140          0
   141          2
   142          2
   143          2
   144          1
   145          1
   146          0
   147          0
   149         19
   150          1
   151          6
   152          1
   153          0
   154          0
   155          0
   157          7
   158          1
   159          0
   160          0
   163          1
   164          0
   165          1
   166          0
   173          0
   174          0
   175          1
   176          0
   177          2
   178          0
   179          1
   191          0
   192          1
   193          0
   194          0
   195          0