##TITLE=Library Entry 5420
##JCAMP-DX=Revision 4.10 
##DATA TYPE=MASS SPECTRUM
##SAMPLE DESCRIPTION=A.A.Kutin, Moscow, Russia
##NAMES=HP
##CAS NAME=Pyrazole-3-carboxamide, N-phenyl-1-methyl-4-nitro-
##MOLFORM=C11H10N4O3
##CAS REGISTRY NO=345952-96-7
##MP= -300
##BP= -300
##MW= 246
##$RETENTION INDEX=0
##$CONDENSED SPECTRUM=NO
##NPOINTS= 138
##XYDATA=(XY..XY) 1 
    37          9
    39        122
    40         19
    42        999
    43         87
    46          9
    51        104
    52         77
    53         22
    54         12
    55          3
    56          2
    57          0
    58          1
    61          1
    63         58
    65        255
    66         17
    67          9
    68          9
    69          3
    70          1
    71          0
    74          4
    75          4
    77        106
    78         13
    80         62
    81          5
    82          2
    83          2
    84          0
    85          0
    87          1
    88          2
    89          3
    91         69
    92         77
    94         86
    95          2
    96          0
    97          0
    99          1
   100          2
   101          2
   102          4
   103          5
   104          3
   105          1
   106          2
   108         83
   109         13
   110         15
   111          0
   113          0
   114          0
   115          1
   116          3
   117          3
   119         24
   120          9
   121          1
   122          0
   124         10
   125          2
   127          1
   128          4
   129          4
   130          3
   131          3
   132          3
   133          1
   134          0
   135          0
   136          2
   138         42
   139          5
   140          0
   141          1
   142          3
   143          2
   144          2
   145          4
   146          2
   147          0
   148          0
   150          0
   154        478
   155         28
   156          6
   157          3
   158          1
   159          0
   160          1
   161          0
   169          0
   170          4
   171          3
   172          2
   173          1
   174          0
   175          0
   182          1
   183          0
   184          1
   185          3
   186          2
   187          2
   188          1
   189          1
   197          0
   199         24
   200         27
   201          5
   202          0
   204          0
   212          1
   213         11
   214          1
   215          0
   216          4
   217          0
   218          0
   225          0
   226          0
   228          0
   229         17
   230          2
   231          0
   232          0
   239          0
   240          0
   242          1
   243          2
   246        643
   247         85
   248          8
   249          0