##TITLE=Library Entry 54279
##JCAMP-DX=Revision 4.10 
##DATA TYPE=MASS SPECTRUM
##SAMPLE DESCRIPTION=Japan AIST/NIMC Database- Spectrum MS-IW-1190
##NAMES=HP
##CAS NAME=p-Nitrophenyl-2-acetamido-2-deoxy-.beta.-D-glucopyranoside
##MOLFORM=C14H18N2O8
##CAS REGISTRY NO=3459-18-5
##MP= -300
##BP= -300
##MW= 342
##$RETENTION INDEX=0
##$CONDENSED SPECTRUM=NO
##NPOINTS= 164
##XYDATA=(XY..XY) 1 
    13          1
    14          5
    15         49
    16          1
    17         15
    18         82
    19         23
    25          2
    26         19
    27         66
    28        121
    29         74
    30         66
    31         65
    32          9
    36          2
    37         16
    38         47
    39        281
    40         22
    41         48
    42        172
    43        497
    44         46
    45         40
    46         10
    47          9
    48          1
    49          6
    50         31
    51         31
    52         33
    53         92
    54         38
    55        116
    56         77
    57         82
    58         48
    59        411
    60        265
    61         63
    62         41
    63         90
    64         43
    65        447
    66         38
    67         11
    68         22
    69         30
    70         37
    71         63
    72        130
    73        250
    74         41
    75         17
    76          6
    77          3
    78          4
    79         13
    80         24
    81        112
    82         22
    83        416
    84        999
    85        109
    86         28
    87         83
    88        112
    89          9
    90          2
    91          8
    92         14
    93        161
    94         16
    95         12
    96         49
    97         44
    98         38
    99         28
   100         36
   101        126
   102         28
   103         10
   104          5
   105          2
   106          2
   107         11
   108         11
   109        225
   110         21
   111          9
   112         75
   113         32
   114        145
   115         51
   116         15
   117          3
   118          3
   119          2
   120          1
   121          2
   122          4
   123         51
   124         18
   125         25
   126         52
   127         14
   128          4
   129          9
   130        183
   131         13
   132         10
   133          2
   134          1
   135          2
   136          3
   137          3
   138         25
   139        812
   140         82
   141         36
   142         24
   143         12
   144         49
   145         12
   146          6
   147          1
   149          4
   150          1
   151          2
   152          1
   153          2
   154         25
   155          6
   156          8
   157          4
   158          6
   159          3
   160          4
   161         22
   162          2
   165          1
   167          3
   168         18
   169          3
   172         12
   173          3
   174          9
   175          1
   180          1
   181          1
   183          1
   185         12
   186         33
   187          3
   201          1
   202          1
   203         10
   204         34
   205          3
   209          2
   210          1
   251          2
   269          1