##TITLE=Library Entry 107198
##JCAMP-DX=Revision 4.10 
##DATA TYPE=MASS SPECTRUM
##SAMPLE DESCRIPTION=A.A.Kutin, Moscow, Russia
##NAMES=HP
##CAS NAME=Benzamide, 2-fluoro-N-pyrrol2-[2-(2-fluorophenyl)ethylamino]-2-ox
oethyl]-
##MOLFORM=C17H16F2N2O2
##CAS REGISTRY NO=345992-56-5
##MP= -300
##BP= -300
##MW= 318
##$RETENTION INDEX=0
##$CONDENSED SPECTRUM=NO
##NPOINTS= 127
##XYDATA=(XY..XY) 1 
    33          0
    34          0
    37          0
    38          1
    39         10
    40         14
    41          2
    42          6
    43          6
    44          5
    45          1
    50         10
    51         13
    52          1
    53          1
    54          0
    55          1
    56          5
    57         10
    58          2
    59          2
    60          0
    61          0
    62          2
    63          7
    64          1
    65          2
    66          0
    68          4
    69          7
    70          4
    71          1
    72          0
    75         68
    76         11
    77         26
    78          2
    79          0
    81          2
    83         29
    84          1
    85          0
    86          0
    87          0
    89          7
    90          2
    91          5
    92          1
    95        174
    96         17
    97          6
    98          0
   101          8
   103         43
   104          7
   105          8
   107          7
   109         79
   110          6
   111          0
   112          0
   115          0
   116          1
   117          2
   118          3
   119          5
   123        999
   124         33
   125          2
   127          0
   128          0
   129          0
   130          0
   131          1
   132          2
   134         30
   135          3
   136          2
   138         11
   139         10
   140          3
   143          0
   144          0
   146          1
   147          0
   148          1
   150          3
   152        394
   153         54
   154          2
   155          0
   157          1
   158          0
   159          1
   160          0
   165          0
   166          0
   170          1
   171          0
   173          7
   174          0
   175          0
   180        398
   182          1
   186          0
   189          0
   195          0
   196          1
   197          1
   209          8
   214          0
   240          2
   241          0
   243          0
   254          1
   255          0
   267          0
   268          0
   274          0
   281         14
   282          2
   300          0
   301          1
   316          0
   318         79
   319         13
   320          1