##TITLE=Library Entry 100597
##JCAMP-DX=Revision 4.10 
##DATA TYPE=MASS SPECTRUM
##SAMPLE DESCRIPTION=Japan AIST/NIMC Database- Spectrum MS-NW-6864
##NAMES=HP
##CAS NAME=m-Nitrobenzamidine
##MOLFORM=C7H7N3O2
##CAS REGISTRY NO=3459-99-2
##MP= -300
##BP= -300
##MW= 165
##$RETENTION INDEX=0
##$CONDENSED SPECTRUM=NO
##NPOINTS= 107
##XYDATA=(XY..XY) 1 
    15          1
    16         11
    17         44
    18         99
    26          6
    27         21
    28          4
    29          3
    30         56
    31          1
    32          1
    39         53
    40          6
    41          9
    42         15
    43        518
    44         12
    45          1
    46          9
    48          1
    49         12
    50        222
    51        166
    52         51
    53         10
    54          5
    55          2
    56          1
    57          2
    59          6
    60          2
    61         12
    62         21
    63         49
    64         37
    65        114
    66         13
    67          3
    68          1
    69          1
    70          1
    71          1
    72          1
    73         14
    74         86
    75        156
    76        346
    77        141
    78         13
    79          4
    80         10
    81          2
    82          1
    83          1
    84          1
    85          2
    86          4
    87          5
    88          4
    89          4
    90         38
    91         57
    92         77
    93          9
    94          1
    95          1
    97          1
    98          1
    99          6
   100          7
   101          5
   102        267
   103        671
   104         56
   105          4
   106          2
   107          2
   108          1
   109          1
   111          1
   116          2
   117         10
   118         56
   119        999
   120         91
   121          4
   122          1
   123          4
   128          1
   131          2
   132          3
   133          1
   134          1
   135          7
   136          1
   137          1
   138          3
   147          1
   148         85
   149        480
   150         45
   151          5
   163          1
   164          7
   165        804
   166         76
   167          7