##TITLE=Library Entry 99323
##JCAMP-DX=Revision 4.10 
##DATA TYPE=MASS SPECTRUM
##SAMPLE DESCRIPTION=Chemical Concepts
##NAMES=HP
##CAS NAME=Benzene, [1-(bromomethyl)propyl]-
##MOLFORM=C10H13Br
##CAS REGISTRY NO=34599-51-4
##MP= -300
##BP= -300
##MW= 212
##$RETENTION INDEX=0
##$CONDENSED SPECTRUM=NO
##NPOINTS= 86
##XYDATA=(XY..XY) 1 
    26         11
    27         63
    28          7
    29         33
    30          0
    37          3
    38         11
    39         80
    40          6
    41         65
    42          1
    43          1
    44          0
    49          1
    50         45
    51        111
    52         30
    53         18
    54          4
    55         34
    56          1
    57          2
    58         19
    61          2
    62         14
    63         41
    64         16
    65         52
    66          2
    69          0
    70          0
    73          1
    74         16
    75         14
    76         18
    77        125
    78         91
    79         25
    80          2
    81          0
    82          0
    85          0
    86          1
    87          3
    88          0
    89         21
    90          7
    91        869
    92         68
    93          8
    95          5
    98          0
   101          2
   102         29
   103        160
   104        451
   105         63
   106          2
   109          0
   115         54
   116         14
   117         76
   118         15
   119        999
   120         99
   121          5
   127          1
   128          6
   129          4
   130          0
   131         10
   132         28
   133         46
   134          7
   169          3
   171          3
   182          1
   183        158
   184         16
   185        157
   186         11
   212        169
   213         21
   214        172
   215         17
   216          0