##TITLE=Library Entry 97329
##JCAMP-DX=Revision 4.10 
##DATA TYPE=MASS SPECTRUM
##SAMPLE DESCRIPTION=D.HENNEBERG, MAX-PLANCK INSTITUTE, MULHEIM, WEST GERMAN
Y
##NAMES=HP
##CAS NAME=Borinic acid, diethyl-, 1-phenyl-1-propenyl ester
##MOLFORM=C13H19BO
##CAS REGISTRY NO=34602-33-0
##MP= -300
##BP= -300
##MW= 202
##$RETENTION INDEX=0
##$CONDENSED SPECTRUM=NO
##NPOINTS= 104
##XYDATA=(XY..XY) 1 
    26          2
    27         11
    30          1
    31          2
    32          8
    36          2
    38          1
    39         20
    40         15
    41         52
    42          1
    43          2
    44         15
    50          3
    51         19
    52          4
    53          5
    54          1
    55          6
    56          7
    57         22
    58          2
    59          4
    63          2
    64          0
    65         11
    66          2
    67          1
    68          8
    69         15
    70          1
    71          3
    73          0
    75          0
    76          4
    77         59
    78         11
    79          2
    82          1
    83          3
    85          0
    86          3
    87          2
    88          0
    89          4
    90          1
    91        117
    92          8
    93          0
    94          0
    96          1
    97          6
    98          2
    99          0
   101          0
   102         16
   103          4
   104          3
   105        104
   106          9
   107          0
   111          0
   112          0
   115        260
   116         65
   117        999
   118        104
   119         11
   122          0
   123          1
   124          6
   125         17
   126          0
   127          2
   128          1
   129          4
   130          2
   131         35
   132          3
   133          2
   134         19
   135          2
   137          0
   152          0
   153          2
   157          0
   158          0
   159          2
   160          0
   170          0
   171          1
   172         15
   173         53
   174          7
   175          0
   183          0
   186          0
   187          2
   192          0
   200          1
   201         30
   202        108
   203         13
   204          1