##TITLE=Library Entry 21148
##JCAMP-DX=Revision 4.10 
##DATA TYPE=MASS SPECTRUM
##SAMPLE DESCRIPTION=CARL DJERASSI DEPT OF CHEM STANFORD UNIV STANFORD CALIF
 94305
##NAMES=HP
##CAS NAME=2,6-Decadienoic acid, 3,7-dimethyl-, methyl ester, (E,E)-
##MOLFORM=C13H22O2
##CAS REGISTRY NO=34603-26-4
##MP= -300
##BP= -300
##MW= 210
##$RETENTION INDEX=0
##$CONDENSED SPECTRUM=NO
##NPOINTS= 24
##XYDATA=(XY..XY) 1 
    41        110
    42         10
    43         50
    55        999
    56         50
    59         20
    67         20
    68         10
    69         50
    79         20
    81         30
    82         40
    83         50
    96         20
    97        350
    98         20
   114        280
   115         10
   139         20
   150         20
   151         50
   178         10
   179         30
   200         20