##TITLE=Library Entry 97880
##JCAMP-DX=Revision 4.10 
##DATA TYPE=MASS SPECTRUM
##SAMPLE DESCRIPTION=A.A.Kutin, Moscow, Russia
##NAMES=HP
##CAS NAME=Ethanone, 1-phenyl-, o-(4-coumarinyl)oxime
##MOLFORM=C17H13NO3
##CAS REGISTRY NO=34605-11-3
##MP= -300
##BP= -300
##MW= 279
##$RETENTION INDEX=0
##$CONDENSED SPECTRUM=NO
##NPOINTS= 172
##XYDATA=(XY..XY) 1 
    33          1
    34          3
    35          0
    36          1
    37          6
    38         21
    39         51
    40         41
    41         19
    42         20
    43         13
    44         24
    45          3
    46          0
    48          0
    50         76
    51        224
    52         21
    53         10
    54          2
    55          9
    56          4
    57          6
    58          1
    59          1
    60          2
    61          4
    62         17
    63         46
    64         30
    65         21
    66          4
    67          2
    69         34
    70          3
    71          3
    72          1
    73          3
    74         13
    75         19
    76         67
    77        803
    78         58
    79          5
    80          2
    81          2
    82          1
    83          2
    84          2
    85          2
    86          1
    87          2
    88          3
    89         16
    90          6
    91         23
    92         41
    93          7
    94          1
    95          1
    96          0
    97          1
    98          2
    99          2
   100          1
   101          2
   102          5
   103         27
   104         45
   105         36
   106          8
   107          3
   108          3
   109          0
   110          0
   111          1
   112          1
   113          1
   114          1
   115          3
   116          7
   118        999
   119        109
   120         24
   121          9
   122          1
   123          2
   124          0
   125          8
   126          1
   127          3
   128          1
   129          0
   130          3
   131          1
   132          4
   133         20
   134          4
   135          6
   136          1
   137          0
   138          0
   140          3
   141          1
   142          0
   143          0
   144          0
   145          0
   146          1
   147          1
   148          0
   149          3
   150          1
   151          1
   152          1
   153          0
   154          0
   155          0
   156          0
   157          0
   158          0
   159          0
   160          1
   161          1
   162         11
   163          2
   164          0
   165          1
   166          0
   167          0
   168          0
   169          0
   170          0
   171          1
   172          0
   173          0
   174          2
   175          0
   176          0
   178          1
   179          0
   180          0
   181          0
   183          0
   184          2
   185          0
   187          0
   188          0
   189          1
   190          2
   191          0
   192          0
   193          1
   194          0
   197          0
   202          3
   203          0
   206          0
   207          0
   208          0
   209          0
   210          0
   215          0
   223          0
   238          0
   244          0
   246          0
   264          0
   279         17
   280          3
   281          0
   283          0