##TITLE=Library Entry 53727
##JCAMP-DX=Revision 4.10 
##DATA TYPE=MASS SPECTRUM
##SAMPLE DESCRIPTION=R.T.HOLMAN,UNIVERSITY OF MINNESOTA
##NAMES=HP
##CAS NAME=Octadecanoic acid, hexyl ester
##MOLFORM=C24H48O2
##CAS REGISTRY NO=3460-37-5
##MP= -300
##BP= -300
##MW= 368
##$RETENTION INDEX=2564
##$CONDENSED SPECTRUM=NO
##NPOINTS= 247
##XYDATA=(XY..XY) 1 
    26          6
    27         44
    28        108
    29        124
    30          5
    31          5
    32         19
    38          3
    39         26
    40          8
    41        267
    42        130
    43        925
    44         39
    45         14
    46          1
    50          2
    51          2
    52          2
    53         12
    54         32
    55        347
    56        409
    57        459
    58         32
    59         13
    60        180
    61        559
    62         16
    63          4
    65          4
    66          3
    67         47
    68         34
    69        267
    70         55
    71        211
    72         14
    73        279
    74         26
    75          5
    77          4
    78          3
    79         10
    80          7
    81         43
    82         37
    83        155
    84        999
    85        354
    86         24
    87         57
    88          7
    89          7
    90          2
    91          4
    92          1
    93          8
    94          6
    95         42
    96         24
    97        114
    98         78
    99         38
   100          8
   101         40
   102         14
   103          7
   104          2
   105          3
   106          1
   107          9
   108          4
   109         24
   110         13
   111         59
   112         26
   113         19
   114          8
   115         54
   116         27
   117          6
   118          2
   119          3
   120          3
   121         12
   122          4
   123         14
   124          9
   125         34
   126         11
   127         14
   128          4
   129        167
   130         17
   131          4
   133          3
   134          2
   135         12
   136          3
   137          9
   138          5
   139         21
   140          8
   141         11
   142          3
   143         24
   144         48
   145        105
   146          9
   147          2
   148          1
   149          8
   150          3
   151          4
   152          4
   153         14
   154          6
   155          8
   156          2
   157         78
   158         11
   159          4
   161          1
   162          1
   163          6
   164          2
   165          4
   166          3
   167          1
   168          4
   169          4
   170          2
   171         27
   172          8
   173          3
   175          1
   177          4
   178          3
   179          3
   180          6
   181          8
   182          4
   183          4
   184          1
   185         58
   186         11
   187          3
   188          1
   189          1
   190          1
   191          3
   192          1
   193          3
   194          2
   195          6
   196          4
   197          3
   198          1
   199         29
   200          7
   201          3
   202          1
   203          1
   205          3
   206          1
   207          3
   208          3
   209          5
   210          4
   211          2
   212          1
   213         29
   214          7
   215          3
   216          1
   217          3
   218          4
   219         11
   220          8
   221          5
   222         11
   223          6
   224          6
   225          4
   226          2
   227         17
   228          6
   229          4
   230          2
   234          1
   235          1
   236          2
   237          3
   238          2
   239          2
   240          1
   241         75
   242         14
   243          3
   244          2
   246          2
   247          6
   248          6
   249          4
   250          2
   251          2
   252          1
   255         17
   256          5
   257          2
   264         13
   265         16
   266          9
   267        236
   268         45
   269          9
   270          3
   282          4
   283         13
   284        236
   285        782
   286        167
   287         19
   288          3
   297          2
   298          2
   311          4
   312          2
   313          1
   321          1
   325         12
   326          5
   327          2
   338          1
   339          4
   340          3
   341          1
   350          2
   351          1
   353          1
   354          1
   367          6
   368        270
   369         72
   370         11
   371          2