##TITLE=Library Entry 21150
##JCAMP-DX=Revision 4.10 
##DATA TYPE=MASS SPECTRUM
##SAMPLE DESCRIPTION=CARL DJERASSI DEPT OF CHEM STANFORD UNIV STANFORD CALIF
 94305
##NAMES=HP
##CAS NAME=2,6-Decadienoic acid, 3,7-dimethyl-, methyl ester, (E,Z)-
##MOLFORM=C13H22O2
##CAS REGISTRY NO=34603-28-6
##MP= -300
##BP= -300
##MW= 210
##$RETENTION INDEX=0
##$CONDENSED SPECTRUM=NO
##NPOINTS= 37
##XYDATA=(XY..XY) 1 
    41        120
    42         10
    43         60
    44         10
    53         30
    54         10
    55        999
    56         50
    59         20
    70         10
    72         20
    73         10
    74         50
    77         10
    79         20
    81         40
    82         50
    83         60
    91         20
    93         10
    95         20
    96         20
    97        330
    98         20
   107         20
   114        270
   115         20
   121         20
   127         20
   136         20
   139         30
   150         40
   151         70
   167         20
   178         30
   179         40
   210         15