##TITLE=Library Entry 53084
##JCAMP-DX=Revision 4.10 
##DATA TYPE=MASS SPECTRUM
##SAMPLE DESCRIPTION=Susan Richardson
##NAMES=HP
##CAS NAME=Bromodichloroacetaldehyde
##MOLFORM=C2HBrCl2O
##CAS REGISTRY NO=34619-29-9
##MP= -300
##BP= -300
##MW= 190
##$RETENTION INDEX=0
##$CONDENSED SPECTRUM=NO
##NPOINTS= 72
##XYDATA=(XY..XY) 1 
    35        114
    36         25
    37         32
    38         34
    40         30
    41         10
    42          5
    43         13
    44         13
    46          2
    47        476
    48        207
    49        179
    50         65
    51          3
    53          1
    54          2
    56          1
    57          5
    58          3
    59         12
    60          1
    62         11
    68          1
    69          6
    71          3
    76         18
    77          2
    78          6
    79        187
    80         18
    81        202
    82        550
    83        999
    84        362
    85        669
    86         65
    87        115
    91         85
    92         24
    93         91
    94         22
    99          3
   104          5
   106          8
   110         19
   111        807
   112         52
   113        553
   114         23
   115         92
   116          7
   126        434
   127        135
   128        556
   129        173
   130        139
   131         46
   154          9
   155         98
   156         18
   157        112
   158          5
   159         31
   161        102
   162        206
   163        160
   164        336
   165         74
   166        143
   167         10
   168         20