##TITLE=Library Entry 80844
##JCAMP-DX=Revision 4.10 
##DATA TYPE=MASS SPECTRUM
##SAMPLE DESCRIPTION=Chemical Concepts
##NAMES=HP
##CAS NAME=Benzenepropanoic acid, .beta.-methyl-, methyl ester
##MOLFORM=C11H14O2
##CAS REGISTRY NO=3461-39-0
##MP= -300
##BP= -300
##MW= 178
##$RETENTION INDEX=0
##$CONDENSED SPECTRUM=NO
##NPOINTS= 92
##XYDATA=(XY..XY) 1 
    26          1
    27         35
    29          3
    30          0
    31          1
    33          0
    37          0
    38          3
    39         54
    40          5
    41         53
    42          8
    43         35
    45          2
    46          0
    50         16
    51         65
    52         15
    53          9
    54          0
    55          1
    57          1
    58          5
    59         33
    60          1
    61          1
    62          4
    63         16
    64          2
    65         25
    67          0
    69          4
    70          0
    71          1
    73          4
    74         46
    75          9
    76          8
    77        129
    78         65
    79         76
    80          4
    85          0
    86          0
    87          1
    88          0
    89          8
    90          2
    91        107
    92          9
    93          4
    98          0
   101          2
   102          7
   103         90
   104         73
   105        999
   106         75
   107          3
   109          0
   115         23
   116          6
   117         57
   118        674
   119         72
   120          4
   121        112
   122         10
   123          0
   127          0
   128          0
   129          1
   131         33
   132          1
   133          0
   134          0
   135          4
   143          0
   144          0
   145          5
   146         13
   147         66
   148          7
   149          1
   150          1
   161          6
   163          4
   164          0
   177          0
   178        209
   179         25
   180          1