##TITLE=Library Entry 49736
##JCAMP-DX=Revision 4.10 
##DATA TYPE=MASS SPECTRUM
##SAMPLE DESCRIPTION=D.HENNEBERG, MAX-PLANCK INSTITUTE, MULHEIM, WEST GERMAN
Y
##NAMES=HP
##CAS NAME=2-Butene, 1,4-dibromo-2,3-dimethyl-
##MOLFORM=C6H10Br2
##CAS REGISTRY NO=34619-20-0
##MP= -300
##BP= -300
##MW= 240
##$RETENTION INDEX=0
##$CONDENSED SPECTRUM=NO
##NPOINTS= 111
##XYDATA=(XY..XY) 1 
    26         32
    27        184
    28         25
    29         46
    30          1
    31          2
    32          1
    34          1
    35          1
    36          7
    37         27
    38         73
    39        505
    40        129
    41        546
    42         37
    43         19
    44          2
    45          1
    48          0
    49          9
    50         44
    51         77
    52         57
    53        444
    54         63
    55        120
    56          8
    57          1
    58          0
    59          0
    60          1
    61          7
    62         14
    63         28
    64          7
    65        110
    66         77
    67        133
    68          9
    69          4
    70          0
    73          3
    74          6
    75          9
    76          6
    77         79
    78         16
    79        350
    80         73
    81        999
    82        105
    83          9
    88          1
    89          4
    90          0
    91          4
    92          1
    93         35
    94          4
    95          5
    96          0
    97          1
    98          2
    99          0
   101          3
   102          0
   103          1
   105          2
   107          2
   108          1
   109          3
   115          0
   116         19
   117         75
   118         11
   119         26
   120          4
   121          6
   122          2
   123          0
   131          0
   133          5
   134          0
   135          4
   136          0
   145          1
   147          1
   148          1
   152          1
   159          0
   160        116
   161        299
   162        133
   163        296
   164         19
   165          1
   179          0
   180          0
   196          4
   198          6
   200          1
   208          0
   229          3
   230          0
   240         17
   241          1
   242         34
   243          2
   244         16
   245          1