##TITLE=Library Entry 73224
##JCAMP-DX=Revision 4.10 
##DATA TYPE=MASS SPECTRUM
##SAMPLE DESCRIPTION=NIST Mass Spectrometry Data Center, 1998.
##NAMES=HP
##CAS NAME=Orbencarb
##MOLFORM=C12H16ClNOS
##CAS REGISTRY NO=34622-58-7
##MP= -300
##BP= -300
##MW= 257
##$RETENTION INDEX=1919
##$CONDENSED SPECTRUM=NO
##NPOINTS= 120
##XYDATA=(XY..XY) 1 
    15          2
    18          3
    26          3
    27         29
    28         16
    29        102
    30          6
    35          1
    37          1
    38          4
    39         22
    40          4
    41          8
    42         69
    43          6
    44        159
    45         89
    46          4
    47          5
    48          1
    49          2
    50         10
    51         20
    52          3
    53          1
    54          3
    55          3
    56         51
    57         15
    58         12
    59          3
    60         10
    61         13
    62         14
    63         60
    64         11
    65          9
    66          1
    68          1
    69          7
    70         14
    71          9
    72        573
    73         38
    74          6
    75         20
    76         11
    77         35
    78         10
    79          2
    81          1
    82          2
    84          3
    85          3
    86          6
    87          4
    88          7
    89        127
    90         34
    91          7
    92          1
    93          2
    94          1
    95          2
    96          1
    97          3
    99         43
   100        999
   101         83
   102          7
   103          1
   104         11
   105          2
   106          1
   107          1
   108          2
   111          5
   112          4
   113          3
   114          2
   115          1
   116          4
   117          1
   118          1
   119          2
   120          5
   121         31
   122         13
   123          5
   124          1
   125        300
   126         24
   127         98
   128          8
   130          1
   131          1
   132         14
   133          1
   134          1
   141          1
   142          1
   149          1
   155         12
   156          2
   157         14
   158          2
   159          4
   160          1
   182          3
   184          1
   196          1
   222        325
   223         47
   224         20
   225          2
   226          1
   257         10
   258          2
   259          4
   260          1