##TITLE=Library Entry 11762
##JCAMP-DX=Revision 4.10 
##DATA TYPE=MASS SPECTRUM
##SAMPLE DESCRIPTION=LAC, NIDDK, NIH, Bethesda, MD 20892
##NAMES=HP
##CAS NAME=Pseduotomatidine acetate
##MOLFORM=C30H45NO4
##CAS REGISTRY NO=34638-83-0
##MP= -300
##BP= -300
##MW= 483
##$RETENTION INDEX=0
##$CONDENSED SPECTRUM=NO
##NPOINTS= 211
##XYDATA=(XY..XY) 1 
    41        186
    42          8
    43        999
    44         38
    45          7
    47         32
    48         12
    49         14
    50          0
    51          8
    53         40
    54        101
    55        260
    56         36
    57         24
    58          4
    61         60
    63          2
    65         23
    66          8
    67        151
    68         37
    69         68
    70         18
    71          7
    72          4
    73          1
    74          0
    77         57
    78          2
    79        117
    80         38
    81        119
    82         37
    83         35
    84         11
    85          0
    86          6
    88          7
    91        112
    92         16
    93        175
    94         72
    95         93
    96         50
    97         13
    98         49
    99          4
   103          8
   104          4
   105        111
   106         45
   107        103
   108         51
   109         29
   110         38
   111         86
   112         14
   113          2
   114          3
   115         10
   116          6
   117         29
   118         11
   119         33
   120         30
   121         44
   122         36
   123         27
   124        136
   125        582
   126         72
   127          5
   128          7
   129          9
   130          8
   131         33
   132         21
   133         41
   134         50
   135         21
   136         21
   137          7
   138         12
   139          3
   140          3
   141          5
   142          5
   143         14
   144         18
   145         42
   146         34
   147         56
   148        120
   149         35
   150         31
   151         10
   152          6
   153          3
   154          4
   155          6
   156          4
   157         19
   158          9
   159         17
   160         16
   161         50
   162        157
   163         43
   164         54
   165         13
   166         11
   167          3
   168         24
   169          5
   170          5
   171          6
   172          6
   173         11
   174         25
   175         16
   176         35
   177         13
   178         10
   179          1
   182          1
   183          2
   184         15
   185          7
   186         10
   187          8
   188         21
   189          6
   190         11
   191          4
   192          3
   193          1
   194          2
   197          5
   198          3
   199          4
   200          6
   201          6
   202         19
   203          6
   204         17
   205          2
   206          4
   211          1
   212          6
   213          3
   214          7
   215          6
   216         21
   217          8
   218          5
   226          3
   227          1
   228          5
   229          2
   230          5
   239          3
   240          1
   241          0
   242          9
   243          1
   244          0
   253          1
   254          4
   255         16
   256          9
   257          4
   258          2
   268          1
   270          4
   282          0
   284          3
   296          2
   310          3
   315         12
   316          3
   324          1
   328          0
   364          5
   365          0
   366          4
   368          2
   378          8
   379          2
   380          7
   382          3
   396          5
   397          3
   408          0
   410         12
   411          3
   422          4
   423          1
   424        129
   425         43
   426          8
   437          1
   438         39
   439         50
   440         13
   441          1
   481          3
   482          2
   483        112
   484         42
   485         10