##TITLE=Library Entry 50091
##JCAMP-DX=Revision 4.10 
##DATA TYPE=MASS SPECTRUM
##SAMPLE DESCRIPTION=J.VOTH UNIV. OF CALIFORNIA, DAVIS, CALIFORNIA, 95616, U
SA
##NAMES=HP
##CAS NAME=2,4-Hexadiene, 1-chloro-
##MOLFORM=C6H9Cl
##CAS REGISTRY NO=34632-89-8
##MP= -300
##BP= -300
##MW= 116
##$RETENTION INDEX=0
##$CONDENSED SPECTRUM=NO
##NPOINTS= 81
##XYDATA=(XY..XY) 1 
     2          7
    12          6
    13          9
    14         20
    15         60
    16          1
    17          0
    18          2
    24          1
    25         11
    26        124
    27        539
    28         84
    29         49
    30          1
    31          4
    32          0
    35         15
    36         14
    37         55
    38        101
    39        600
    40         67
    41        632
    42         32
    43          3
    45          3
    47          3
    48          5
    49         59
    50        104
    51        167
    52         82
    53        385
    54        186
    55         66
    56          4
    57          4
    58          0
    59          2
    60          3
    61         17
    62         21
    63         34
    64          9
    65        129
    66         57
    67        640
    68         36
    69          3
    72          1
    73         16
    74         12
    75        126
    76         10
    77        138
    78         33
    79        209
    80         96
    81        999
    82         67
    83          3
    84          0
    85          1
    86          0
    87          3
    88         15
    89          8
    90          5
    91          2
    95          1
    97          0
    99          1
   100          0
   101         11
   102          1
   103          3
   115          0
   116         44
   117          3
   118         15