##TITLE=Library Entry 71341
##JCAMP-DX=Revision 4.10 
##DATA TYPE=MASS SPECTRUM
##SAMPLE DESCRIPTION=Div. of Experiment Therapeutics WRAIR, WRAMC, Washingto
n DC 20307
##NAMES=HP
##CAS NAME=3,9,11-Trichloro-5,6-dihydro-7-[1-hydroxy-2-[1-piperidyl]ethyl]be
nz[c]acridine
##MOLFORM=C24H23Cl3N2O
##CAS REGISTRY NO=34633-93-7
##MP= -300
##BP= -300
##MW= 460
##$RETENTION INDEX=0
##$CONDENSED SPECTRUM=NO
##NPOINTS= 53
##XYDATA=(XY..XY) 1 
    41         53
    42         51
    43         16
    44         28
    45          0
    49          6
    51          4
    53          2
    54          3
    55         31
    56          5
    57          1
    59          0
    67          1
    68          3
    69         16
    70         19
    84          5
    86          3
    96         10
    97         12
    98        999
    99         53
   101          0
   112          0
   113          1
   114          3
   126          2
   128          0
   132          2
   145          0
   149          0
   225          3
   226          1
   227          4
   228          3
   229          0
   261          3
   262          3
   263          3
   264          3
   274          0
   296          0
   297          2
   298          3
   299          2
   300          2
   310          0
   326          2
   328          1
   332          3
   334          4
   336          3