##TITLE=Library Entry 16945
##JCAMP-DX=Revision 4.10 
##DATA TYPE=MASS SPECTRUM
##SAMPLE DESCRIPTION=CARL DJERASSI DEPT OF CHEM STANFORD UNIV STANFORD CALIF
 94305
##NAMES=HP
##CAS NAME=2,5-Ethano-2H-azocino[4,3-b]indole, 4-ethylidene-1,3,4,5,6,7-hexa
hydro-6-methylene-, [r-(E)]-
##MOLFORM=C18H20N2
##CAS REGISTRY NO=3463-93-2
##MP= -300
##BP= -300
##MW= 264
##$RETENTION INDEX=0
##$CONDENSED SPECTRUM=NO
##NPOINTS= 178
##XYDATA=(XY..XY) 1 
    41        472
    42        263
    43        736
    44        963
    45        999
    46         27
    50         36
    51         91
    52         36
    53         72
    54         27
    55        309
    56        236
    57        736
    58        154
    59        100
    60          9
    62          9
    63         36
    64         18
    65         54
    66         18
    67         81
    68         45
    69        190
    70        181
    71        218
    72         27
    73          9
    74          9
    75         18
    76         18
    77        163
    78         45
    79         72
    80         27
    81         81
    82        100
    83        145
    84         72
    85        100
    86          9
    87          9
    88          9
    89         18
    90         18
    91        236
    92         91
    93         72
    94         45
    95         63
    96         63
    97         91
    98         54
    99         27
   100          9
   101         27
   102         54
   103         63
   104         36
   105        254
   106        172
   107         91
   108        218
   109         81
   110        108
   111         72
   112         45
   113         27
   114          9
   115         63
   116         27
   117         91
   118         27
   119        127
   120         91
   121         27
   122         36
   123         45
   124         72
   125         27
   126         27
   127         63
   128         91
   129         36
   130        127
   131         36
   132        172
   133         27
   134         45
   135         18
   136          9
   137          9
   138          9
   139         18
   140         18
   141         36
   142         27
   143         36
   144         18
   145          9
   146          9
   148         36
   149         36
   150          9
   151          9
   152         27
   153         27
   154        163
   155         63
   156         54
   157         36
   158          9
   163         18
   164          9
   165         27
   166         27
   167        108
   168         63
   169         18
   170          9
   171         27
   172          9
   177          9
   178         18
   179         18
   180        136
   181        100
   182         63
   183         18
   191         36
   192         54
   193        100
   194        172
   195         72
   196         18
   197          9
   198          9
   199         18
   200         27
   201          9
   202         45
   204         72
   205         54
   206        190
   207        163
   208        445
   209        127
   210         18
   216          9
   217         18
   218         45
   219         54
   220        209
   221        291
   222        373
   223         72
   224          9
   231          9
   232         27
   233         36
   234        118
   235        218
   236        108
   237         36
   245          9
   247         18
   248         18
   249        218
   250         45
   251         18
   252         72
   253          9
   261          9
   262         18
   263        127
   264        900
   265        181