##TITLE=Library Entry 82876
##JCAMP-DX=Revision 4.10 
##DATA TYPE=MASS SPECTRUM
##SAMPLE DESCRIPTION=A.A.Kutin, Moscow, Russia
##NAMES=HP
##CAS NAME=Piperidine-2,3-dione, 3-(4-methylphenylhydrazone)
##MOLFORM=C12H15N3O
##CAS REGISTRY NO=3464-81-1
##MP= -300
##BP= -300
##MW= 217
##$RETENTION INDEX=0
##$CONDENSED SPECTRUM=NO
##NPOINTS= 128
##XYDATA=(XY..XY) 1 
    35          0
    36          0
    37          9
    38         26
    39        230
    40         65
    41        487
    42         77
    43         61
    44        126
    45          9
    46          7
    49          2
    50         54
    51        150
    52        146
    53        143
    54         85
    55        133
    56         54
    57         14
    58          6
    59         12
    61          3
    62         14
    63         63
    64         31
    65        183
    66         43
    67         21
    68        185
    69         45
    70         25
    71          3
    72          3
    73          5
    74          5
    75         10
    76         24
    77        491
    78        210
    79        354
    80         48
    81         11
    82          7
    83         50
    84         36
    85         40
    86         15
    87          3
    88          2
    89         28
    90         17
    91        165
    92         28
    93         12
    94          8
    95         15
    96         25
    97         14
    98         16
    99          4
   100         12
   102          6
   103          7
   104        104
   105        117
   106        999
   107        823
   108        131
   110          3
   111         20
   112         30
   113         47
   114          3
   115          8
   116          4
   117          9
   118         13
   119         12
   120         16
   121          7
   122          2
   123          3
   124          2
   126         12
   127          2
   128          4
   129          3
   130          7
   131         14
   132         21
   133         31
   134          9
   135          2
   137          2
   142          6
   143         10
   144         40
   145         33
   146        127
   147         17
   148          2
   149          2
   156          2
   157          8
   159        136
   160         33
   161          9
   171         11
   172          8
   173         14
   174          7
   175          2
   187          6
   188         19
   189         16
   190          3
   198          2
   199          3
   200         11
   201          3
   202          6
   207          0
   215          4
   217        785
   218        115
   219         10