##TITLE=Library Entry 8341
##JCAMP-DX=Revision 4.10 
##DATA TYPE=MASS SPECTRUM
##SAMPLE DESCRIPTION=T.A.BLAZER DU PONT, GIBBSTOWN, N.J., USA
##NAMES=HP
##CAS NAME=2-Norbornyl acetate
##MOLFORM=C9H14O2
##CAS REGISTRY NO=34640-76-1
##MP= -300
##BP= -300
##MW= 154
##$RETENTION INDEX=1127
##$CONDENSED SPECTRUM=NO
##NPOINTS= 63
##XYDATA=(XY..XY) 1 
    15        134
    26         14
    27        104
    29         53
    31          7
    37          0
    38         11
    39        140
    40         26
    41        155
    42         33
    43        999
    44         31
    45         10
    46          1
    50          7
    51         17
    52          9
    53         39
    54         23
    55         62
    56          9
    57         22
    58         46
    59         33
    60          5
    61          0
    63          5
    65        381
    66        278
    67         58
    68         12
    69         12
    71         69
    72          4
    77         30
    78          9
    79        149
    80         15
    81         26
    82          8
    83         43
    84         15
    85          0
    86          4
    87          8
    91         20
    92          8
    93         53
    94        301
    95         68
    96         26
    97         20
    98         18
   108          9
   109          4
   110         31
   111        137
   112         39
   113          5
   126         27
   139          6
   154          4