##TITLE=Library Entry 5499
##JCAMP-DX=Revision 4.10 
##DATA TYPE=MASS SPECTRUM
##SAMPLE DESCRIPTION=ACCUSTANDARD Chemicals / NIST MS Data Center.
##NAMES=HP
##CAS NAME=Phosphorodithioic acid, O-(2,4-dichlorophenyl) O-ethyl S-propyl e
ster
##MOLFORM=C11H15Cl2O2PS2
##CAS REGISTRY NO=34643-46-4
##MP= -300
##BP= -300
##MW= 344
##$RETENTION INDEX=0
##$CONDENSED SPECTRUM=NO
##NPOINTS= 228
##XYDATA=(XY..XY) 1 
    12          0
    13          4
    14          3
    15         86
    19          2
    26        137
    27        913
    28         12
    29        831
    30         20
    31          5
    33          5
    34          4
    35          9
    36          5
    37         18
    38         40
    39        249
    40          4
    41        683
    42        150
    43        999
    44         43
    45        180
    46         93
    47        230
    48         18
    49         19
    50         23
    51         14
    52          3
    53         12
    57          4
    58         26
    59         35
    60         22
    61         39
    62        102
    63        465
    64         27
    65         24
    66          4
    69         18
    70          3
    71         14
    72         32
    73        164
    74         84
    75        118
    76          9
    77          4
    78          3
    79         21
    80         55
    81         53
    82          9
    83         40
    84         13
    85         29
    86          6
    87          8
    89          4
    90          1
    91          8
    92          5
    93         15
    94          1
    95         93
    96         37
    97        106
    98         69
    99         56
   100         26
   101         14
   102          1
   103          5
   104          2
   105          8
   106          1
   107         49
   108          1
   109         88
   110         15
   111         31
   112          1
   113        604
   114         20
   115         52
   116          1
   117          4
   119          2
   121         19
   122          3
   123         18
   124          1
   125         40
   126         27
   127         34
   128         12
   129         13
   130         12
   131         19
   132          1
   133        244
   134          1
   135        148
   136         14
   137         29
   138          3
   139         96
   140          1
   141        212
   142         33
   143         25
   144          9
   145         24
   146          9
   147         16
   148          6
   149          5
   151         23
   153          5
   155        328
   156         21
   157         34
   159         28
   161        181
   162        451
   163        133
   164        286
   165         42
   166         55
   167         41
   168          2
   169          3
   170          3
   171          2
   173         49
   174         18
   175         21
   176         12
   177         42
   178         84
   179         31
   180         52
   181          9
   182          2
   183        130
   184         11
   185         12
   186          1
   187          1
   189         24
   190          3
   191         12
   192          2
   193          9
   194          1
   195          6
   204         10
   205         32
   206         14
   207          9
   208         15
   209         55
   210         14
   211         32
   212          4
   213          7
   221         25
   222          5
   223         19
   224          3
   225          8
   232          4
   234          2
   235          1
   239        210
   240         46
   241        139
   242         16
   243         38
   244          4
   245          5
   246          2
   255         32
   257         38
   258          6
   259         11
   260          1
   261          3
   262          1
   266        164
   267        499
   268        106
   269        189
   270         22
   271         19
   273         15
   274          6
   275         11
   276          2
   277          4
   281         61
   282         11
   283         24
   284          3
   285          3
   299          6
   301          5
   302         19
   303         10
   304         17
   305          5
   306          4
   309        423
   310         72
   311        169
   312         23
   313         14
   314          1
   315          2
   317          2
   344          6
   345          7
   346          5
   347          5
   348          2