##TITLE=Library Entry 77121
##JCAMP-DX=Revision 4.10 
##DATA TYPE=MASS SPECTRUM
##SAMPLE DESCRIPTION=AAFS Toxicology Section MS DB Committee, U. Alberta, Ca
nada
##NAMES=HP
##CAS NAME=2,5-Pyrrolidinedione, 3-phenyl-
##MOLFORM=C10H9NO2
##CAS REGISTRY NO=3464-18-4
##MP= -300
##BP= -300
##MW= 175
##$RETENTION INDEX=0
##$CONDENSED SPECTRUM=NO
##NPOINTS= 68
##XYDATA=(XY..XY) 1 
    40          2
    41          3
    42          6
    43         12
    44         27
    45          2
    49          2
    50         44
    51        136
    52         43
    53          6
    54          1
    55          3
    59         13
    61          4
    62         16
    63         41
    64          7
    65         15
    66         15
    70         16
    73          4
    74         28
    75         22
    76         31
    77        156
    78        201
    79         27
    80          1
    85          1
    86          3
    87          6
    88          1
    89         23
    90          7
    91         45
    92          4
    93          1
    98          3
   101          4
   102         69
   103        203
   104        999
   105        131
   106         22
   107          6
   115          1
   117          3
   118          6
   120          1
   121         39
   122          3
   128          2
   130          3
   131         15
   132         21
   133          3
   146          8
   147         12
   148          3
   162          9
   163          1
   164         59
   165          7
   173         11
   175        146
   176         23
   177          2