##TITLE=Library Entry 99079
##JCAMP-DX=Revision 4.10 
##DATA TYPE=MASS SPECTRUM
##SAMPLE DESCRIPTION=A.A.Kutin, Moscow, Russia
##NAMES=HP
##CAS NAME=Benzhydrazide, 4-methyl-N2-methoxyacetyl)-
##MOLFORM=C11H14N2O3
##CAS REGISTRY NO=346456-58-4
##MP= -300
##BP= -300
##MW= 222
##$RETENTION INDEX=0
##$CONDENSED SPECTRUM=NO
##NPOINTS= 98
##XYDATA=(XY..XY) 1 
    33          3
    34          0
    36          0
    37          2
    39         53
    41         22
    42         28
    43         10
    45        244
    47          0
    50         15
    51         20
    52          6
    53          3
    54          0
    55          1
    56          0
    57          0
    58          0
    59          1
    60          2
    62         15
    63         35
    65        125
    66          3
    67          0
    69          0
    70          0
    71          0
    72          0
    73          0
    74          3
    75          4
    76          3
    77          8
    79          5
    80          0
    85          1
    86          3
    87          2
    89         50
    91        338
    92         13
    93          2
    94          0
    97          0
    99          0
   102          0
   103          1
   104          2
   105          4
   106          4
   107          1
   108          0
   114          0
   115          0
   116          2
   119        999
   120         81
   121          5
   122          0
   130          0
   131          1
   132          2
   133          0
   134          1
   135          2
   136         12
   137          0
   138          0
   145          0
   146          1
   147          0
   148          0
   149          0
   150          0
   151          0
   152          0
   159          1
   160          0
   161          1
   162          1
   163          1
   171          0
   174          4
   177         24
   178          1
   179          0
   190          0
   192         20
   193          2
   194          0
   204          1
   220          1
   222        102
   223         12
   224          1
   225          0