##TITLE=Library Entry 6945
##JCAMP-DX=Revision 4.10 
##DATA TYPE=MASS SPECTRUM
##SAMPLE DESCRIPTION=A.A.Kutin, Moscow, Russia
##NAMES=HP
##CAS NAME=1H-1,2,4-Triazole, 1-methyl-3,5-bis(4-nitro-3-furazanyl)-
##MOLFORM=C7H3N9O6
##CAS REGISTRY NO=346458-50-2
##MP= -300
##BP= -300
##MW= 309
##$RETENTION INDEX=0
##$CONDENSED SPECTRUM=NO
##NPOINTS= 132
##XYDATA=(XY..XY) 1 
    33         10
    34          0
    38         68
    39         13
    40         20
    41         34
    43        999
    46        520
    48          3
    50         17
    52         45
    53         28
    54         14
    55          6
    56          9
    57          5
    58          5
    59          2
    60          2
    62         19
    64         26
    65         12
    66          8
    67         18
    68          9
    69          8
    70          6
    71          2
    72          1
    73          1
    74          1
    76         31
    78        108
    79         44
    80          7
    81          6
    82          2
    83          4
    84          2
    85          1
    87          8
    88          3
    90          7
    91         10
    92         11
    93         22
    95          8
    96          4
    97          2
    98          1
    99          0
   100          1
   102         23
   105          2
   107         12
   109         19
   111          1
   112          0
   114         22
   115          6
   116          2
   118         14
   119          2
   120          1
   121          2
   122          1
   123          0
   124          0
   126          8
   128          4
   129          9
   130          1
   132          0
   133          2
   134          4
   135          1
   141          0
   145         19
   146          6
   147          0
   149          1
   150          1
   151          0
   153          0
   155         14
   157          0
   158          0
   159          0
   161          6
   162          0
   166          0
   168          0
   170          0
   171          0
   172          0
   173          0
   175          8
   176          8
   178          0
   187         10
   188          1
   190          9
   191          2
   192          0
   196          1
   201          0
   203          0
   216          0
   217          5
   218          1
   219          0
   222         14
   223          0
   229          1
   230          1
   233        192
   237          0
   238          0
   247          0
   249          9
   250          0
   259          0
   260          2
   263        223
   265          1
   277          0
   279         10
   280          0
   306          1
   309         60
   311          0
   319          0