##TITLE=Library Entry 30427
##JCAMP-DX=Revision 4.10 
##DATA TYPE=MASS SPECTRUM
##SAMPLE DESCRIPTION=A.A.Kutin, Moscow, Russia
##NAMES=HP
##CAS NAME=Furane-2-carbbohydrazide, 3,N2,N2-trimethyl-
##MOLFORM=C8H12N2O2
##CAS REGISTRY NO=346457-69-0
##MP= -300
##BP= -300
##MW= 168
##$RETENTION INDEX=0
##$CONDENSED SPECTRUM=NO
##NPOINTS= 58
##XYDATA=(XY..XY) 1 
    33          4
    34          0
    35         14
    36         93
    37         11
    38         54
    39         48
    40         42
    41         38
    42        218
    43        196
    44        128
    45         10
    50         89
    51         70
    52         62
    53        107
    54         10
    55          7
    57         20
    59        999
    60         38
    63          1
    65         10
    66          7
    67          1
    68          4
    69          6
    77          2
    79         11
    80          9
    81         28
    82          0
    83          8
    85          3
    91          1
    94          2
    95         21
    96          4
    97          1
   107          1
   109        855
   110         46
   111          5
   122          0
   123          1
   125        441
   126        297
   127         10
   135          0
   139          7
   149          2
   150          0
   153          0
   165          9
   166          1
   168        113
   169          9