##TITLE=Library Entry 37757
##JCAMP-DX=Revision 4.10 
##DATA TYPE=MASS SPECTRUM
##SAMPLE DESCRIPTION=A.A.Kutin, Moscow, Russia
##NAMES=HP
##CAS NAME=Morpholine, 2,6-dimethyl-4-(4-nitrophenylsulfonyl)-
##MOLFORM=C12H16N2O5S
##CAS REGISTRY NO=346464-60-6
##MP= -300
##BP= -300
##MW= 300
##$RETENTION INDEX=0
##$CONDENSED SPECTRUM=NO
##NPOINTS= 150
##XYDATA=(XY..XY) 1 
    33          0
    34          2
    36          0
    37          1
    38          7
    39         64
    40         57
    41        427
    42        655
    43        115
    44         47
    45         51
    46          3
    47          0
    48          4
    50         75
    51         21
    52          9
    53          6
    54         17
    55         22
    56         24
    57         11
    58          9
    59          4
    60          1
    61          0
    62          3
    63         16
    64         28
    65          8
    66          2
    67          5
    68         44
    69         30
    70        999
    71         60
    72         20
    73          3
    74         16
    75         86
    76        112
    77         24
    78          5
    79         10
    80          1
    81          1
    82          2
    83          1
    84          5
    85          3
    86          2
    87          0
    88          0
    89          1
    90          1
    91         10
    92         46
    93          5
    94          1
    95          3
    96          3
    97          1
    98          4
    99          3
   100          1
   101          0
   102          0
   103          1
   104          2
   105          3
   106         20
   107          2
   108          1
   109          1
   110          0
   111          2
   112         15
   113         17
   114        849
   115         65
   116          4
   117          0
   118          0
   119          0
   120          1
   122        135
   123         13
   124          2
   125          0
   127          0
   128          0
   129          0
   130          0
   131          0
   132          0
   134          1
   135          2
   136          0
   138          0
   139          1
   140          5
   141          0
   142          0
   144          0
   149          0
   150          0
   151          0
   154          0
   155          0
   156          1
   157          1
   159          0
   160          0
   162          0
   164          0
   167          0
   168          0
   169          0
   170          9
   171          1
   172          0
   179          0
   180          0
   182          0
   186        165
   187         13
   188          9
   189          0
   198          1
   199          1
   215        115
   216         10
   217          6
   218          0
   221          0
   229          1
   242          0
   243          2
   244          0
   255          1
   257          0
   259          0
   270          0
   285          1
   286          0
   299          0
   300         24
   301          3
   302          1