##TITLE=Library Entry 21525
##JCAMP-DX=Revision 4.10 
##DATA TYPE=MASS SPECTRUM
##SAMPLE DESCRIPTION=Exported from NIST MS Search
##NAMES=HP
##CAS NAME=Selenophene, tetrahydro-
##MOLFORM=C4H8Se
##CAS REGISTRY NO=3465-98-3
##MP= -300
##BP= -300
##MW= 136
##$RETENTION INDEX=0
##$CONDENSED SPECTRUM=NO
##NPOINTS= 30
##XYDATA=(XY..XY) 1 
    38          3
    39         81
    40        155
    42         69
    51         23
    53         69
    54         85
    55        999
    56         38
    80         31
    81         23
    90         46
    91        116
    92         93
    93         85
    94        193
    95         46
    96         31
   104         31
   105         42
   106         65
   107         73
   108        108
   110         23
   132         54
   133         62
   134        124
   135         23
   136        259
   138         46