##TITLE=Library Entry 4362
##JCAMP-DX=Revision 4.10 
##DATA TYPE=MASS SPECTRUM
##SAMPLE DESCRIPTION=A.A.Kutin, Moscow, Russia
##NAMES=HP
##CAS NAME=Benzonitrile, 4-[4-allyl-5-(3-chlorophenyl)-1,2,4-4H-triazol-3-yl
thiomethyl]-3-chloro-
##MOLFORM=C19H14Cl2N4S
##CAS REGISTRY NO=346596-45-0
##MP= -300
##BP= -300
##MW= 400
##$RETENTION INDEX=0
##$CONDENSED SPECTRUM=NO
##NPOINTS= 230
##XYDATA=(XY..XY) 1 
    33         36
    34          1
    36          3
    37          3
    39        162
    41        999
    43          5
    45         82
    46          7
    47          1
    49          4
    50         19
    51         22
    52          6
    53          8
    54         22
    55         20
    56          5
    57          2
    58          8
    59         35
    60          8
    61          7
    62         19
    63         25
    64         10
    65          3
    67         32
    68          7
    69         34
    70          6
    71          9
    72         10
    73         46
    74         15
    75         44
    76         13
    77          8
    78          1
    79          2
    81         17
    82          2
    84          7
    85         22
    86         26
    87         16
    88         26
    89         10
    90          7
    91          1
    96          2
    97          2
    98          4
    99         19
   100         11
   101         13
   102         75
   103         11
   104          1
   110          5
   111         37
   113        217
   114         59
   115         38
   116          8
   117          2
   119          6
   120          1
   121          1
   123         68
   124         20
   125         26
   126          7
   127         12
   128         12
   129          7
   130          1
   133          1
   135          1
   137        214
   138         82
   139         68
   140         27
   141          5
   142          4
   143          2
   145          2
   146         10
   147          4
   148          5
   150        283
   151         36
   152         84
   153         14
   154         16
   155         14
   156          8
   157          4
   158          3
   159          7
   160          8
   161          3
   162          3
   163         12
   164          6
   165          9
   166          1
   167          3
   168          1
   169          2
   170          2
   173          2
   174          1
   176          2
   177          2
   178          8
   179          3
   180         30
   181         22
   182         18
   183         10
   184          4
   185          1
   186          6
   187          3
   188          2
   189          3
   190         12
   191          3
   192          5
   193          8
   195         22
   196          3
   197          4
   201          1
   203          2
   204          1
   206          1
   207          4
   208          2
   209          1
   211         14
   212          6
   213          7
   214          3
   215          8
   216          5
   217         13
   218         35
   219         11
   220         11
   221          4
   222          3
   224         10
   225          2
   226          3
   227          1
   228          1
   230          7
   232          8
   234          2
   235          2
   236         22
   237         22
   238         11
   239          6
   240          2
   248          1
   250        158
   251         32
   252         60
   253         17
   254          4
   255          1
   258          2
   264          3
   266          2
   289          2
   293         14
   294          5
   295          1
   311         29
   312          4
   313         11
   314          2
   323         14
   324         20
   325         21
   326         15
   327         11
   328         11
   329          7
   330          6
   331          5
   332          1
   337          6
   338          1
   339          3
   340          2
   341          1
   353        169
   354         43
   355        103
   356         23
   357         17
   358          3
   359          2
   361          2
   363          4
   365        869
   366        192
   367        339
   368         74
   369         30
   370          6
   371          6
   372          3
   373          3
   374          1
   385         35
   386          9
   387         19
   388          5
   389          3
   399         54
   400         63
   401         49
   402         40
   403         15
   404          6