##TITLE=Library Entry 54770
##JCAMP-DX=Revision 4.10 
##DATA TYPE=MASS SPECTRUM
##SAMPLE DESCRIPTION=NIST Mass Spectrometry Data Center
##NAMES=HP
##CAS NAME=(S)-3,3,6-Trimethylhepta-1,5-dien-4-yl acetate
##MOLFORM=C12H20O2
##CAS REGISTRY NO=3465-88-1
##MP= -300
##BP= -300
##MW= 196
##$RETENTION INDEX=1173
##$CONDENSED SPECTRUM=NO
##NPOINTS= 92
##XYDATA=(XY..XY) 1 
    26          2
    27         31
    28          9
    29         38
    30          1
    31          5
    37          1
    38          3
    39         76
    40         15
    41        210
    42         20
    43        295
    44         11
    45          7
    50          6
    51         19
    52          8
    53         51
    54         11
    55         79
    56         14
    57         32
    58          3
    60         13
    61          2
    62          2
    63          4
    64          1
    65         28
    66          7
    67         75
    68         23
    69        128
    70         23
    71         12
    72          7
    73          8
    74          2
    75          1
    76          1
    77         39
    78          7
    79         39
    80          9
    81         22
    82         17
    83         38
    84         19
    85        999
    86         51
    87          5
    89          1
    91         35
    92         10
    93         35
    94          4
    95        110
    96         12
    97          8
    98          3
    99          1
   101          3
   102          1
   103          4
   104          1
   105         20
   106          4
   107         17
   108         15
   110         21
   111         19
   112          8
   113          1
   114          1
   115          3
   119          5
   120          2
   121         29
   122          5
   123         11
   126          1
   127        272
   128         18
   129          2
   136         13
   137         16
   138          2
   139         10
   140          1
   150          1
   154          1