##TITLE=Library Entry 72059
##JCAMP-DX=Revision 4.10 
##DATA TYPE=MASS SPECTRUM
##SAMPLE DESCRIPTION=A.A.Kutin, Moscow, Russia
##NAMES=HP
##CAS NAME=Ethanedicarboxamide, N-(3,5-dimethylphenyl)-N'-[2-(1-piperazinyl)
ethyl]-
##MOLFORM=C16H24N4O2
##CAS REGISTRY NO=346596-53-0
##MP= -300
##BP= -300
##MW= 304
##$RETENTION INDEX=0
##$CONDENSED SPECTRUM=NO
##NPOINTS= 128
##XYDATA=(XY..XY) 1 
    33          4
    34          0
    36          0
    38          0
    39          3
    40          4
    41          6
    42         24
    43         13
    44         41
    45          2
    50          0
    51          1
    52          1
    53          1
    54          2
    56         97
    57         10
    58         11
    59          0
    63          0
    65          1
    66          1
    68          3
    70         64
    71          7
    72          8
    73          0
    74          0
    75          0
    76          0
    77         10
    78          2
    79          5
    80          1
    81          0
    82          2
    83          4
    84         14
    85          7
    86          0
    87          0
    88          0
    89          0
    91          5
    92          1
    93          3
    94          0
    95          0
    97         11
    99        999
   100         52
   101          1
   103          4
   105         16
   106          3
   107          0
   109          0
   111          2
   112          5
   113          8
   114          0
   115          0
   116          0
   117          0
   118          1
   120          9
   121          7
   122          1
   123          0
   124          0
   125          1
   126          1
   127          7
   128          0
   129          0
   130          0
   131          5
   132          1
   134          1
   135          0
   137          0
   139          0
   140          0
   141          0
   146          0
   147          3
   148          6
   149          1
   150          0
   151          0
   152          1
   153          0
   154          1
   155          0
   156         10
   157          0
   160          0
   162          0
   169          0
   193          2
   194          0
   211          0
   215          0
   218          0
   219          3
   220          0
   233          0
   236          0
   248          0
   250          0
   251          0
   252          0
   253          0
   254          0
   258          0
   262          1
   263          0
   265          0
   274          0
   293          0
   294          0
   296          0
   297          0
   302          0
   304         14
   305          2
   306          0