##TITLE=Library Entry 44933
##JCAMP-DX=Revision 4.10 
##DATA TYPE=MASS SPECTRUM
##SAMPLE DESCRIPTION=M.KATES DEPT. BIOCHEM., UNIV. OF OTTAWA, OTTAWA, CANADA
##NAMES=HP
##CAS NAME=Octadecanoic acid, 5,9,13,17-tetramethyl-, methyl ester, [5R-(5R*
,9R*,13R*)]-
##MOLFORM=C23H46O2
##CAS REGISTRY NO=34656-34-3
##MP= -300
##BP= -300
##MW= 354
##$RETENTION INDEX=0
##$CONDENSED SPECTRUM=NO
##NPOINTS= 58
##XYDATA=(XY..XY) 1 
    40        110
    41        300
    42         70
    43        540
    44        350
    55        470
    56        570
    57        630
    59         80
    67         80
    68         50
    69        410
    70        130
    71        400
    74        999
    75        370
    81        100
    82         70
    83        240
    84         70
    85        220
    87        610
    88        110
    96         60
    97        270
    98         13
    99        100
   101        300
   102         50
   109         70
   111        170
   112         80
   113         80
   115         50
   123         50
   125        120
   126         80
   127         80
   129        380
   139         70
   141        100
   143         90
   149        190
   155         60
   157        130
   167         90
   171         70
   199         80
   241         60
   270         50
   278         50
   280         30
   311        320
   312        100
   323         50
   340        100
   354        760
   355        220