##TITLE=Library Entry 3297
##JCAMP-DX=Revision 4.10 
##DATA TYPE=MASS SPECTRUM
##SAMPLE DESCRIPTION=Chemical Concepts
##NAMES=HP
##CAS NAME=2-Amino-N,N-dicyclopentyl-3,5-dinitrobenzamide
##MOLFORM=C17H22N4O5
##CAS REGISTRY NO=346663-70-5
##MP= -300
##BP= -300
##MW= 362
##$RETENTION INDEX=0
##$CONDENSED SPECTRUM=NO
##NPOINTS= 85
##XYDATA=(XY..XY) 1 
    35          5
    36          8
    37         11
    39        264
    41        999
    42        117
    43         66
    44         38
    45          7
    46          6
    50         29
    51         25
    52         54
    53         69
    54         54
    55         70
    56        136
    57         26
    58         40
    62         76
    63         69
    65         52
    67        206
    69        300
    70         13
    72         15
    74          3
    75         19
    76         20
    77         29
    78         38
    79         11
    80         24
    82         48
    84        151
    86         71
    87          7
    90        242
    91         16
    92          7
    94          8
    95          8
    96         12
   100          2
   101          8
   103          8
   104          6
   105          6
   106          6
   109          1
   110         21
   111          2
   116          7
   117         14
   118         44
   119          3
   124        108
   134          6
   135          6
   136         13
   137          3
   145          4
   152         45
   153          8
   164        119
   165          9
   191          9
   193          5
   194          9
   210         88
   211          8
   217          1
   219          2
   221          2
   226         11
   227          8
   237         18
   248          4
   249          2
   251          2
   276          1
   277          4
   278          2
   345         10
   362          6