##TITLE=Library Entry 28950
##JCAMP-DX=Revision 4.10 
##DATA TYPE=MASS SPECTRUM
##SAMPLE DESCRIPTION=A.A.Kutin, Moscow, Russia
##NAMES=HP
##CAS NAME=Acetamide, N-[1-(4-chlorophenoxymethyl)-1-methylethyl]-
##MOLFORM=C12H16ClNO2
##CAS REGISTRY NO=346662-74-6
##MP= -300
##BP= -300
##MW= 241
##$RETENTION INDEX=0
##$CONDENSED SPECTRUM=NO
##NPOINTS= 112
##XYDATA=(XY..XY) 1 
    35          0
    36          2
    37          2
    38         13
    39         58
    40         18
    41         69
    42        189
    43        383
    44         33
    45          2
    47          0
    49          0
    50         32
    51         21
    52          2
    53         15
    54          8
    55        180
    56         50
    58        999
    60        108
    61          6
    62          9
    63         41
    64         14
    65         21
    66          2
    68          2
    70         41
    71         25
    72        344
    73         68
    74         18
    75         95
    76         23
    77         28
    78          5
    79          2
    84          8
    85         10
    86          2
    87          2
    88          3
    89          2
    90          3
    91         10
    92          3
    93          3
    94          1
    97          1
    99         66
   100        186
   101         26
   102          3
   103          4
   104          3
   105          1
   106          0
   107          2
   108          0
   111        120
   112         18
   113         56
   114        805
   115         53
   116          4
   117          3
   118          2
   119          4
   120          2
   121          0
   125          7
   126          3
   127         19
   128        117
   129         15
   130         36
   131          4
   132          3
   138          0
   139          6
   140          0
   141         22
   142          7
   143          6
   144          0
   145          0
   147         10
   148          5
   149          2
   152          0
   153          3
   154          3
   155          1
   163          7
   167         13
   168          2
   169          5
   170         12
   171          3
   181         18
   182        376
   183         46
   184        135
   185         14
   186          3
   190          0
   191          1
   241         18
   242          1
   243          5