##TITLE=Library Entry 97514
##JCAMP-DX=Revision 4.10 
##DATA TYPE=MASS SPECTRUM
##SAMPLE DESCRIPTION=A.A.Kutin, Moscow, Russia
##NAMES=HP
##CAS NAME=Indole, 2,3-dihydro-5-bromo-1-(2-naphthylsulfonyl)-
##MOLFORM=C18H14BrNO2S
##CAS REGISTRY NO=346662-79-1
##MP= -300
##BP= -300
##MW= 387
##$RETENTION INDEX=0
##$CONDENSED SPECTRUM=NO
##NPOINTS= 173
##XYDATA=(XY..XY) 1 
    34          0
    37          1
    38          5
    39         29
    40          9
    41          6
    42          2
    43          5
    44          2
    45          2
    48          4
    49          0
    50         19
    51         37
    52          8
    53          3
    54          0
    55          3
    56          1
    57          3
    58          4
    59          1
    60          0
    61          2
    62         18
    63         67
    64         21
    65         11
    66          1
    67          1
    69          4
    70          2
    71          1
    72          2
    74         19
    75         40
    76         25
    77         81
    78          9
    79          2
    80          1
    81          2
    82          1
    83          0
    84          0
    86          8
    87         13
    88         11
    89        177
    90        218
    91         23
    92          1
    93          1
    94          0
    95          1
    97          1
    98          5
    99          6
   100          7
   101         47
   102         10
   103          3
   104          1
   105          0
   106          0
   107          0
   108          0
   110          0
   111          1
   112          0
   113          2
   114          7
   115         27
   116         45
   117        999
   118         89
   119          5
   120          1
   121          1
   122          0
   123          0
   125          7
   126        109
   127        424
   128         91
   129          8
   131          2
   132          0
   133          0
   134          0
   135          1
   136          0
   138          0
   139          1
   140          0
   141          1
   142          0
   143          3
   144          3
   145          3
   146          0
   147         11
   149          4
   151          0
   152          1
   154          0
   155          0
   157          0
   158          2
   159          0
   160          1
   161          0
   163          2
   164          0
   165          0
   167          1
   168          1
   169         46
   170          5
   171         46
   172          2
   174          1
   175         12
   176          2
   177          1
   178          0
   181          5
   182          1
   183          0
   184          0
   187          0
   188          0
   189          1
   191         15
   192          5
   193          1
   195         12
   196        188
   197         34
   198        177
   199         22
   200          1
   201          0
   202          5
   203          1
   204          0
   212          0
   213          2
   214          1
   215          9
   216          4
   217          4
   218          0
   227          0
   228          1
   229          0
   240          1
   241          5
   242          5
   243         15
   244         10
   245          1
   308          2
   309          0
   322          0
   323          0
   324          0
   387         63
   388         14
   389         66
   390         13
   391          4
   392          0