##TITLE=Library Entry 56061
##JCAMP-DX=Revision 4.10 
##DATA TYPE=MASS SPECTRUM
##SAMPLE DESCRIPTION=A.A.Kutin, Moscow, Russia
##NAMES=HP
##CAS NAME=Pyrimidine-2,4,6(1H,3H,5H)-trione, 5-[1-(2-diethylaminoethylamino
)propylidene]-
##MOLFORM=C13H22N4O3
##CAS REGISTRY NO=346611-80-1
##MP= -300
##BP= -300
##MW= 282
##$RETENTION INDEX=0
##$CONDENSED SPECTRUM=NO
##NPOINTS= 124
##XYDATA=(XY..XY) 1 
    39          9
    40          5
    42         72
    43         19
    44         42
    45          1
    51          2
    52          8
    53         17
    54         13
    56         62
    58        126
    59          2
    60          0
    62          0
    63          0
    65          1
    66          6
    67         12
    68         21
    69         11
    70         16
    71          8
    72         15
    73          2
    74          0
    76          0
    77          0
    78          3
    79          4
    80          8
    81          7
    82          8
    83          3
    84         12
    86        999
    87         54
    89          0
    91          0
    92          0
    93          2
    94          4
    95          3
    96          8
    97          4
    98          5
    99          4
   100          5
   101          1
   104          0
   106          4
   107          1
   108          1
   109          2
   110          3
   111          2
   112          2
   113          1
   115          1
   119          0
   120          0
   121          1
   122          2
   123          3
   124          9
   125          2
   126          0
   127          1
   128          0
   129          0
   134          0
   135          0
   136          1
   137          2
   138          1
   139          2
   140          1
   141          0
   142          0
   148          0
   149          1
   150          2
   151          1
   153          5
   154          2
   155          1
   156          0
   161          0
   163          0
   165          2
   166          2
   167          7
   168          1
   169          0
   177          0
   178          0
   179          0
   180          1
   181          0
   182          4
   183          4
   184          1
   191          0
   192          0
   193          0
   194          3
   196          4
   197          2
   198          0
   208          1
   209          1
   210          2
   211          0
   223          0
   237          0
   238          0
   251          0
   252          0
   254          0
   265          0
   267          0
   280          0
   281          0
   282          0