##TITLE=Library Entry 99291
##JCAMP-DX=Revision 4.10 
##DATA TYPE=MASS SPECTRUM
##SAMPLE DESCRIPTION=A.A.Kutin, Moscow, Russia
##NAMES=HP
##CAS NAME=Pyrimidine-2,4,6(1H,3H,5H)-trione, 5-(2,4,6-trimethoxybenzylidene
)-1-phenyl-
##MOLFORM=C20H18N2O6
##CAS REGISTRY NO=346612-56-4
##MP= -300
##BP= -300
##MW= 382
##$RETENTION INDEX=0
##$CONDENSED SPECTRUM=NO
##NPOINTS= 229
##XYDATA=(XY..XY) 1 
    35         13
    37         14
    39        165
    40         32
    41         91
    42         32
    43         59
    44         53
    45         11
    47         13
    50         66
    51        112
    52         56
    53         65
    54         12
    55         37
    56         16
    57         17
    59         66
    60          4
    62         40
    63        208
    64        213
    65        298
    66         46
    67         19
    69        211
    70         58
    71         10
    72          2
    73         13
    74         30
    75         79
    76        189
    77        392
    78        126
    79         85
    80         18
    81         18
    82         15
    83         19
    84          9
    86         21
    87         27
    88         37
    89        115
    91        853
    92        107
    93        169
    94         28
    95         31
    96          8
    97          5
    99          9
   100         12
   101         18
   102         51
   103        123
   104         79
   105         97
   106        125
   107         36
   108         21
   109         37
   110          8
   111          8
   112          1
   113          3
   114          9
   115         28
   116         36
   117         95
   119        999
   120        114
   121        258
   122         45
   123         21
   124         13
   125         31
   126          9
   127          7
   128         27
   129         12
   130         35
   131         52
   132         52
   133        102
   134        140
   135         96
   136         29
   137         30
   138         28
   139         12
   140          9
   141          8
   142         10
   144         22
   145         33
   146         85
   147        123
   148         70
   149        196
   150         30
   151         97
   152         16
   153         11
   154         18
   155          8
   156          5
   157          4
   158         17
   159         19
   160         47
   161        146
   162         49
   163         65
   164         34
   165         24
   166         14
   167         13
   168          8
   169          9
   170          8
   171          4
   172          7
   173         10
   174         25
   175         36
   176         85
   177        139
   178         56
   179        125
   180         18
   181         12
   182          4
   183          4
   184          2
   185          3
   186          8
   187          7
   188         31
   189         29
   190         30
   191        329
   192         68
   193         20
   194          8
   195          7
   196          8
   197          2
   199          2
   200          1
   201          3
   202         10
   203         33
   204         20
   205         46
   206         38
   207          7
   208          5
   209          2
   210          4
   211          1
   215          1
   216          7
   217         18
   218         14
   219         35
   220         11
   221         11
   222         18
   223          4
   225          6
   226          1
   229          1
   231         53
   232        227
   233         88
   234         14
   235          4
   236          5
   237          1
   239          1
   245          6
   246         96
   247         35
   248          9
   250         15
   251          2
   252          2
   253          1
   257          1
   260          7
   261          2
   262          2
   263          2
   264         13
   265          6
   266          2
   268          9
   276          1
   278          4
   279          1
   280          4
   282          1
   289          1
   290          1
   292          8
   293         25
   294          5
   295          4
   296          1
   306          1
   307          5
   308        237
   309         46
   310          5
   312          1
   322         21
   323          4
   351        379
   352         84
   353         13
   365         45
   366          8
   367          1
   382         51
   383         11
   384          1