##TITLE=Library Entry 61517
##JCAMP-DX=Revision 4.10 
##DATA TYPE=MASS SPECTRUM
##SAMPLE DESCRIPTION=Chemical Concepts
##NAMES=HP
##CAS NAME=Benzenepropanoic acid, .alpha.-methyl-, ethyl ester
##MOLFORM=C12H16O2
##CAS REGISTRY NO=34666-01-8
##MP= -300
##BP= -300
##MW= 192
##$RETENTION INDEX=0
##$CONDENSED SPECTRUM=NO
##NPOINTS= 118
##XYDATA=(XY..XY) 1 
    26          6
    27         42
    28          5
    29         75
    30          2
    31          4
    35          9
    36          1
    37          3
    38          4
    39         62
    40          6
    41         81
    42          4
    43         11
    44          2
    45          8
    47         25
    48          4
    49         16
    50         14
    51         50
    52         12
    53          6
    54          1
    55          7
    56          6
    57         40
    58          6
    59          2
    60          2
    61          1
    62          5
    63         23
    64          6
    65         83
    66          6
    67          1
    69          2
    70          2
    71          2
    72          2
    73          7
    74          5
    75          6
    76          6
    77         50
    78         51
    79         27
    80          2
    81          1
    82          3
    83         27
    84         79
    85         18
    86         50
    87          3
    88          9
    89         19
    90         10
    91        999
    92         97
    93          6
    94          1
    95          1
    97          1
   101          3
   102          7
   103         27
   104         27
   106          4
   107        108
   108          9
   109          0
   111          1
   113          1
   114          1
   115         37
   116         22
   117         82
   118        537
   119        232
   120         21
   121          3
   122          0
   123          0
   125          0
   127          1
   128          1
   129          1
   130          1
   131         36
   132          4
   133          2
   134          1
   135          5
   136          1
   141          0
   143          0
   144          2
   145          7
   146          5
   147         60
   148          8
   149         11
   150          3
   161          2
   162          0
   163          5
   164          3
   165          0
   177         19
   178          3
   190          4
   191          1
   192        157
   193         21
   194          3