##TITLE=Library Entry 90702
##JCAMP-DX=Revision 4.10 
##DATA TYPE=MASS SPECTRUM
##SAMPLE DESCRIPTION=A.A.Kutin, Moscow, Russia
##NAMES=HP
##CAS NAME=Propanedinitrile, 2-[4-(4-methyl-3-furoxanylmethoxy)benzylideno]-
##MOLFORM=C14H10N4O3
##CAS REGISTRY NO=346646-11-5
##MP= -300
##BP= -300
##MW= 282
##$RETENTION INDEX=0
##$CONDENSED SPECTRUM=NO
##NPOINTS= 167
##XYDATA=(XY..XY) 1 
    37          1
    38          2
    39          3
    41          0
    43          3
    49          0
    50          9
    51         14
    53        101
    54          3
    55          0
    56          1
    57          0
    60          3
    61          1
    62          3
    63          7
    64          4
    65          2
    66         10
    67         22
    68          2
    69          0
    73          0
    74          2
    75          6
    76          5
    77          3
    78          1
    79          1
    80          1
    83        173
    84          7
    85          2
    86          4
    88         26
    89          7
    90          5
    91          6
    92          0
    96          0
    97          1
    98          3
    99          5
   100          8
   101          4
   102          6
   103          2
   105          5
   107          2
   108          0
   109          1
   110          1
   113        999
   115         59
   116          3
   117          2
   119         14
   120          1
   121          0
   123          0
   124          1
   126         33
   127          6
   128          9
   129          0
   130          0
   131          1
   133          0
   135          1
   136          0
   137          0
   139          6
   140          9
   141         17
   142         19
   143          8
   144          3
   145          2
   146          2
   147          1
   149          0
   150          0
   151          2
   153         55
   155         14
   156          2
   158          0
   159          0
   160          0
   161          0
   162          0
   164          2
   166          4
   167          2
   168          4
   170        104
   171          4
   175          0
   176          1
   177          1
   178          1
   179         15
   180          5
   183         49
   184          4
   186          0
   187          0
   188          0
   189          0
   191          2
   192          3
   193          3
   194          2
   195          1
   196          0
   197          0
   199          1
   200          0
   201          0
   205          1
   207         15
   208          3
   209          1
   210          1
   211          2
   212          0
   219          2
   220          1
   221          8
   222         11
   223          1
   224          1
   225          0
   226          2
   227          0
   229          0
   231          0
   232          0
   234         11
   235          1
   236          2
   237          0
   240          0
   241          1
   242          0
   244          0
   246          0
   247          0
   252          1
   254          5
   255          0
   258          0
   260          0
   261          0
   264          0
   265          2
   266          0
   268          0
   269          2
   278          0
   279          1
   280          4
   282        212
   283         20
   285          1
   288          0