##TITLE=Library Entry 35174
##JCAMP-DX=Revision 4.10 
##DATA TYPE=MASS SPECTRUM
##SAMPLE DESCRIPTION=A.A.Kutin, Moscow, Russia
##NAMES=HP
##CAS NAME=Pyrimidine-4,6-dione, hexahydro-3-ethyl-5-(5-nitrothiophen-2-ylme
thylidene)-2-thioxo-
##MOLFORM=C11H9N3O4S2
##CAS REGISTRY NO=346612-51-9
##MP= -300
##BP= -300
##MW= 311
##$RETENTION INDEX=0
##$CONDENSED SPECTRUM=NO
##NPOINTS= 205
##XYDATA=(XY..XY) 1 
    33          4
    35          3
    37         17
    38         42
    39         70
    40         29
    42        330
    44        749
    45        267
    46         86
    47         20
    48          3
    49          3
    50         88
    51         75
    53        314
    54         57
    55         62
    56         57
    57        136
    59        320
    60        508
    61        112
    63        953
    64         77
    65         18
    66         13
    68         55
    69        999
    70        233
    71         53
    72         49
    73         32
    74         43
    75         88
    77        252
    78         56
    79         53
    81        166
    82        155
    83         40
    84         39
    86        711
    87         50
    88         67
    89         27
    90         48
    91         44
    92         27
    93         63
    95        777
    96        208
    97         82
    98         50
    99          9
   100          3
   101         78
   102         27
   103         24
   104         62
   105         78
   106        119
   107        305
   108        213
   109         69
   110         39
   111         22
   112         19
   113         17
   114          9
   115         13
   116         16
   117         29
   118         10
   119         16
   120         61
   121        138
   122        167
   123        253
   124         66
   125         12
   126         26
   127         17
   128         13
   129         21
   130          5
   131          6
   132         49
   133         59
   134         76
   135        280
   136        105
   137        167
   138         90
   139        175
   140         81
   141         27
   142         30
   143          9
   144          4
   145          1
   146          5
   147          8
   148         23
   149         55
   150        260
   151        127
   152         72
   153        101
   154         23
   155         48
   156          8
   157          9
   158          6
   160          5
   161         13
   162         16
   163         22
   164         19
   165         54
   166         51
   167         95
   168        120
   169         55
   170         16
   171         10
   172         10
   173          0
   174         16
   175         16
   176         17
   178        150
   179         98
   180         52
   181        194
   182        285
   183         89
   184         25
   185        112
   187         51
   189          1
   192          6
   193         22
   194         74
   195         29
   196         46
   197         25
   198          8
   199         43
   201          3
   203          2
   204          5
   205         11
   206         10
   207         33
   208        100
   209        101
   210         30
   211          7
   215          4
   220          4
   221          4
   222         41
   223         21
   224          4
   225         75
   226         11
   227          1
   232          1
   234          1
   235          4
   236         33
   237        116
   238         18
   239          8
   240         12
   241          2
   242         10
   250          6
   251         29
   252         17
   253          2
   254          2
   255         11
   264          9
   265        147
   266         34
   267         16
   268         23
   269         24
   270          3
   278         77
   279         12
   280          1
   282         30
   283         26
   284          9
   294         42
   295          8
   296          3
   310        167
   311        486
   312         97
   313         49
   314          3