##TITLE=Library Entry 68789
##JCAMP-DX=Revision 4.10 
##DATA TYPE=MASS SPECTRUM
##SAMPLE DESCRIPTION=A.A.Kutin, Moscow, Russia
##NAMES=HP
##CAS NAME=4-Fluoro-N-(2,4,5-trichloro-phenyl)-benzenesulfonamide
##MOLFORM=C12H7Cl3FNO2S
##CAS REGISTRY NO=346691-99-4
##MP= -300
##BP= -300
##MW= 353
##$RETENTION INDEX=0
##$CONDENSED SPECTRUM=NO
##NPOINTS= 210
##XYDATA=(XY..XY) 1 
    35          6
    36          8
    37         23
    38         17
    39         19
    40          2
    41          1
    42          1
    43          1
    45         18
    47         12
    48          8
    49         22
    50         85
    51         63
    52         32
    53          2
    54          1
    57         40
    58          3
    60         12
    61         63
    62         98
    63         30
    64         13
    65          4
    66          1
    68         32
    69         82
    70          9
    71         18
    72         35
    73         43
    74         77
    75        360
    76         37
    77          2
    79          4
    81          7
    82          8
    83         66
    84         14
    85         27
    86         12
    87         23
    88         53
    89         11
    90          2
    91          1
    92          4
    93         11
    95        999
    96        107
    97        135
    98         38
    99         56
   100         11
   101          4
   102          1
   103          1
   104          1
   105          1
   107         68
   108         13
   109         47
   110          9
   111         22
   112          7
   113          2
   115         26
   116          2
   117          5
   118          2
   119          4
   120          2
   121          3
   122         12
   123         11
   124         66
   125          9
   126         25
   127          7
   128          1
   129          1
   131         20
   132         16
   133         18
   134         10
   135          6
   136          2
   137          1
   138          1
   139          1
   140          1
   141          2
   143         56
   144          7
   145          5
   146          2
   147          1
   148          1
   149          1
   150          1
   151          1
   152          1
   153          1
   154          1
   155          2
   156          3
   158         77
   159        788
   160        102
   161         73
   162         12
   163          7
   164          1
   167        276
   169        268
   170         18
   171         87
   172          5
   173          9
   174          1
   175          1
   176          1
   177          1
   178          1
   179          1
   180          1
   181          1
   182          6
   183          3
   184          6
   185          1
   186          1
   187          1
   188          1
   189          1
   190          1
   191          3
   194        414
   196        397
   197         39
   198        130
   199         12
   200         15
   201          2
   202          1
   203          1
   205          1
   206          1
   208          1
   209          1
   210          1
   211          1
   212          1
   214          1
   216          1
   218          9
   219         13
   220          5
   221          4
   222          1
   225          1
   227          2
   228          1
   229          1
   230          1
   231          1
   232          1
   233          1
   234          1
   235          1
   236          1
   237          1
   238          1
   240          1
   241          1
   242          1
   253          8
   254          6
   255          6
   256          3
   257          1
   258          1
   269          1
   270          1
   271          1
   287          1
   288          1
   289          2
   290          1
   291          2
   292          1
   293          1
   294          1
   317          1
   318          1
   319          1
   320          1
   321          1
   322          1
   353        137
   355        139
   356         23
   357         50
   358          7
   359          7
   360          1
   361          1