##TITLE=Library Entry 56374
##JCAMP-DX=Revision 4.10 
##DATA TYPE=MASS SPECTRUM
##SAMPLE DESCRIPTION=A.A.Kutin, Moscow, Russia
##NAMES=HP
##CAS NAME=Pyrimidine-2.4.6(1H,3H,5H)-trione, 1-benzyl-5-(ethyl)(4-diethylam
ino-1-methylbutylamino)methylene-
##MOLFORM=C23H34N4O3
##CAS REGISTRY NO=346611-93-6
##MP= -300
##BP= -300
##MW= 414
##$RETENTION INDEX=0
##$CONDENSED SPECTRUM=NO
##NPOINTS= 44
##XYDATA=(XY..XY) 1 
    36          4
    40        138
    41         85
    42         92
    43         59
    44         94
    45          5
    51          4
    53          6
    55         37
    56         83
    57         41
    58        133
    65         30
    67          5
    68          4
    69         43
    70         28
    71         23
    72         35
    77          7
    82          4
    83         13
    84         62
    86        999
    87         45
    91        377
    92         25
    98         27
    99         38
   104          5
   106         23
   112         77
   113         50
   123          4
   124          4
   126        110
   132         64
   139         41
   140          5
   200         29
   302         52
   385          4
   414         10