##TITLE=Library Entry 37598
##JCAMP-DX=Revision 4.10 
##DATA TYPE=MASS SPECTRUM
##SAMPLE DESCRIPTION=A.A.Kutin, Moscow, Russia
##NAMES=HP
##CAS NAME=Acetic acid, [4-(4-methyl-1-piperazinylcarbonyl)phenyl] ester
##MOLFORM=C14H18N2O3
##CAS REGISTRY NO=346699-90-9
##MP= -300
##BP= -300
##MW= 262
##$RETENTION INDEX=0
##$CONDENSED SPECTRUM=NO
##NPOINTS= 140
##XYDATA=(XY..XY) 1 
    39         17
    40         11
    41         14
    42        135
    43        236
    44         46
    45          1
    46          0
    50          2
    51          2
    52          1
    53          2
    54         10
    55         22
    56        219
    57         43
    58        284
    59          8
    60          0
    61          0
    62          1
    63         10
    64         12
    65         38
    66          4
    67          1
    68          3
    70        999
    71         90
    72         25
    73          1
    74          0
    75          1
    76          3
    77          4
    78          1
    79          1
    80          0
    81          2
    82         21
    83        305
    84         26
    85          4
    86          1
    89          0
    91          3
    92         14
    93         35
    94          3
    95          1
    96          1
    97         10
    99        230
   100         20
   101          0
   103          0
   104          2
   105          2
   107          6
   108          1
   109          0
   111          0
   113          2
   114          0
   116          0
   117          0
   118          1
   119          2
   121        200
   122         16
   123          1
   125          0
   127          0
   128          0
   129          0
   130          0
   132          0
   133          1
   134          2
   135          2
   136          1
   137          0
   138          0
   139          0
   141          0
   142          3
   143          0
   144          0
   145          1
   146          4
   147          1
   148          2
   149          1
   150          5
   151          0
   152          0
   153          0
   154          0
   159          0
   160          0
   162          7
   163         33
   164          7
   165          1
   166          0
   174          0
   175          2
   176         15
   177          2
   178          3
   179          0
   185          0
   190          0
   191          1
   192          1
   193          0
   194          0
   201          0
   203          0
   204          0
   205          3
   206          3
   207          0
   214          0
   218          6
   219          2
   220          2
   221          0
   233          0
   234          0
   245          0
   247          1
   248          0
   258          0
   260          1
   261          3
   262         63
   263         10
   264          1
   265          0