##TITLE=Library Entry 28611
##JCAMP-DX=Revision 4.10 
##DATA TYPE=MASS SPECTRUM
##SAMPLE DESCRIPTION=A.A.Kutin, Moscow, Russia
##NAMES=HP
##CAS NAME=2,4,6(1H,3H,5H)-Pyrimidinetrione, 1-[2-(1-cyclohexen-1-yl)ethyl]-
5-[[[2-(dimethylamino)ethyl]amino]methylene]-
##MOLFORM=C17H26N4O3
##CAS REGISTRY NO=346611-74-3
##MP= -300
##BP= -300
##MW= 334
##$RETENTION INDEX=0
##$CONDENSED SPECTRUM=NO
##NPOINTS= 181
##XYDATA=(XY..XY) 1 
    39         12
    40          6
    41         30
    42         43
    43         18
    44         16
    45          5
    46          0
    50          1
    51          3
    52          3
    53         17
    54         12
    55         19
    56         21
    58        999
    59         24
    60          1
    61          0
    63          1
    65          8
    67         26
    68          7
    69          8
    70         12
    71          7
    72         18
    73          2
    74          0
    75          0
    76          0
    77         17
    79         44
    80         11
    81         11
    82          7
    83          7
    84          3
    85          3
    87          2
    89          0
    91         17
    93         23
    94          5
    95          5
    96          4
    97          9
    98          4
    99          1
   101          0
   103          1
   104          1
   105          4
   106          3
   107          6
   108          5
   109         10
   110         30
   111          3
   112          2
   113          1
   114          0
   115          0
   116          0
   117          0
   118          0
   119          1
   120          1
   121          1
   122          5
   123          2
   124          3
   125         15
   126          2
   128          2
   129          1
   130          0
   131          0
   132          0
   133          0
   134          0
   135          1
   136          1
   137          3
   138          1
   139          7
   140          2
   141          6
   142          2
   143          0
   144          0
   145          0
   147          0
   148          0
   149          2
   150          0
   151          3
   152          7
   153          2
   154          6
   155          2
   156          1
   157          0
   158          0
   159          0
   161          0
   162          0
   163          1
   165          3
   166          0
   167          8
   168         14
   169         24
   170          3
   171          3
   172          1
   173          0
   178          0
   180          1
   181          1
   182         11
   183          1
   184          0
   185          0
   186          0
   189          0
   190          0
   193          0
   194          2
   195          0
   196          3
   197          0
   198          0
   199          0
   200          4
   201          0
   203          0
   207          0
   208          0
   209          0
   210          1
   211          0
   215          0
   216          0
   224          2
   225          4
   226          0
   227         10
   228          1
   229          0
   230          0
   231          0
   236          0
   237          1
   238          0
   239          1
   240          0
   241          0
   242          1
   243          0
   244          0
   249          0
   251          0
   256          1
   257          0
   264          1
   265          0
   267          0
   276          1
   277          0
   281          0
   283          1
   284          0
   285          0
   301          0
   332          0
   333          1
   334         22
   335          5
   336          0
   339          0