##TITLE=Library Entry 56144
##JCAMP-DX=Revision 4.10 
##DATA TYPE=MASS SPECTRUM
##SAMPLE DESCRIPTION=A.A.Kutin, Moscow, Russia
##NAMES=HP
##CAS NAME=Pyrimidine-2,4,6(1H,3H,5H)-trione, 5-[1-(2-diethylaminoethylamino
)propylidene]-1-(4-methoxyphenyl)-
##MOLFORM=C20H28N4O4
##CAS REGISTRY NO=346611-77-6
##MP= -300
##BP= -300
##MW= 388
##$RETENTION INDEX=0
##$CONDENSED SPECTRUM=NO
##NPOINTS= 83
##XYDATA=(XY..XY) 1 
    39         11
    40         16
    41         33
    42         36
    43         20
    44         37
    51          4
    52          2
    53         18
    54         10
    55         10
    56         59
    58        127
    65          4
    67          7
    68         17
    69         13
    70         19
    71         12
    72         11
    73          2
    77          5
    78          9
    79          5
    80         13
    81         13
    82          9
    84         28
    86        999
    87         48
    90          2
    91          3
    93          2
    94          4
    95          4
    96          9
    97          3
    98         11
    99          9
   100          3
   106         19
   107          4
   108         11
   109          3
   110          3
   111          4
   112         14
   113          5
   115          1
   119          1
   120          0
   121          6
   122         12
   123         20
   124          4
   126          9
   133          1
   134         56
   135          6
   138          9
   139          4
   146          1
   149         83
   150         12
   151          1
   153          5
   160          2
   161          3
   165          2
   167          4
   179          1
   182          1
   183          1
   210          0
   212          1
   273         16
   274          0
   287          2
   289          3
   301          1
   302          5
   303          6
   388          5