##TITLE=Library Entry 62887
##JCAMP-DX=Revision 4.10 
##DATA TYPE=MASS SPECTRUM
##SAMPLE DESCRIPTION=A.A.Kutin, Moscow, Russia
##NAMES=HP
##CAS NAME=1-Benzyl-5-(2-methoxy-5-nitro-benzylsulfanyl)-1H-tetrazole
##MOLFORM=C16H15N5O3S
##CAS REGISTRY NO=346638-80-0
##MP= -300
##BP= -300
##MW= 357
##$RETENTION INDEX=0
##$CONDENSED SPECTRUM=NO
##NPOINTS= 223
##XYDATA=(XY..XY) 1 
    33          0
    34          1
    36          0
    37          0
    38          5
    39         50
    40         10
    41         15
    42          2
    43          3
    44          4
    45         12
    46          2
    47          4
    48          0
    49          0
    50         19
    51         79
    52         13
    53         11
    54          2
    55          4
    56          0
    57          1
    58          1
    59          1
    60          1
    61          1
    62          6
    63         32
    64         14
    65        121
    66          9
    67          2
    68          0
    69          7
    70          1
    71          1
    72          4
    73          0
    74          3
    75          6
    76         14
    77         79
    78         66
    79         17
    80          4
    81          1
    82          2
    83          1
    84          0
    85          0
    86          1
    87          3
    89         77
    90        132
    91        999
    92         86
    93          9
    94          3
    95          1
    96          1
    97          1
    98          0
   102          1
   103          5
   104         15
   105         31
   106         84
   107         10
   108         10
   109         15
   110          2
   111          1
   112          0
   115          1
   116          2
   117         11
   118         23
   119          9
   120         51
   121         16
   122          3
   123          4
   124          0
   125          0
   127          0
   128          0
   129          4
   130          4
   131         97
   132         47
   133          6
   134          3
   135         11
   136         82
   137         13
   138          4
   139          1
   140          0
   144          0
   145          1
   146          2
   147          2
   148         11
   149          8
   150         16
   151          7
   152         12
   153          4
   154          0
   155          0
   159          0
   160          0
   161          1
   162          1
   163         13
   164         19
   166        507
   167         49
   168          6
   169          0
   171          1
   172          0
   174          0
   175          0
   176          0
   177          2
   178          2
   179          4
   180          4
   181         32
   182         13
   183          8
   184          1
   185          0
   187          0
   189          1
   190          0
   191          1
   192          3
   193          3
   194          1
   195          0
   196          3
   197          5
   198         10
   199         13
   200          1
   201          0
   205          0
   206          2
   207          5
   208          2
   209          2
   210          1
   211          2
   212          0
   220          0
   221          0
   223         17
   224          2
   225          1
   226          0
   227          0
   229          0
   233          4
   234          1
   235          0
   236          0
   238          1
   239          0
   240          0
   241          0
   242          0
   247          0
   251          0
   252          1
   253          1
   254          1
   255          9
   256         11
   257          2
   264          0
   266         16
   267          2
   268          1
   269          1
   270          0
   271          0
   279          0
   282          4
   283          3
   284          0
   285          0
   287          0
   293          0
   294          0
   295          1
   296          9
   298         16
   299          2
   300          0
   301          0
   310          0
   311          1
   312          1
   313          0
   314          0
   324          1
   326         82
   327         15
   328          7
   329          5
   330          0
   339          0
   340          8
   341          1
   342          0
   357         48
   358          8
   359          2
   360          0