##TITLE=Library Entry 73599
##JCAMP-DX=Revision 4.10 
##DATA TYPE=MASS SPECTRUM
##SAMPLE DESCRIPTION=MASS SPECTROMETRY CENTER, UNIV. OF UTAH ALDRICH 11561-4
##NAMES=HP
##CAS NAME=Benzonitrile, 5-chloro-2-nitro-
##MOLFORM=C7H3ClN2O2
##CAS REGISTRY NO=34662-31-2
##MP= -300
##BP= -300
##MW= 182
##$RETENTION INDEX=0
##$CONDENSED SPECTRUM=NO
##NPOINTS= 72
##XYDATA=(XY..XY) 1 
    12          7
    25          3
    26         25
    27         80
    30        255
    31         15
    35         17
    36         58
    37        104
    38        106
    39         30
    46         48
    47         26
    48         23
    49        107
    50        400
    51         87
    52         32
    55          0
    60         31
    61        106
    62        113
    63         80
    64         67
    65          4
    71          1
    72         32
    73        179
    74        235
    75        468
    76        135
    77         13
    84         46
    85         89
    86         50
    87         47
    88         47
    89         28
    90         14
    97         35
    98         41
    99        171
   100        999
   101        130
   102          1
   108          0
   109        105
   110        116
   111         41
   112         47
   115         12
   117         12
   124        568
   125         47
   126        186
   127         21
   135         18
   136        562
   137         53
   138        207
   139         29
   140         11
   152        437
   153         39
   154        136
   155         20
   166         50
   168         18
   182        988
   183         83
   184        307
   185         36