##TITLE=Library Entry 55926
##JCAMP-DX=Revision 4.10 
##DATA TYPE=MASS SPECTRUM
##SAMPLE DESCRIPTION=A.A.Kutin, Moscow, Russia
##NAMES=HP
##CAS NAME=Propanamide, 3-cyclopentyl-N-[4-(4-morpholylsulfonyl)phenyl]-
##MOLFORM=C18H26N2O4S
##CAS REGISTRY NO=346662-22-4
##MP= -300
##BP= -300
##MW= 366
##$RETENTION INDEX=0
##$CONDENSED SPECTRUM=NO
##NPOINTS= 154
##XYDATA=(XY..XY) 1 
    35          0
    36          0
    38          2
    39        143
    40         46
    41        525
    42        138
    43         64
    44          3
    45         15
    46          1
    49          0
    50         10
    51         12
    52         12
    53         66
    54         77
    55        854
    56        940
    57         75
    58          9
    59          1
    62          1
    63         30
    64         34
    65        134
    66         22
    67         74
    68          7
    69        130
    70         12
    72          4
    74          2
    75          6
    76         43
    77         20
    78          5
    79        104
    80         18
    81         86
    82         11
    83         14
    84         10
    85         33
    86        999
    87         82
    88        116
    89          7
    90         21
    91         71
    92        173
    93        155
    94         22
    95         23
    96          9
    97         75
    98          3
   103          1
   104         11
   105         38
   106         78
   107        328
   108         87
   109          3
   115          0
   116          1
   117          6
   118         19
   119         37
   120         27
   121          6
   122          1
   123          0
   124          6
   125        137
   126         15
   130          2
   131          5
   132         16
   133        132
   134         46
   135         20
   136          3
   139          7
   140         60
   141          8
   142          0
   145          1
   146         14
   147          9
   148          1
   151          0
   154          1
   155         15
   156        347
   157         54
   158         13
   166          0
   173          1
   174          1
   176          0
   177         56
   178         14
   179          0
   182         14
   184         11
   185          9
   186          2
   187          0
   195          0
   196          2
   197         10
   198         14
   199          2
   201          0
   210          3
   211          4
   214          2
   215          6
   216         23
   217          8
   218          0
   219          1
   220          0
   226          2
   227          5
   230          1
   231         26
   232          1
   236          0
   240          1
   241         14
   242        473
   243         71
   244         32
   245          1
   255          0
   278          2
   280         48
   281          8
   282          3
   283         18
   284        760
   285        118
   286         45
   287          3
   297         12
   323          0
   325          0
   364          1
   365         17
   366        515
   367        158
   368         43