##TITLE=Library Entry 19518
##JCAMP-DX=Revision 4.10 
##DATA TYPE=MASS SPECTRUM
##SAMPLE DESCRIPTION=Div. of Experiment Therapeutics WRAIR, WRAMC, Washingto
n DC 20307
##NAMES=HP
##CAS NAME=3-[8-Cyclohexyloctyl]-1,4-dimethoxy-2-naphthol
##MOLFORM=C26H38O3
##CAS REGISTRY NO=34664-89-6
##MP= -300
##BP= -300
##MW= 398
##$RETENTION INDEX=0
##$CONDENSED SPECTRUM=NO
##NPOINTS= 181
##XYDATA=(XY..XY) 1 
    41        655
    42         75
    43        233
    44         30
    45         38
    47          2
    49         24
    50         27
    51         30
    53         83
    55        999
    56         44
    57         49
    59         30
    60          5
    63         13
    65         31
    66          3
    67        156
    69        204
    70         15
    71         23
    73         12
    74         16
    76         89
    77        113
    79         63
    81        134
    83        208
    84         20
    85         14
    86          2
    87         20
    88         10
    89         24
    91         51
    92         15
    93         22
    95         88
    97         75
    98         11
   101         15
   102         30
   103         38
   104         88
   105        115
   106         12
   107         15
   109         55
   110          4
   111         12
   113         10
   115        112
   116         37
   117         26
   118          9
   119         11
   121         33
   123         39
   125          2
   127         33
   128         28
   129         46
   130          5
   131         55
   132          7
   133         89
   134         14
   135         37
   136          8
   139          7
   141         28
   143         77
   144         33
   145         24
   146         72
   147         42
   149         95
   150          9
   151          9
   152          9
   153          8
   155         27
   157         43
   159        193
   160         50
   161         33
   163        520
   164         41
   165         15
   167          4
   169         23
   171         62
   172         11
   173        159
   174         39
   175         46
   176         43
   177         58
   178         43
   179         17
   181         16
   183         37
   184          4
   185         54
   187        163
   188         73
   189         71
   190         25
   191         29
   192          9
   193          7
   194          2
   195         10
   197         42
   198          4
   199         36
   201         18
   202        278
   203        150
   204         42
   205         66
   206         10
   207         19
   209          2
   211         20
   212          3
   213         41
   214          8
   215         24
   217         57
   218         17
   219         10
   220          4
   221          8
   222          2
   223         16
   225         15
   227         17
   228          2
   229          9
   230          4
   231          5
   233         20
   237         10
   239          3
   241          9
   243          2
   249         14
   253          4
   255         10
   286          2
   327          4
   339          9
   341         12
   350         17
   351          7
   353          9
   354         11
   355         17
   356          6
   357          2
   358          2
   366         11
   367         34
   368         50
   369          9
   370          8
   371          2
   372          7
   380         19
   381         10
   382         30
   383        108
   384         31
   385          7
   396         12
   397         23
   398        161
   399         52
   400         13