##TITLE=Library Entry 56379
##JCAMP-DX=Revision 4.10 
##DATA TYPE=MASS SPECTRUM
##SAMPLE DESCRIPTION=A.A.Kutin, Moscow, Russia
##NAMES=HP
##CAS NAME=Pyrimidine-2,4,6(1H,3H,5H)-trione, 1-benzyl-5-[1-(2-diethylaminoe
thylamino)propylidene]-
##MOLFORM=C20H28N4O3
##CAS REGISTRY NO=346611-94-7
##MP= -300
##BP= -300
##MW= 372
##$RETENTION INDEX=0
##$CONDENSED SPECTRUM=NO
##NPOINTS= 211
##XYDATA=(XY..XY) 1 
    39          9
    40          6
    41         15
    42         28
    43         12
    44         21
    45          1
    51          8
    52          4
    53          8
    54          8
    56         49
    58        109
    59          2
    60          0
    63          4
    65         24
    66          3
    67          6
    68         11
    69         11
    70         15
    71          9
    72         13
    73          2
    74          0
    75          0
    77         10
    78         13
    79          7
    80          7
    81          9
    82          9
    84         18
    86        999
    87         48
    89          7
    91        187
    92         12
    93          3
    94          4
    95          2
    96          6
    97          6
    98          6
    99          7
   100          9
   101          1
   102          0
   104         12
   105          7
   106         19
   107          4
   108          3
   109          5
   110          3
   111          4
   112          4
   113          3
   114          1
   115          2
   116          0
   117          1
   118          0
   119          0
   120          1
   121          1
   122          3
   123          4
   124          6
   125          2
   126          4
   127          2
   128          1
   129          2
   130          1
   132         30
   133          3
   134          1
   135          1
   136          1
   137          4
   138          6
   139          4
   140          2
   141          2
   142          1
   143          1
   144          0
   145          0
   146          0
   147          1
   148          0
   149          3
   150          2
   151          2
   152          2
   153          5
   154          1
   155          2
   156          1
   157          0
   158          0
   160          0
   162          0
   163          0
   164          0
   165          2
   166          2
   167          4
   168          1
   169          1
   170          0
   171          1
   172          1
   174          0
   175          0
   177          0
   178          0
   179          2
   180          1
   181          1
   182          4
   183          1
   184          0
   185          0
   186          0
   190          0
   191          0
   192          0
   193          0
   194          2
   195          2
   196          3
   197          0
   198          0
   199          0
   200          2
   201          0
   204          0
   206          0
   207          0
   208          1
   209          0
   210          0
   213          0
   214          0
   215          0
   218          1
   219          0
   220          0
   221          0
   222          0
   223          0
   225          0
   227          0
   228          0
   229          0
   231          0
   232          0
   234          0
   237          0
   241          0
   242          0
   243          0
   244          0
   245          0
   246          1
   247          0
   251          0
   252          0
   256          1
   257          2
   258          0
   259          1
   260          0
   261          0
   262          0
   270          0
   272          3
   273         16
   274          8
   275          1
   278          0
   279          0
   281          0
   283          0
   284          0
   285          0
   286          4
   287          6
   288          0
   289          0
   298          0
   299          2
   300          2
   301          2
   302          2
   312          0
   313          0
   327          0
   328          0
   340          0
   341          0
   342          0
   344          0
   357          1
   358          0
   371          0
   372          2
   373          0