##TITLE=Library Entry 31615
##JCAMP-DX=Revision 4.10 
##DATA TYPE=MASS SPECTRUM
##SAMPLE DESCRIPTION=A.A.Kutin, Moscow, Russia
##NAMES=HP
##CAS NAME=Pyrimidine-4,6(3H,5H)-dione, 1,2-dihydro-5-(2-furfurylidene)-1-(4
-methylphenyl)-2-thioxo-
##MOLFORM=C16H12N2O3S
##CAS REGISTRY NO=346612-53-1
##MP= -300
##BP= -300
##MW= 312
##$RETENTION INDEX=0
##$CONDENSED SPECTRUM=NO
##NPOINTS= 163
##XYDATA=(XY..XY) 1 
    37         11
    38        123
    39        289
    41         90
    42         22
    43         20
    45         94
    46          3
    50         54
    51        233
    52        133
    53        137
    54         13
    55         14
    56          2
    57          7
    59         80
    60         27
    61         31
    63        999
    64        367
    65        385
    66         55
    67         19
    69        170
    70         33
    71         15
    72          1
    74         13
    75         17
    76         38
    77        334
    78        227
    79        131
    80         19
    81         13
    82         10
    83         12
    84          5
    86         73
    87         12
    88         12
    89        122
    91        943
    92        731
    93        128
    94         27
    95         67
    96         45
    97         29
    98          5
   102         26
   104        290
   105        104
   106         87
   107         68
   108         35
   109         29
   110         37
   111         14
   112         10
   113         16
   114          1
   115         17
   116         46
   117         34
   119        323
   120        252
   121        392
   122        103
   123         69
   124        122
   125         26
   126          7
   127          1
   128          5
   129          3
   131        208
   132        305
   133        136
   134         48
   135         45
   136         73
   137         37
   138         43
   139         12
   140          6
   142         11
   143          0
   145          1
   146         50
   148        245
   149        171
   150         70
   151         13
   152          3
   153          7
   154         10
   156          8
   157          3
   159         24
   161         24
   162         18
   163        133
   164        157
   165         49
   166         17
   167         12
   168         20
   169          6
   173         30
   174          2
   175         54
   176         25
   177         30
   178          4
   180          5
   181          7
   182          2
   184          3
   185         15
   186          1
   187          4
   188          3
   189         27
   190          9
   191        174
   192         18
   193         12
   194          1
   196         10
   197         14
   198          1
   199          3
   200          2
   206          1
   207          2
   209          1
   210          2
   211          2
   213          1
   215          4
   224          4
   225         16
   226         27
   227         10
   241          1
   243         73
   244          8
   245          6
   253          1
   254          3
   255          7
   256          1
   283         51
   284         59
   285          9
   296          1
   311        302
   312        483
   313        106
   314         30
   315          2