##TITLE=Library Entry 87926
##JCAMP-DX=Revision 4.10 
##DATA TYPE=MASS SPECTRUM
##SAMPLE DESCRIPTION=A.A.Kutin, Moscow, Russia
##NAMES=HP
##CAS NAME=5-(Nonane-1-sulfonyl)-1H-[1,2,4]triazol-3-ylamine
##MOLFORM=C11H22N4O2S
##CAS REGISTRY NO=346631-15-0
##MP= -300
##BP= -300
##MW= 274
##$RETENTION INDEX=0
##$CONDENSED SPECTRUM=NO
##NPOINTS= 158
##XYDATA=(XY..XY) 1 
    33          8
    36          2
    39        141
    40         77
    41        654
    42        197
    43        723
    44         53
    45         19
    46          6
    47          4
    48         18
    49          0
    50         10
    51         18
    53        132
    54         80
    55        365
    56         89
    57        223
    58         24
    60         19
    61          2
    62          1
    63         15
    64         19
    65         26
    66         10
    67         50
    68         31
    69        145
    70         42
    71         60
    72          3
    73          4
    74          2
    75          5
    76         21
    77         17
    78          7
    79         14
    80          5
    81         24
    82         16
    84        607
    85        228
    86         14
    87          3
    88          2
    89          1
    91         41
    92          4
    93          4
    94          1
    95         11
    96          8
    97         60
    98        386
    99         31
   101          1
   103         24
   104          2
   105          6
   106          3
   107          2
   108         11
   109          8
   111        999
   112        239
   113         15
   115          3
   116         12
   117          1
   118          1
   119          3
   120          0
   121          0
   122          2
   123         19
   124         36
   125        208
   126        100
   127          8
   128          1
   129          5
   130         15
   131         52
   132         20
   133          8
   134          1
   135          5
   137         55
   138         27
   139        169
   140         77
   141         11
   144          2
   145          1
   146          0
   148        165
   149         43
   150         11
   151         30
   153        503
   154         61
   155          6
   156          0
   157          1
   159          1
   162          0
   163          1
   164          3
   165         56
   167        557
   168         64
   169          5
   171         10
   173          3
   174         16
   175        192
   176         11
   177         11
   179         39
   180         28
   181        196
   182        200
   183         22
   184          5
   185          1
   189          6
   190          1
   191          1
   193         10
   194          1
   195         14
   197          3
   203          3
   207          1
   208          2
   209         12
   210          5
   212          0
   217          7
   218          0
   225          1
   231         18
   232          1
   233          1
   245         16
   246          1
   247          1
   259          7
   260          3
   261          0
   273         19
   274         90
   275         16
   276          4