##TITLE=Library Entry 114822
##JCAMP-DX=Revision 4.10 
##DATA TYPE=MASS SPECTRUM
##SAMPLE DESCRIPTION=A.A.Kutin, Moscow, Russia
##NAMES=HP
##CAS NAME=Pyrimidine-2,4,6(1H,3H,5H)-trione, 1-(3-methoxylphenyl)-5-(4-meth
ylphenylaminomethylene)-
##MOLFORM=C19H17N3O4
##CAS REGISTRY NO=346612-28-0
##MP= -300
##BP= -300
##MW= 351
##$RETENTION INDEX=0
##$CONDENSED SPECTRUM=NO
##NPOINTS= 119
##XYDATA=(XY..XY) 1 
    37          2
    38         16
    39        113
    40         31
    41        101
    42         56
    43         54
    44         42
    50         32
    51        164
    52        118
    53         90
    54         27
    55         60
    56         17
    57         16
    60          3
    61          5
    62         29
    63        119
    65        330
    66         36
    67         30
    68         35
    69         46
    70         39
    71          5
    75         15
    77        342
    78        264
    79         93
    80         57
    81         12
    83          2
    89        101
    91        847
    92        126
    93         43
    94         46
    95         91
    96         17
    97          2
    98        167
    99         10
   101          4
   102         39
   103        183
   104         86
   106        422
   107        188
   108         27
   109          4
   110          6
   115         31
   116        112
   117         60
   118        182
   119        253
   120         93
   121         12
   122         50
   123        390
   124         24
   125          8
   128         35
   130        999
   131        254
   132         67
   133         74
   134         83
   135         57
   142         31
   143         35
   144        364
   145         75
   146        100
   147         28
   149        387
   150         73
   151          6
   155         29
   156         19
   157        100
   158        473
   159         69
   160         98
   161         28
   165         16
   171          7
   173         11
   174        118
   175         12
   176          6
   184          3
   185        237
   186        474
   187         60
   191          2
   200         12
   201         11
   202         11
   204         23
   217          5
   229         83
   230          8
   245         38
   246          4
   263         61
   264          7
   279         67
   280          7
   307          9
   345          2
   346         19
   348          4
   350         14
   351        515
   352        108
   353         12