##TITLE=Library Entry 82507
##JCAMP-DX=Revision 4.10 
##DATA TYPE=MASS SPECTRUM
##SAMPLE DESCRIPTION=A.A.Kutin, Moscow, Russia
##NAMES=HP
##CAS NAME=Pyridine-4-carbohydrazide, N2-(2-trifluoroacetylcyclohepten-1-yl)
-
##MOLFORM=C15H16F3N3O2
##CAS REGISTRY NO=346635-34-5
##MP= -300
##BP= -300
##MW= 327
##$RETENTION INDEX=0
##$CONDENSED SPECTRUM=NO
##NPOINTS= 98
##XYDATA=(XY..XY) 1 
    33         14
    34         21
    35          4
    36         15
    37         28
    38         64
    39        333
    40        314
    41        389
    42         96
    43        196
    44        100
    45         22
    48          2
    50        232
    51        624
    52         91
    53        130
    54         87
    55        230
    56         46
    57         95
    58          6
    59         20
    60          3
    61         12
    62         21
    63         77
    64         64
    65         78
    66         47
    67        108
    68         45
    69        126
    70         34
    71         36
    73          5
    74         18
    75         38
    76         50
    77        224
    78        763
    79        124
    80         40
    81         61
    82         37
    83         58
    84          9
    85         15
    89         20
    90         12
    91         60
    92         75
    93         28
    94         12
    95         45
    96         26
    97         44
    98         12
    99          4
   100          2
   101          8
   102          7
   103         27
   104         27
   106        999
   107        104
   108         26
   109         22
   111         23
   112          3
   115          2
   118          3
   119         18
   120         13
   121         11
   123         21
   124          8
   125          9
   127          4
   129         18
   130          4
   131         13
   133         18
   135        310
   136         31
   137          4
   139          2
   148          2
   149          5
   150          6
   151         21
   152         10
   153          4
   174          4
   258        318
   259         53
   327         19