##TITLE=Library Entry 62323
##JCAMP-DX=Revision 4.10 
##DATA TYPE=MASS SPECTRUM
##SAMPLE DESCRIPTION=A.A.Kutin, Moscow, Russia
##NAMES=HP
##CAS NAME=Pyrimidine-4,6-dione, hexahydro-1-(3-methoxyphenyl)-5-(2-pyrrolyl
methylene)-2-thioxo-
##MOLFORM=C16H13N3O3S
##CAS REGISTRY NO=346612-52-0
##MP= -300
##BP= -300
##MW= 327
##$RETENTION INDEX=0
##$CONDENSED SPECTRUM=NO
##NPOINTS= 210
##XYDATA=(XY..XY) 1 
    35          5
    37          7
    38         70
    39        184
    40         51
    41        114
    43         20
    44         19
    45         40
    46         11
    47          7
    49          0
    50         38
    51        144
    52        148
    53         67
    54         12
    55         18
    56          3
    57          6
    58         11
    59         21
    60         19
    61         11
    63        513
    64        583
    65        224
    66         49
    67         47
    68         36
    69         69
    70         35
    71         15
    72          6
    74         18
    75         23
    77        287
    78        186
    79        113
    80         41
    81          9
    82         15
    83         17
    84         16
    86         71
    87          4
    88         14
    90        345
    91        999
    92        333
    93         56
    94         39
    95        107
    96         98
    97         37
    98         10
    99          5
   100          1
   101          3
   102          9
   103         16
   105        180
   106        108
   107         59
   108         30
   109         39
   110         59
   111         21
   112         33
   113          8
   115         12
   116         15
   117         50
   118        231
   119        588
   120        286
   122        253
   123        240
   124         58
   125         20
   126         11
   127         10
   129         12
   130         23
   131          2
   132         10
   133         19
   134         37
   135         75
   136         47
   137        142
   138         46
   139         60
   140         27
   141          9
   142          4
   143          3
   144          9
   146        989
   148        239
   149         56
   150         47
   151         30
   152         18
   153          9
   154         14
   155          4
   156          2
   157          1
   159          1
   160          3
   161         14
   162         26
   163         12
   164         41
   165        129
   166        119
   167         21
   168         11
   169          6
   170          2
   171          1
   172          1
   173          1
   174          1
   175         31
   176         15
   177         25
   178          4
   179         25
   180        108
   181        137
   182         23
   183          7
   184          2
   186          2
   188          7
   189          3
   190          0
   191         15
   192         99
   193         57
   194         13
   195          4
   196          2
   197          3
   198          0
   199          1
   200          0
   201          1
   202          0
   204          2
   205         11
   206          3
   207        189
   208         26
   209         21
   210          3
   211          3
   212          4
   213          1
   214          0
   216          0
   220          0
   222          0
   223         16
   224          7
   225          7
   226          2
   227          1
   228          0
   229          0
   231          0
   233          0
   236          0
   237          0
   238          0
   239          1
   240          4
   241          2
   250          1
   251          4
   252          1
   253          1
   254          0
   255          1
   256          1
   258          1
   266          1
   267          4
   268          1
   269          2
   270          1
   281          0
   282          1
   283          4
   284          0
   294          2
   295          0
   297          9
   298          5
   299          3
   312         22
   313          4
   314          0
   326        387
   327        526
   328        110
   329         32
   330          5