##TITLE=Library Entry 40413
##JCAMP-DX=Revision 4.10 
##DATA TYPE=MASS SPECTRUM
##SAMPLE DESCRIPTION=A.S.Moskovkin,I.M.Karnaukh, Russian Center on Disaster
 Medicine
##NAMES=HP
##CAS NAME=1-Methyl-3,6-diazahomoadamantan-9-one semicarbazone
##MOLFORM=C11H19N5O
##CAS REGISTRY NO=346693-90-1
##MP= -300
##BP= -300
##MW= 237
##$RETENTION INDEX=0
##$CONDENSED SPECTRUM=NO
##NPOINTS= 121
##XYDATA=(XY..XY) 1 
    51         34
    52         37
    53         56
    54         76
    55        281
    56        202
    57        223
    58        919
    59        108
    60         32
    61         10
    63          4
    64          2
    65         13
    66         12
    67        185
    68        176
    69        125
    70        159
    71        303
    72        999
    73        114
    74         13
    76          2
    77         30
    78         12
    79        186
    80        140
    81        131
    82        175
    83         77
    84         83
    85         41
    86          6
    87          4
    88          5
    91         16
    92         76
    93        179
    94        203
    95        169
    96        128
    97         75
    98         30
    99         12
   100          2
   101          1
   103          1
   104         20
   105         96
   106        200
   107        195
   108        259
   109        248
   110         67
   111         35
   112         11
   113          3
   117         11
   118         41
   119         93
   120        202
   121        261
   122        203
   123        134
   124         28
   125         39
   126         15
   131          6
   132         25
   133         75
   134        143
   135        341
   136        152
   137        111
   138         25
   139          2
   140          1
   145          1
   146          6
   147         19
   148         38
   149        154
   150         79
   151         35
   152         16
   153          4
   154          8
   161         19
   162         53
   163        117
   164        333
   165         78
   166         48
   167         11
   168          1
   175          3
   176         50
   177         87
   178        496
   179         73
   180          9
   181          3
   191          2
   192          9
   193         72
   194         97
   195         31
   205          3
   207          2
   209          1
   218          1
   219         28
   220        279
   221         29
   222         18
   235         20
   236        273
   237        922
   238        126
   239          8