##TITLE=Library Entry 114805
##JCAMP-DX=Revision 4.10 
##DATA TYPE=MASS SPECTRUM
##SAMPLE DESCRIPTION=A.A.Kutin, Moscow, Russia
##NAMES=HP
##CAS NAME=Pyrimidine-2,4,6(1H,3H,5H)-trione, 1-(2-methylphenyl)-5-(3-methyl
phenylaminomethylene)-
##MOLFORM=C19H17N3O3
##CAS REGISTRY NO=346612-31-5
##MP= -300
##BP= -300
##MW= 335
##$RETENTION INDEX=0
##$CONDENSED SPECTRUM=NO
##NPOINTS= 213
##XYDATA=(XY..XY) 1 
    36          0
    37          3
    39        163
    41         94
    42         20
    43         24
    44         34
    45          4
    51        148
    52         86
    53        119
    54         17
    55         13
    56          6
    57         11
    58          4
    59          2
    60          0
    63        102
    65        416
    66         28
    68         46
    69         35
    70         38
    71          4
    73          0
    74          3
    75         19
    77        505
    78        252
    79        118
    80         18
    81          9
    82         19
    83         17
    84          3
    85          2
    86          3
    87          6
    89        168
    91        769
    92         56
    93         13
    95         16
    96          6
    97          1
    98          6
    99          1
   102         74
   103        248
   104        392
   105        158
   106        151
   107        283
   108         34
   109         48
   111         30
   112          4
   114         10
   115         30
   116        101
   117        121
   118        214
   119         37
   120          7
   121          4
   122          8
   123          4
   124          2
   125          0
   127          3
   128         61
   129         78
   130        999
   131        258
   132        248
   133        112
   134         28
   135          8
   137         55
   138          7
   140          3
   141          8
   142         34
   143         31
   144        213
   145        103
   146         73
   147         16
   149         14
   150          9
   151          2
   152          1
   153          3
   155         25
   156         25
   157        107
   158        422
   159         68
   160         71
   161         13
   162          1
   164          0
   165          1
   166          0
   167          5
   168          5
   169          1
   171          9
   172          8
   173         14
   174        104
   175         16
   176          2
   177          1
   178          1
   179          0
   180          1
   181          0
   182          0
   183          7
   184          8
   185        109
   186        281
   187         34
   188          4
   189          1
   190          1
   191          0
   192          0
   193          0
   194          1
   195          0
   198          0
   199          3
   200         12
   201         19
   202          5
   203          9
   204         15
   205          4
   206          1
   207          0
   208          1
   212          0
   213          0
   215          0
   216          0
   217          1
   218          8
   219          6
   220          2
   221          2
   222          1
   223          2
   224          0
   226          0
   227          4
   228          4
   229         48
   230          9
   231          4
   232          7
   233          3
   234          1
   235          2
   236          0
   237          0
   243          0
   244         12
   245         10
   246          6
   247         23
   248         16
   249         10
   250          2
   251          1
   256          0
   257          2
   258          0
   259          0
   260          0
   261          1
   263          6
   264          1
   267          7
   268          0
   273          3
   274         26
   275         46
   276         10
   277         47
   278         10
   279          1
   290          0
   291          8
   292          3
   295          2
   300          0
   301          0
   302          1
   316          0
   317         80
   318        362
   319         80
   320         57
   321         12
   322          1
   334          6
   335        345
   336         73
   337          8
   338         11