##TITLE=Library Entry 52582
##JCAMP-DX=Revision 4.10 
##DATA TYPE=MASS SPECTRUM
##SAMPLE DESCRIPTION=LAC, NIDDK, NIH, Bethesda, MD 20892
##NAMES=HP
##CAS NAME=5-Aminoimidazole, N-t-butyloxycarbonyl-
##MOLFORM=C8H13N3O2
##CAS REGISTRY NO=34665-48-0
##MP= -300
##BP= -300
##MW= 183
##$RETENTION INDEX=0
##$CONDENSED SPECTRUM=NO
##NPOINTS= 29
##XYDATA=(XY..XY) 1 
    41        449
    43        101
    44         25
    45         15
    47          3
    53         22
    54         43
    55         79
    56        175
    57        867
    58         37
    59         35
    66          1
    69          2
    81         23
    83        999
    84         67
    85          1
   109         24
   110        158
   111          4
   124         19
   126          1
   127        199
   128        120
   129          6
   183        197
   184         35
   185          1