##TITLE=Library Entry 89303
##JCAMP-DX=Revision 4.10 
##DATA TYPE=MASS SPECTRUM
##SAMPLE DESCRIPTION=A.A.Kutin, Moscow, Russia
##NAMES=HP
##CAS NAME=Indole-2(3H)-one, 3-(4-bromophenylimino)-1-(4-methyl-1-piperidylm
ethyl)-
##MOLFORM=C21H22BrN3O
##CAS REGISTRY NO=346613-06-7
##MP= -300
##BP= -300
##MW= 411
##$RETENTION INDEX=0
##$CONDENSED SPECTRUM=NO
##NPOINTS= 151
##XYDATA=(XY..XY) 1 
    34          0
    37          0
    38          1
    39          9
    40         14
    41         64
    42         56
    44         94
    45          2
    50         16
    51          6
    52          1
    53          3
    55         38
    56          9
    57          3
    58          0
    60          0
    62          1
    63          5
    64          2
    65          2
    66          0
    67          3
    69         55
    70         47
    71          2
    73          0
    75         36
    76         38
    77         11
    78          1
    79          1
    80          1
    81          1
    82          3
    83          2
    84          1
    87          0
    88          2
    90         10
    91          2
    92          0
    93          0
    94          0
    96          6
    98         38
    99          1
   100          0
   102          8
   103          9
   104          5
   105          0
   108          0
   110         10
   112        999
   113         49
   116          3
   117          2
   118          1
   119          0
   120          0
   123          0
   126          1
   128          2
   129          7
   131          4
   132          0
   138          0
   139          0
   140          1
   142          2
   143          4
   144          1
   145          0
   146          0
   149          0
   150          0
   151          2
   152          4
   153          1
   155         32
   157         32
   158          1
   164          1
   165          2
   166          2
   167          0
   168          0
   170         13
   173          0
   175          1
   176          0
   177          2
   178          5
   179          7
   180          1
   181          0
   182          0
   183          0
   184          0
   192          9
   193          2
   194          1
   195          0
   204          0
   205          8
   206         18
   207          1
   212          0
   220          5
   221          1
   222          0
   232          0
   234          0
   235          0
   236          0
   241          0
   245          0
   247          0
   257          0
   259          0
   260          0
   270          0
   271          2
   272          9
   274         12
   275          1
   283          0
   285         10
   286          3
   287         10
   288          2
   289          0
   297          0
   299         10
   300          8
   301         10
   302          6
   303          0
   312          0
   313          6
   314         46
   316         51
   317          6
   318          0
   347          0
   411          4
   412          1
   413          4
   414          0