##TITLE=Library Entry 38133
##JCAMP-DX=Revision 4.10 
##DATA TYPE=MASS SPECTRUM
##SAMPLE DESCRIPTION=A.A.Kutin, Moscow, Russia
##NAMES=HP
##CAS NAME=Morpholine, 4-[(8-chloro-1,2,3,6-tetrahydro-1,3-dimethyl-2,6-diox
o-7H-purin-7-yl)acetyl]-
##MOLFORM=C13H16ClN5O4
##CAS REGISTRY NO=346642-41-9
##MP= -300
##BP= -300
##MW= 341
##$RETENTION INDEX=0
##$CONDENSED SPECTRUM=NO
##NPOINTS= 230
##XYDATA=(XY..XY) 1 
    33         26
    34          2
    36         31
    38         14
    40        219
    42        838
    43         93
    44         70
    45         95
    47          7
    49         20
    52         90
    54        264
    56        576
    57        111
    58         64
    59          3
    61          5
    62         14
    63          5
    64          7
    66        116
    67        212
    68         58
    70        999
    72         32
    73          7
    75         20
    76         32
    77         21
    78         30
    81        546
    83         99
    86        567
    87         43
    88         15
    89          7
    91          9
    92          7
    93         12
    94         13
    95         10
    96         14
    97         27
    99        237
   100         87
   101         10
   102          9
   103          5
   104          4
   106         21
   107         15
   109        330
   110         23
   111         10
   112         16
   114        455
   115         33
   116          7
   117          6
   118          2
   119          1
   120          6
   121          6
   122          6
   123          5
   124          4
   125          3
   127        144
   128        159
   130         37
   131          6
   132          3
   133          1
   134         15
   135          6
   136         13
   137         14
   138          5
   139          0
   140          1
   142         33
   143         37
   144         10
   145         11
   146          2
   147          2
   148          2
   149          3
   150          6
   152         14
   153          2
   154          2
   155          5
   156         11
   157          9
   158          5
   159          2
   160          1
   161          1
   162          1
   163          5
   165         17
   166          3
   167          3
   168          5
   170        127
   171         36
   172         37
   173          8
   174          1
   175          0
   176          1
   177          2
   178          1
   180          5
   181          9
   182          3
   183          3
   184          4
   185          4
   186          1
   187          3
   188          0
   189          1
   191         37
   193         36
   194          7
   195          4
   196          2
   197          6
   198          3
   199          6
   200          2
   201          1
   204          0
   205          6
   206         19
   207         14
   208          4
   211          2
   214         40
   215         49
   216         14
   217         15
   218          8
   219         13
   220         33
   221         17
   222          3
   223          2
   227        440
   228        204
   229        135
   230         64
   231          7
   234         63
   235         14
   236          2
   239          0
   240          0
   241          1
   242          1
   243          0
   244          0
   247         57
   248         26
   249          8
   250          5
   251          3
   252          4
   254        151
   255         91
   256         51
   257         29
   258          4
   259          2
   260          3
   261         16
   262         19
   263          8
   264          4
   267          0
   270         38
   271         15
   272         15
   273          8
   274         19
   275         57
   276         29
   277         11
   278         26
   279          3
   280          0
   282          2
   283         10
   284          7
   285         11
   286          3
   287          5
   288          6
   289          0
   296          1
   297         12
   298         39
   299          8
   300         15
   301          4
   303          8
   305        242
   306        328
   307         54
   308          8
   309          1
   310         12
   311         40
   312         10
   313         13
   314          2
   323          4
   324          0
   325          1
   326          0
   337          8
   338         14
   341        999
   342        167
   343        311
   344         45
   345          5