##TITLE=Library Entry 99097
##JCAMP-DX=Revision 4.10 
##DATA TYPE=MASS SPECTRUM
##SAMPLE DESCRIPTION=A.A.Kutin, Moscow, Russia
##NAMES=HP
##CAS NAME=2-Pyrazolin-3-carboxylic acid, 5-tert-butyl-5-hydroxy-1-(3-methyl
benzoyl)-, ethyl ester
##MOLFORM=C18H24N2O4
##CAS REGISTRY NO=346633-03-2
##MP= -300
##BP= -300
##MW= 332
##$RETENTION INDEX=0
##$CONDENSED SPECTRUM=NO
##NPOINTS= 176
##XYDATA=(XY..XY) 1 
    33          2
    34          1
    35          0
    36          2
    37          2
    39         66
    40         30
    41        115
    42         17
    43         26
    44         14
    45          9
    46          1
    47          0
    48          1
    50          8
    51         15
    52          5
    53          8
    54          6
    55         21
    57        228
    58          7
    59          1
    60          0
    61          1
    62          4
    63         18
    65        110
    66          6
    67          3
    68          5
    69          6
    70          5
    71          4
    72          4
    73          4
    74          2
    75          3
    76          2
    77         11
    78          5
    79          2
    80          0
    81          1
    82          2
    83          3
    85         11
    86          2
    87          1
    89         29
    91        343
    92         21
    93          1
    95          1
    96          0
    97          1
    98          0
    99          1
   100          1
   101          1
   102          1
   103          1
   104          2
   105          4
   106          2
   107          0
   108          0
   109          1
   110          2
   111          4
   112          1
   113          1
   114          4
   115          2
   116          4
   119        999
   120         76
   121          5
   122          1
   123          0
   124          0
   125          1
   126          1
   127          1
   128          1
   129          0
   130          1
   131          1
   132          2
   133          2
   134          2
   135          5
   136          1
   137          0
   139          4
   141          2
   142          3
   143          0
   144          0
   145          0
   146          1
   147          1
   148          0
   149          0
   150          1
   151          0
   152          0
   153          0
   154          0
   155          1
   156          0
   157          1
   158          2
   159          1
   160          1
   161          1
   162          0
   163          0
   165          1
   166          0
   167          0
   170          0
   172          1
   173          3
   174          3
   175         12
   176          2
   177          0
   178          0
   179          0
   180          0
   181          1
   182          0
   183          0
   184          0
   185          0
   186          0
   190          0
   196          0
   199          0
   200          0
   201          0
   202          0
   203          0
   204          0
   214          0
   217          0
   218          0
   219          0
   220          0
   229          0
   230          0
   231          0
   232          0
   233          0
   241          0
   243          0
   247          2
   248          3
   249          0
   253          0
   257          0
   259        118
   260         18
   261          2
   274          4
   275         44
   276          7
   277          0
   286          0
   287          1
   288          0
   317          0
   332          1
   333          0