##TITLE=Library Entry 47809
##JCAMP-DX=Revision 4.10 
##DATA TYPE=MASS SPECTRUM
##SAMPLE DESCRIPTION=Chemical Concepts
##NAMES=HP
##CAS NAME=2-Thia-6-azatricyclo[3.3.1.1(3,7)]decane, 4,8-dichloro-6-(phenyls
ulfonyl)-, (1.alpha.,3.beta.,4.beta.,5.alpha.,7.beta.,8.alpha.)-
##MOLFORM=C14H15Cl2NO2S2
##CAS REGISTRY NO=34668-86-5
##MP= -300
##BP= -300
##MW= 363
##$RETENTION INDEX=0
##$CONDENSED SPECTRUM=NO
##NPOINTS= 234
##XYDATA=(XY..XY) 1 
    26          8
    27        127
    28         86
    29         16
    30         10
    31          2
    33          1
    34          3
    35          4
    36         30
    37          3
    38         18
    39        174
    40         27
    41        183
    42         60
    43         34
    44         18
    45        164
    46          6
    47         34
    48          6
    49         19
    50         76
    51        273
    52         57
    53        171
    54        121
    55         27
    56         12
    57         21
    58         31
    59         52
    60         19
    61         19
    62          8
    63         26
    64         19
    65        126
    66         43
    67         65
    68         65
    69         26
    70         10
    71         41
    72         18
    73         47
    74         21
    75        152
    76         41
    77        999
    78        132
    79         66
    80        207
    81         33
    83         15
    84         49
    85        113
    86         53
    87         46
    88         69
    89         26
    90         34
    91        128
    92         91
    93        182
    94         58
    95         13
    96          6
    97        123
    98         22
    99         49
   100         13
   101         31
   102         25
   103         82
   104         37
   105         25
   106         27
   107         27
   108          9
   109         35
   110         38
   111         65
   112         50
   113         21
   114         68
   115         20
   116         33
   117        122
   118        167
   119         85
   120        255
   121         35
   122          7
   123         47
   124         19
   125         74
   126         28
   127         36
   128         65
   129         18
   130         23
   131         22
   132          4
   133         12
   134          9
   135         36
   136         14
   137         14
   138          7
   139          7
   140         11
   141        415
   142         52
   143         39
   144         45
   145        188
   146         43
   147         91
   148         15
   149         17
   150         69
   151         43
   152        186
   153         39
   154        105
   155         18
   156         33
   157         19
   158         11
   159         22
   160          7
   161         10
   162         18
   163          3
   164         10
   165          2
   166          2
   167          5
   168          5
   169          3
   170         19
   171         16
   172          5
   173          8
   174          2
   175          8
   176          3
   177          7
   178          8
   179         17
   180         56
   181         13
   182         33
   183         20
   184         51
   185         10
   186        132
   187         38
   188         47
   189         21
   190         17
   191          5
   192          4
   193          2
   194          4
   195          8
   196          8
   197          5
   198          1
   199          1
   201          1
   202         13
   203          6
   204          3
   205          3
   206          1
   207          3
   208          8
   209          1
   210          6
   218          2
   220        133
   221         28
   222        102
   223         12
   224         63
   225          7
   226         13
   227          1
   228         24
   229          2
   230          6
   231          0
   232          2
   234          4
   243          2
   244          8
   245          2
   246          6
   247          1
   248          1
   252          5
   253          3
   254        688
   255        103
   256        305
   257         59
   258         47
   259          8
   292         21
   293          8
   294         12
   295          5
   296         10
   297          6
   298          4
   328        509
   329         94
   330        245
   331         64
   332         55
   333          9
   334          7
   362         10
   363        394
   364        135
   365        273
   366         97
   367        129
   368         22
   369         11
   370          2