##TITLE=Library Entry 59827
##JCAMP-DX=Revision 4.10 
##DATA TYPE=MASS SPECTRUM
##SAMPLE DESCRIPTION=A.A.Kutin, Moscow, Russia
##NAMES=HP
##CAS NAME=Benzenesulfonamide, 2,5-dichloro-N-(4-benzyloxyphenyl)-
##MOLFORM=C19H15Cl2NO3S
##CAS REGISTRY NO=346727-35-3
##MP= -300
##BP= -300
##MW= 407
##$RETENTION INDEX=0
##$CONDENSED SPECTRUM=NO
##NPOINTS= 115
##XYDATA=(XY..XY) 1 
    33          3
    36          1
    37          0
    38          1
    39         18
    40          8
    41          6
    42          0
    43          0
    44          1
    45          0
    48          0
    50          5
    51         11
    52         16
    53         15
    54          1
    55          0
    56          0
    61          1
    63         13
    64          9
    65         63
    66          1
    69          0
    72          0
    73          1
    74          8
    75          8
    77          2
    78          1
    79          7
    80          5
    81          3
    83          0
    84          2
    85          2
    86          1
    87          0
    89         12
    91        999
    92         56
    93          0
    95          0
    97          0
    99          0
   101          0
   106          1
   107          1
   108          9
   109         18
   110          5
   111          7
   112          1
   113          0
   115          1
   116          0
   126          0
   127          0
   128          0
   129          0
   133          0
   139          0
   141          0
   142          0
   143          1
   145         61
   147         40
   148          2
   149          5
   150          0
   152          0
   153          0
   154          1
   161          1
   162          1
   163          0
   164          0
   165          3
   166          1
   167          1
   168          1
   169          1
   170          0
   178          0
   180          0
   182          0
   188          0
   189          0
   193          0
   196          1
   198         37
   199          6
   200          0
   201          0
   209         34
   211         24
   213          6
   216          0
   238          0
   252          0
   260          0
   266          0
   268          0
   316         27
   318         24
   319          2
   320          3
   407         40
   408          9
   409         25
   410          6
   411          4
   412          1
   413          0