##TITLE=Library Entry 63694
##JCAMP-DX=Revision 4.10 
##DATA TYPE=MASS SPECTRUM
##SAMPLE DESCRIPTION=A.A.Kutin, Moscow, Russia
##NAMES=HP
##CAS NAME=Pyridine-5-carboxylic acid, 1,2,3,4-tetrahydro-6-methyl-4-(2-nitr
ophenyl)-2-oxo-, 3-phenylpropyl ester
##MOLFORM=C22H22N2O5
##CAS REGISTRY NO=346725-14-2
##MP= -300
##BP= -300
##MW= 394
##$RETENTION INDEX=0
##$CONDENSED SPECTRUM=NO
##NPOINTS= 230
##XYDATA=(XY..XY) 1 
    34          0
    36          0
    38          2
    39         29
    40         16
    41         67
    42        102
    43         25
    44         11
    45          2
    46          0
    50          7
    51         24
    52          9
    53         10
    54          4
    55          7
    56          7
    57          4
    58          2
    59          1
    60          7
    62          3
    63         16
    64          8
    65         66
    66          8
    67          7
    68          8
    69          5
    70          2
    71          3
    73          1
    74          3
    75          9
    76         16
    77         66
    78         33
    79         28
    80         11
    81          6
    82          1
    83          3
    84         11
    86          4
    87          2
    88          6
    89         34
    91        999
    92         94
    93          6
    94          3
    95          4
    96          2
    97          2
    98          1
    99          1
   100          2
   101         13
   102         30
   103         46
   104         40
   105         21
   106          5
   107          6
   108          4
   109          6
   110          3
   111          2
   112          2
   113          6
   114         10
   115         82
   116         43
   117        123
   118         52
   119         70
   120         13
   121          3
   123          3
   124          2
   125          3
   126          4
   127         22
   128         56
   129         27
   130         57
   131         17
   132         12
   133          7
   134          6
   135          2
   136          7
   137          3
   138          1
   139          9
   140         13
   141         13
   142         18
   143         22
   144         53
   145         28
   146         49
   147          7
   148         12
   149          4
   150          1
   151          2
   152          9
   153          4
   154         24
   155         25
   156         36
   157         23
   158         10
   159          8
   160          6
   161          7
   162         26
   163          3
   164          1
   165          2
   166          2
   167          9
   168         15
   169         28
   170         27
   171         30
   172         63
   173         17
   174          4
   175          1
   176          3
   177          1
   178          2
   179          2
   180          1
   181          1
   182         10
   183         25
   184         18
   185         28
   186         10
   187         14
   188          7
   189         14
   190          3
   191          1
   192          0
   193          0
   194          0
   195          4
   196         19
   197        225
   198         64
   199         23
   200         13
   201          5
   202          1
   203          1
   204          1
   205          0
   206          1
   207          1
   208          0
   209          0
   210          2
   211         78
   212         27
   213        523
   214        157
   215         69
   216         12
   217          6
   218          1
   219          1
   220          2
   221          4
   222          1
   223          2
   224          3
   225          4
   226          1
   227          3
   228         27
   229          6
   231        158
   232         23
   233          3
   234          1
   235          0
   240         10
   241         14
   242          4
   243          2
   244          0
   246          0
   247          0
   248          0
   249          0
   257          4
   258          8
   259         10
   260          1
   265          4
   266          0
   270          0
   275          0
   287          1
   288          0
   304          1
   305          0
   315          0
   319          1
   332          0
   335          6
   336          1
   346          1
   347          1
   359          8
   360          2
   362          1
   369          0
   376         27
   377          7
   378          1
   384          2
   385          0
   394          4
   395          1