##TITLE=Library Entry 1367
##JCAMP-DX=Revision 4.10 
##DATA TYPE=MASS SPECTRUM
##SAMPLE DESCRIPTION=Chemical Concepts
##NAMES=HP
##CAS NAME=1,1':4',1''-Terphenyl, 2,2''-dinitro-
##MOLFORM=C18H12N2O4
##CAS REGISTRY NO=34673-74-0
##MP= -300
##BP= -300
##MW= 320
##$RETENTION INDEX=0
##$CONDENSED SPECTRUM=NO
##NPOINTS= 224
##XYDATA=(XY..XY) 1 
    26         31
    27         69
    28         93
    29        120
    30        999
    31         38
    36         29
    39         95
    40        282
    41         93
    43        127
    44        464
    45         47
    46        412
    47         26
    50         26
    51         88
    52         25
    55         71
    57        126
    58         41
    60         47
    63         98
    65         39
    69         54
    71         61
    73         48
    74         49
    75        124
    76        102
    77        165
    78         40
    83         36
    85         29
    87         53
    88         60
    89         77
    90         60
    91         63
    92         34
    95         28
    97         28
    99         30
   100         69
   101         96
   102         84
   103         40
   104         43
   105         33
   111         69
   112         28
   113        155
   114         97
   115        163
   116         90
   117         80
   118         32
   119         44
   120         59
   121         44
   122         36
   125         54
   126        121
   127         84
   128        114
   129         94
   130        130
   131         44
   132        109
   133         28
   137         44
   138         86
   139        456
   140        194
   141         66
   142         47
   143         27
   144         86
   145        117
   146        168
   147         32
   149        109
   150        145
   151        296
   152        842
   153        210
   154         79
   155         43
   156         36
   157         56
   158        108
   159         27
   160         30
   162         25
   163         78
   164         97
   165        108
   166        120
   167         90
   168         86
   169         63
   170        110
   171         36
   172         29
   173         36
   175         80
   176        167
   177         77
   178         51
   180         29
   181         67
   182        216
   183        165
   184         57
   187         57
   188        239
   189        315
   190        154
   191        101
   192         40
   193         60
   194        115
   195        424
   196        474
   197        161
   198        113
   200         46
   201         71
   202        169
   203        169
   204        175
   205        109
   206         83
   207         51
   210         79
   211        154
   212         59
   213        132
   214        129
   215        181
   216        110
   217         86
   218         59
   219         57
   220        124
   221         76
   222         42
   223         38
   224         40
   225         44
   226        162
   227         90
   228        165
   229        125
   230        100
   231         69
   232         40
   235         44
   236         36
   237         48
   238         61
   239         64
   240        297
   241        600
   242        435
   243        189
   244         90
   245         48
   246         29
   250         30
   251         38
   252         43
   253         40
   254         59
   255        131
   256        171
   257        190
   258         92
   259         62
   260         44
   263         44
   264         46
   265         65
   266         47
   267         61
   268         34
   269         26
   270         44
   271        125
   272         32
   275         45
   276        113
   277        115
   278        131
   279         85
   280        112
   281         76
   287         61
   288         39
   289        195
   290        117
   291        173
   292        134
   293         77
   294         61
   295         58
   296         26
   300         34
   301         63
   302        186
   303        135
   304        139
   305         94
   306         76
   313         25
   314        109
   315        244
   316        228
   317        231
   318        119
   319         49
   320        122
   321         72
   322         37