##TITLE=Library Entry 21538
##JCAMP-DX=Revision 4.10 
##DATA TYPE=MASS SPECTRUM
##SAMPLE DESCRIPTION=R. A. LYND
##NAMES=HP
##CAS NAME=Cyclohexanol, 1-(1-hexenyl)-, (E)-
##MOLFORM=C12H22O
##CAS REGISTRY NO=34678-40-5
##MP= -300
##BP= -300
##MW= 182
##$RETENTION INDEX=1447
##$CONDENSED SPECTRUM=NO
##NPOINTS= 116
##XYDATA=(XY..XY) 1 
    37          5
    38         20
    39        426
    40         80
    41        816
    42        113
    43        436
    44         19
    45         17
    50         18
    51        123
    52         66
    53        260
    54         84
    55        999
    56         71
    57        203
    58         33
    59         13
    60          2
    61          4
    62         12
    63         43
    64         15
    65        110
    66         60
    67        300
    68        156
    69        254
    70        185
    71         67
    72          8
    73          4
    74          6
    75         10
    76          6
    77        199
    78         69
    79        412
    80         82
    81        312
    82        101
    83        787
    84         91
    85         23
    86          3
    87          2
    89          8
    90          5
    91        150
    92         39
    93        183
    94        118
    95        197
    96         83
    97        224
    98         40
    99         57
   100          6
   101          3
   102          3
   103         11
   104          6
   105         35
   106         15
   107        158
   108         51
   109         51
   110         16
   111        213
   112        179
   113         21
   114          3
   115          8
   116          3
   117          6
   118          2
   119         10
   120          5
   121        197
   122         31
   123         16
   124         17
   125        754
   126        115
   127         15
   128          3
   133          4
   134          3
   135         81
   136         12
   137        102
   138         20
   139        954
   140        100
   141          8
   149         15
   150          3
   151         13
   152          3
   153         58
   154         14
   155          2
   162          2
   163          2
   164        120
   165         26
   166          4
   167         56
   168          6
   178          6
   180          9
   181          4
   182        189
   183         25
   184          2