##TITLE=Library Entry 48237
##JCAMP-DX=Revision 4.10 
##DATA TYPE=MASS SPECTRUM
##SAMPLE DESCRIPTION=Asinex Ltd, Moscow, Russia
##NAMES=HP
##CAS NAME=3-[(5-Amino-tetrazol-1-ylimino)-methyl]-phenol
##MOLFORM=C8H8N6O
##CAS REGISTRY NO=346716-95-8
##MP= -300
##BP= -300
##MW= 204
##$RETENTION INDEX=0
##$CONDENSED SPECTRUM=NO
##NPOINTS= 143
##XYDATA=(XY..XY) 1 
    33          1
    34          2
    35          0
    36          7
    37         48
    38        173
    39        520
    40         59
    41         63
    42        140
    43         66
    44         35
    45         14
    46          4
    48          1
    50        232
    51        531
    52        353
    53        124
    54         18
    55         58
    56         23
    57         29
    59          5
    60          8
    61         27
    62         79
    63        193
    64        102
    65        305
    66         70
    67         18
    68          9
    69         12
    70          4
    71          5
    73         13
    74         37
    75         36
    77        850
    78        999
    79         95
    80         14
    81          7
    82          5
    83          4
    84          3
    85          6
    86          7
    87         12
    88          6
    89         18
    90         14
    91         37
    92         26
    93        133
    94         26
    95          4
    96          1
    97          2
    98          1
    99          1
   100          1
   101          1
   102          5
   103          6
   105        830
   106        905
   107         73
   108          7
   109          1
   110          0
   111          1
   112          2
   113          2
   114          1
   115          3
   116          1
   117          4
   118          8
   119         40
   120         95
   121         29
   122          8
   123          1
   124          0
   125          0
   126          0
   127          1
   128          1
   129          2
   130          2
   131          2
   132          3
   134        375
   135         33
   136          3
   137          1
   138          0
   139          0
   140          1
   141          0
   142          0
   143          0
   144          0
   145          1
   146          4
   147         12
   148          2
   149          3
   150          0
   151          0
   152          0
   153          0
   154          0
   155          0
   156          0
   157          0
   159          2
   160          0
   161          0
   162          0
   163          0
   165          0
   166          0
   167          0
   169          2
   171          3
   172          0
   173          0
   175          1
   176          3
   177          1
   178          1
   179          0
   187          1
   188          1
   189          1
   190          0
   202          2
   204        210
   205         20
   206          1