##TITLE=Library Entry 31087
##JCAMP-DX=Revision 4.10 
##DATA TYPE=MASS SPECTRUM
##SAMPLE DESCRIPTION=Div. of Experiment Therapeutics WRAIR, WRAMC, Washingto
n DC 20307
##NAMES=HP
##CAS NAME=2,3,6,7-Tetrahydro-5H-thiazolo[3,2-a]-S-triazine-5-one-7-thione
##MOLFORM=C5H5N3OS2
##CAS REGISTRY NO=34683-33-5
##MP= -300
##BP= -300
##MW= 187
##$RETENTION INDEX=0
##$CONDENSED SPECTRUM=NO
##NPOINTS= 86
##XYDATA=(XY..XY) 1 
    41         46
    42         55
    43         64
    44         59
    45        377
    46        114
    47         22
    48          5
    49          1
    50          0
    51          4
    52          7
    53         72
    54        145
    55         22
    56          4
    57          2
    58        298
    59        611
    60        999
    61          8
    62         63
    64         16
    65          1
    66          6
    67         25
    68          3
    69        109
    70         57
    71          1
    72         80
    73         17
    74          6
    76          4
    77          7
    78          2
    79          2
    80          0
    82        147
    83          8
    84         34
    85          1
    86        420
    87         10
    88         15
    89          0
    90          4
    91          1
    92          0
    94         23
    95         12
    97          0
    99          4
   100         11
   101          5
   102          7
   103          0
   104          1
   113          0
   116          3
   117          3
   118          0
   120          1
   121          0
   127         52
   128        341
   129         36
   130         23
   131          2
   132          1
   149          0
   154          7
   155          7
   156          0
   157          0
   158          0
   159          1
   160          5
   162          0
   169          0
   171          1
   185          3
   187        635
   188         86
   189         54
   190          5