##TITLE=Library Entry 19419
##JCAMP-DX=Revision 4.10 
##DATA TYPE=MASS SPECTRUM
##SAMPLE DESCRIPTION=NIST Mass Spectrometry Data Center, 1994
##NAMES=HP
##CAS NAME=Hexamethylene chloroiodide
##MOLFORM=C6H12ClI
##CAS REGISTRY NO=34683-73-3
##MP= -300
##BP= -300
##MW= 246
##$RETENTION INDEX=0
##$CONDENSED SPECTRUM=NO
##NPOINTS= 61
##XYDATA=(XY..XY) 1 
     4          1
    14          3
    15         16
    26         38
    27        278
    28         83
    29        177
    30          4
    32          2
    36          3
    37          6
    39        244
    41        592
    42         80
    43        339
    44          9
    49         60
    50         16
    51         41
    52         11
    53         67
    54          6
    55        999
    56         49
    57        111
    58          4
    61          6
    62         13
    63         42
    64          5
    65         17
    66          3
    67         22
    68          2
    69          8
    75         12
    77         69
    79         27
    80          1
    81         10
    82          1
    83        560
    84         32
    89          2
    90          1
    91          7
    93          1
   119        162
   120         12
   121         52
   122          3
   127         67
   128         24
   129          2
   141         20
   154          5
   155         39
   246         29
   247          2
   248         10
   249          0