##TITLE=Library Entry 12506
##JCAMP-DX=Revision 4.10 
##DATA TYPE=MASS SPECTRUM
##SAMPLE DESCRIPTION=Chemical Concepts
##NAMES=HP
##CAS NAME=2-(3,5-Dimethylphenyl)propan-2-ol
##MOLFORM=C11H16O
##CAS REGISTRY NO=34696-74-7
##MP= -300
##BP= -300
##MW= 164
##$RETENTION INDEX=0
##$CONDENSED SPECTRUM=NO
##NPOINTS= 64
##XYDATA=(XY..XY) 1 
    26          3
    27         37
    28         16
    29          6
    31         17
    37          1
    38          8
    39         53
    40          5
    41         27
    43        999
    44         20
    45          7
    50         12
    51         41
    52         11
    53         20
    55          5
    57          5
    59         16
    62          4
    63         27
    64          6
    65         27
    66          8
    67         30
    73          1
    74          9
    75          7
    76          4
    77         56
    78         22
    79         37
    81          2
    87          1
    89          5
    90          3
    91         50
    92          5
    93          2
   102          6
   103         23
   104         11
   105         91
   106         20
   107         17
   115         14
   116          4
   117          2
   119          8
   120          2
   121         11
   128          4
   129          2
   131          8
   133        112
   134         11
   146          8
   147          7
   148         35
   149        144
   150         20
   164         40
   165          3