##TITLE=Library Entry 21588
##JCAMP-DX=Revision 4.10 
##DATA TYPE=MASS SPECTRUM
##SAMPLE DESCRIPTION=CARL DJERASSI DEPT OF CHEM STANFORD UNIV STANFORD CALIF
 94305
##NAMES=HP
##CAS NAME=2-Furanoctanoic acid, 5-hexyltetrahydro-, methyl ester
##MOLFORM=C19H36O3
##CAS REGISTRY NO=34724-76-0
##MP= -300
##BP= -300
##MW= 312
##$RETENTION INDEX=0
##$CONDENSED SPECTRUM=NO
##NPOINTS= 144
##XYDATA=(XY..XY) 1 
    40         51
    41        877
    42        214
    43        816
    44          8
    45          0
    47         20
    50         20
    51         30
    52         20
    53        102
    54        163
    55        999
    56        224
    57        499
    58        122
    59        142
    60         40
    61         10
    63         10
    65         20
    66         20
    67        418
    68        163
    69        571
    70        153
    71        255
    72         51
    73         91
    74        408
    75        224
    76         40
    77         71
    78         61
    79        102
    80         61
    81        510
    82        163
    83        397
    84        153
    85        153
    86         10
    87        428
    88         51
    91        153
    92        112
    93        122
    94         51
    95        489
    96        112
    97        265
    98        132
    99         61
   100         20
   101         91
   104         10
   105         51
   106         30
   107         81
   108         40
   109        234
   110        102
   111        153
   112         51
   113         71
   114         30
   115        112
   116         30
   117         40
   119         30
   121         51
   123         91
   124         51
   125        102
   126         71
   127         61
   128         40
   129         61
   130         40
   131         20
   133         40
   135        102
   136         20
   137        153
   138         51
   139         30
   140         40
   141         51
   142         51
   143        112
   144         40
   145         20
   147        102
   148         10
   149         51
   150         20
   151         20
   152         30
   153        255
   154         51
   155        928
   156        112
   157         51
   158        387
   159         91
   165         10
   166         10
   167         20
   168         51
   169         30
   170         61
   171         30
   177         51
   178         10
   179         30
   180         10
   181         30
   182         10
   183         10
   184        336
   185         51
   186        214
   187         20
   195        163
   196         30
   197        163
   198         51
   200         91
   201         10
   204         10
   207         40
   209         51
   211         10
   222         10
   227        193
   228         40
   229         10
   263         10
   264         51
   265         30
   281         30
   310         10
   312         10
   313         10