##TITLE=Library Entry 54600
##JCAMP-DX=Revision 4.10 
##DATA TYPE=MASS SPECTRUM
##SAMPLE DESCRIPTION=Chuck Anderson, Aldrich Chemical Co.
##NAMES=HP
##CAS NAME=2H-Pyran, 2-(bromomethyl)tetrahydro-
##MOLFORM=C6H11BrO
##CAS REGISTRY NO=34723-82-5
##MP= -300
##BP= -300
##MW= 178
##$RETENTION INDEX=0
##$CONDENSED SPECTRUM=NO
##NPOINTS= 86
##XYDATA=(XY..XY) 1 
    14          1
    15         11
    16          0
    25          0
    26         12
    27         75
    28         73
    29        104
    30          4
    31         14
    32          0
    33          0
    36          0
    37          3
    38         10
    39        146
    40         34
    41        585
    42         53
    43        162
    44          9
    45          4
    48          0
    49          1
    50          6
    51         10
    52          4
    53         35
    54         14
    55        122
    56         97
    57        123
    58          5
    59          0
    61          0
    62          1
    63          1
    64          0
    65          6
    67        136
    68          8
    69         13
    70          2
    71          1
    72          0
    73          0
    74          0
    77          1
    79          6
    80          1
    81          4
    82          1
    83          4
    85        999
    86         48
    87          3
    91          0
    92          0
    93         12
    94         12
    95         12
    96         11
    97          1
    98          0
    99          0
   105          1
   106          1
   107          6
   108          0
   109          6
   119          1
   120          8
   121         24
   122         13
   123         24
   124          4
   125          3
   133          0
   135          1
   137          2
   139          1
   177          1
   178          3
   179          2
   180          3
   181          0