##TITLE=Library Entry 70277
##JCAMP-DX=Revision 4.10 
##DATA TYPE=MASS SPECTRUM
##SAMPLE DESCRIPTION=Japan AIST/NIMC Database- Spectrum MS-IW-3598
##NAMES=HP
##CAS NAME=3-Butylthiophene
##MOLFORM=C8H12S
##CAS REGISTRY NO=34722-01-5
##MP= -300
##BP= -300
##MW= 140
##$RETENTION INDEX=1060
##$CONDENSED SPECTRUM=NO
##NPOINTS= 84
##XYDATA=(XY..XY) 1 
    15          1
    26          3
    27         39
    28          7
    29         13
    32          2
    34          1
    37          2
    38          7
    39         62
    40          4
    41         29
    42          1
    43          6
    44          5
    45        123
    46          4
    47          9
    49          1
    50          9
    51         21
    52          7
    53         63
    54          3
    55          7
    56          1
    57          6
    58         17
    59          6
    60          2
    61          2
    62          3
    63          9
    64          1
    65         17
    66          7
    67         15
    68          1
    69         20
    70          8
    71         16
    72          1
    73          1
    74          1
    75          1
    77         26
    78         10
    79          7
    80          1
    81          4
    82          6
    83          4
    84         26
    85         19
    86          2
    87          1
    89          1
    91          6
    92          1
    93          2
    95          5
    96          1
    97        999
    98        821
    99         96
   100         37
   101          2
   105          1
   107          1
   108          2
   109          9
   110         10
   111         89
   112         12
   113          5
   121          2
   123          6
   124          1
   125          4
   139          3
   140        254
   141         24
   142         11
   143          1