##TITLE=Library Entry 50920
##JCAMP-DX=Revision 4.10 
##DATA TYPE=MASS SPECTRUM
##SAMPLE DESCRIPTION=A.A.Kutin, Moscow, Russia
##NAMES=HP
##CAS NAME=N-Furan-2-ylmethyl-2-(2-trifluoromethyl-benzoimidazol-1-yl)-aceta
mide
##MOLFORM=C15H12F3N3O2
##CAS REGISTRY NO=347341-79-1
##MP= -300
##BP= -300
##MW= 323
##$RETENTION INDEX=0
##$CONDENSED SPECTRUM=NO
##NPOINTS= 153
##XYDATA=(XY..XY) 1 
    33          1
    34          5
    36          0
    37          4
    38         16
    39         68
    40        105
    41         39
    42         20
    43         19
    44         41
    45          5
    48          0
    49          0
    50         38
    51         97
    52         33
    53        217
    54         14
    55         10
    56          4
    57          6
    58          0
    59          1
    60          2
    61          0
    62          6
    63         24
    64         21
    65         13
    66          7
    67         25
    68         17
    69         40
    70          3
    71          2
    73          1
    74          8
    75         26
    76         62
    77        184
    78         29
    79          5
    81        999
    82         56
    83          9
    84          2
    88          2
    89          3
    90         46
    91          9
    92          5
    93          3
    94         35
    95         73
    96         54
    97         45
    98          3
   100          1
   102         43
   103         53
   104         19
   105          7
   107          0
   108         41
   109        121
   110         15
   111          2
   112         12
   113          0
   114          0
   115          2
   116          7
   117          1
   118          2
   119          3
   120         10
   121          7
   122         89
   123          7
   124          1
   125          0
   126          1
   127          1
   129        164
   130         35
   131        132
   132         14
   133          1
   135          1
   136          9
   137        176
   138         65
   139          6
   140          1
   144          1
   145          2
   146          1
   147          1
   149          6
   150          0
   152         14
   153          1
   154          0
   155          0
   157          0
   158          0
   159          0
   162          2
   166         11
   167          5
   168          0
   169          0
   171          4
   172         10
   173          6
   176          0
   179         42
   180         27
   181         26
   182         19
   183          5
   185          1
   186         11
   187         19
   188          0
   197          2
   199        298
   200         95
   201         39
   202          3
   204          4
   208          0
   209          2
   225          0
   226          7
   227          3
   229          0
   230          1
   231          3
   237          0
   254         15
   255          2
   265          0
   274          2
   275          8
   294          0
   303         10
   320          0
   321          2
   323        258
   324         48
   325          3