##TITLE=Library Entry 22933
##JCAMP-DX=Revision 4.10 
##DATA TYPE=MASS SPECTRUM
##SAMPLE DESCRIPTION=A.A.Kutin, Moscow, Russia
##NAMES=HP
##CAS NAME=Pyrimidine-5-carboxylic acid, 1,2,3,4-tetrahydro-1,6-dimethyl-2-o
xo-4-(2-thienyl)-, 2-phenoxyethyl ester
##MOLFORM=C19H20N2O4S
##CAS REGISTRY NO=347350-69-0
##MP= -300
##BP= -300
##MW= 372
##$RETENTION INDEX=0
##$CONDENSED SPECTRUM=NO
##NPOINTS= 230
##XYDATA=(XY..XY) 1 
    33          4
    34          1
    37          4
    38         20
    39        213
    40         26
    41         25
    42         48
    43         31
    44         12
    45         69
    46          1
    47          2
    49          1
    50         21
    51        103
    52         18
    53         21
    54         30
    55         49
    56        999
    57         43
    58         29
    59          4
    60          2
    61          3
    62          7
    63         38
    64         21
    65        240
    66        150
    67         66
    68         23
    69         26
    70         18
    71          7
    72          2
    73          3
    74         10
    75          8
    77        502
    78         45
    79         34
    80         16
    81         22
    82         60
    83         43
    84         24
    85         13
    86          2
    87          1
    89         15
    90         18
    91         85
    92         15
    93         60
    94        236
    95         73
    96         53
    97         39
    98         21
    99          4
   100          1
   101          1
   102          6
   103         19
   104         13
   105          6
   106          6
   107         26
   108         64
   109         38
   110         72
   111         38
   112         10
   113          4
   114          1
   115          5
   116          4
   117         17
   118          9
   119         11
   120         19
   121         82
   122         37
   123         47
   124         97
   125         18
   126          5
   127          2
   128          1
   129          1
   130          6
   131         10
   132          7
   133         20
   134         38
   135         59
   136         21
   137         18
   138         85
   139         14
   140          8
   141          1
   142          1
   143          0
   144          2
   145          9
   146          7
   147          8
   148         46
   149         33
   150         40
   151        305
   152         35
   153          8
   154          3
   155          0
   158          2
   159          3
   160          3
   161         12
   162         32
   163         33
   164        223
   165         31
   166         15
   167          7
   168          5
   169        270
   170         22
   171          5
   172          1
   173          8
   174         15
   175          9
   176         31
   177         17
   178         28
   179          6
   180          4
   181          6
   182          1
   183         13
   184          2
   185          1
   186          2
   187          1
   188          1
   189          2
   190         13
   191         20
   192         25
   193         18
   194          7
   195         96
   196         10
   197          2
   199          6
   200          8
   201          4
   202          2
   203          1
   204          1
   205         59
   206        290
   207        970
   208        194
   209         59
   210         10
   211          3
   212          2
   213          1
   215          3
   216          2
   217          2
   219          9
   220          4
   221          2
   222          3
   223          0
   224          0
   228          0
   233         80
   234         50
   235         79
   236         97
   237         25
   238          6
   239          1
   243          3
   244          0
   249          2
   250          4
   251        871
   252        138
   253         55
   254          9
   255          1
   263          3
   265          2
   266         12
   267          2
   268          0
   277          9
   278          5
   279        118
   280         19
   281          7
   282          1
   287          0
   289        358
   290         68
   291          8
   301          0
   328          9
   329          2
   330          0
   346          4
   347          0
   357        155
   358         33
   359         11
   360          1
   371         93
   372        595
   373        136
   374         41
   375          7
   376          0