##TITLE=Library Entry 63617
##JCAMP-DX=Revision 4.10 
##DATA TYPE=MASS SPECTRUM
##SAMPLE DESCRIPTION=A.A.Kutin, Moscow, Russia
##NAMES=HP
##CAS NAME=Ethanol, 2-(2-benzyl-1-benzimidazolyl)-
##MOLFORM=C16H16N2O
##CAS REGISTRY NO=347341-80-4
##MP= -300
##BP= -300
##MW= 252
##$RETENTION INDEX=0
##$CONDENSED SPECTRUM=NO
##NPOINTS= 158
##XYDATA=(XY..XY) 1 
    34          2
    37          1
    38          7
    39         65
    40         57
    41         20
    42          6
    43         22
    44         31
    45         33
    48          0
    50         37
    51        116
    52         29
    53          8
    55          8
    56          2
    57          6
    60          0
    62         11
    63         67
    64         36
    65        175
    66         15
    67          1
    69          3
    70          2
    71          3
    73          0
    74         12
    75         33
    76         75
    77        182
    78         45
    79          8
    80          1
    81          1
    83          5
    85          0
    86          0
    87          1
    88          4
    89         70
    90         56
    91        999
    92        111
    93          7
    94          6
    96          5
    97          7
    99          0
   101          2
   102         67
   103        120
   104         45
   105         12
   106          4
   107          3
   108          1
   110         64
   111          1
   112          3
   113          3
   114          4
   115         13
   116         50
   117         92
   118         25
   119         26
   120         50
   121          7
   122          4
   123          0
   126          1
   127          3
   128          8
   129         32
   130         14
   131         86
   132        130
   133        498
   134         54
   135          4
   139          3
   140          4
   142          2
   143         30
   144         10
   145         14
   146          4
   147          0
   149          5
   150         88
   151         22
   152         22
   153          5
   154          1
   155          1
   156          5
   157         14
   158          0
   159          0
   161          1
   162          0
   163          4
   164         13
   165         13
   166          8
   167         11
   168          3
   169          0
   170          0
   171          4
   175          7
   176          5
   177         19
   178          9
   179         13
   180         18
   181          4
   182          1
   189          0
   190          4
   191          8
   192          7
   193          9
   194          8
   195          0
   203          1
   204         14
   205         83
   206        175
   207        808
   208        766
   209        165
   210         16
   217          2
   218         24
   219        226
   220         73
   221        284
   222         61
   223          5
   225          4
   226          2
   231          2
   232         10
   233         14
   234          5
   235        332
   236         54
   237         10
   238          1
   250          4
   251        342
   252        662
   253        108
   254          9