##TITLE=Library Entry 13890
##JCAMP-DX=Revision 4.10 
##DATA TYPE=MASS SPECTRUM
##SAMPLE DESCRIPTION=Asinex Ltd, Moscow, Russia
##NAMES=HP
##CAS NAME=Benzenamine, N-cyclopropyl-3-(4-methyl-1-piperazinyl)-6-nitro-
##MOLFORM=C14H20N4O2
##CAS REGISTRY NO=347354-41-0
##MP= -300
##BP= -300
##MW= 276
##$RETENTION INDEX=0
##$CONDENSED SPECTRUM=NO
##NPOINTS= 200
##XYDATA=(XY..XY) 1 
    34          0
    36          1
    37          1
    39         69
    40         24
    42        605
    43        999
    44        107
    46          0
    50         15
    51         38
    52         29
    53         22
    54         56
    55         42
    56        144
    57         96
    58        151
    59          4
    62         10
    63         52
    64         24
    65         40
    66         13
    67         13
    68         10
    70        662
    71        289
    72         31
    74         11
    75         30
    76         50
    77         90
    78         55
    79         35
    80         19
    81          6
    82         19
    83         17
    84         12
    85         34
    86          4
    87          3
    88          4
    89         23
    90         33
    91         55
    92         34
    93         16
    94          9
    95          6
    97         40
    98         33
    99         22
   100          3
   101          8
   102         24
   103         47
   104         46
   105         51
   106         36
   107         14
   108          5
   109          2
   110          1
   111          1
   112          0
   113          1
   115         23
   116         29
   117         62
   118         45
   119         38
   120         22
   121          8
   122          3
   123          4
   124          4
   125          1
   126          0
   127          1
   128         15
   129         25
   130        108
   131         76
   132         59
   133         54
   134         24
   135         10
   136          3
   137          1
   138         11
   140          1
   141          2
   142          9
   143         28
   144         82
   145         61
   146         50
   147         53
   148         24
   149         12
   150          7
   151          1
   152          0
   153          0
   154          2
   155          6
   156         15
   157         58
   158         71
   159         90
   160         64
   161         48
   162         22
   163          8
   164          1
   165          0
   167          0
   168          1
   169          6
   170         12
   171         35
   172         32
   173         47
   174         32
   175         30
   176         21
   177          8
   178          4
   179          0
   181          0
   182          0
   183          3
   184          5
   185         22
   186         16
   187         17
   188         21
   189         27
   190         13
   191          9
   192          2
   193          0
   196          0
   197          1
   198          4
   199          6
   200          9
   201         17
   202         19
   203         13
   204         10
   205          6
   206         26
   207          3
   211          0
   212          1
   213          4
   214         17
   215         14
   216         25
   217         17
   218        159
   219         31
   220         34
   221          5
   222          0
   225          1
   226          2
   227          6
   228         41
   229        271
   230        700
   231        121
   232         34
   233          5
   234          1
   241          3
   242          4
   243          6
   244          6
   245         30
   246         60
   247         14
   248         32
   249          4
   250          0
   253          0
   257          1
   259        230
   260         39
   261          6
   262          0
   273          0
   274          2
   275         13
   276        149
   277         24
   278          2