##TITLE=Library Entry 49906
##JCAMP-DX=Revision 4.10 
##DATA TYPE=MASS SPECTRUM
##SAMPLE DESCRIPTION=Asinex Ltd, Moscow, Russia
##NAMES=HP
##CAS NAME=Furan-2-ylmethyl-(2-nitro-5-piperidin-1-yl-phenyl)-amine
##MOLFORM=C16H19N3O3
##CAS REGISTRY NO=347355-96-8
##MP= -300
##BP= -300
##MW= 301
##$RETENTION INDEX=0
##$CONDENSED SPECTRUM=NO
##NPOINTS= 230
##XYDATA=(XY..XY) 1 
    33          3
    34          1
    37          7
    38         24
    39        135
    40         53
    41        230
    42         80
    43         23
    44         27
    45          1
    46          1
    48          1
    49          1
    50         27
    51         81
    52         91
    53        433
    54         58
    55        134
    56         40
    57         16
    58          6
    59          3
    60          0
    61          1
    62         13
    63         69
    64         42
    65         55
    66         24
    67         33
    68         23
    69         42
    70         13
    71         11
    72          7
    73          4
    74          6
    75         21
    76         41
    77         85
    78         65
    79         52
    80         53
    81        999
    82         81
    83         27
    84         68
    85         22
    86         11
    87          3
    88          6
    89         22
    90         44
    91         69
    92         45
    93         25
    94         17
    95         49
    96          9
    97          6
    98         13
    99         19
   100          7
   101          6
   102         15
   103         27
   104         52
   105         42
   106         33
   107         27
   108         10
   109          3
   110          2
   111          1
   112          5
   113         11
   114         11
   115         36
   116         28
   117         59
   118         46
   119         31
   120         21
   121          8
   122          4
   123          1
   125          1
   126         12
   127         22
   128         16
   129         13
   130         28
   131         30
   132         29
   133         24
   134         19
   135         10
   136          2
   137          0
   140          9
   141         12
   142         27
   143         42
   144         35
   145         32
   146         22
   147         14
   148          8
   149          4
   150          2
   151          0
   152          1
   153          1
   154         11
   155         14
   156         18
   157         17
   158         19
   159         32
   160         24
   161         16
   162          8
   163         20
   164          3
   165          1
   166          1
   167          3
   168          8
   169         19
   170         38
   171         36
   172         17
   173         27
   174         19
   175         15
   176          4
   177          1
   178          1
   179          0
   180          2
   181          3
   182          7
   183         15
   184         17
   185         12
   186         10
   187          5
   188         29
   189          9
   190         48
   191         11
   192          2
   193          0
   194          1
   195          4
   196          5
   197         13
   198         16
   199         28
   200         41
   201         29
   202         19
   203          5
   204          2
   205          3
   206          2
   207          0
   208          1
   209          3
   210         10
   211         15
   212         10
   213         12
   214          8
   215          3
   216          8
   217          3
   218          8
   219          3
   220          8
   221          4
   222          1
   223          3
   224          7
   225         23
   226         77
   227         34
   228          8
   229          1
   232          0
   234          0
   235          1
   236          2
   237         15
   238         19
   239          8
   240          4
   241          1
   242          2
   243          0
   250          1
   251          3
   252          7
   253         24
   254         98
   255        195
   256         38
   257          4
   258          0
   264          4
   265          7
   266         71
   267         28
   268         22
   269          6
   270          2
   271          9
   272          1
   282          8
   283          2
   284         12
   285          2
   298          3
   299          5
   300         12
   301        112
   302         20
   303          2