##TITLE=Library Entry 60164
##JCAMP-DX=Revision 4.10 
##DATA TYPE=MASS SPECTRUM
##SAMPLE DESCRIPTION=Exported from NIST MS Search
##NAMES=HP
##CAS NAME=2-Butanone, 3-chloro-4-hydroxy-1,4-diphenyl-
##MOLFORM=C16H15ClO2
##CAS REGISTRY NO=34737-56-9
##MP= -300
##BP= -300
##MW= 274
##$RETENTION INDEX=0
##$CONDENSED SPECTRUM=NO
##NPOINTS= 16
##XYDATA=(XY..XY) 1 
    39        210
    50        160
    51        300
    65        240
    77        480
    78        190
    91        999
    92        100
   105        280
   106        230
   107         80
   119        100
   168        180
   170         50
   274          4
   276          2