##TITLE=Library Entry 81673
##JCAMP-DX=Revision 4.10 
##DATA TYPE=MASS SPECTRUM
##SAMPLE DESCRIPTION=A.A.Kutin, Moscow, Russia
##NAMES=HP
##CAS NAME=4-(4-Ethyl-phenyl)-1-(1-phenyl-ethyl)-1,4-dihydro-pyridine-3,5-di
carboxylic acid dimethyl ester
##MOLFORM=C25H27NO4
##CAS REGISTRY NO=347353-37-1
##MP= -300
##BP= -300
##MW= 405
##$RETENTION INDEX=0
##$CONDENSED SPECTRUM=NO
##NPOINTS= 205
##XYDATA=(XY..XY) 1 
    36          0
    39          3
    40          1
    41          0
    42          0
    43          1
    44          1
    45          1
    50          2
    51          8
    52          2
    53          3
    54          0
    55          0
    57          0
    59         14
    60          1
    61          0
    62          0
    63          5
    64          1
    65          5
    66          1
    67          0
    69          0
    70          0
    71          0
    72          0
    73          0
    74          1
    75          2
    77         84
    78         27
    79         99
    80          7
    81          0
    82          0
    83          0
    84          0
    85          0
    86          0
    87          0
    88          0
    89         10
    90         14
    91         11
    92          1
    93          1
    94          0
    98          0
    99          0
   100          0
   101          1
   102          7
   103         74
   104         50
   105        999
   106         86
   107          4
   108          2
   109          0
   111          0
   113          2
   114          2
   115         10
   116          2
   117          1
   118          0
   119          4
   120          2
   121          1
   122          2
   123          0
   125          1
   126          4
   127         11
   128          9
   129          2
   130          1
   131          0
   132          0
   133          3
   134          0
   135          0
   136         17
   137          5
   138          2
   139         14
   140          7
   141          5
   142          2
   143          1
   144          0
   149          1
   150          1
   151          3
   152         10
   153          8
   154          7
   155          3
   156          1
   157          0
   158          0
   163          0
   164         14
   165          5
   166         12
   167         16
   168          6
   169          2
   170          1
   171          0
   177          0
   178          2
   179          2
   180         11
   181          8
   182         15
   183          5
   184          3
   185          0
   190          0
   191          0
   192          0
   193          1
   194          7
   196        504
   197         55
   198          8
   199          1
   200          0
   201          0
   202          0
   206          1
   207          1
   208          6
   209          3
   210         10
   211          3
   212          3
   213          0
   214          0
   215          0
   222          1
   223          0
   224          3
   225          3
   226         24
   227          6
   228          2
   229          0
   234          0
   235          0
   236          5
   237          1
   238          2
   239          1
   240          6
   241         11
   242         23
   243          3
   244          0
   252          2
   253          1
   254          1
   255          1
   256          7
   257          1
   266          0
   267          1
   268          3
   269          2
   270         15
   271          3
   272          0
   273          0
   282          0
   283          0
   284          6
   285          3
   286          9
   287          1
   296          0
   298          7
   300        315
   301         58
   302          8
   303          0
   314          1
   315          0
   344          0
   346          8
   347          1
   348          0
   372          0
   374         11
   375          2
   376          0
   390          2
   391          0
   402          0
   405         59
   406         14
   407          2
   408          0