##TITLE=Library Entry 15273
##JCAMP-DX=Revision 4.10 
##DATA TYPE=MASS SPECTRUM
##SAMPLE DESCRIPTION=A.A.Kutin, Moscow, Russia
##NAMES=HP
##CAS NAME=3-Azabicyclo[3.3.0]oct-2-ene-1,5-dicarbonitrile, 2-amino-4,4-dime
thoxy-8-methyl-7-(2,2-dimethylhydrazono)-
##MOLFORM=C14H20N6O2
##CAS REGISTRY NO=347363-36-4
##MP= -300
##BP= -300
##MW= 304
##$RETENTION INDEX=0
##$CONDENSED SPECTRUM=NO
##NPOINTS= 171
##XYDATA=(XY..XY) 1 
    33         58
    34          0
    37          5
    39         71
    40         53
    42        607
    43        432
    44        999
    45        201
    46         42
    47         42
    50          4
    51         13
    52         27
    53         19
    54         17
    55         25
    57        138
    58        125
    59        226
    61          0
    62          3
    63          9
    64         19
    65         21
    66         29
    68         80
    69         96
    71        277
    72         27
    75        303
    77         66
    78         24
    79         12
    80          9
    81          5
    82         12
    83         22
    84         25
    86         85
    88          3
    90        106
    91         38
    92         16
    93         12
    94         10
    95          4
    97         28
    99          6
   100         61
   101         15
   102         12
   103         18
   104         22
   105         19
   106         11
   107          6
   108          6
   111        297
   112         16
   113         13
   115        491
   116        203
   118         51
   119         24
   120         27
   121          6
   122          6
   123          1
   124          1
   125          2
   127         16
   128         10
   129         17
   130         29
   131         16
   132         11
   133         13
   134          6
   135          5
   136         12
   137          1
   139          2
   140          4
   142         76
   143        155
   144         30
   145         26
   146         52
   147         23
   148         10
   149          2
   150          2
   151          0
   155          0
   156          2
   157          3
   158         11
   159         34
   161        261
   162         98
   163         38
   164          6
   165          1
   166          1
   169          0
   170          2
   171          6
   173         47
   174         10
   175          7
   176          4
   177          0
   179          0
   180          0
   183          0
   185          3
   186         14
   188        226
   189         39
   190         49
   191          5
   192          0
   193          2
   199          2
   200          2
   201          3
   203         53
   205         95
   206          3
   212          0
   213          2
   214          4
   215          5
   216          2
   218          7
   219         20
   220         36
   221          6
   222          0
   228          2
   229         35
   230         17
   231          5
   232          4
   233          2
   234          1
   236          0
   245          4
   246          5
   247         17
   248          3
   257          2
   258          2
   260         51
   261          8
   262         17
   263          1
   269          2
   272        107
   273        176
   274         26
   275          1
   276          0
   289          3
   290          0
   301          0
   302          3
   304        169
   305         22
   306          1