##TITLE=Library Entry 5270
##JCAMP-DX=Revision 4.10 
##DATA TYPE=MASS SPECTRUM
##SAMPLE DESCRIPTION=A.A.Kutin, Moscow, Russia
##NAMES=HP
##CAS NAME=Benzohydrazide, N2-(1-methyl-4-nitropyrazol-3-yl)-4-nitro-
##MOLFORM=C11H10N6O5
##CAS REGISTRY NO=347383-21-5
##MP= -300
##BP= -300
##MW= 306
##$RETENTION INDEX=0
##$CONDENSED SPECTRUM=NO
##NPOINTS= 90
##XYDATA=(XY..XY) 1 
    37          8
    38         28
    39         38
    40         37
    42        999
    43         83
    44         23
    46         33
    50        234
    52        297
    53         63
    54         94
    55         57
    56         14
    57          5
    58          6
    60          1
    62         14
    63         50
    64         58
    65         40
    66         41
    67         46
    68         11
    69         16
    70          5
    71          4
    72          1
    74         87
    76        660
    77         63
    79         34
    81        210
    82        140
    83         11
    84          4
    85          7
    87          0
    90          7
    92        305
    94        190
    95          3
    96          0
    97          0
    99          0
   101          0
   104        636
   105         48
   106          4
   107          4
   109         19
   111         41
   112          4
   113          0
   120        132
   121         19
   122          5
   124          7
   126          6
   128          1
   133          0
   134        133
   138         31
   139         40
   140         32
   141          7
   142          3
   150        854
   151        168
   152         13
   156         78
   157          1
   158          0
   166          0
   167          6
   168          2
   184          2
   185          0
   187          1
   189          1
   213          2
   232          0
   243          1
   259          0
   261          3
   276          0
   295          0
   306        262
   307         36
   308          2