##TITLE=Library Entry 66061
##JCAMP-DX=Revision 4.10 
##DATA TYPE=MASS SPECTRUM
##SAMPLE DESCRIPTION=ORMSBG,10(8)606(1975); A. SELVA
##NAMES=HP
##CAS NAME=[4,4'-Bipyrazolidine]-3,3',5,5'-tetrone, 1,1',2,2'-tetraphenyl-
##MOLFORM=C30H22N4O4
##CAS REGISTRY NO=3474-99-5
##MP= -300
##BP= -300
##MW= 502
##$RETENTION INDEX=0
##$CONDENSED SPECTRUM=NO
##NPOINTS= 15
##XYDATA=(XY..XY) 1 
    39         50
    41         70
    64        100
    77        450
    91        120
    93        999
   119        360
   172        180
   183        160
   263         90
   264         70
   302         40
   320        150
   385         50
   502        140