##TITLE=Library Entry 17186
##JCAMP-DX=Revision 4.10 
##DATA TYPE=MASS SPECTRUM
##SAMPLE DESCRIPTION=NIST Mass Spectrometry Data Center
##NAMES=HP
##CAS NAME=1-Methoxy-3-methyl-3-butene
##MOLFORM=C6H12O
##CAS REGISTRY NO=34752-58-4
##MP= -300
##BP= -300
##MW= 100
##$RETENTION INDEX=709
##$CONDENSED SPECTRUM=NO
##NPOINTS= 50
##XYDATA=(XY..XY) 1 
    14          1
    15         12
    17          1
    26          6
    27         45
    28         14
    29         78
    30          4
    31          8
    33          4
    37          5
    38         15
    39        130
    40         35
    41         93
    42         21
    43         21
    45        999
    46         27
    47          3
    49          2
    50         15
    51         22
    52          9
    53         64
    54         11
    55         61
    56          5
    57          5
    58         14
    59          5
    61          1
    62          2
    63          3
    65          8
    66          4
    67         76
    68         27
    69         16
    70        334
    71         22
    72          2
    82          1
    83          2
    84          1
    85         30
    86          2
    99          3
   100         19
   101          1