##TITLE=Library Entry 72243
##JCAMP-DX=Revision 4.10 
##DATA TYPE=MASS SPECTRUM
##SAMPLE DESCRIPTION=TNO Volatile Compounds in Food - Chemical Concepts
##NAMES=HP
##CAS NAME=Cyclohexanol, 1-(1,2-propadienyl)-
##MOLFORM=C9H14O
##CAS REGISTRY NO=34761-56-3
##MP= -300
##BP= -300
##MW= 138
##$RETENTION INDEX=0
##$CONDENSED SPECTRUM=NO
##NPOINTS= 93
##XYDATA=(XY..XY) 1 
    21          1
    24          3
    25          7
    26         17
    27        175
    29        125
    30          5
    31         39
    32          6
    33          2
    34          2
    36          1
    37         19
    38         41
    39        348
    40         51
    41        273
    42        120
    43        315
    44          4
    45         13
    46          2
    48         20
    49          8
    50         37
    51         68
    52         31
    53        124
    54         79
    55        444
    56         28
    57         90
    58          8
    59          3
    60          2
    61          3
    62          7
    63         27
    64         33
    65         54
    66         35
    67        245
    68         51
    69         54
    70         18
    71         12
    72          2
    73          1
    74          3
    75          0
    77        106
    78         37
    79        166
    80         72
    81        634
    82         88
    83         16
    84          8
    85          0
    89          6
    91         72
    92         36
    93         11
    94         30
    95        253
    96         77
    97         14
    98          8
    99        999
   100         69
   101          4
   102          1
   103          3
   104          2
   105         25
   106          2
   107          6
   108          2
   109         44
   110         31
   111          1
   115          7
   116          1
   117          0
   118          1
   119         10
   120         30
   121          4
   122          2
   123         35
   124          2
   137          5
   138         17