##TITLE=Library Entry 76375
##JCAMP-DX=Revision 4.10 
##DATA TYPE=MASS SPECTRUM
##SAMPLE DESCRIPTION=Exported from NIST MS Search
##NAMES=HP
##CAS NAME=Decane, 1,1-diethoxy-
##MOLFORM=C14H30O2
##CAS REGISTRY NO=34764-02-8
##MP= -300
##BP= -300
##MW= 230
##$RETENTION INDEX=1473
##$CONDENSED SPECTRUM=NO
##NPOINTS= 37
##XYDATA=(XY..XY) 1 
    27         68
    28         50
    29        219
    30         12
    31        133
    41        186
    42         42
    43        188
    44         50
    45         79
    46         32
    47        246
    55        178
    56         38
    57        651
    58         40
    59         35
    69        126
    70         41
    71         58
    72         54
    73         16
    75        263
    83        200
    84         18
    85        489
    86         32
    97         74
    98         13
    99         69
   103        999
   111          9
   113          8
   127         23
   128          7
   141         42
   185        148