##TITLE=Library Entry 89817
##JCAMP-DX=Revision 4.10 
##DATA TYPE=MASS SPECTRUM
##SAMPLE DESCRIPTION=NIST Mass Spectrometry Data Center, 1998.
##NAMES=HP
##CAS NAME=Piperalin
##MOLFORM=C16H21Cl2NO2
##CAS REGISTRY NO=3478-94-2
##MP= -300
##BP= -300
##MW= 329
##$RETENTION INDEX=0
##$CONDENSED SPECTRUM=NO
##NPOINTS= 149
##XYDATA=(XY..XY) 1 
    15          2
    26          2
    27         16
    28         31
    29         28
    30         25
    31          2
    36          1
    37          1
    38          2
    39         25
    40          6
    41        143
    42        107
    43         24
    44        109
    45          4
    49          1
    50          7
    51          3
    52          1
    53         12
    54         27
    55        158
    56        109
    57         24
    58         11
    59          1
    61          1
    62          1
    63          3
    65          2
    66          2
    67         10
    68         34
    69         33
    70         38
    71          8
    72          3
    73          4
    74         26
    75         35
    76          3
    77          2
    78          1
    79          3
    80          6
    81          7
    82         24
    83         45
    84         40
    85          9
    86          4
    87          2
    89          1
    91          1
    92          1
    93          2
    94          5
    95          4
    96         85
    97         20
    98         35
    99          5
   100          4
   101          1
   102          1
   103          5
   104          1
   107          1
   108          4
   109         49
   110         46
   111         36
   112        999
   113         89
   114          5
   115          1
   116          1
   119          1
   120          1
   121          1
   122          3
   123          1
   124         59
   125          6
   126          7
   127          1
   128          1
   136          1
   137          2
   138         30
   139          8
   140         16
   141          3
   142          1
   145         90
   146          9
   147         58
   148          5
   149         10
   150          1
   153          2
   154          3
   155          1
   156         14
   157          8
   158          5
   159          1
   161          1
   173        188
   174         16
   175        122
   176          9
   177         20
   178          2
   190          3
   191          1
   192          2
   193          1
   196          2
   197          1
   198          1
   231         61
   232          7
   233         39
   234          4
   235          6
   236          1
   279          3
   280          1
   281          1
   286          1
   288          1
   312          2
   314        306
   315         53
   316        201
   317         34
   318         34
   319          5
   320          1
   327          1
   328          4
   329         12
   330          5
   331          7
   332          2
   333          1