##TITLE=Library Entry 107846
##JCAMP-DX=Revision 4.10 
##DATA TYPE=MASS SPECTRUM
##SAMPLE DESCRIPTION=J.E. DOOLEY U.S. BUREAU OF MINES, BARTLESVILLE, OKLA.,
 USA
##NAMES=HP
##CAS NAME=tert-Butyl m-Tolyl sulfide
##MOLFORM=C11H16S
##CAS REGISTRY NO=34786-26-0
##MP= -300
##BP= -300
##MW= 180
##$RETENTION INDEX=0
##$CONDENSED SPECTRUM=NO
##NPOINTS= 137
##XYDATA=(XY..XY) 1 
    25          0
    26         10
    27         94
    28         13
    29        169
    30          3
    32          1
    33          0
    34          1
    35          0
    36          0
    37          5
    38         17
    39        170
    40         16
    41        202
    42         11
    43          6
    44          1
    45        120
    46          3
    47          9
    48          0
    49          2
    50         15
    51         35
    52         12
    53         23
    54          2
    55         19
    56          8
    57        353
    58         21
    59         17
    60          1
    61          3
    62          9
    63         30
    64          7
    65         41
    66          4
    67          3
    68          1
    69         32
    70          6
    71         14
    72          1
    73         13
    74          4
    75          4
    76          3
    77         71
    78         25
    79         49
    80          9
    81          5
    82         10
    83         11
    84          8
    85          4
    86          2
    87          3
    88          1
    89         17
    90         13
    91        241
    92         21
    93          4
    94          0
    95          5
    96          2
    97         24
    98          3
    99          0
   102          0
   103          0
   104          0
   105          2
   106          0
   107          0
   108         18
   109          6
   110          1
   111          2
   112          1
   113          0
   115          1
   116          0
   117          1
   118          0
   119          0
   120          0
   121         20
   122          6
   123         65
   124        999
   125         93
   126         47
   127          3
   128          0
   129          0
   130          0
   131          1
   132          1
   133          0
   134          1
   135          1
   136          0
   137          3
   138          0
   139          0
   140          0
   141          0
   145          0
   146          0
   147          1
   148          0
   149          1
   150          0
   151          0
   153          1
   154          0
   161          0
   163          0
   164          0
   165         15
   166          1
   167          0
   168          0
   169          0
   177          0
   178          0
   179          0
   180        140
   181         18
   182          7
   183          0