##TITLE=Library Entry 69179
##JCAMP-DX=Revision 4.10 
##DATA TYPE=MASS SPECTRUM
##SAMPLE DESCRIPTION=J.VOTH UNIV. OF CALIFORNIA, DAVIS, CALIFORNIA, 95616, U
SA
##NAMES=HP
##CAS NAME=Cyclohexane, 1-ethenyl-2-methyl-, trans-
##MOLFORM=C9H16
##CAS REGISTRY NO=34780-45-5
##MP= -300
##BP= -300
##MW= 124
##$RETENTION INDEX=0
##$CONDENSED SPECTRUM=NO
##NPOINTS= 89
##XYDATA=(XY..XY) 1 
    12          0
    13          2
    14          8
    15         70
    16          1
    17          1
    18          3
    25          1
    26         41
    27        428
    28         97
    29        212
    30          4
    31          2
    32          0
    37          8
    38         29
    39        459
    40         80
    41        580
    42        133
    43         35
    44          1
    45          2
    46          1
    47          0
    48          0
    49          1
    50         19
    51         62
    52         34
    53        179
    54        604
    55        412
    56         35
    57         14
    58          1
    59          0
    60          0
    61          1
    62          5
    63         16
    64          4
    65         43
    66         48
    67        499
    68        270
    69         87
    70         23
    71          1
    72          0
    73          0
    74          2
    75          3
    76          1
    77         42
    78         12
    79         60
    80         22
    81        578
    82         91
    83         24
    84          1
    85          0
    86          0
    87          0
    89          0
    90          0
    91         14
    92          2
    93         10
    94          6
    95        194
    96        999
    97         72
    98          2
   102          0
   103          0
   104          0
   105          1
   106          0
   107          1
   108          0
   109         38
   110          3
   112          1
   123          2
   124          9
   125          0