##TITLE=Library Entry 76208
##JCAMP-DX=Revision 4.10 
##DATA TYPE=MASS SPECTRUM
##SAMPLE DESCRIPTION=A.A.Kutin, Moscow, Russia
##NAMES=HP
##CAS NAME=2-Oxa-1,3,4,5a,10-pentaaza-cyclopenta[a]fluorene
##MOLFORM=C10H5N5O
##CAS REGISTRY NO=347867-35-0
##MP= -300
##BP= -300
##MW= 211
##$RETENTION INDEX=0
##$CONDENSED SPECTRUM=NO
##NPOINTS= 93
##XYDATA=(XY..XY) 1 
    33          1
    34          5
    36          5
    37         63
    38        110
    39        150
    40         94
    41         32
    42         17
    43        103
    44         55
    45          5
    49         22
    50        210
    51        321
    52        115
    53         79
    54          7
    55         14
    56         29
    57         11
    59          0
    60          5
    61         26
    62         59
    63        138
    64        119
    65         22
    66          3
    67          3
    68          3
    69         20
    70          4
    71          6
    72          3
    73         27
    74         77
    75        361
    76        266
    77         87
    78         21
    79          3
    81          0
    83          2
    84          1
    85          0
    86          5
    87         10
    88         17
    89         20
    90         68
    91         19
    92          1
    94          2
    95          1
    97          1
    98          0
    99         10
   100         22
   102        999
   103         84
   104         36
   105         11
   106          6
   109          0
   115          4
   116         17
   117          2
   118          1
   125          0
   126          1
   127          6
   129        175
   130         15
   141          1
   142         11
   143         22
   144          7
   149          0
   154        604
   155         58
   156          2
   159          2
   169          2
   170          0
   179          8
   181        704
   182         84
   183          2
   208          4
   211        937
   212        106
   213          7