##TITLE=Library Entry 47255
##JCAMP-DX=Revision 4.10 
##DATA TYPE=MASS SPECTRUM
##SAMPLE DESCRIPTION=ASES Database, Dalian Institute, P.R. China
##NAMES=HP
##CAS NAME=1,1-Di(phenylsulfonyl)-cyclopropane
##MOLFORM=C15H14O4S2
##CAS REGISTRY NO=34782-46-2
##MP= -300
##BP= -300
##MW= 322
##$RETENTION INDEX=0
##$CONDENSED SPECTRUM=NO
##NPOINTS= 17
##XYDATA=(XY..XY) 1 
    77        999
    91         69
    97        169
   105        250
   109         30
   110         19
   115        100
   117        441
   125        558
   132        240
   133        529
   141        459
   143         29
   165         30
   181         39
   194         39
   258        240