##TITLE=Library Entry 38367
##JCAMP-DX=Revision 4.10 
##DATA TYPE=MASS SPECTRUM
##SAMPLE DESCRIPTION=Chemical Concepts
##NAMES=HP
##CAS NAME=3-Methyl-hepta-1,6-dien-3-ol
##MOLFORM=C8H14O
##CAS REGISTRY NO=34780-69-3
##MP= -300
##BP= -300
##MW= 126
##$RETENTION INDEX=0
##$CONDENSED SPECTRUM=NO
##NPOINTS= 67
##XYDATA=(XY..XY) 1 
    26          7
    27         77
    28         18
    29         54
    31         17
    38          5
    39         75
    40         11
    41        143
    42         17
    43        458
    44         12
    45         30
    50          6
    51         14
    52          6
    53         44
    54         16
    55        185
    56         20
    57         35
    58         18
    59         10
    60          4
    63          4
    65         10
    66          7
    67         57
    68         47
    69         34
    70         13
    71        999
    72         49
    73         14
    74          1
    75          3
    77         18
    78          5
    79         22
    80         12
    81         14
    82         15
    83         28
    84         18
    85         24
    86          2
    87          6
    89          2
    91         26
    92          3
    93         40
    94          5
    95          9
    96          3
    97         11
    98          4
    99         17
   100          2
   101          3
   105          5
   106          7
   107          4
   108          7
   109          6
   110          2
   111         35
   112          3