##TITLE=Library Entry 99546
##JCAMP-DX=Revision 4.10 
##DATA TYPE=MASS SPECTRUM
##SAMPLE DESCRIPTION=NIST Mass Spectrometry Data Center
##NAMES=HP
##CAS NAME=1,3,5-Cycloheptatriene, 3,7,7-trimethyl-
##MOLFORM=C10H14
##CAS REGISTRY NO=3479-89-8
##MP= -300
##BP= -300
##MW= 134
##$RETENTION INDEX=971
##$CONDENSED SPECTRUM=NO
##NPOINTS= 62
##XYDATA=(XY..XY) 1 
    26          1
    27         12
    29          2
    37          1
    38          5
    39         58
    40          7
    41         64
    42          3
    50         18
    51         51
    52         17
    53         21
    54          1
    55          2
    57         15
    58         10
    59          4
    61          3
    62         12
    63         39
    64         14
    65         78
    66         11
    74          9
    75          9
    76          8
    77        107
    78         38
    79         48
    85          1
    86          2
    87          4
    88          1
    89         16
    90          4
    91        357
    92         39
    98          1
   101          2
   102         14
   103         63
   104         42
   105         50
   106          5
   113          1
   114          1
   115         67
   116         15
   117        113
   118         18
   119        999
   120         99
   121          3
   127          1
   128          2
   129          1
   131          1
   132          1
   133          9
   134        115
   135         12