##TITLE=Library Entry 40836
##JCAMP-DX=Revision 4.10 
##DATA TYPE=MASS SPECTRUM
##SAMPLE DESCRIPTION=Chemical Concepts
##NAMES=HP
##CAS NAME=2-(2-Cyanophenoxy)acethydrazide
##MOLFORM=C9H9N3O2
##CAS REGISTRY NO=347912-40-7
##MP= -300
##BP= -300
##MW= 191
##$RETENTION INDEX=0
##$CONDENSED SPECTRUM=NO
##NPOINTS= 64
##XYDATA=(XY..XY) 1 
    33          8
    38         96
    39        151
    41         50
    42        164
    43        150
    44         26
    45        775
    46         20
    49          1
    50        130
    51        187
    52        101
    53         26
    55         56
    56         33
    57          9
    58         42
    59          7
    61         36
    62         95
    63        188
    64        166
    65         65
    66          9
    67          1
    73        999
    74        112
    75        219
    76        258
    77        206
    78         53
    79         14
    84         11
    85          1
    87         12
    89         14
    90        117
    91        261
    92         65
    93          1
    99          9
   101         17
   102        425
   103        168
   104        389
   105         70
   118         52
   119        148
   120        145
   121         26
   132        264
   133         83
   134         17
   147         25
   158          9
   162        112
   163          9
   171          6
   175         17
   176         39
   191        176
   192         16
   193          3