##TITLE=Library Entry 4547
##JCAMP-DX=Revision 4.10 
##DATA TYPE=MASS SPECTRUM
##SAMPLE DESCRIPTION=NIST Mass Spectrometry Data Center, 1994
##NAMES=HP
##CAS NAME=4-Acetyl-4-phenylpiperidine
##MOLFORM=C13H17NO
##CAS REGISTRY NO=34798-80-6
##MP= -300
##BP= -300
##MW= 203
##$RETENTION INDEX=0
##$CONDENSED SPECTRUM=NO
##NPOINTS= 104
##XYDATA=(XY..XY) 1 
    15        112
    17          2
    18          5
    26          7
    27         61
    28        221
    29         49
    30        199
    32          3
    39         60
    40          9
    42        999
    43        604
    44         39
    50         31
    51         99
    52         25
    53         51
    54         15
    55          9
    56        495
    57        416
    58         15
    62          9
    63         35
    64          8
    65         42
    66          3
    67          6
    68          8
    69          3
    70          8
    71          1
    72          3
    73          2
    74          7
    75         18
    76         21
    77        143
    78         32
    79         13
    80         18
    81          3
    82         35
    83         13
    84          2
    85          2
    86          7
    87          4
    88          3
    89         20
    90          2
    91        185
    92         15
    99          8
   100          1
   101          6
   102         35
   103        113
   104         19
   105         33
   106          6
   112          3
   113          2
   115        103
   116         38
   117         29
   118          9
   119         11
   120          3
   125          1
   126          7
   127         24
   128         47
   129         40
   130         30
   131         46
   132         14
   133          8
   134          3
   141          4
   142          2
   143         10
   144          9
   145         11
   146          7
   147         10
   148         37
   149          4
   154          3
   155          4
   156          6
   157          3
   158         36
   159         15
   160        120
   161         18
   186         24
   187          5
   188         29
   189          4
   201          2
   203        122
   204         20