##TITLE=Library Entry 88272
##JCAMP-DX=Revision 4.10 
##DATA TYPE=MASS SPECTRUM
##SAMPLE DESCRIPTION=Japan AIST/NIMC Database- Spectrum MS-NW-8341
##NAMES=HP
##CAS NAME=Benzenamine, 2-fluoro-
##MOLFORM=C6H6FN
##CAS REGISTRY NO=348-54-9
##MP= -300
##BP= -300
##MW= 111
##$RETENTION INDEX=930
##$CONDENSED SPECTRUM=NO
##NPOINTS= 75
##XYDATA=(XY..XY) 1 
    15          1
    26          4
    27          7
    28         27
    29          1
    30          2
    31         21
    32          1
    33          7
    36          2
    37         15
    38         28
    39         40
    40         12
    41         49
    42          5
    43          1
    44          5
    45         11
    46          4
    48          3
    49          5
    50         17
    51         19
    52         52
    53          7
    54          9
    55         28
    56         15
    57         85
    58         12
    59          6
    60          3
    61         14
    62         18
    63         63
    64        147
    65         51
    66          7
    67          3
    68          6
    69          5
    70          7
    71          3
    72         13
    73          2
    74          6
    75          9
    76          5
    77          1
    78          5
    79          1
    80          6
    81         18
    82         14
    83        166
    84        191
    85         26
    86          2
    87          1
    88          1
    89          4
    90         13
    91         98
    92         11
    93          2
    94          8
    95          3
    96          4
   108          1
   109          5
   110         37
   111        999
   112         69
   113          2