##TITLE=Library Entry 114826
##JCAMP-DX=Revision 4.10 
##DATA TYPE=MASS SPECTRUM
##SAMPLE DESCRIPTION=Chuck Anderson, Aldrich Chemical Co.
##NAMES=HP
##CAS NAME=Benzene, 1-chloro-2-fluoro-
##MOLFORM=C6H4ClF
##CAS REGISTRY NO=348-51-6
##MP= -300
##BP= -300
##MW= 130
##$RETENTION INDEX=862
##$CONDENSED SPECTRUM=NO
##NPOINTS= 73
##XYDATA=(XY..XY) 1 
    25          0
    26          2
    27          2
    28          0
    31         10
    32          0
    33          0
    35          2
    36          2
    37         14
    38         10
    39          7
    44          0
    45          2
    47          9
    48          1
    49          9
    50         47
    51         18
    52          1
    55          4
    56          6
    57          8
    60          3
    61         14
    62         14
    63         18
    64          3
    65         39
    66         13
    67          1
    68         45
    69         39
    70         11
    71          1
    72          3
    73         19
    74         51
    75        146
    76         12
    78          0
    79          0
    80          4
    81          4
    82          0
    84          9
    85          3
    86          4
    87          1
    91          9
    92         12
    93         30
    94         67
    95        472
    96         33
    97          6
    99          2
   102          0
   103          3
   104         13
   105          1
   106          4
   108          0
   109          8
   110          2
   111          3
   115          1
   128          0
   129          6
   130        999
   131         64
   132        319
   133         20