##TITLE=Library Entry 100991
##JCAMP-DX=Revision 4.10 
##DATA TYPE=MASS SPECTRUM
##SAMPLE DESCRIPTION=R.B.KING DEPT. CHEM., UNIV. OF GEORGIA, ATHENS, GA., US
A
##NAMES=HP
##CAS NAME=Tungsten, tricarbonylmethyl[(1,2,3,4,5-.eta.)-1,2,3,4,5-pentameth
yl-2,4-cyclopentadien-1-yl]-
##MOLFORM=C14H18O3W
##CAS REGISTRY NO=34807-90-4
##MP= -300
##BP= -300
##MW= 418
##$RETENTION INDEX=0
##$CONDENSED SPECTRUM=NO
##NPOINTS= 36
##XYDATA=(XY..XY) 1 
   103         70
   105        190
   119        999
   121        240
   134        470
   143        140
   149        100
   156        300
   163        100
   173         80
   187         50
   210         16
   222         50
   235         40
   247         60
   248         40
   259         60
   260        100
   272         40
   273         50
   285        110
   286        100
   297         40
   298         40
   299         40
   312        200
   313        350
   318        720
   332        999
   346        500
   351        370
   373        210
   374        140
   390        310
   403         50
   418        210