##TITLE=Library Entry 83588
##JCAMP-DX=Revision 4.10 
##DATA TYPE=MASS SPECTRUM
##SAMPLE DESCRIPTION=Chemical Concepts
##NAMES=HP
##CAS NAME=Propanoic acid, 3-hydroxy-3-phenyl
##MOLFORM=C9H10O3
##CAS REGISTRY NO=3480-87-3
##MP= -300
##BP= -300
##MW= 166
##$RETENTION INDEX=0
##$CONDENSED SPECTRUM=NO
##NPOINTS= 98
##XYDATA=(XY..XY) 1 
    26          7
    27         41
    28          4
    29         38
    30          2
    31         18
    35          1
    36          1
    37          8
    38         16
    39         64
    40          6
    41         10
    42         54
    43         78
    44          6
    45         56
    46          3
    47          4
    49          7
    50         85
    51        224
    52         50
    53         25
    54          1
    55          5
    56          1
    57          6
    58          2
    59          3
    60         61
    61          7
    62         14
    63         32
    64          6
    65         24
    66          2
    67          2
    68          1
    69          8
    70          1
    71         11
    72          1
    73          5
    74         31
    75         28
    76         24
    77        499
    78        164
    79        705
    80         47
    81          2
    83          8
    84          0
    85          2
    86          2
    87          6
    88          1
    89         10
    90          4
    91         49
    92          9
    93          2
    94          2
    95          5
    96          0
    97          1
    98          2
   101          2
   102         15
   103         62
   104         37
   105        241
   106        279
   107        999
   108         77
   109          5
   118          1
   119          4
   120         40
   121          4
   122          0
   123          0
   130          0
   131          8
   132          2
   141          2
   146          1
   147         27
   148         22
   149          6
   150          1
   155          0
   165          3
   166        368
   167         35
   168          4
   169          0