##TITLE=Library Entry 85315
##JCAMP-DX=Revision 4.10 
##DATA TYPE=MASS SPECTRUM
##SAMPLE DESCRIPTION=John Halket,Royal Holloway, University of London, UK
##NAMES=HP
##CAS NAME=2-Aminoacetanilide
##MOLFORM=C8H10N2O
##CAS REGISTRY NO=34801-09-7
##MP= -300
##BP= -300
##MW= 150
##$RETENTION INDEX=0
##$CONDENSED SPECTRUM=NO
##NPOINTS= 79
##XYDATA=(XY..XY) 1 
    13          1
    14          4
    15         22
    25          1
    26          6
    27         23
    28         37
    29          6
    30          5
    37          7
    38         18
    39         47
    40         12
    41         23
    42         27
    43        192
    44          5
    45          1
    49          4
    50         29
    51         67
    52        120
    53        160
    54         39
    55          5
    56          3
    60          1
    61          5
    62         11
    63         36
    64         28
    65         41
    66         15
    67         15
    68          3
    69          1
    73          1
    74          3
    75          7
    76         15
    77         12
    78         42
    79         48
    80        554
    81        169
    82         13
    83          1
    87          1
    88          1
    89          2
    90         15
    91         29
    92         17
    93          5
    94          4
   102          1
   103          1
   104          5
   105         33
   107        454
   108        999
   109        100
   110          4
   118          1
   119          3
   120          1
   121          4
   122          1
   131         36
   132         50
   133        341
   134         56
   135        117
   136         10
   137          1
   148          1
   150        592
   151         60
   152          4