##TITLE=Library Entry 78336
##JCAMP-DX=Revision 4.10 
##DATA TYPE=MASS SPECTRUM
##SAMPLE DESCRIPTION=A.A.Kutin, Moscow, Russia
##NAMES=HP
##CAS NAME=1,3-Dioxane, 5-methyl-5-nitro-2-phenyl-
##MOLFORM=C11H13NO4
##CAS REGISTRY NO=34817-89-5
##MP= -300
##BP= -300
##MW= 223
##$RETENTION INDEX=0
##$CONDENSED SPECTRUM=NO
##NPOINTS= 106
##XYDATA=(XY..XY) 1 
    33          1
    34          1
    36          0
    37          5
    39        192
    40         41
    41        239
    42         39
    43        174
    44          9
    45          2
    46          7
    47          0
    48          1
    50         59
    51        139
    52         36
    53         20
    55        124
    56          7
    57         20
    58          5
    59          7
    60          3
    61          1
    62          7
    63         17
    64          5
    65          5
    66          1
    67          0
    69         54
    70         13
    71         47
    72          6
    74         13
    75         10
    77        322
    78         94
    79        180
    80         11
    81          0
    82          0
    83          0
    84          0
    85          1
    86          3
    87          2
    89         20
    90         11
    91         50
    92          4
    93          0
    94          0
    95          0
    99          0
   100          2
   101          0
   105        999
   106        118
   107        115
   108          8
   109          0
   115          3
   116          1
   117          3
   119          2
   120          1
   121          4
   122          9
   123         15
   124          1
   128          0
   129          0
   130          0
   131          4
   132          0
   133          0
   134          0
   135          0
   145          0
   146         10
   147          4
   148          2
   149          1
   158          0
   159          0
   160          0
   162         33
   163          3
   164          0
   174          0
   175          1
   176          8
   177          6
   178          1
   191          5
   192          0
   193          0
   206          0
   218          0
   219          0
   222         95
   223        109
   224         12
   225          1