##TITLE=Library Entry 79368
##JCAMP-DX=Revision 4.10 
##DATA TYPE=MASS SPECTRUM
##SAMPLE DESCRIPTION=Japan AIST/NIMC Database- Spectrum MS-NW-7072
##NAMES=HP
##CAS NAME=Cyclopropyl phenyl ketone
##MOLFORM=C10H10O
##CAS REGISTRY NO=3481-02-5
##MP= -300
##BP= -300
##MW= 146
##$RETENTION INDEX=1270
##$CONDENSED SPECTRUM=NO
##NPOINTS= 77
##XYDATA=(XY..XY) 1 
    14          1
    15          3
    18          1
    26          4
    27         21
    28          3
    29          1
    37          5
    38         11
    39         76
    40         13
    41         84
    42          4
    43          1
    44          1
    49          3
    50         52
    51        170
    52         14
    53          5
    55          5
    57          3
    58          6
    59          1
    61          3
    62          9
    63         17
    64          7
    65          8
    66          1
    67          1
    68          8
    69         93
    70          5
    72          5
    73          3
    74         17
    75         13
    76         19
    77        484
    78         41
    79          2
    85          1
    86          2
    87          2
    88          1
    89         10
    90          5
    91         18
    92          2
   101          1
   102          4
   103          6
   104          6
   105        999
   106         77
   107          5
   114          1
   115         32
   116         12
   117         28
   118          5
   119          2
   120          7
   121          1
   126          1
   127         18
   128          7
   129          4
   130          1
   131         11
   132          1
   144          2
   145         77
   146        242
   147         28
   148          3