##TITLE=Library Entry 68157
##JCAMP-DX=Revision 4.10 
##DATA TYPE=MASS SPECTRUM
##SAMPLE DESCRIPTION=J.VOTH UNIV. OF CALIFORNIA, DAVIS, CALIFORNIA, 95616, U
SA
##NAMES=HP
##CAS NAME=Cyclohexene, 3-(bromomethyl)-
##MOLFORM=C7H11Br
##CAS REGISTRY NO=34825-93-9
##MP= -300
##BP= -300
##MW= 174
##$RETENTION INDEX=0
##$CONDENSED SPECTRUM=NO
##NPOINTS= 83
##XYDATA=(XY..XY) 1 
    12          1
    13          2
    14          6
    15         34
    25          1
    26         31
    27        165
    28         32
    29         32
    30          0
    37         11
    38         32
    39        232
    40         34
    41        215
    42         11
    43          8
    44          2
    45          7
    46          6
    49          3
    50         27
    51         78
    52         44
    53        148
    54         63
    55        100
    56          6
    57          1
    60          1
    61          8
    62         15
    63         30
    64          7
    65         60
    66         42
    67        193
    68         12
    69          2
    70          2
    73          1
    74          4
    75          4
    76          2
    77         92
    78         25
    79        165
    80         36
    81        333
    82         24
    83          4
    84          1
    85          1
    86          1
    87          1
    89          2
    90          1
    91         34
    92          5
    93         51
    94         24
    95        999
    96         76
    97          2
   105          2
   106          1
   107          2
   109          1
   117          1
   119          3
   121          2
   127          2
   128          1
   132          1
   133          4
   134          1
   135          3
   146          0
   147          1
   174         12
   175          1
   176         11
   177          1