##TITLE=Library Entry 67733
##JCAMP-DX=Revision 4.10 
##DATA TYPE=MASS SPECTRUM
##SAMPLE DESCRIPTION=J.VOTH UNIV. OF CALIFORNIA, DAVIS, CALIFORNIA, 95616, U
SA
##NAMES=HP
##CAS NAME=Cyclohexene, 3-(iodomethyl)-
##MOLFORM=C7H11I
##CAS REGISTRY NO=34825-94-0
##MP= -300
##BP= -300
##MW= 222
##$RETENTION INDEX=0
##$CONDENSED SPECTRUM=NO
##NPOINTS= 72
##XYDATA=(XY..XY) 1 
    13          1
    14          4
    15         20
    18          1
    25          1
    26         23
    27        147
    28         31
    29         40
    30          1
    37          9
    38         27
    39        212
    40         34
    41        264
    42         11
    43          9
    44          0
    45          2
    46          1
    49          2
    50         39
    51         66
    52         40
    53        127
    54         35
    55        154
    56          7
    60          1
    61          7
    62         13
    63         25
    64          7
    65         55
    66         40
    67        225
    68         13
    69          1
    73          1
    74          3
    75          3
    76          1
    77         80
    78         19
    79         99
    80         32
    81         82
    82          5
    83          1
    85          0
    86          1
    87          0
    89          2
    90          1
    91         32
    92          5
    93         32
    94         10
    95        999
    96         76
    97          2
   109          0
   127         84
   128         26
   129          4
   139          1
   140          1
   141         18
   153          0
   155          1
   167          1
   222          4