##TITLE=Library Entry 43485
##JCAMP-DX=Revision 4.10 
##DATA TYPE=MASS SPECTRUM
##SAMPLE DESCRIPTION=Chemical Concepts
##NAMES=HP
##CAS NAME=1,3-Dioxolane, 2-(2-bromophenyl)-
##MOLFORM=C9H9BrO2
##CAS REGISTRY NO=34824-58-3
##MP= -300
##BP= -300
##MW= 228
##$RETENTION INDEX=0
##$CONDENSED SPECTRUM=NO
##NPOINTS= 95
##XYDATA=(XY..XY) 1 
    27         51
    28        186
    29         81
    30          6
    31         21
    32          7
    37         14
    38         26
    39         72
    40          7
    41          7
    42          9
    43         50
    44         30
    45        295
    46          9
    49         15
    50        172
    51        144
    52         16
    53          3
    55          5
    59         24
    61         14
    62         46
    63        111
    64         12
    65         27
    66          4
    67          3
    72          4
    73        999
    74         79
    75        105
    76        139
    77        164
    78         28
    79          9
    80          5
    81         38
    82          2
    84          3
    85          5
    86         15
    87          7
    88         12
    89        305
    90         75
    91         76
    92         13
    93          5
    97          2
   103          3
   104         38
   105        100
   106          8
   113          6
   114          3
   118          6
   119         79
   120          9
   121          2
   129          3
   130          2
   131          3
   147          3
   148         24
   149        225
   150         25
   151          3
   155         71
   156         94
   157         67
   158         82
   159          7
   168          7
   169         42
   170          9
   171         39
   172          5
   182          2
   183        177
   184         19
   185        177
   186         18
   197         21
   198          7
   199         14
   200          6
   226         14
   227        396
   228        226
   229        426
   230        214
   231         28