##TITLE=Library Entry 48483
##JCAMP-DX=Revision 4.10 
##DATA TYPE=MASS SPECTRUM
##SAMPLE DESCRIPTION=J.VOTH UNIV. OF CALIFORNIA, DAVIS, CALIFORNIA, 95616, U
SA
##NAMES=HP
##CAS NAME=Bicyclo[4.1.0]heptane, 2-chloro-
##MOLFORM=C7H11Cl
##CAS REGISTRY NO=34825-90-6
##MP= -300
##BP= -300
##MW= 130
##$RETENTION INDEX=0
##$CONDENSED SPECTRUM=NO
##NPOINTS= 83
##XYDATA=(XY..XY) 1 
    12          4
    13          6
    14         18
    15        130
    16          3
    17          9
    18         32
    25          6
    26        104
    27        561
    28        106
    29        108
    30          3
    31          5
    32          3
    35         23
    36         95
    37         49
    38        132
    39        786
    40        135
    41        508
    42         42
    43         22
    44          7
    45         23
    46         18
    47          3
    48          5
    49         44
    50         82
    51        169
    52         78
    53        376
    54        357
    55        243
    56         12
    57          3
    60          3
    61         21
    62         38
    63         65
    64         20
    65        144
    66        231
    67        495
    68        160
    69          9
    71          5
    73         12
    74          8
    75         42
    76         11
    77        255
    78         67
    79        999
    80         94
    81        570
    82         40
    83          3
    85          2
    86          3
    87          4
    88         85
    89         37
    90         33
    91         98
    92         14
    93        112
    94        317
    95        719
    96         54
    97          2
   101          7
   102         27
   103          4
   104          9
   115          4
   116          2
   130         99
   131          8
   132         32
   133          3