##TITLE=Library Entry 27718
##JCAMP-DX=Revision 4.10 
##DATA TYPE=MASS SPECTRUM
##SAMPLE DESCRIPTION=Dmitri Zagorevskii, Scientific Instruments & Applicatio
ns
##NAMES=HP
##CAS NAME=N,N-Dimethyl-10-undecen-1-amine
##MOLFORM=C13H27N
##CAS REGISTRY NO=34832-45-6
##MP= -300
##BP= -300
##MW= 197
##$RETENTION INDEX=0
##$CONDENSED SPECTRUM=NO
##NPOINTS= 33
##XYDATA=(XY..XY) 1 
    40         47
    41        445
    42        388
    43        213
    44        250
    45        225
    46        102
    47         18
    49         90
    51         36
    53         59
    54         52
    55        249
    56        104
    58        999
    59        140
    67         50
    68         19
    69         44
    70         39
    71         43
    72         28
    81         13
    82         10
    83         11
    84        100
    86         23
   100         11
   114         16
   156         10
   196         17
   197         45
   198         19