##TITLE=Library Entry 83154
##JCAMP-DX=Revision 4.10 
##DATA TYPE=MASS SPECTRUM
##SAMPLE DESCRIPTION=John Halket,Royal Holloway, University of London, UK
##NAMES=HP
##CAS NAME=2-Pyrrolidinone, 3-hydroxy-1-methyl-5-(3-pyridinyl)-, (3R-trans)-
##MOLFORM=C10H12N2O2
##CAS REGISTRY NO=34834-67-8
##MP= -300
##BP= -300
##MW= 192
##$RETENTION INDEX=1813
##$CONDENSED SPECTRUM=NO
##NPOINTS= 101
##XYDATA=(XY..XY) 1 
    15         33
    26         17
    27         63
    28         76
    29         67
    30         35
    31         21
    37          8
    38         31
    39        101
    40         19
    41         45
    42        254
    43         79
    44         30
    45          4
    49          7
    50         86
    51        216
    52        124
    53         62
    54         21
    55         32
    56         68
    57         40
    58        170
    59          9
    60          5
    61          8
    62         24
    63         89
    64         47
    65         96
    66         32
    67         24
    68         17
    69          5
    70          3
    73          2
    74         10
    75         16
    76         29
    77        164
    78        227
    79        361
    80        163
    81         15
    82          3
    84          7
    85          8
    86        107
    87          9
    88          3
    89         30
    90         48
    91         35
    92        233
    93        342
    94         29
    95          2
    96          4
    97          3
   102          6
   104        121
   105        103
   106        999
   107        130
   108         34
   109          4
   114        155
   115         10
   116         27
   117         72
   118        105
   119        235
   120         69
   121         42
   122          6
   131          6
   132         16
   133         24
   134        209
   135        359
   136         34
   137          3
   145          8
   146          5
   147          8
   148         28
   149          7
   161         22
   162          3
   163         35
   164         13
   174         46
   175         14
   176          4
   177          4
   192        548
   193         67
   194          6