##TITLE=Library Entry 107974
##JCAMP-DX=Revision 4.10 
##DATA TYPE=MASS SPECTRUM
##SAMPLE DESCRIPTION=A.A.Kutin, Moscow, Russia
##NAMES=HP
##CAS NAME=2-(1-Naphthalen-1-yl-1H-tetrazol-5-ylsulfanylmethyl)-pyridine
##MOLFORM=C17H13N5S
##CAS REGISTRY NO=348593-59-9
##MP= -300
##BP= -300
##MW= 319
##$RETENTION INDEX=0
##$CONDENSED SPECTRUM=NO
##NPOINTS= 216
##XYDATA=(XY..XY) 1 
    34          0
    36          0
    37          0
    38          3
    39         33
    40          5
    41          2
    42          1
    43          0
    44          1
    45         12
    46          2
    47          0
    49          0
    50          6
    51         20
    52         10
    53          7
    54          0
    55          0
    56          0
    57          0
    58          1
    59          0
    60          0
    61          0
    62          4
    63         15
    64          8
    65         57
    66          8
    67          1
    68          0
    69          2
    70          1
    71          1
    72          0
    73          0
    74          4
    75          9
    76          6
    77         18
    78        151
    79         17
    80         22
    81          1
    82          0
    83          1
    84          4
    85          0
    86          2
    87          5
    88          6
    89          8
    90          2
    91          2
    92         45
    93         16
    94          1
    95          1
    96          1
    97         10
    98          2
    99          2
   100          6
   101         10
   102          2
   103          0
   104          0
   105          1
   106          0
   107          0
   108          0
   109          0
   110          0
   111          0
   112          1
   113         15
   114         23
   115        101
   116         11
   117          0
   118          0
   119          0
   120          0
   121          0
   122         10
   124        999
   126         83
   127        106
   128         14
   129          1
   130          0
   131          0
   132          0
   133          0
   134          0
   135          0
   136          3
   137          0
   138          3
   139          6
   140         56
   141         27
   142          3
   143          0
   144          0
   145          0
   146          0
   147          3
   148          0
   149          0
   150          0
   151          0
   152          3
   153         27
   154          4
   155          4
   156          0
   157          0
   158          1
   159          0
   160          0
   161          0
   163          0
   164          0
   165          1
   166          1
   167         28
   168         13
   169          2
   170          0
   171          3
   172          6
   173          1
   174          0
   176          0
   177          0
   178          0
   179          0
   180          0
   181          0
   182          0
   183          0
   184          0
   185          8
   186          1
   187          0
   188          0
   189          0
   190          0
   191          0
   192          0
   197          0
   198          1
   199          3
   200          0
   201          0
   202          0
   203          0
   204          0
   205          0
   206          0
   210          0
   211          0
   212          0
   213          0
   214          0
   215          0
   216          0
   217          2
   218          1
   219          0
   223          0
   228          0
   229          0
   230          0
   231          1
   232          0
   233          0
   235          0
   236          0
   241          0
   242          0
   243          0
   244          1
   245          0
   249          0
   250          0
   251          0
   255          0
   256          0
   257          2
   258         10
   259          1
   260          0
   263          0
   266          0
   268          0
   274          0
   275          0
   276          0
   277         18
   278          3
   279          1
   280          0
   282          0
   283          0
   284          0
   286          0
   290          1
   291          1
   292          0
   319          9
   320          1
   321          0