##TITLE=Library Entry 79151
##JCAMP-DX=Revision 4.10 
##DATA TYPE=MASS SPECTRUM
##SAMPLE DESCRIPTION=A.A.Kutin, Moscow, Russia
##NAMES=HP
##CAS NAME=2-[5-(2,4-Dichloro-phenyl)-[1,3,4]oxadiazol-2-ylsulfanyl]-1-pheny
l-ethanone
##MOLFORM=C16H10Cl2N2O2S
##CAS REGISTRY NO=348593-64-6
##MP= -300
##BP= -300
##MW= 364
##$RETENTION INDEX=0
##$CONDENSED SPECTRUM=NO
##NPOINTS= 204
##XYDATA=(XY..XY) 1 
    34          0
    36          1
    37          0
    38          1
    39          8
    40         18
    41          3
    42          1
    43          3
    44          4
    45          4
    46          4
    47          0
    50         14
    51         46
    52          2
    53          0
    55          1
    57          1
    58          0
    60          1
    61          2
    62          3
    63          6
    64          5
    65         20
    66          1
    69          1
    70          0
    71          0
    73          5
    74         11
    75         13
    76          9
    77        190
    78         22
    79          2
    80          1
    83          1
    84          2
    85          4
    86          4
    87          7
    88          2
    89          3
    90          2
    91         43
    92          6
    93          2
    94          0
    95          1
    96          1
    97          5
    98          1
    99          2
   100          7
   101          1
   102          1
   103          7
   104         10
   105        999
   106         74
   107          8
   108          2
   109         19
   110          6
   111          7
   112          2
   113          0
   114          0
   115          4
   116          0
   117          0
   118         20
   119          5
   120          5
   121          3
   122          3
   123          3
   124         60
   125          4
   126          5
   127          6
   128          0
   132          2
   133          1
   134          2
   135          2
   136          5
   137          1
   138          3
   139          2
   140          2
   141          1
   144          0
   145         27
   146          2
   147         13
   148          4
   149          3
   150          1
   151          3
   152          1
   153          1
   154          0
   156          0
   157          3
   158          0
   159          4
   160          1
   161          1
   162          0
   163          1
   164          0
   165          0
   166          0
   167          2
   168          1
   169          0
   170          0
   171         16
   172          3
   173         46
   174          6
   175         25
   176          2
   177          3
   178          2
   179          1
   180          0
   183          0
   185          8
   186          7
   187          5
   188          5
   189          2
   190          1
   191          1
   192          0
   193          0
   195          0
   197          0
   198          0
   199          1
   200          0
   201          0
   210          0
   213          9
   214          0
   215          5
   216          0
   217          1
   219          0
   222          0
   223          0
   224          0
   231          2
   233          0
   236          0
   237          0
   243          2
   244          0
   245          0
   246          5
   247          0
   248          3
   249          0
   250          1
   254          0
   260          0
   268          1
   270          0
   271          0
   274          2
   277          0
   281          1
   282          1
   283          4
   284          0
   285          0
   286          0
   287          0
   291          0
   294          0
   312          0
   314          0
   315          1
   317          0
   322         13
   323          2
   324          8
   325          1
   326          1
   327          3
   336          3
   338          1
   340          0
   363          0
   364         26
   365          6
   366         19
   367          3
   368          3
   369          0