##TITLE=Library Entry 78974
##JCAMP-DX=Revision 4.10 
##DATA TYPE=MASS SPECTRUM
##SAMPLE DESCRIPTION=MI-0175
##NAMES=HP
##CAS NAME=Clidinium Bromide
##MOLFORM=C22H26BrNO3
##CAS REGISTRY NO=3485-62-9
##MP= -300
##BP= -300
##MW= 431
##$RETENTION INDEX=0
##$CONDENSED SPECTRUM=NO
##NPOINTS= 196
##XYDATA=(XY..XY) 1 
    25          7
    26         34
    27        129
    28         49
    29         42
    30         37
    31          3
    35         14
    36         27
    37         17
    38         24
    39        121
    40         25
    41        132
    42        262
    43         60
    44        121
    45         14
    46          4
    47          7
    48          4
    49         10
    50         91
    51        286
    52         49
    53         63
    54         36
    55         88
    56         37
    57         32
    58         27
    59          9
    60          9
    61         10
    62         20
    63         40
    64         14
    65         38
    66         26
    67         60
    68         12
    69         49
    70         51
    71         17
    72         12
    73         13
    74         34
    75         33
    76         58
    77        649
    78         84
    79         72
    80         51
    81         83
    82         62
    83         39
    84         13
    85         12
    86         12
    87         14
    88         11
    89         20
    90          4
    91         27
    92         15
    93         29
    94        135
    95         36
    96        560
    97         57
    98         52
    99         13
   100          4
   101          9
   102         12
   103          9
   104         19
   105        999
   106         88
   107         24
   108         54
   109         22
   110         72
   111        102
   112         20
   113         14
   114         10
   115         24
   116          7
   117         10
   118          4
   119          9
   120         14
   121          7
   122         38
   123         36
   124         21
   125         14
   126        130
   127         39
   128         17
   129         10
   130          9
   131         10
   132          6
   133          4
   134          4
   135          3
   136          2
   137          3
   138          4
   139         21
   140         10
   141         14
   142         13
   143          9
   144          3
   145          2
   146          2
   147          2
   148          2
   149          9
   150         12
   151         21
   152         63
   153         41
   154         23
   155         14
   156          4
   157          5
   158          6
   159          4
   160          1
   161          1
   162          4
   163         22
   164         26
   165        147
   166         96
   167         80
   168         30
   169         10
   170          2
   171          1
   172          2
   173          1
   174          2
   175          2
   176          2
   177          1
   178          1
   180          4
   181         69
   182        252
   183        316
   184         50
   185         10
   186         11
   187         13
   188          4
   189          2
   190          1
   191          1
   192         10
   193          1
   194         54
   195         14
   196          2
   197          4
   198          1
   199          1
   202          9
   203         41
   204         13
   205         36
   206          7
   207          2
   208          1
   209          1
   210         10
   211          4
   212         11
   213          4
   214          1
   215          1
   217          7
   218          8
   219         10
   220          1
   221          1
   321          2
   322          1
   337         14
   338          4
   339          2
   351          2