##TITLE=Library Entry 16672
##JCAMP-DX=Revision 4.10 
##DATA TYPE=MASS SPECTRUM
##SAMPLE DESCRIPTION=Chuck Anderson, Aldrich Chemical Co.
##NAMES=HP
##CAS NAME=2,2-Dichloroethyl methyl ether
##MOLFORM=C3H6Cl2O
##CAS REGISTRY NO=34862-07-2
##MP= -300
##BP= -300
##MW= 128
##$RETENTION INDEX=785
##$CONDENSED SPECTRUM=NO
##NPOINTS= 69
##XYDATA=(XY..XY) 1 
    12          0
    13          1
    14          5
    15         72
    16          1
    17          1
    24          0
    25          2
    26         18
    27         38
    28          4
    29         87
    30          6
    31         16
    32          0
    33          0
    35          4
    36          2
    37          1
    38          0
    39          0
    40          0
    41          2
    42          8
    43         38
    45        999
    46         27
    47         12
    48         13
    49         37
    50          6
    51         12
    52          0
    53          0
    57          1
    58          0
    59          0
    60          4
    61         50
    62         18
    63         17
    64          5
    65          0
    76          2
    77          5
    78          1
    79          2
    81          0
    82          0
    83         14
    84          0
    85          9
    86          0
    87          1
    92          1
    93          6
    94          0
    95          2
    96          2
    97         11
    98          2
    99          6
   100          0
   101          1
   127          0
   128          8
   129          0
   130          5
   132          0