##TITLE=Library Entry 34712
##JCAMP-DX=Revision 4.10 
##DATA TYPE=MASS SPECTRUM
##SAMPLE DESCRIPTION=GAZ DE FRANCE, DELORME, PARIS, FRANCE
##NAMES=HP
##CAS NAME=Pentane, 2,2-dichloro-
##MOLFORM=C5H10Cl2
##CAS REGISTRY NO=34887-14-4
##MP= -300
##BP= -300
##MW= 140
##$RETENTION INDEX=831
##$CONDENSED SPECTRUM=NO
##NPOINTS= 84
##XYDATA=(XY..XY) 1 
    25          4
    26         61
    27        418
    28         94
    29        183
    30          5
    31         14
    32         19
    33          3
    34          1
    35         13
    36         47
    37         29
    38         62
    39        331
    40         73
    41        753
    42        117
    43        866
    44         32
    47          4
    48          2
    49         49
    50         30
    51         63
    52         17
    53        217
    54         17
    55         56
    56          3
    57          5
    58          6
    59          2
    60          8
    61         67
    62         25
    63        160
    64         10
    65         54
    66          7
    67         46
    68         12
    69        999
    70         59
    71          4
    72          2
    73         10
    74          3
    75         48
    76        341
    77         33
    78        107
    79          6
    83         10
    84          2
    85          6
    86          3
    87          5
    88          2
    89        130
    90          6
    91         45
    92          9
    93          1
    94          2
    96         19
    97         87
    98         14
    99         53
   100          4
   101          9
   102          1
   103          9
   104        115
   105        272
   106         51
   107         87
   108          4
   109          2
   110          4
   111          8
   112          3
   113          4
   114          1