##TITLE=Library Entry 64319
##JCAMP-DX=Revision 4.10 
##DATA TYPE=MASS SPECTRUM
##SAMPLE DESCRIPTION=T.BRUUN, NORWEGIAN INST. OF TECH., TRONDHEIM, NORWAY
##NAMES=HP
##CAS NAME=Benzaldehyde, 2-methoxy-3,6-dimethyl-4-(phenylmethoxy)-
##MOLFORM=C17H18O3
##CAS REGISTRY NO=34883-17-5
##MP= -300
##BP= -300
##MW= 270
##$RETENTION INDEX=0
##$CONDENSED SPECTRUM=NO
##NPOINTS= 12
##XYDATA=(XY..XY) 1 
    32         40
    39         30
    41         10
    51         10
    63         10
    65         60
    77         10
    91        999
    92         80
   179         10
   270        140
   271         30