##TITLE=Library Entry 31773
##JCAMP-DX=Revision 4.10 
##DATA TYPE=MASS SPECTRUM
##SAMPLE DESCRIPTION=Dennis Rohrbaugh, CBDCOM/ERDEC, Edgewood, MD
##NAMES=HP
##CAS NAME=Di(tert-butyl) disulfide, perfluoro-
##MOLFORM=C8F18S2
##CAS REGISTRY NO=34880-30-3
##MP= -300
##BP= -300
##MW= 502
##$RETENTION INDEX=0
##$CONDENSED SPECTRUM=NO
##NPOINTS= 27
##XYDATA=(XY..XY) 1 
    63         12
    64        999
    66         97
    69        652
    70          6
    83         31
    93         17
    94         22
   113        354
   114          9
   115         15
   131         27
   144         13
   145          8
   150          8
   163         28
   181         21
   182         11
   195         17
   214         45
   251         14
   283        110
   284          6
   285          9
   502         18
   503          2
   504          1