##TITLE=Library Entry 71075
##JCAMP-DX=Revision 4.10 
##DATA TYPE=MASS SPECTRUM
##SAMPLE DESCRIPTION=Asinex Ltd, Moscow, Russia
##NAMES=HP
##CAS NAME=Bis-(2,2,6,6-tetramethyl-piperidin-4-yl)-amine
##MOLFORM=C18H37N3
##CAS REGISTRY NO=34887-26-8
##MP= -300
##BP= -300
##MW= 295
##$RETENTION INDEX=0
##$CONDENSED SPECTRUM=NO
##NPOINTS= 93
##XYDATA=(XY..XY) 1 
    33          6
    34          7
    39         75
    40        170
    41        254
    42        435
    43        121
    44         84
    45          3
    51          3
    53         23
    54         26
    55        186
    56        116
    57        179
    58        957
    59         34
    65         10
    66          4
    67         37
    68         28
    69         42
    70         51
    71         59
    72         15
    77         11
    78          3
    79         20
    80          9
    81         34
    82         70
    83         52
    84         63
    85         21
    86          7
    91          9
    93         11
    94         20
    95         25
    96         39
    97         51
    98        999
    99        170
   100         21
   105          3
   106          1
   107         23
   108         27
   109         14
   110         32
   111         13
   112         82
   113         20
   121          3
   122         25
   123         30
   124        544
   125         67
   126         15
   133         35
   135          4
   136          4
   137         10
   138        122
   139         44
   140        156
   141        136
   142         45
   151          2
   152          2
   153          1
   155         66
   156          6
   157          6
   164          4
   165          1
   166          1
   167         13
   169          2
   180         29
   181         12
   182          6
   183         61
   184          4
   197          6
   223         65
   224          9
   237         40
   238         21
   239          2
   280         11
   295         75
   296         11