##TITLE=Library Entry 34344
##JCAMP-DX=Revision 4.10 
##DATA TYPE=MASS SPECTRUM
##SAMPLE DESCRIPTION=D.HENNEBERG, MAX-PLANCK INSTITUTE, MULHEIM, WEST GERMAN
Y
##NAMES=HP
##CAS NAME=1,5-Heptadiene, 3,6-dimethyl-
##MOLFORM=C9H16
##CAS REGISTRY NO=34891-10-6
##MP= -300
##BP= -300
##MW= 124
##$RETENTION INDEX=0
##$CONDENSED SPECTRUM=NO
##NPOINTS= 58
##XYDATA=(XY..XY) 1 
    22          0
    23          0
    26          5
    27        100
    29         74
    30          1
    37         24
    38          4
    39        107
    40         14
    41        768
    42         36
    43         22
    49          0
    50          6
    51         18
    52          7
    53         64
    54         10
    55         90
    56         10
    57          1
    59          0
    61          0
    62          1
    63          3
    64          0
    65         15
    66          6
    67         65
    68         58
    69        999
    70         70
    71          1
    73          0
    74          0
    77         13
    78          3
    79         14
    80         50
    81        135
    82         27
    83          4
    91         29
    92          1
    93          3
    94          0
    95         10
    96          3
    97          0
   105          1
   107          1
   108          0
   109         21
   110          2
   123          0
   124         18
   125          2