##TITLE=Library Entry 2602
##JCAMP-DX=Revision 4.10 
##DATA TYPE=MASS SPECTRUM
##SAMPLE DESCRIPTION=NIST Mass Spectrometry Data Center, 1994
##NAMES=HP
##CAS NAME=1,9-Nonanedithiol
##MOLFORM=C9H20S2
##CAS REGISTRY NO=3489-28-9
##MP= -300
##BP= -300
##MW= 192
##$RETENTION INDEX=0
##$CONDENSED SPECTRUM=NO
##NPOINTS= 95
##XYDATA=(XY..XY) 1 
    15         24
    27        422
    29        360
    30         10
    31         11
    32         10
    33         35
    34         41
    35        114
    36          4
    37          9
    38          4
    39        385
    40          4
    41        999
    42        160
    43        164
    44          4
    45        237
    46        134
    47        867
    48         33
    49         42
    50          9
    51         20
    52          4
    53        132
    54        284
    55        810
    56         87
    57         87
    58         46
    59         99
    60        167
    61        275
    62         23
    63         18
    64          3
    65         25
    66          3
    67        435
    68        267
    69        372
    70         37
    71         37
    72          3
    73         51
    74         45
    75         20
    76          4
    77         14
    78          3
    79         45
    80          3
    81        267
    82        160
    83        133
    84         10
    85         26
    86          4
    87        553
    88         78
    89        145
    90         11
    91         10
    93          8
    95        139
    96         65
    97         15
    98          3
    99          4
   100          3
   101        465
   102         69
   103         35
   104          4
   109         10
   110          2
   115        204
   116         21
   117         14
   124          6
   125          3
   129        159
   130         15
   131          7
   143          8
   157        444
   158         76
   159         53
   160          2
   190          3
   192         81
   193         12
   194          8