##TITLE=Library Entry 84147
##JCAMP-DX=Revision 4.10 
##DATA TYPE=MASS SPECTRUM
##SAMPLE DESCRIPTION=Japan AIST/NIMC Database- Spectrum MS-IW-2198
##NAMES=HP
##CAS NAME=4-(Trifluoromethyl)benzyl alcohol
##MOLFORM=C8H7F3O
##CAS REGISTRY NO=349-95-1
##MP= -300
##BP= -300
##MW= 176
##$RETENTION INDEX=0
##$CONDENSED SPECTRUM=NO
##NPOINTS= 126
##XYDATA=(XY..XY) 1 
    18          2
    20          2
    26          4
    27         19
    28         10
    29         74
    30          9
    31         61
    32          2
    33          1
    37          9
    38         19
    39         47
    40          4
    41          2
    42          1
    43          4
    44          3
    45          1
    49          6
    50         76
    51        105
    52         20
    53         12
    54          1
    55          5
    56          3
    57         29
    58          1
    59          4
    60          1
    61          9
    62         27
    63         55
    64          9
    65          6
    66          2
    67          1
    68          5
    69         58
    70          9
    71          2
    73          7
    74         34
    75         94
    76         25
    77        247
    78         82
    79        540
    80         37
    81         15
    82          3
    83         20
    84          2
    85          4
    86          7
    87         12
    88         12
    89         36
    90         13
    91          7
    92          2
    93          5
    94          8
    95         65
    96         43
    97          8
    98          1
    99         22
   100          9
   101         19
   102          1
   103          1
   104          2
   105         15
   106          6
   107        999
   108         91
   109         97
   110          8
   111          1
   112          3
   113          8
   114         12
   115          6
   117          1
   118          2
   119         36
   120          5
   121          1
   123          3
   124          1
   125         48
   126         37
   127        838
   128         87
   129         21
   130          2
   131          1
   132          9
   133          5
   137          7
   138         16
   139         12
   140         14
   141          2
   143          5
   144          5
   145        198
   146         37
   147        125
   148         13
   149          1
   155         31
   156         22
   157        178
   158         52
   159        103
   160         11
   161          1
   173         51
   174          9
   175        180
   176        836
   177         73
   178          4