##TITLE=Library Entry 88898
##JCAMP-DX=Revision 4.10 
##DATA TYPE=MASS SPECTRUM
##SAMPLE DESCRIPTION=Chemical Concepts
##NAMES=HP
##CAS NAME=Acetamide, N-(2-fluorophenyl)-2-hydroxyimino-
##MOLFORM=C8H7FN2O2
##CAS REGISTRY NO=349-24-6
##MP= -300
##BP= -300
##MW= 182
##$RETENTION INDEX=0
##$CONDENSED SPECTRUM=NO
##NPOINTS= 123
##XYDATA=(XY..XY) 1 
    27         17
    28         44
    29          2
    30          3
    31         11
    33          4
    36          1
    37          5
    38         11
    39         18
    40          3
    41          3
    42          1
    43          8
    44         74
    45          5
    46          1
    49          1
    50         12
    51         11
    52         11
    53          1
    54          3
    55          1
    56          9
    57         57
    58          5
    59          2
    60          0
    61          3
    62         10
    63         24
    64         19
    65          6
    66          0
    67          0
    68          6
    69          9
    70          4
    71          4
    72         70
    73          2
    74          5
    75         31
    76          4
    77          1
    78          0
    79          0
    80          1
    81         17
    82         32
    83        153
    84         36
    85          3
    86          0
    87          0
    88          1
    89          8
    90         43
    91         26
    92          3
    93          1
    94          6
    95         21
    96          3
    97          0
    98          0
    99          0
   100          0
   101          0
   102          2
   103          0
   104          0
   105          0
   106          1
   107          0
   108          5
   109         37
   110         89
   111        999
   112         76
   113          2
   116          0
   117          1
   118          7
   119          1
   120          0
   121          1
   122          7
   123          1
   124          0
   127          0
   129          0
   132          1
   133          0
   134          1
   135          0
   136          3
   137         57
   138         42
   139          3
   140          0
   144          0
   145          1
   146          1
   147          1
   150          3
   151          9
   152          3
   153          0
   154          0
   162         14
   163         11
   164          4
   165         42
   166          6
   167          0
   179          0
   181          3
   182        656
   183         64
   184          5
   185          0