##TITLE=Library Entry 47350
##JCAMP-DX=Revision 4.10 
##DATA TYPE=MASS SPECTRUM
##SAMPLE DESCRIPTION=Humboldt-Universitat zu Berlin, Department of Chemistry
, Analytical Group
##NAMES=HP
##CAS NAME=2-(3,5-Dimethoxyphenyl)-2-hydroxy-1-phenyl-ethanone
##MOLFORM=C16H16O4
##CAS REGISTRY NO=34904-92-2
##MP= -300
##BP= -300
##MW= 272
##$RETENTION INDEX=0
##$CONDENSED SPECTRUM=NO
##NPOINTS= 135
##XYDATA=(XY..XY) 1 
    12          5
    13          5
    14         26
    15        258
    16          6
    17          5
    18         10
    26         14
    27        103
    28         25
    29         95
    30          8
    31         17
    32          1
    33          2
    36          3
    37         10
    38         43
    39        173
    40         24
    41         56
    42          9
    43         25
    44          2
    45         17
    50        171
    51        526
    52         85
    53        166
    54         13
    55         46
    56          4
    57          5
    59         15
    61          7
    62         33
    63        106
    64         55
    65         91
    66         65
    67         25
    68         13
    69         53
    70          3
    71          3
    74         38
    75         37
    77        999
    78        120
    79        100
    80         27
    81        107
    82          9
    83          4
    84          1
    85          2
    86          4
    87          3
    88          2
    89          9
    90          5
    91         18
    92         63
    93         23
    94         48
    95         74
    96        133
    97         10
    98          2
    99          1
   101          2
   102          3
   103          4
   105        726
   106         75
   107        125
   108        126
   109         69
   110          7
   111          2
   113          4
   114          2
   115         12
   116          1
   119          4
   120          3
   121          8
   122         43
   123         17
   124        279
   125         24
   126          4
   127          4
   128          5
   129          2
   135         31
   136          7
   137         34
   139        969
   140         90
   141         14
   142          1
   149          1
   150          1
   151          6
   152          9
   153          5
   154          1
   155          1
   163          1
   165         64
   166         71
   167        708
   168         75
   169         11
   170          1
   179          1
   180          1
   181          3
   182          1
   183          1
   195          1
   196          2
   197          2
   211          2
   212          1
   225          1
   227          2
   255         12
   256          4
   257          0
   270          0
   272         65
   273         13
   274          1