##TITLE=Library Entry 100794
##JCAMP-DX=Revision 4.10 
##DATA TYPE=MASS SPECTRUM
##SAMPLE DESCRIPTION=A.A.Kutin, Moscow, Russia
##NAMES=HP
##CAS NAME=Pyrazine, 1-(4-methylbenzoyl)-4-(2-hydroxyethyl)-
##MOLFORM=C14H20N2O2
##CAS REGISTRY NO=349089-28-7
##MP= -300
##BP= -300
##MW= 248
##$RETENTION INDEX=0
##$CONDENSED SPECTRUM=NO
##NPOINTS= 173
##XYDATA=(XY..XY) 1 
    33          0
    34          0
    36          0
    37          0
    38          4
    39         45
    40          9
    41         58
    42        256
    43         60
    44        143
    45         52
    47          0
    49          0
    50         10
    51         20
    52          5
    53          5
    54         29
    55         50
    56        214
    57         31
    58        128
    59          5
    61          2
    62          8
    63         38
    64         14
    65        156
    66          9
    67          2
    68         13
    69         35
    70        118
    71         14
    72         23
    73         14
    74         15
    75          3
    76          4
    77          9
    78          2
    79          2
    80          2
    81          4
    82         47
    83         61
    84         14
    85         10
    86         46
    87         12
    88        125
    89         56
    90         50
    91        448
    92         33
    93          2
    95        211
    96         13
    97         19
    98         29
    99         44
   100        336
   101         21
   102          2
   103          3
   104          3
   105         13
   106          1
   107          1
   108          1
   109          1
   110          0
   111          5
   112          6
   113         38
   114          3
   115          2
   116          2
   117          4
   119        999
   120        100
   121          7
   122          1
   123          0
   124          0
   125          1
   126          0
   127          4
   128          3
   129         14
   130          2
   131          2
   132          2
   133          1
   134          1
   135          0
   136         13
   137          1
   138          0
   139          0
   141          0
   142          0
   143          1
   144          1
   145          0
   146         16
   147          2
   148          4
   149          1
   150          0
   151          0
   152          0
   155          0
   156          0
   157          0
   158          0
   159          0
   160          3
   161          6
   162         55
   163          7
   164          1
   165          0
   167          0
   169          0
   171          0
   172          0
   173          0
   174         16
   175          2
   176          2
   177          0
   180          0
   183          0
   184          0
   185          0
   187         14
   188         11
   189          2
   190          0
   191          0
   192          0
   198          0
   199          1
   200          0
   201          0
   202          1
   203          1
   204          0
   205         10
   206          1
   207          0
   212          0
   213          0
   214          0
   215          3
   217        456
   218         80
   219          9
   220          0
   226          0
   228          0
   230        153
   231         24
   232          2
   233          0
   245          0
   246          1
   247          2
   248         10
   249          2
   250          0