##TITLE=Library Entry 99760
##JCAMP-DX=Revision 4.10 
##DATA TYPE=MASS SPECTRUM
##SAMPLE DESCRIPTION=A.A.Kutin, Moscow, Russia
##NAMES=HP
##CAS NAME=Benzamide, 2-methyl-N-benzyl-N-ethyl-
##MOLFORM=C17H19NO
##CAS REGISTRY NO=349094-13-9
##MP= -300
##BP= -300
##MW= 253
##$RETENTION INDEX=0
##$CONDENSED SPECTRUM=NO
##NPOINTS= 197
##XYDATA=(XY..XY) 1 
    35          0
    36          1
    37          0
    38          5
    39         56
    41         30
    42         10
    43          4
    44          4
    45          2
    50         11
    51         40
    52          8
    53          4
    54          2
    55          3
    56          9
    57          3
    58          3
    59          0
    60          1
    61          1
    62          8
    63         39
    65        239
    66         11
    67          1
    69          1
    70          4
    71          1
    72          0
    73          0
    74          3
    75          5
    76          6
    77         67
    78         17
    79         22
    80          1
    81          1
    82          0
    83          1
    84          0
    85          0
    86          1
    87          1
    88          5
    89         63
    90         55
    91        772
    92         58
    93          3
    95          1
    96          0
    97          0
    98          0
    99          0
   100          0
   101          0
   102          2
   103          6
   104         22
   105         49
   106         19
   107          9
   108          1
   109          0
   111          0
   112          0
   113          0
   114          0
   115          6
   116         10
   117         15
   118        107
   119        999
   120         94
   121          7
   122          0
   123          0
   125          0
   127          3
   128          2
   129          1
   130          2
   131          2
   132         14
   133          5
   134         24
   135          4
   136          5
   137          0
   139          0
   140          0
   141          2
   142          0
   143          0
   144          0
   145          0
   146          5
   147          1
   148          2
   149          1
   150          1
   151          0
   152          2
   153          0
   154          0
   155          0
   157          0
   158          0
   159          0
   160          3
   161          1
   162         26
   163          4
   164          0
   165          6
   166          2
   167          3
   168          0
   169          0
   170          0
   171          0
   173          0
   174          1
   175          1
   176          2
   177          1
   178          2
   179          2
   180          1
   181          3
   182          0
   183          0
   187          0
   188          0
   189          0
   190          0
   191          0
   192          1
   193          1
   194         16
   195          7
   196          1
   197          0
   200          0
   202          0
   203          0
   204          0
   205          0
   206          0
   207          1
   208          4
   209          2
   210          6
   211          2
   212          0
   213          0
   215          1
   216          0
   217          0
   218          0
   219          0
   220          0
   221          0
   222          0
   224         10
   225          3
   226          0
   228          0
   229          0
   230          1
   231          3
   232          1
   233          1
   234          0
   235          0
   236          1
   238        409
   239         81
   240          8
   241          0
   242          0
   244          0
   245          0
   246          0
   247          0
   248          0
   249          0
   250          0
   252         98
   253        163
   254         30
   255          3
   256          0
   259          0