##TITLE=Library Entry 88294
##JCAMP-DX=Revision 4.10 
##DATA TYPE=MASS SPECTRUM
##SAMPLE DESCRIPTION=A.A.Kutin, Moscow, Russia
##NAMES=HP
##CAS NAME=Thiophene-2-carboxamide, N-benzyl-N-tert-butyl-
##MOLFORM=C16H19NOS
##CAS REGISTRY NO=349097-49-0
##MP= -300
##BP= -300
##MW= 273
##$RETENTION INDEX=0
##$CONDENSED SPECTRUM=NO
##NPOINTS= 177
##XYDATA=(XY..XY) 1 
    33          1
    34          1
    35          0
    36          1
    37          2
    39        187
    40         15
    41        122
    42         11
    43          2
    44          3
    45         16
    47          1
    48          0
    49          0
    50         10
    51         25
    52         12
    53          8
    54          2
    55         10
    57        179
    58         13
    59          1
    60          0
    61          0
    62          2
    63         11
    65         73
    66          4
    67          0
    68          0
    69          4
    70          4
    71          1
    72          0
    73          0
    74          1
    75          2
    76          3
    77         30
    78          8
    79         19
    81          5
    82          8
    83         56
    84        246
    85         48
    86          3
    87          2
    89         17
    91        585
    92         42
    93          1
    94          0
    95          0
    96          0
    97          3
    98          1
    99          0
   100          0
   101          0
   102          1
   103          2
   104         13
   105         15
   106         53
   107          8
   108          1
   109          3
   111        999
   112        100
   113         55
   114          5
   115          4
   116          1
   117          1
   118          0
   119          0
   120          0
   121          0
   122          0
   123          0
   124          3
   125          1
   127          1
   128          4
   129          2
   130          2
   131          1
   132         15
   133          9
   134          1
   135          0
   137          0
   138          0
   139         15
   140          9
   141          4
   142          1
   143          0
   145          4
   146         15
   147          3
   148          2
   149          0
   150          0
   151          0
   152          0
   153          0
   154          0
   155          0
   156          0
   158          0
   159          0
   160          3
   161          2
   162          6
   163          0
   166          0
   167          0
   168          0
   170          0
   171          2
   172          1
   173          6
   174          1
   175          1
   176          0
   180          0
   182          1
   183          0
   184          3
   185          0
   186          0
   187          1
   188          0
   189          6
   190          1
   191          0
   196          0
   198          0
   199          1
   200          1
   201          1
   202          0
   203          0
   210          1
   211          0
   213          0
   214          0
   216        334
   217         64
   218         23
   219          3
   220          0
   224          0
   230          7
   231          1
   232          0
   236          0
   238          2
   239          0
   240          7
   241          1
   250          1
   251          0
   252          0
   256          0
   258        106
   259         19
   260          6
   261          1
   273         51
   274          9
   275          3
   276          0