##TITLE=Library Entry 99786
##JCAMP-DX=Revision 4.10 
##DATA TYPE=MASS SPECTRUM
##SAMPLE DESCRIPTION=A.A.Kutin, Moscow, Russia
##NAMES=HP
##CAS NAME=Isoquinoline, 1,2,3,4-tetrahydro-2-(2-methylbenzoyl)-
##MOLFORM=C17H17NO
##CAS REGISTRY NO=349094-27-5
##MP= -300
##BP= -300
##MW= 251
##$RETENTION INDEX=0
##$CONDENSED SPECTRUM=NO
##NPOINTS= 179
##XYDATA=(XY..XY) 1 
    34          0
    36          0
    37          1
    39         84
    40          9
    41         27
    42          9
    43          2
    44          1
    45          3
    48          0
    50         20
    51         59
    52         17
    53         10
    54          3
    55          1
    56          3
    57          1
    58          0
    59          1
    60          0
    61          1
    62         13
    63         66
    64         24
    65        268
    66         15
    67          1
    68          0
    69          0
    70          0
    71          0
    72          0
    73          0
    74          7
    75         12
    76         19
    77        128
    78         88
    79         38
    80          2
    81          0
    83          0
    84          0
    85          0
    86          1
    87          3
    89        100
    90         94
    91        819
    92         63
    93         12
    94          1
    95          1
    96          0
    97          0
    98          0
    99          0
   100          0
   101          5
   102         25
   103        106
   104        130
   105        110
   106          9
   107          1
   109          0
   110          0
   111          1
   112          0
   113          0
   114          1
   115         54
   116        102
   117        191
   118        159
   119        999
   120         99
   121          7
   122          0
   123          0
   124          2
   126          6
   127          0
   128          6
   129          5
   130         66
   131         34
   132        146
   133         18
   134          3
   135         10
   136         20
   137          2
   138          0
   139          0
   141          0
   142          3
   143          0
   144          0
   145          1
   146         15
   147          3
   148         10
   149          1
   150          0
   151          0
   152          1
   153          0
   155          0
   158          1
   159          0
   160          2
   161          0
   162          0
   163          0
   164          0
   165          1
   166          0
   167          0
   169          0
   174          0
   175          0
   176          0
   177          0
   178          2
   179          1
   180          0
   181          0
   182          0
   188          0
   189          0
   190          0
   191          1
   192          1
   193          1
   194          1
   195          0
   196          0
   197          0
   202          0
   203          0
   204          1
   205          0
   206          1
   207          1
   208          1
   209          0
   210          0
   215          0
   216          0
   217          1
   218          2
   219          2
   220          3
   221          1
   222          4
   223          0
   224          0
   230          0
   231          0
   232          1
   233          1
   234          7
   235          5
   236        369
   237         69
   238          7
   239          0
   246          0
   248          1
   249          4
   250        127
   251        565
   252        109
   253         14
   254          1
   255          0