##TITLE=Library Entry 16009
##JCAMP-DX=Revision 4.10 
##DATA TYPE=MASS SPECTRUM
##SAMPLE DESCRIPTION=NIST Mass Spectrometry Data Center, 2012
##NAMES=HP
##CAS NAME=Bupropion
##MOLFORM=C13H18ClNO
##CAS REGISTRY NO=34911-55-2
##MP= -300
##BP= -300
##MW= 239
##$RETENTION INDEX=0
##$CONDENSED SPECTRUM=NO
##NPOINTS= 112
##XYDATA=(XY..XY) 1 
    15          2
    26          1
    27          9
    28         13
    29         34
    30          5
    36          1
    37          1
    38          2
    39         23
    40          4
    41         87
    42         74
    43         15
    44        999
    45         27
    49          1
    50         23
    51         15
    52          2
    53          4
    54          3
    55         16
    56         15
    57        149
    58         21
    59          1
    61          2
    62          1
    63          3
    64          1
    65          1
    67          2
    68          4
    69          3
    70         19
    71          3
    72          2
    73          2
    74         13
    75         77
    76         21
    77         18
    78          3
    79          1
    82          2
    83          1
    84         33
    85         24
    86          2
    87          3
    88          1
    89          3
    90          1
    91          1
    98         10
   100        582
   101         42
   102          4
   103         13
   104          3
   105          2
   110          2
   111        114
   112         13
   113         38
   114          4
   115          3
   116          1
   117          1
   118          1
   125          2
   127          1
   128          1
   129          1
   130          4
   131         30
   132          4
   133          3
   137          1
   138          2
   139         74
   140         14
   141         24
   142          4
   146          2
   147          2
   149          1
   151          1
   153          1
   154          1
   155          1
   164          1
   165          1
   166          8
   167          3
   168          6
   169          1
   170          1
   171          1
   180          1
   182          1
   191          1
   194          1
   196          1
   206          4
   207          1
   208          1
   224         20
   225          3
   226          7
   227          1