##TITLE=Library Entry 8372
##JCAMP-DX=Revision 4.10 
##DATA TYPE=MASS SPECTRUM
##SAMPLE DESCRIPTION=Japan AIST/NIMC Database- Spectrum MS-IW-3575
##NAMES=HP
##CAS NAME=1,7-Octadien-3-ol, acetate
##MOLFORM=C10H16O2
##CAS REGISTRY NO=3491-26-7
##MP= -300
##BP= -300
##MW= 168
##$RETENTION INDEX=0
##$CONDENSED SPECTRUM=NO
##NPOINTS= 92
##XYDATA=(XY..XY) 1 
    14          3
    15         32
    18          2
    26          9
    27        115
    28         38
    29         83
    30          2
    31          9
    32          1
    37          2
    38          8
    39        181
    40         26
    41        253
    42         37
    43        999
    44         49
    45         18
    50          8
    51         19
    52         12
    53         73
    54        460
    55        201
    56         22
    57        170
    58         44
    59          5
    60         11
    61         16
    62          2
    63          5
    64          1
    65         36
    66         93
    67        489
    68         61
    69         40
    70         71
    71         66
    72         62
    73          7
    74          1
    77         43
    78         41
    79        281
    80        187
    81         55
    82         62
    83         73
    84        138
    85         18
    86          5
    87          3
    91         39
    92          8
    93        237
    94         24
    95         17
    96          6
    97         52
    98         41
    99        243
   100         20
   101          5
   103          1
   104          1
   105          5
   106          4
   107         25
   108        104
   109         28
   110          9
   111         75
   112         16
   113          9
   114         19
   115          2
   120          1
   121          2
   122          4
   123          2
   124          7
   125         25
   126         70
   127          9
   128          1
   135          2
   139          5
   140          2
   153          2