##TITLE=Library Entry 8373
##JCAMP-DX=Revision 4.10 
##DATA TYPE=MASS SPECTRUM
##SAMPLE DESCRIPTION=Japan AIST/NIMC Database- Spectrum MS-IW-3576
##NAMES=HP
##CAS NAME=2,7-Octadien-1-ol, acetate
##MOLFORM=C10H16O2
##CAS REGISTRY NO=3491-27-8
##MP= -300
##BP= -300
##MW= 168
##$RETENTION INDEX=0
##$CONDENSED SPECTRUM=NO
##NPOINTS= 90
##XYDATA=(XY..XY) 1 
    14          3
    15         35
    17          1
    18          3
    26          7
    27        121
    28         35
    29        108
    30          3
    31          9
    32          1
    37          2
    38          9
    39        220
    40         33
    41        287
    42         34
    43        999
    44         48
    45         12
    50          8
    51         23
    52         15
    53        110
    54        474
    55        266
    56         20
    57         80
    58         24
    59          6
    60          7
    61         22
    62          2
    63          5
    64          1
    65         45
    66        158
    67        672
    68         83
    69         28
    70         86
    71         46
    72         11
    73         17
    74          1
    77         47
    78         42
    79        337
    80        221
    81         91
    82        222
    83         85
    84         55
    85         15
    86          6
    87          7
    91         40
    92          9
    93        305
    94         27
    95         46
    96          6
    97         29
    98         24
    99         11
   100         10
   101         18
   102          1
   103          1
   105          5
   106          3
   107         33
   108        183
   109         41
   110          7
   111         16
   112         12
   113         10
   114          5
   115          1
   121          1
   122          2
   123          1
   124          9
   125         16
   126        115
   127         12
   128          1
   135          1
   140          1