##TITLE=Library Entry 90922
##JCAMP-DX=Revision 4.10 
##DATA TYPE=MASS SPECTRUM
##SAMPLE DESCRIPTION=Asinex Ltd, Moscow, Russia
##NAMES=HP
##CAS NAME=4-(2,5-Dichloro-benzenesulfonyl)-2,6-dimethyl-morpholine
##MOLFORM=C12H15Cl2NO3S
##CAS REGISTRY NO=349128-06-9
##MP= -300
##BP= -300
##MW= 323
##$RETENTION INDEX=0
##$CONDENSED SPECTRUM=NO
##NPOINTS= 226
##XYDATA=(XY..XY) 1 
    34          0
    35          0
    36          1
    37          0
    38          2
    39         22
    40         10
    41        131
    42        198
    43         41
    44         12
    45         16
    46          0
    47          0
    48          1
    50          9
    51          2
    52          0
    53          0
    54          9
    55         11
    56          9
    57          4
    58          3
    59          1
    60          1
    61          1
    62          1
    63          4
    64          2
    65          1
    66          0
    67          2
    68         30
    70        586
    71         30
    72         21
    73          7
    74         40
    75         45
    76          5
    77          2
    78          0
    79          2
    80          0
    81          2
    82          1
    83          2
    84         17
    85         12
    86          6
    87          3
    88          0
    89          1
    90          0
    91          1
    92          0
    93          1
    94          1
    95          4
    96          1
    97          2
    98          5
    99          4
   100          2
   101          1
   102          1
   103          1
   104          1
   105          2
   106          1
   107          2
   109        135
   110         37
   111         54
   112         31
   114        999
   115         81
   116          5
   117          1
   118          2
   119          3
   120          1
   121          3
   122          0
   123          1
   124          1
   125          1
   126          1
   127          1
   128          2
   129          2
   130          2
   131          2
   132          1
   133          4
   134          1
   135          2
   136          1
   137          1
   138          2
   139          1
   140          1
   141          2
   142          3
   143          1
   145        247
   146         27
   147        149
   148         14
   149         28
   150          3
   151          1
   152          1
   153          1
   154          1
   155          1
   156          0
   157          0
   158          0
   159          2
   160          0
   161          6
   162          4
   163          4
   164          2
   165          7
   166          4
   167          5
   168          1
   169          1
   170          0
   171          1
   172          2
   173          2
   174          2
   175          2
   176          1
   177          1
   178          1
   179          1
   180         19
   181          3
   182          5
   183          0
   184          0
   185          0
   186          0
   187          0
   188          0
   189          0
   191          0
   192          0
   193          5
   195          5
   196          0
   197          0
   198          0
   199          0
   200          0
   201          0
   202          1
   203          0
   204          0
   205          0
   206          0
   207          0
   209        207
   210         18
   211        136
   212         10
   213         26
   214          2
   215          1
   216          0
   217          0
   218          0
   219          0
   220          0
   223          0
   224          0
   225          0
   226          0
   230          0
   232          0
   234          0
   237         45
   238         45
   239         34
   240         29
   241          8
   242          5
   243          0
   244          2
   245          0
   246          1
   247          0
   252          2
   253          0
   254          1
   255          0
   256          0
   258          0
   265          0
   266          1
   267          0
   268          1
   269          0
   270          0
   278          1
   280          1
   281          0
   282          0
   283          0
   284          0
   308          1
   309          0
   310          1
   312          0
   323         65
   324         11
   325         41
   326          6
   327          8
   328          1
   329          0