##TITLE=Library Entry 55758
##JCAMP-DX=Revision 4.10 
##DATA TYPE=MASS SPECTRUM
##SAMPLE DESCRIPTION=CARL DJERASSI DEPT OF CHEM STANFORD UNIV STANFORD CALIF
 94305
##NAMES=HP
##CAS NAME=Ethanamine, N-ethyl-N-[(ethylthio)methyl]-
##MOLFORM=C7H17NS
##CAS REGISTRY NO=3492-79-3
##MP= -300
##BP= -300
##MW= 147
##$RETENTION INDEX=0
##$CONDENSED SPECTRUM=NO
##NPOINTS= 23
##XYDATA=(XY..XY) 1 
    41         40
    42        250
    43         30
    44         50
    45         50
    46         10
    47        120
    54         30
    55         20
    56         90
    57         30
    58        200
    59         10
    61         10
    62         50
    70         70
    71         10
    72         10
    75         50
    84         10
    85         40
    86        999
    87         60