##TITLE=Library Entry 88864
##JCAMP-DX=Revision 4.10 
##DATA TYPE=MASS SPECTRUM
##SAMPLE DESCRIPTION=Asinex Ltd, Moscow, Russia
##NAMES=HP
##CAS NAME=Benzenesulfonamide, 4-chloro-N,N-di(cyanomethyl)-
##MOLFORM=C10H8ClN3O2S
##CAS REGISTRY NO=349397-06-4
##MP= -300
##BP= -300
##MW= 269
##$RETENTION INDEX=0
##$CONDENSED SPECTRUM=NO
##NPOINTS= 120
##XYDATA=(XY..XY) 1 
    33          2
    34          3
    35         10
    36         21
    37         22
    38         63
    39         92
    40        419
    41        181
    42         53
    43          5
    44         13
    45         20
    46          4
    47          5
    48         38
    49         31
    50        332
    51        146
    52         16
    53         45
    54         28
    55         11
    56          2
    57          6
    58          6
    59          1
    60          7
    61         30
    62         20
    63         44
    64         24
    65         24
    66         39
    67        115
    68         10
    69         25
    70          4
    71          3
    72          7
    73         59
    74        185
    75        671
    76        147
    77         26
    78          4
    79          5
    80          2
    81          6
    82          6
    83          2
    84         23
    85         82
    86         14
    87         31
    88          2
    89          3
    90          3
    91          2
    92         13
    93          4
    94          2
    95          9
    96          4
    97          2
    99         26
   100          7
   101         10
   102         23
   103          6
   104          1
   105          2
   106          1
   107          5
   108         19
   109         13
   111        999
   112        102
   113        300
   114         26
   115          3
   117          0
   119          0
   124          1
   125          0
   126          0
   127          9
   128          4
   129          4
   131         24
   132          1
   133          7
   137         15
   138          7
   139          6
   140          7
   141          0
   142          4
   143          4
   144          6
   145          1
   146          2
   158          2
   159         20
   160          2
   161          6
   165          3
   167          0
   173         12
   175        683
   176         58
   177        238
   178         17
   179         10
   210          0
   267          0
   269         62
   270          8
   271         22
   272          2