##TITLE=Library Entry 107799
##JCAMP-DX=Revision 4.10 
##DATA TYPE=MASS SPECTRUM
##SAMPLE DESCRIPTION=E. PICQUENARD, UNIV. PIERRE MARIE CURIE, PARIS, FR.
##NAMES=HP
##CAS NAME=4,5-Dimethyl-2-pyrimidone
##MOLFORM=C6H8N2O
##CAS REGISTRY NO=34939-17-8
##MP= -300
##BP= -300
##MW= 124
##$RETENTION INDEX=0
##$CONDENSED SPECTRUM=NO
##NPOINTS= 23
##XYDATA=(XY..XY) 1 
    40        110
    41        115
    42        385
    43        110
    44         90
    50         50
    51         80
    52        120
    53        155
    54        225
    55        420
    56         90
    68         65
    69        360
    80         80
    81         80
    82        100
    95        140
    96        340
   109        230
   123        135
   124        999
   125         90