##TITLE=Library Entry 57621
##JCAMP-DX=Revision 4.10 
##DATA TYPE=MASS SPECTRUM
##SAMPLE DESCRIPTION=A.A.Kutin, Moscow, Russia
##NAMES=HP
##CAS NAME=Acetamide, N-[4-(3-methoxypropylaminosulfonyl)phenyl]-
##MOLFORM=C12H18N2O4S
##CAS REGISTRY NO=349398-28-3
##MP= -300
##BP= -300
##MW= 286
##$RETENTION INDEX=0
##$CONDENSED SPECTRUM=NO
##NPOINTS= 137
##XYDATA=(XY..XY) 1 
    33         22
    36          1
    37          3
    39         84
    41         76
    43        576
    45        342
    48          4
    50         17
    51         15
    52         20
    53         12
    54         10
    56        175
    58         65
    59         55
    60          7
    63         79
    65        308
    66         27
    69          6
    72        152
    74         13
    75          8
    76         18
    77         18
    78         13
    79         20
    80         17
    81          4
    82          1
    84          3
    88        999
    91        130
    92        187
    93        155
    95          2
    96          2
    97          1
    98          0
   102          1
   104         20
   105         14
   106         26
   108        178
   109         11
   111          1
   112          2
   113          0
   116          1
   118         13
   119         11
   120          8
   121         24
   122          4
   123          3
   124          6
   125          4
   126          0
   130          1
   132         15
   134        226
   135        230
   136         20
   140         64
   141          4
   142          2
   143          0
   145          0
   147          6
   148          3
   150         21
   151          2
   152          0
   153          0
   156        145
   157         59
   158          8
   159          3
   160          0
   161          2
   164        115
   165          8
   166          1
   167          1
   168          1
   171          0
   172          8
   173          0
   174          0
   175          0
   178          1
   179          3
   180          0
   182          7
   183          1
   184          5
   185          4
   186          1
   187          1
   189          1
   190          1
   191          0
   194          0
   196         12
   198        293
   199         28
   200         14
   201          1
   207          0
   210          0
   211          0
   212          1
   214          5
   215         12
   216          1
   217          0
   221          0
   222          1
   225          1
   227         28
   228          5
   229          2
   239          0
   241          0
   242          1
   244          0
   254          0
   255          1
   256          1
   271          1
   283          0
   284          1
   286         58
   287          9
   288          3
   289          0