##TITLE=Library Entry 85454
##JCAMP-DX=Revision 4.10 
##DATA TYPE=MASS SPECTRUM
##SAMPLE DESCRIPTION=A.A.Kutin, Moscow, Russia
##NAMES=HP
##CAS NAME=Indole, 3-(dimethoxyphosphonato)(4-methoxyphenylamino)methyl-
##MOLFORM=C18H21N2O4P
##CAS REGISTRY NO=349498-03-9
##MP= -300
##BP= -300
##MW= 360
##$RETENTION INDEX=0
##$CONDENSED SPECTRUM=NO
##NPOINTS= 179
##XYDATA=(XY..XY) 1 
    37          4
    38         34
    39         58
    40         15
    41         27
    42          5
    43          4
    44          5
    45          7
    47         92
    48         11
    49         19
    50         61
    51        105
    52        119
    53        129
    54         34
    55          4
    56          2
    57          4
    59          0
    60          7
    61         28
    62         53
    63        130
    64         65
    65         81
    66         12
    67          5
    68          2
    69          0
    70          0
    74         95
    75        180
    76         57
    77        112
    79        400
    80        688
    81         28
    82          2
    85          1
    86          5
    87         10
    88         21
    89         52
    90         32
    91         25
    92         72
    93        172
    95        151
    96          7
    98         19
    99         14
   100         40
   101        237
   102         73
   103         51
   104         12
   105          3
   108        999
   109        186
   110        236
   111          7
   112          2
   113          4
   114         25
   115        139
   116         93
   117         45
   118         26
   119          8
   120          7
   123        718
   124         48
   125         18
   126          7
   127         49
   128        212
   129        137
   130        144
   131         19
   132          8
   134        289
   135         31
   136          3
   137          1
   140         23
   141         46
   142        313
   143        336
   144         49
   145          8
   146          2
   147          1
   148          2
   149          4
   150          3
   151          8
   152         14
   153          8
   154         18
   155         28
   156         56
   157         22
   158         42
   159         26
   160          6
   161          0
   162          0
   163          2
   164          3
   165          4
   167          3
   168          0
   171          0
   172          1
   174         25
   175          3
   176          2
   177          4
   178         11
   179         13
   180         27
   181          6
   182          0
   187         13
   188          3
   189          5
   190         23
   191         12
   192         31
   193          4
   194          5
   195          3
   204         22
   205        115
   206        119
   207         75
   208         26
   209          5
   210         16
   211          3
   212          0
   216          2
   217          2
   218          8
   219         10
   220          3
   222         75
   223          6
   224          2
   226          4
   228          0
   233          3
   234         29
   235        383
   236        124
   237        720
   238        125
   239         47
   240          4
   243         89
   244          9
   245         12
   246          1
   249         87
   250        386
   251        614
   252        105
   253         10
   256          2
   257          2
   286          4
   354          1
   358          0
   359          8
   360         62
   361         10
   362          0