##TITLE=Library Entry 107524
##JCAMP-DX=Revision 4.10 
##DATA TYPE=MASS SPECTRUM
##SAMPLE DESCRIPTION=A.A.Kutin, Moscow, Russia
##NAMES=HP
##CAS NAME=Benzamide, 2-fluoro-N-[[4-(1-methylethyl)phenyl]methyl]-
##MOLFORM=C17H18FNO
##CAS REGISTRY NO=349493-01-2
##MP= -300
##BP= -300
##MW= 271
##$RETENTION INDEX=0
##$CONDENSED SPECTRUM=NO
##NPOINTS= 186
##XYDATA=(XY..XY) 1 
    34          0
    36          0
    37          1
    38          5
    39         38
    40         16
    41         36
    42          4
    43         29
    44          6
    45          1
    49          0
    50         19
    51         32
    52         11
    53         10
    54          2
    55          5
    56          4
    57          4
    58          0
    59          0
    61          1
    62          5
    63         15
    64          5
    65         18
    66          3
    67          2
    68          6
    69         10
    70          3
    71          1
    72          0
    73          1
    74         11
    75         82
    76         19
    77         59
    78         27
    79         28
    80          4
    81          2
    82          2
    83          1
    84          0
    85          0
    86          0
    87          0
    88          0
    89         14
    90          7
    91         73
    92          8
    93          7
    94         17
    95        208
    96         22
    97          4
    98          0
    99          0
   100          1
   101          1
   102         13
   103         32
   104         26
   105         51
   106         23
   107          9
   108          1
   109          3
   111          1
   112          0
   113          0
   115         43
   116         12
   117         87
   118         22
   119          8
   120          3
   121          9
   122         13
   123        999
   124         87
   125          4
   126          0
   127          1
   128          5
   129          2
   130         10
   131         14
   132         88
   133         44
   134          5
   135          4
   136          1
   137          1
   138          0
   139          0
   140          2
   141          0
   142          0
   144          1
   145          0
   146          5
   147          2
   148         20
   149          4
   150          2
   151          1
   152          3
   153          1
   157          0
   158          0
   159          0
   160          1
   164          0
   165          1
   166          0
   169          0
   170          0
   171          1
   174          0
   176          1
   177          0
   178          0
   179          0
   180          2
   181          0
   182          0
   183          1
   184          0
   185          0
   188          0
   190          0
   191          1
   192          0
   193          0
   195          2
   196          1
   197          0
   198          0
   199          4
   200          0
   201          0
   202          0
   203          0
   204          1
   207          0
   208          4
   209          1
   210          1
   211          2
   212          0
   213          0
   214          0
   220          0
   222          0
   225          0
   226          0
   227          0
   228        137
   229         22
   230          2
   236          1
   237          0
   238         11
   239          2
   241          0
   242          4
   243          0
   244          0
   250          0
   251          0
   252          6
   253          1
   254          1
   255          1
   256         30
   257          6
   258          0
   269          0
   270         13
   271        225
   272         41
   273          4