##TITLE=Library Entry 37405
##JCAMP-DX=Revision 4.10 
##DATA TYPE=MASS SPECTRUM
##SAMPLE DESCRIPTION=A.A.Kutin, Moscow, Russia
##NAMES=HP
##CAS NAME=Methanone, (4-methyl-1-piperazinyl)(2-phenyl-4-quinolinyl)-
##MOLFORM=C21H21N3O
##CAS REGISTRY NO=349400-37-9
##MP= -300
##BP= -300
##MW= 331
##$RETENTION INDEX=0
##$CONDENSED SPECTRUM=NO
##NPOINTS= 137
##XYDATA=(XY..XY) 1 
    39          7
    40         16
    41         21
    42        189
    43        146
    44         53
    45          1
    50          8
    51         45
    52          5
    53          0
    54         14
    55         23
    56        309
    57         54
    58        211
    59          6
    62          2
    63          5
    64          0
    65          1
    67          0
    68          3
    70        999
    71         90
    72         43
    74         18
    75        102
    76         18
    77         18
    78          1
    79          0
    81          1
    82          8
    83        147
    84         16
    85          5
    86          1
    87          2
    88          6
    89          4
    95          1
    96          1
    97         34
    98         40
    99        221
   100         22
   101         79
   102         21
   103          7
   104          1
   109          0
   112          0
   113         17
   114          2
   115          3
   116          1
   122          0
   125          1
   126          6
   127         11
   128          4
   129          2
   130          1
   137          0
   138          0
   139          1
   140          0
   144          7
   149          1
   150          7
   151         15
   152          6
   153          1
   156          1
   157          0
   158          0
   163          0
   164          1
   165          0
   171          0
   174          1
   175          7
   176         43
   177         23
   178          6
   179          0
   189          0
   197          1
   200          0
   201          8
   202         15
   203         85
   204        210
   205         57
   206         13
   207          1
   211          2
   216          5
   217          9
   218         12
   219         29
   220          5
   229          1
   230          1
   231          3
   232         74
   233         17
   234          1
   243          2
   244          0
   245          6
   246          7
   247          1
   249          2
   257          0
   258          0
   259          8
   260          3
   261          2
   273          9
   274        122
   275         38
   276          4
   277          0
   287         39
   288         12
   289          4
   302          6
   303          1
   305          0
   316          1
   329          2
   330          6
   331        200
   332         51
   333          6