##TITLE=Library Entry 65099
##JCAMP-DX=Revision 4.10 
##DATA TYPE=MASS SPECTRUM
##SAMPLE DESCRIPTION=A.A.Kutin, Moscow, Russia
##NAMES=HP
##CAS NAME=Urea, 1-methyl-1-phenyl-3-(4-phenylazophenyl)-
##MOLFORM=C20H18N4O
##CAS REGISTRY NO=349495-66-5
##MP= -300
##BP= -300
##MW= 330
##$RETENTION INDEX=0
##$CONDENSED SPECTRUM=NO
##NPOINTS= 156
##XYDATA=(XY..XY) 1 
    33          0
    37         28
    38         11
    39        203
    40         22
    41         43
    42         20
    43          2
    44          2
    45          3
    46          2
    48          0
    50         85
    51        330
    52        103
    53         35
    54         19
    55          3
    56          3
    57          0
    58          0
    60          0
    61          8
    62         25
    63         88
    64        108
    65        498
    66         68
    67          5
    68          0
    69          0
    70          0
    71          0
    73          2
    74         15
    75         17
    77        758
    78         66
    79         54
    80         10
    81          1
    82          0
    83          0
    85          1
    86          0
    87          1
    88          3
    89          7
    90         52
    91         93
    92        999
    93         86
    94          6
    95          0
    97          0
    99          6
   100          0
   101          1
   102          3
   103          3
   104         12
   105         46
   106        248
   107        148
   108         16
   109          1
   111          0
   112          1
   113          1
   114          1
   115         17
   116          4
   118         37
   119         23
   120        216
   121         15
   122          6
   123          0
   125          0
   126          1
   127          3
   128          4
   129          1
   130          2
   131          0
   132          1
   134        155
   135         12
   136          0
   137          0
   139          7
   140          6
   141         15
   142          3
   143          2
   144          0
   146         12
   147          1
   148          0
   149          1
   150          1
   151          5
   152          7
   153          3
   154          2
   155          0
   156          0
   157          0
   164          0
   166          8
   167         26
   168         11
   169          4
   170          1
   171          0
   178          0
   179          0
   180          1
   181          4
   182          3
   183          1
   184          2
   185          0
   193          0
   194          1
   195          6
   197        337
   198         43
   199         13
   200          1
   207          0
   208          0
   209          3
   210          4
   211          0
   221          0
   223         20
   225        294
   226         44
   227          3
   228          0
   237          0
   239          0
   240          0
   241          4
   242          0
   243          0
   253          6
   254          1
   259          0
   326          0
   327          0
   330        138
   331         31
   332          3
   333          0