##TITLE=Library Entry 46884
##JCAMP-DX=Revision 4.10 
##DATA TYPE=MASS SPECTRUM
##SAMPLE DESCRIPTION=A.A.Kutin, Moscow, Russia
##NAMES=HP
##CAS NAME=Propanal, 2,3-dioxo-3-(3-pyridyl)-, 1,2-bis(phenylhydrazone)
##MOLFORM=C20H17N5O
##CAS REGISTRY NO=349497-81-0
##MP= -300
##BP= -300
##MW= 343
##$RETENTION INDEX=0
##$CONDENSED SPECTRUM=NO
##NPOINTS= 230
##XYDATA=(XY..XY) 1 
    33          3
    34          2
    36          1
    37         10
    38         46
    39        236
    40         43
    41         35
    42          8
    43         13
    44         23
    45         10
    46          3
    50        105
    51        526
    52         89
    53         45
    54         13
    55         11
    56          3
    57          8
    58          2
    59          4
    60          5
    61          6
    62         34
    63         95
    64        135
    65        687
    66         93
    67         11
    68          5
    69          7
    70          3
    71          3
    72          2
    73          4
    74         11
    75         21
    77        999
    78        803
    79         87
    80         23
    81          4
    82          3
    83          7
    84          4
    85          2
    86          3
    87          8
    88         26
    89         31
    90         27
    91        189
    92        649
    93        893
    94         84
    96          6
    97          2
    98          2
    99          1
   100          2
   101          5
   102         10
   103         12
   104         34
   105        112
   106        633
   107         75
   108         15
   109          4
   111         46
   112          4
   113          5
   114          9
   115         27
   116         24
   117         18
   118         35
   119         46
   120         10
   121          4
   122          1
   123          1
   124          0
   125          1
   126          4
   127          7
   128          5
   129          6
   130          4
   131         14
   132         36
   133         15
   134          6
   135          3
   136          0
   137          1
   138          2
   139         10
   140          8
   141          4
   142          3
   143          3
   144          9
   145         34
   146         11
   147         14
   148          2
   149          1
   150          1
   151          3
   152          9
   153          4
   154          5
   155          2
   156          2
   157          1
   158          1
   159          2
   160          2
   161          2
   163          9
   164         11
   165         13
   166         19
   167         11
   168          8
   169         13
   170         11
   172        115
   173         13
   174          2
   175          0
   176          0
   177          2
   178          1
   179          6
   180          7
   181         17
   182          6
   183          7
   184          2
   185          0
   186          0
   187          0
   188          0
   189          1
   190          6
   191         26
   192         67
   193         45
   194         11
   195          3
   196          2
   197          3
   198          2
   199          1
   200          0
   202          2
   203          1
   204          0
   205          1
   206          4
   207          2
   208          3
   209          2
   210          4
   211          3
   212          0
   216          0
   217          5
   218          3
   219         10
   220         23
   221          7
   222          3
   223          2
   224          2
   225          0
   228          0
   230          0
   231          0
   232          0
   233          2
   234          2
   235          2
   236         19
   237         12
   238         20
   239          3
   240          4
   241          3
   242          2
   243          0
   244          0
   245          0
   246          1
   248         87
   249         17
   251        140
   252         21
   253          2
   254          0
   265          3
   266          0
   268          0
   269          1
   270          1
   271          0
   272          1
   296          1
   297          3
   298          0
   299          0
   319          0
   320          1
   321          0
   322          1
   324         24
   325         46
   326         19
   327          4
   339          0
   340          1
   341          1
   342          5
   343        103
   344         24
   345          3