##TITLE=Library Entry 5696
##JCAMP-DX=Revision 4.10 
##DATA TYPE=MASS SPECTRUM
##SAMPLE DESCRIPTION=A.A.Kutin, Moscow, Russia
##NAMES=HP
##CAS NAME=Pyrimidine-2,4,6(1H,3H,5H)-trione, 5-(5-nitro-3-indolylmethylene)
-
##MOLFORM=C13H8N4O5
##CAS REGISTRY NO=349498-72-2
##MP= -300
##BP= -300
##MW= 300
##$RETENTION INDEX=0
##$CONDENSED SPECTRUM=NO
##NPOINTS= 86
##XYDATA=(XY..XY) 1 
    36          6
    37         15
    39         54
    40        771
    41         72
    43        999
    45         71
    46         26
    48          6
    50         58
    51        126
    52         37
    53         20
    55         58
    57         81
    60         31
    62         44
    63        172
    64         70
    65         48
    66          5
    69         57
    70        105
    71         15
    74         61
    75         62
    76         44
    77        176
    78         12
    79          7
    84          8
    86         81
    87         58
    88         55
    89         37
    91         64
    92          4
    93          4
    99          7
   100         44
   101         66
   102         26
   103          4
   105         49
   106          4
   111         34
   112         34
   113        202
   114         54
   115         25
   116         11
   119          7
   122          6
   127         74
   128        119
   129         13
   137         14
   139         82
   140        193
   141         36
   142         21
   143          4
   150          4
   153          7
   154         59
   155        169
   156         74
   165         13
   166         25
   167         41
   168         45
   169         12
   181         11
   182         25
   183         56
   184         18
   194         15
   210         11
   211         43
   213          9
   237         39
   253         18
   254          7
   299         26
   300        261
   301         33