##TITLE=Library Entry 23759
##JCAMP-DX=Revision 4.10 
##DATA TYPE=MASS SPECTRUM
##SAMPLE DESCRIPTION=A.A.Kutin, Moscow, Russia
##NAMES=HP
##CAS NAME=Propionic acid, 4-(isobutoxycarbonylamino)phenyl ester
##MOLFORM=C14H19NO4
##CAS REGISTRY NO=349488-64-8
##MP= -300
##BP= -300
##MW= 265
##$RETENTION INDEX=0
##$CONDENSED SPECTRUM=NO
##NPOINTS= 135
##XYDATA=(XY..XY) 1 
    33          6
    34          1
    36          1
    37          5
    38         19
    39         98
    40         35
    41        520
    42         36
    43         74
    44         16
    45         20
    50         19
    51         13
    52         10
    53         14
    54          4
    55         47
    57        999
    58         46
    59         12
    60          1
    61          2
    62         10
    63         48
    64         57
    65         95
    66         13
    67          3
    68          2
    69          5
    70          2
    71          3
    72          2
    73          6
    74          5
    75         13
    76         18
    77         11
    78          3
    79          3
    80          8
    81         12
    82          1
    83          1
    84          1
    85          1
    88          1
    89          4
    90         56
    91         76
    92         68
    93         25
    94          3
    95          1
    96          5
    97          1
    98          0
    99          0
   101          0
   103         22
   104          4
   105          2
   106          2
   108         47
   109          6
   110          0
   112          0
   114          1
   117          2
   118         22
   119         59
   120        220
   121         42
   122          4
   123          0
   124          0
   125          0
   127          0
   128          0
   129          0
   130          0
   131          0
   132          1
   133          0
   134          1
   135          1
   136         26
   137        155
   138         15
   139          0
   142          0
   146         61
   147          9
   148          3
   149          9
   150         13
   151          2
   152          0
   160          0
   162          1
   163         13
   164        104
   165        115
   166         12
   167          0
   170          1
   176          1
   177          1
   178          5
   179          0
   180          2
   181         37
   182          4
   183          0
   190          0
   191          6
   192         59
   193          6
   194          1
   204          0
   206          7
   207          1
   208          3
   209         62
   210          9
   211          1
   220         36
   221          4
   222          1
   237          1
   250          0
   265         83
   266         13
   267          1