##TITLE=Library Entry 79726
##JCAMP-DX=Revision 4.10 
##DATA TYPE=MASS SPECTRUM
##SAMPLE DESCRIPTION=A.A.Kutin, Moscow, Russia
##NAMES=HP
##CAS NAME=Benzamide, 2-benzoylamino-N-(3-methoxypropyl)-
##MOLFORM=C18H20N2O3
##CAS REGISTRY NO=349498-13-1
##MP= -300
##BP= -300
##MW= 312
##$RETENTION INDEX=0
##$CONDENSED SPECTRUM=NO
##NPOINTS= 202
##XYDATA=(XY..XY) 1 
    33         13
    34          1
    36          0
    37          2
    38          8
    39         29
    40         24
    41         38
    42          7
    43         15
    45        144
    46          2
    48          1
    50         35
    51        109
    52         14
    53          4
    54          2
    56         25
    57          8
    58         12
    59          8
    60          0
    61          1
    63         33
    64         31
    65         49
    66          5
    67          1
    68          0
    69          1
    71         29
    72         41
    73         28
    74         35
    75         15
    77        674
    78         36
    79          3
    80          2
    81          0
    82          1
    84          5
    85          0
    86          4
    88         79
    89         63
    90         42
    91         28
    92         76
    93         10
    94          1
    95          0
    96          0
    98          2
    99          0
   100          0
   101          1
   102          4
   105        999
   106         64
   107          4
   108          0
   109          0
   111          0
   112          1
   113          1
   114          0
   115          2
   116          1
   117          5
   118         19
   119         45
   120        197
   121         14
   122          1
   123          0
   124          0
   125          0
   126          0
   127          0
   128          0
   129          1
   130          4
   131          9
   132         11
   133         10
   134          6
   135          1
   136          1
   137          1
   138          0
   139          4
   140          8
   141          1
   142          0
   143          0
   144          2
   146         85
   147         25
   148          5
   149         18
   150          2
   151          2
   152          2
   153          0
   157          2
   158          9
   159          3
   160          3
   161          5
   162          3
   163          2
   164          1
   165          1
   166          5
   167          8
   168          2
   169          2
   170          1
   171          1
   172          0
   173          1
   175         52
   176          8
   177          2
   178          3
   179         22
   180          4
   181          1
   183          1
   184          0
   185          1
   187          0
   188          0
   189          1
   190          8
   191          2
   192          3
   193          1
   194          5
   196         71
   197         12
   198          3
   199          0
   200          0
   203          8
   204          1
   205          0
   206          2
   207          6
   208          1
   209          0
   210          0
   211          0
   217          0
   219          0
   221          1
   222         16
   224        517
   225         72
   226          7
   227          0
   233          0
   234          0
   235          4
   236          2
   237          0
   239          0
   240          0
   247          0
   249          1
   250          0
   251          0
   253         13
   254         22
   255          4
   256          0
   261          0
   263          0
   264          0
   267          0
   268          0
   269          0
   271          0
   279          1
   280          1
   281          2
   282          1
   283          0
   284          0
   293          0
   294          0
   295          0
   297         13
   298          2
   309          0
   310          1
   312        138
   313         26
   314          3
   315          0