##TITLE=Library Entry 64270
##JCAMP-DX=Revision 4.10 
##DATA TYPE=MASS SPECTRUM
##SAMPLE DESCRIPTION=A.A.Kutin, Moscow, Russia
##NAMES=HP
##CAS NAME=1,3-Diphenylacetone benzothiazol-2-ylhydrazone
##MOLFORM=C22H19N3S
##CAS REGISTRY NO=349489-36-7
##MP= -300
##BP= -300
##MW= 357
##$RETENTION INDEX=0
##$CONDENSED SPECTRUM=NO
##NPOINTS= 136
##XYDATA=(XY..XY) 1 
    34          1
    36          1
    37          6
    38         25
    39        143
    40         45
    41         43
    42         14
    43         10
    44         19
    45         51
    47          0
    50         39
    51         89
    52         24
    53         12
    54          2
    55          3
    57          9
    58          8
    59          1
    60          3
    63        105
    65        293
    67         15
    69         44
    70         13
    71          5
    72          0
    74          7
    75         14
    76         12
    77         46
    78         61
    79          8
    81          5
    82         16
    84          2
    85          0
    86          0
    87          2
    89         89
    91        999
    92         64
    94         13
    95         21
    96         30
    97          4
    98          0
   102          7
   103         18
   105        115
   106         16
   108         68
   109         11
   110          2
   111          0
   113          0
   115         29
   116         33
   117         28
   118         19
   119          4
   120          4
   121         12
   122         51
   123         19
   124          5
   125          3
   126          0
   127          0
   128          2
   129          7
   130         15
   131          3
   132          2
   133          9
   134          5
   135          8
   136          8
   138          0
   139          5
   140          3
   145          0
   149        281
   150        137
   151         22
   152          8
   153          0
   163          0
   165          8
   166          2
   167          0
   171          0
   178          7
   179          6
   180          2
   181          0
   183          0
   188          0
   189          1
   190          0
   191          3
   192          3
   204          2
   205          3
   206         16
   207          6
   208          5
   209         14
   210          1
   212          0
   223          1
   224          3
   225         10
   226          1
   236          0
   237          1
   239          9
   240          2
   250          0
   263         15
   266        685
   267        107
   269          2
   294          2
   300          3
   302          0
   324          1
   339          0
   340          0
   341          1
   354          0
   357         84
   358         14
   359          2