##TITLE=Library Entry 58413
##JCAMP-DX=Revision 4.10 
##DATA TYPE=MASS SPECTRUM
##SAMPLE DESCRIPTION=A.A.Kutin, Moscow, Russia
##NAMES=HP
##CAS NAME=Thiazole, 4-(4-iodophenyl)-2-(3-tolylamino)-
##MOLFORM=C16H13IN2S
##CAS REGISTRY NO=349488-85-3
##MP= -300
##BP= -300
##MW= 392
##$RETENTION INDEX=0
##$CONDENSED SPECTRUM=NO
##NPOINTS= 189
##XYDATA=(XY..XY) 1 
    33          5
    34          4
    36          1
    37         15
    38         62
    39        400
    40         86
    41         92
    42          8
    43         15
    44         25
    45        232
    46         18
    47         11
    49          9
    50        167
    51        236
    52         78
    53         46
    54          8
    55          9
    56          3
    57         16
    58         17
    59          9
    60          5
    61         21
    62        100
    63        353
    64         87
    65        418
    66         44
    67         10
    69        102
    70         22
    71         19
    72          5
    73         11
    74         71
    75        152
    76        143
    77        197
    78         85
    79         67
    80         11
    81         26
    82         67
    83         22
    84         10
    85          8
    86         19
    87         45
    88         77
    89        999
    90        152
    91        369
    92         46
    93         54
    94         13
    95         13
    96          9
    97          5
    98         10
    99         10
   100         11
   101         81
   102        102
   103        129
   104         89
   105         38
   106         49
   107         21
   108         17
   109          9
   110          9
   111          9
   112          9
   113          5
   114         28
   115         34
   116         63
   117         34
   118        137
   119         26
   120         43
   121         62
   122         22
   123         12
   125        109
   126         16
   127         46
   128         39
   129         21
   130         31
   131         53
   132        173
   133        380
   134        185
   135         30
   136         19
   137          8
   138          1
   139          1
   140          1
   141          2
   142          4
   143          1
   146         62
   147         40
   148         56
   149         15
   150          7
   151          2
   152          2
   153          0
   155          1
   157          0
   158          2
   159         24
   160          5
   161          8
   162         15
   163        158
   164        193
   165         30
   166         10
   167          1
   171          1
   172          1
   173         18
   174         56
   175          9
   176          4
   177          2
   178          2
   179          1
   183          1
   185          1
   186          1
   187          0
   188          2
   189          2
   190          3
   191          2
   192          2
   193          2
   196         11
   197          0
   203          3
   204          3
   205          7
   206          3
   207          0
   215          2
   216          0
   217          6
   218          3
   219          3
   220          2
   221          1
   222          1
   223          3
   224          3
   228          7
   229          8
   230         34
   231         10
   232         10
   233          3
   236          1
   237          2
   238          1
   247          1
   248          2
   249          4
   250          3
   260         26
   261          8
   262          2
   263          6
   264         21
   265         51
   266         12
   267          2
   275          0
   391         35
   392         90
   393         17
   394          3