##TITLE=Library Entry 49458
##JCAMP-DX=Revision 4.10 
##DATA TYPE=MASS SPECTRUM
##SAMPLE DESCRIPTION=A.A.Kutin, Moscow, Russia
##NAMES=HP
##CAS NAME=2-(Ethylamino)-3-benzoyl-8ah-thiazolo[3,2-a]pyridine
##MOLFORM=C16H16N2OS
##CAS REGISTRY NO=349488-96-6
##MP= -300
##BP= -300
##MW= 284
##$RETENTION INDEX=0
##$CONDENSED SPECTRUM=NO
##NPOINTS= 158
##XYDATA=(XY..XY) 1 
    33          4
    34          5
    36          1
    37          8
    38         37
    39         97
    40         97
    41         41
    42         30
    43         56
    44        243
    45         53
    46          2
    47          0
    48          0
    49         16
    50         96
    51        223
    52        162
    53         62
    54         10
    55         20
    56         20
    57         25
    58         25
    59         63
    60         42
    61          7
    62         12
    63         38
    64         30
    65         51
    66          9
    67         23
    68         38
    69         26
    70         24
    71         32
    72         39
    73          6
    74         12
    75         22
    76         83
    77        578
    78        128
    79        250
    80        999
    81         51
    82          6
    83          7
    84         10
    85         21
    86         11
    87         66
    88         13
    89         56
    90         23
    91         35
    92         13
    93          9
    94         33
    95          6
    96         32
    97          3
    98          2
    99          5
   100         18
   101          8
   102         28
   103         18
   104         92
   105        556
   106         46
   107          3
   108          3
   109          3
   110          6
   111          1
   112          4
   113          0
   114          1
   115          7
   116          3
   117          9
   118          7
   119          7
   120         29
   121         16
   122          7
   123          2
   125          0
   127          6
   128         13
   129          6
   130          7
   131         21
   132         47
   133         30
   134         71
   135         11
   136         11
   137          0
   139          0
   141          0
   143          1
   144          6
   145         23
   146          4
   147          2
   148          2
   149         18
   150         32
   151          4
   152          3
   158          0
   161         12
   162         46
   163         14
   164          2
   166          0
   167          3
   171          7
   172         38
   173          6
   174          1
   175          0
   176         16
   177         18
   178          2
   179          4
   180          6
   188          1
   190         12
   191          0
   192          0
   196         12
   197          2
   204         57
   205        166
   206         25
   207         20
   208          5
   210          0
   212          2
   221          5
   222          0
   223          4
   240         12
   241          0
   250          7
   251         86
   252         11
   253          0
   267          0
   283         49
   284        161
   285         29
   286          6