##TITLE=Library Entry 62898
##JCAMP-DX=Revision 4.10 
##DATA TYPE=MASS SPECTRUM
##SAMPLE DESCRIPTION=A.A.Kutin, Moscow, Russia
##NAMES=HP
##CAS NAME=Acetic acid, 2-(2-benzothiazolyl)thio-, benzyl ester
##MOLFORM=C16H13NO2S2
##CAS REGISTRY NO=349445-18-7
##MP= -300
##BP= -300
##MW= 315
##$RETENTION INDEX=0
##$CONDENSED SPECTRUM=NO
##NPOINTS= 137
##XYDATA=(XY..XY) 1 
    33          1
    34          0
    39         52
    41         13
    42          7
    43          4
    45         73
    46         10
    47          2
    51         61
    52          9
    53          2
    54          0
    55          0
    58         12
    59          0
    60          0
    63         57
    65        122
    66          3
    67          0
    69         38
    70          4
    71          3
    72          1
    74          7
    75         11
    77        100
    78         21
    79         22
    82         25
    83          3
    84          2
    85          0
    86          0
    91        999
    92         46
    94          6
    95          8
    96          6
    97          0
    98          0
    99          0
   100          0
   102         20
   104         22
   105         19
   108        116
   109         28
   110          4
   111          1
   112          0
   116         30
   118          1
   119          1
   122         60
   123          6
   124          2
   125          0
   126          0
   131          0
   133         11
   134         20
   136        160
   137         11
   138          7
   139          6
   140          4
   141          1
   142          0
   146          2
   148          9
   149          4
   150          2
   151          2
   152          4
   153          3
   154          1
   155          0
   158          0
   162          0
   167        550
   169         71
   170          3
   171          0
   176         52
   177          5
   178          9
   180        458
   181         61
   182         41
   184          5
   185          0
   190          0
   192          0
   193          1
   194          1
   195          0
   197          2
   204          0
   208         12
   209          1
   210          1
   211          0
   212          1
   213          0
   224         88
   225         15
   226          4
   227          0
   236          1
   237          1
   238          6
   240          3
   241          2
   242          6
   243          1
   244          0
   254          1
   256          8
   257          1
   258          0
   268          0
   269          3
   270          1
   271          0
   272          0
   299          0
   300          0
   312          0
   313          0
   315        412
   316         67
   317         39
   318          6
   319          1
   320          0