##TITLE=Library Entry 78594
##JCAMP-DX=Revision 4.10 
##DATA TYPE=MASS SPECTRUM
##SAMPLE DESCRIPTION=A.A.Kutin, Moscow, Russia
##NAMES=HP
##CAS NAME=4-Thiazolidinone, 3-benzoyl-5-(4-chlorobenzylidene)-2-thioxo-
##MOLFORM=C17H10ClNO2S2
##CAS REGISTRY NO=349498-40-4
##MP= -300
##BP= -300
##MW= 359
##$RETENTION INDEX=0
##$CONDENSED SPECTRUM=NO
##NPOINTS= 151
##XYDATA=(XY..XY) 1 
    33          1
    34          2
    35          1
    36          4
    37          2
    38          8
    39         20
    40         17
    41         10
    42          5
    43         14
    44         11
    45         10
    46          0
    47          0
    48          0
    49          2
    50         50
    51        151
    52          8
    53          4
    54          1
    55          8
    56          3
    57         11
    58          5
    59          7
    60          2
    61          4
    62          9
    63         22
    64          3
    65          2
    66          2
    67          2
    68          1
    69         16
    70          6
    71          5
    72          1
    73          7
    74         19
    75         30
    76         25
    77        445
    78         30
    79          2
    80          0
    81          4
    82          8
    83          4
    84          4
    85          5
    86         90
    87          9
    88          7
    89         71
    90          6
    91          3
    92          0
    93          6
    94          0
    95          1
    96          0
    97          4
    98          4
    99          5
   100          2
   101          6
   102          2
   103          2
   105        999
   106         81
   107          6
   108          2
   109          1
   110          1
   111          2
   112          3
   113          1
   114          0
   115          0
   116          0
   117          0
   118          0
   119          0
   120          0
   121          0
   122          1
   123         10
   124          3
   125          8
   126          2
   127          2
   128          0
   129          1
   130          0
   131          1
   132         10
   133         39
   134          6
   135          3
   136          5
   137          0
   138          2
   139          0
   140          0
   141          0
   142          1
   143          0
   144          0
   149          0
   151          0
   152          0
   155          0
   156          0
   157          0
   159          0
   161          1
   162          0
   163          0
   164          0
   165          1
   166          1
   167          5
   168         89
   169          9
   170         31
   171          7
   172          1
   182          1
   184          0
   185          0
   189          0
   195          3
   196          5
   197          1
   198          2
   199          0
   255          5
   256          0
   257          2
   283          0
   326          0
   331          0
   333          0
   359         25
   360          5
   361         12
   362          1
   363          0