##TITLE=Library Entry 85271
##JCAMP-DX=Revision 4.10 
##DATA TYPE=MASS SPECTRUM
##SAMPLE DESCRIPTION=A.A.Kutin, Moscow, Russia
##NAMES=HP
##CAS NAME=Urea, 1-[2-(1-chloroethylidenaminoxy)-1,1,1,3,3,3-hexafluoroisopr
opyl]-3-(6-methylpyrid-2-yl)-
##MOLFORM=C12H11ClF6N4O2
##CAS REGISTRY NO=349498-60-8
##MP= -300
##BP= -300
##MW= 392
##$RETENTION INDEX=0
##$CONDENSED SPECTRUM=NO
##NPOINTS= 169
##XYDATA=(XY..XY) 1 
    33          1
    34          1
    35          8
    36         31
    37         13
    38         53
    39        174
    40         73
    41         58
    42         64
    43         13
    44         11
    45          1
    46          1
    47          3
    49         29
    50         21
    51         35
    52         37
    53         65
    54         15
    55          4
    56          3
    57         16
    58         34
    60          3
    61          6
    62         20
    63         20
    64         46
    65        142
    66         65
    67         14
    68         12
    69         90
    70         12
    71          0
    72          0
    73          0
    74          1
    76         47
    77          6
    78         26
    79         15
    80        186
    81        219
    82         13
    83          2
    84          0
    85          0
    86          0
    87          0
    88          0
    89          1
    91         92
    92        345
    93         48
    94          6
    95          5
    96         14
    97          6
    98          0
   100          0
   101          0
   102          0
   103          0
   104          1
   105         12
   106         12
   108        999
   109         71
   110          2
   111          0
   112          0
   113          0
   114          0
   115          0
   116          0
   117          0
   118          1
   119          1
   120          0
   121          0
   122          0
   123          0
   124          0
   125          0
   126          0
   127          0
   128          0
   129          0
   130          0
   133         11
   134         58
   135        377
   136         32
   137          2
   138          0
   139          1
   140          0
   142         15
   143          0
   144          0
   145          0
   146          2
   147          1
   148          0
   149          1
   150          1
   151          0
   154          0
   160          0
   162          0
   163          0
   166          1
   169          1
   171          0
   173          0
   174          0
   176          0
   178         20
   179          2
   180          0
   182          0
   184          0
   189          0
   190          0
   192         13
   193          0
   200          0
   202          0
   203          0
   204          0
   205          0
   215          3
   217          0
   228          0
   229          0
   230          3
   231          0
   232          0
   246          0
   247          1
   248          1
   249          0
   256          0
   257          0
   260          0
   276          0
   277          0
   280         11
   281          1
   282          0
   285          0
   297          0
   298          4
   299         32
   300        157
   301         19
   302          1
   323          8
   324          1
   325          2
   326          0
   353          0
   392          5
   393          0
   394          1
   395          0