##TITLE=Library Entry 47987
##JCAMP-DX=Revision 4.10 
##DATA TYPE=MASS SPECTRUM
##SAMPLE DESCRIPTION=A.A.Kutin, Moscow, Russia
##NAMES=HP
##CAS NAME=Pyrazole-4,5(4H,5H)-dione, 3-methyl-1-phenyl-, 4-(3,4-dichlorophe
nylhydrazone)
##MOLFORM=C16H12Cl2N4O
##CAS REGISTRY NO=349469-78-9
##MP= -300
##BP= -300
##MW= 346
##$RETENTION INDEX=0
##$CONDENSED SPECTRUM=NO
##NPOINTS= 146
##XYDATA=(XY..XY) 1 
    33         42
    34          6
    36          5
    37          9
    38         29
    39        113
    40         93
    41         39
    42         35
    43         44
    44         14
    45         33
    48          2
    49          9
    51        194
    52         35
    53         12
    54         12
    55         18
    56         13
    57          2
    59          5
    60         21
    61          8
    62         31
    63         80
    64         84
    65         69
    67        245
    68         28
    69         13
    70          5
    71         10
    72          9
    73         31
    74         17
    75         33
    77        999
    78         73
    79         13
    82          2
    83         15
    84          3
    85          5
    87          2
    88         11
    89         16
    90         43
    91        194
    92         47
    93         19
    94          4
    96          3
    97         21
    98          4
    99         11
   100          3
   103         70
   104         36
   105        163
   106         64
   107         93
   109         38
   110         14
   111         11
   115         20
   116         12
   117         17
   118         58
   119         84
   120         19
   121          3
   124         87
   125         57
   126         29
   127         20
   128         14
   129          1
   130         11
   131         10
   132         28
   133         81
   134         11
   135         44
   136          5
   137          6
   138          0
   142          4
   143          3
   144         12
   145         85
   146         17
   147         45
   148          7
   149         10
   150          7
   151         27
   152          3
   153          5
   155          2
   156          5
   157         19
   158         77
   159         70
   160         71
   161        200
   162         58
   163        123
   164         20
   165         20
   171          4
   173        209
   174         41
   175         18
   176          5
   177          6
   178         12
   179         42
   180         10
   184          2
   185          6
   186         38
   187         10
   188          4
   189          0
   199         13
   201        594
   202         65
   203          4
   213          4
   224          3
   225         19
   226          4
   246          9
   248          5
   256          0
   283          1
   287          4
   312          4
   318          4
   346        914
   347        189
   348        550
   349        102
   350         90
   351         12