##TITLE=Library Entry 62358
##JCAMP-DX=Revision 4.10 
##DATA TYPE=MASS SPECTRUM
##SAMPLE DESCRIPTION=A.A.Kutin, Moscow, Russia
##NAMES=HP
##CAS NAME=Acetic acid, 2-(5-nitro-2-benzimidazolyl)thio-, benzyl ester
##MOLFORM=C16H13N3O4S
##CAS REGISTRY NO=349445-14-3
##MP= -300
##BP= -300
##MW= 343
##$RETENTION INDEX=0
##$CONDENSED SPECTRUM=NO
##NPOINTS= 104
##XYDATA=(XY..XY) 1 
    33         63
    36          2
    38         23
    39        131
    40         40
    41         47
    42         47
    43         60
    44         45
    45         65
    46         27
    47         13
    50         40
    51         87
    52         90
    53         16
    54          3
    55         13
    57         14
    58         14
    59          2
    60          2
    61         12
    63        137
    65        244
    66         15
    67          5
    69         16
    70         33
    71          1
    75         19
    76         24
    77        238
    79        158
    80          7
    81          3
    82          3
    83          5
    86          3
    88          2
    89         42
    90         95
    91        999
    92         67
    93         25
    95         16
    96          7
   102          6
   103         36
   104        210
   105        113
   106        168
   107         94
   108         10
   109          8
   115          4
   116         16
   118        331
   119        254
   121         62
   122          9
   124          4
   129          9
   130         42
   131         11
   132         12
   134         12
   135          6
   136         31
   137          9
   145          3
   146         47
   147        654
   148        269
   149         49
   150         12
   161         18
   162         71
   163        113
   164         26
   165         13
   176         45
   177         25
   179          6
   181          2
   189          2
   190          2
   194         10
   195         56
   196         37
   201          4
   205          1
   206          2
   208         33
   209        185
   210         16
   211          5
   218          3
   235          9
   236          3
   267          6
   269          1
   278          7
   342         25