##TITLE=Library Entry 6098
##JCAMP-DX=Revision 4.10 
##DATA TYPE=MASS SPECTRUM
##SAMPLE DESCRIPTION=L. KONOPSKI, INST. ORG. IND., ANNOPOL, WARSAW, POLAND
##NAMES=HP
##CAS NAME=N,N'-Bis(2-methyl-2-nitrosobutan-3-one)
##MOLFORM=C10H18N2O4
##CAS REGISTRY NO=34946-73-1
##MP= -300
##BP= -300
##MW= 230
##$RETENTION INDEX=0
##$CONDENSED SPECTRUM=NO
##NPOINTS= 44
##XYDATA=(XY..XY) 1 
    14         14
    15        110
    18         10
    26         16
    27         63
    28         26
    29        168
    30        112
    37         12
    38         27
    39        182
    40         37
    41        389
    42        162
    43        999
    44         22
    45          9
    50          9
    51         12
    53         14
    54          7
    55         20
    56         78
    57        373
    58         32
    59          6
    67          8
    69         40
    70         70
    71         98
    72         14
    73          9
    74         46
    84         15
    85        175
    86        341
    87         18
   116         18
   127          6
   128         10
   158         25
   159          3
   170         23
   230          2