##TITLE=Library Entry 70301
##JCAMP-DX=Revision 4.10 
##DATA TYPE=MASS SPECTRUM
##SAMPLE DESCRIPTION=A.A.Kutin, Moscow, Russia
##NAMES=HP
##CAS NAME=Benzoic acid, 4-[1-oxo-2-(2-thienyl)ethylamino]-, methyl ester
##MOLFORM=C14H13NO3S
##CAS REGISTRY NO=349432-54-8
##MP= -300
##BP= -300
##MW= 275
##$RETENTION INDEX=0
##$CONDENSED SPECTRUM=NO
##NPOINTS= 122
##XYDATA=(XY..XY) 1 
    33         15
    34          1
    35          1
    36          1
    39        200
    41        131
    42         29
    43         66
    45        177
    47         12
    50         28
    51         47
    53        138
    55        110
    56        184
    58         18
    59         17
    61         50
    62         24
    63         62
    64         46
    65         28
    67         16
    69         39
    70         27
    71         12
    72          2
    73          3
    74          7
    75         12
    76         16
    77         12
    78          5
    79          7
    81         17
    82         15
    83         18
    84          4
    85          4
    86          1
    87          1
    88          3
    90         62
    91         63
    92         32
    97        999
    98        463
    99         91
   100         28
   101          3
   103         25
   105          3
   106          3
   107          2
   108          1
   111          1
   112          1
   114          1
   115          1
   116          1
   117          5
   119        101
   120         76
   122         41
   124         66
   125          5
   126          4
   127          1
   130          0
   132          2
   133          2
   135         26
   136          1
   138          1
   139          0
   140          1
   141          4
   142          9
   143         19
   146         33
   148          5
   150         53
   151         24
   152          2
   153          1
   155          0
   162          0
   165          1
   167          0
   169          0
   170          0
   171          0
   173          0
   174          0
   175          2
   178         98
   180          0
   181          0
   182          0
   183          0
   184          0
   186          1
   187          1
   188          1
   189          0
   190          0
   214          0
   215          0
   216          1
   223         16
   224         28
   225          2
   226          0
   242          3
   244         35
   245          3
   246          1
   271          0
   272          1
   275        255
   276         23
   277          6