##TITLE=Library Entry 54230
##JCAMP-DX=Revision 4.10 
##DATA TYPE=MASS SPECTRUM
##SAMPLE DESCRIPTION=A.A.Kutin, Moscow, Russia
##NAMES=HP
##CAS NAME=Ethanone, 2-(4-chlorophenyl)-1-(2-ethyl-1-piperidinyl)-
##MOLFORM=C15H20ClNO
##CAS REGISTRY NO=349425-83-8
##MP= -300
##BP= -300
##MW= 265
##$RETENTION INDEX=0
##$CONDENSED SPECTRUM=NO
##NPOINTS= 181
##XYDATA=(XY..XY) 1 
    33          0
    34          0
    35          1
    36          2
    37          1
    38          7
    39         96
    40         19
    41        186
    42         78
    43         37
    44         19
    45          0
    46          0
    47          0
    49          1
    50         11
    51         19
    52          5
    53         25
    54         45
    55        341
    56        129
    57         31
    58         18
    59          1
    61          2
    62         16
    63         73
    64         14
    65         19
    67         23
    68         20
    69         43
    70         34
    71          5
    72         24
    73         16
    74          4
    75         17
    76          4
    77         10
    78          2
    79          3
    80          6
    81          5
    82         34
    83         64
    84        999
    85         58
    86          6
    87          6
    89        187
    90         63
    91         29
    92          2
    93          1
    94          1
    95         14
    96          8
    97         23
    98         29
    99         45
   100          9
   101         15
   102          2
   103          2
   104          1
   105          1
   106          1
   107          0
   108          0
   110          9
   111         11
   112         74
   113          7
   114          5
   115          2
   116          3
   117          2
   118         17
   119          5
   120          0
   122          1
   123          5
   124         19
   125        434
   126         49
   127        141
   128         27
   129          2
   130          1
   131          0
   132          0
   133          1
   134          0
   135          0
   136          0
   138          3
   139         15
   140        367
   141         39
   142          2
   144          0
   145          0
   146          0
   147          0
   149          0
   150          0
   151          1
   152         14
   153          3
   154          6
   155          1
   156          0
   157          0
   158          0
   159          0
   161          0
   163          0
   164          0
   165          0
   166          1
   167          0
   168          1
   169          0
   170          1
   171          0
   172          0
   173          0
   178          0
   179          0
   180          1
   181          0
   182          1
   183          0
   184          0
   192          0
   193          0
   194          1
   195          0
   196          0
   197          1
   198          0
   199          0
   200          0
   201          2
   202          1
   206          0
   208          2
   209          0
   210          1
   211          0
   212          0
   213          0
   222          3
   223          0
   224          1
   225          0
   227          0
   230          3
   231          1
   234          0
   236        229
   237         33
   238         71
   239         11
   240          1
   241          0
   250          1
   251          1
   252          0
   253          4
   254          0
   255          1
   264          1
   265        116
   266         18
   267         37
   268          6
   269          0