##TITLE=Library Entry 12885
##JCAMP-DX=Revision 4.10 
##DATA TYPE=MASS SPECTRUM
##SAMPLE DESCRIPTION=A.A.Kutin, Moscow, Russia
##NAMES=HP
##CAS NAME=[1,2,4]-Triazolo[4,3-a][1,3,5]-triazine, 5,7-diacetylamino-3-meth
yl-
##MOLFORM=C9H11N7O2
##CAS REGISTRY NO=349574-61-4
##MP= -300
##BP= -300
##MW= 249
##$RETENTION INDEX=0
##$CONDENSED SPECTRUM=NO
##NPOINTS= 70
##XYDATA=(XY..XY) 1 
    33          0
    34          5
    38          3
    40        151
    41         70
    42        218
    43        999
    44         47
    45          6
    50          0
    51          1
    53         91
    54         25
    55         28
    56         31
    57         28
    58          2
    59          0
    60          1
    64          0
    65          1
    66          7
    67         27
    68        192
    69         35
    70          4
    71          1
    77          1
    78          1
    79          1
    80          3
    81          6
    82         42
    83          8
    84          1
    85          3
    91          0
    93          1
    94          5
    95         39
    96          2
    98        120
    99          5
   105          0
   107          0
   108          0
   109          1
   110          2
   111         10
   118          1
   123        304
   124        115
   125          9
   136          0
   137          2
   138          0
   148          0
   149          7
   150          7
   162          0
   165        601
   166         45
   167          0
   179          6
   191          2
   192          6
   207        238
   208         22
   249         20
   250          1