##TITLE=Library Entry 60062
##JCAMP-DX=Revision 4.10 
##DATA TYPE=MASS SPECTRUM
##SAMPLE DESCRIPTION=Humboldt-Universitat zu Berlin, Department of Chemistry
, Analytical Group
##NAMES=HP
##CAS NAME=Tert.-butyl[4-(1,3,6-cycloheptatrienyl)-phenoxy]-dimethylsilane
##MOLFORM=C19H26OSi
##CAS REGISTRY NO=349543-62-0
##MP= -300
##BP= -300
##MW= 298
##$RETENTION INDEX=0
##$CONDENSED SPECTRUM=NO
##NPOINTS= 241
##XYDATA=(XY..XY) 1 
    12          1
    13          1
    14          5
    15         31
    16          2
    17          5
    18         19
    25          1
    26          8
    27         88
    28         36
    29        329
    30          9
    31         43
    32          2
    33          1
    36          0
    37          2
    39        170
    40         30
    41        373
    42         28
    43        145
    44         22
    45        218
    46         14
    47         57
    48          2
    49          2
    50         21
    51         49
    52         14
    53         29
    54          5
    55         50
    56         79
    57        303
    58         58
    59        201
    60         23
    61         30
    62         15
    63         63
    64         14
    65        124
    66         15
    67         11
    68          3
    69         15
    70          4
    71          8
    73        529
    74         65
    75        290
    76         42
    77         70
    78         19
    79         14
    80          4
    81          9
    82         11
    83         26
    84          4
    85         17
    86          7
    87         13
    88          9
    89         74
    91        999
    92         76
    93         15
    94          8
    95         13
    96          3
    97          6
    98          4
    99         15
   100          4
   101         14
   102         19
   103         14
   104         12
   105         28
   106          8
   107         23
   109          7
   110          2
   111          6
   112          5
   113         20
   114         11
   115        111
   116         17
   117          8
   118          4
   119         26
   120         79
   122          4
   123          4
   124          1
   125          3
   126         17
   127         34
   128         57
   129         23
   130          4
   131         10
   132          2
   133         12
   134          7
   135         84
   136         12
   137         14
   138          4
   139         55
   140         10
   141         25
   142          4
   143          4
   144          2
   145         16
   146          3
   147         13
   148          8
   149         30
   150         22
   151         42
   152        136
   153         57
   154         19
   155         29
   156          4
   157          5
   158          2
   159          7
   160          2
   161         13
   163        132
   164         52
   165        294
   166         74
   167         79
   168         35
   169         12
   170          2
   171          5
   172          1
   173          3
   174          1
   175         10
   176          5
   177          5
   178         14
   179         17
   180          8
   181         19
   182          6
   183         30
   184         14
   185         21
   186          3
   187          3
   188          0
   189          1
   190          0
   191          2
   192          1
   193         13
   194          3
   195         20
   196          5
   197         14
   198          5
   199          8
   200          4
   201          3
   202          0
   203          0
   205          4
   206          1
   207          7
   208          3
   209          9
   210          5
   211         30
   212          7
   213          9
   214          2
   215          2
   216          0
   217          1
   219          1
   220          1
   221          2
   223         29
   225        173
   226         35
   227         15
   228          2
   229          6
   230          1
   231          5
   232          1
   233          0
   235          1
   236          0
   237          1
   239         14
   241        334
   242        115
   243         29
   244          4
   245          0
   249          0
   250          0
   251          0
   253          0
   255          0
   256          0
   257          0
   263          0
   265         39
   266         10
   267          4
   268          0
   269          0
   281          0
   282          0
   283          2
   284          0
   285          0
   286          0
   287          0
   288          0
   289          0
   295          0
   297          9
   298         46
   299         12
   300          3
   301          0