##TITLE=Library Entry 48101
##JCAMP-DX=Revision 4.10 
##DATA TYPE=MASS SPECTRUM
##SAMPLE DESCRIPTION=Div. of Experiment Therapeutics WRAIR, WRAMC, Washingto
n DC 20307
##NAMES=HP
##CAS NAME=4-[3-Pyridyl]-3-thiosemicarbazide
##MOLFORM=C6H8N4S
##CAS REGISTRY NO=34955-25-4
##MP= -300
##BP= -300
##MW= 168
##$RETENTION INDEX=0
##$CONDENSED SPECTRUM=NO
##NPOINTS= 85
##XYDATA=(XY..XY) 1 
    41        143
    42         54
    43        125
    44         86
    45        194
    46          4
    47         60
    48         37
    49        101
    50        300
    51        986
    52        229
    53         51
    54         28
    55          6
    56          6
    57         17
    58         43
    59        183
    60        103
    61         14
    62         22
    63         42
    64        118
    65         68
    66         98
    67        160
    68         28
    70         89
    71         14
    72          5
    74         23
    75         87
    76         47
    78        999
    79        109
    80          2
    81         37
    82         21
    83         50
    84         29
    86         25
    88          6
    89          2
    90          3
    91          7
    92         42
    93         61
    94        204
    95         44
    96          1
    97         23
    98         14
    99          2
   103          7
   105         42
   106         29
   107         16
   108         13
   109         23
   110         34
   111          9
   112          3
   118          5
   119         10
   120         11
   123         17
   124         15
   125          7
   126          1
   134          7
   136        179
   137        559
   138         51
   139         29
   140          1
   150         12
   151         47
   152         15
   153          3
   167         28
   168        407
   169         37
   170         19
   171          1