##TITLE=Library Entry 9242
##JCAMP-DX=Revision 4.10 
##DATA TYPE=MASS SPECTRUM
##SAMPLE DESCRIPTION=A.A.Kutin, Moscow, Russia
##NAMES=HP
##CAS NAME=Butanamide, 3-acetylhydrazono-N-(2-methoxy-5-methylphenyl)-
##MOLFORM=C14H19N3O3
##CAS REGISTRY NO=349575-63-9
##MP= -300
##BP= -300
##MW= 277
##$RETENTION INDEX=0
##$CONDENSED SPECTRUM=NO
##NPOINTS= 98
##XYDATA=(XY..XY) 1 
    37          5
    39        239
    40         58
    41        225
    43        999
    44         50
    45          7
    50         18
    51         55
    52         39
    53         33
    54         44
    55         48
    56         22
    57         49
    58          3
    59          2
    60          0
    61          1
    62          5
    63         21
    64         17
    65         89
    66         63
    67         31
    68          9
    69         20
    70         11
    71         82
    72        273
    73        464
    74         16
    77        136
    78         52
    79         59
    80          9
    81          2
    82          2
    83          5
    84         21
    85          1
    86          0
    89          7
    90          4
    91         31
    92         26
    93         59
    94         93
    95          5
    96          1
    97         12
    98         26
    99        126
   100          3
   102          0
   103          1
   104         17
   105         11
   106         38
   107         16
   108         16
   109          3
   111          0
   114        110
   115          6
   116          0
   117          0
   118          2
   119          3
   120         12
   122        210
   123         21
   124          0
   132          0
   133          0
   134         15
   135          5
   136         16
   137        319
   138         35
   139          1
   140          2
   141          3
   146          2
   147          2
   148         33
   149         28
   150          4
   155          0
   162          4
   163         29
   164          8
   174          0
   179          0
   202          0
   221          0
   277         19
   278          2