##TITLE=Library Entry 36156
##JCAMP-DX=Revision 4.10 
##DATA TYPE=MASS SPECTRUM
##SAMPLE DESCRIPTION=A.A.Kutin, Moscow, Russia
##NAMES=HP
##CAS NAME=1,3,4-Thiadiazole, 2-trifluoroacetamido-5-(2-methylphenyl)-
##MOLFORM=C11H8F3N3OS
##CAS REGISTRY NO=349574-64-7
##MP= -300
##BP= -300
##MW= 287
##$RETENTION INDEX=0
##$CONDENSED SPECTRUM=NO
##NPOINTS= 115
##XYDATA=(XY..XY) 1 
    33          8
    34          1
    37         15
    38         47
    39        194
    40         25
    41         47
    42         21
    43         19
    45        108
    46         32
    47         12
    48          0
    50        152
    51        174
    52         40
    53         21
    54         12
    55          3
    57          6
    58         41
    59         28
    60         19
    61         23
    62         67
    63        161
    64         63
    65        138
    67         22
    69        999
    70         20
    71         10
    72          4
    73         41
    74         44
    75         51
    76         54
    77        136
    78         45
    79          4
    81         13
    82         19
    83          6
    84          6
    85          2
    86         47
    87         14
    88         21
    89        232
    90        138
    91        212
    92         21
    93         29
    94         12
    95         13
    96         12
    97         44
    98          3
    99          3
   100          5
   101         21
   102         61
   103         38
   104         63
   105         12
   106          4
   107          4
   108         26
   109          8
   110          1
   114         10
   115         23
   116        633
   117        187
   118        107
   119         23
   120         14
   121         73
   122        118
   123         14
   124          6
   130          1
   131         19
   132          8
   133         22
   134        257
   135        127
   136         28
   137          7
   146          9
   147         10
   148        166
   149        499
   150         59
   151         22
   152          2
   159          5
   161          2
   165          0
   175          6
   181          9
   190         14
   191          4
   207          0
   216          4
   218         98
   219         13
   220          5
   235          1
   240          4
   264          0
   268          0
   287         68
   288          9
   289          2