##TITLE=Library Entry 32845
##JCAMP-DX=Revision 4.10 
##DATA TYPE=MASS SPECTRUM
##SAMPLE DESCRIPTION=Chemical Concepts
##NAMES=HP
##CAS NAME=1,3-Cyclopentanedimethanol
##MOLFORM=C7H14O2
##CAS REGISTRY NO=34957-72-7
##MP= -300
##BP= -300
##MW= 130
##$RETENTION INDEX=0
##$CONDENSED SPECTRUM=NO
##NPOINTS= 52
##XYDATA=(XY..XY) 1 
    26         18
    27        160
    28         23
    29        141
    30         11
    31        338
    33         10
    38         14
    39        198
    40         42
    41        466
    42         57
    43        102
    44         32
    45         21
    50         12
    51         26
    52         12
    53        172
    54        143
    55        205
    56         86
    57        275
    58         19
    59          7
    63          8
    65         43
    66         91
    67        999
    68        210
    69         80
    70        104
    71         24
    77         53
    78         14
    79        313
    80         77
    81        878
    82        530
    83         68
    84         19
    85          6
    91         17
    93         23
    94        201
    95         38
    97         30
    98         10
    99         10
   100         42
   111          6
   112         14