##TITLE=Library Entry 8100
##JCAMP-DX=Revision 4.10 
##DATA TYPE=MASS SPECTRUM
##SAMPLE DESCRIPTION=A.A.Kutin, Moscow, Russia
##NAMES=HP
##CAS NAME=S-Triazine, 2-(4-acetylphenyl)amino-4-(1,1,1,3,3,3-hexafluoroisop
ropyl)oxy-6-isopropylamino-
##MOLFORM=C17H17F6N5O2
##CAS REGISTRY NO=349573-67-7
##MP= -300
##BP= -300
##MW= 437
##$RETENTION INDEX=0
##$CONDENSED SPECTRUM=NO
##NPOINTS= 229
##XYDATA=(XY..XY) 1 
    33          5
    34          8
    36          2
    37          4
    39        110
    40        148
    41        222
    43        999
    44        113
    45          6
    47          2
    48          1
    50         37
    51         46
    52         19
    53         17
    54         13
    55         34
    56         29
    58        584
    60          2
    63         76
    64         44
    65         50
    66         11
    69        546
    70         24
    71         18
    73          4
    74         11
    75         19
    76         53
    77         54
    78         26
    79         25
    80          5
    81          8
    82         13
    83         37
    84         13
    85         14
    86         20
    87          3
    89         19
    90        161
    91         96
    92         43
    93         30
    94         33
    95         17
    96          4
    97          5
    98         18
    99         12
   100          4
   101          5
   102         12
   103         11
   104         26
   105         19
   106         36
   107          8
   108          5
   109          6
   110          7
   111         15
   112         11
   113         20
   115         14
   116         26
   117         84
   118         39
   119         62
   120         63
   121          8
   122          3
   123          4
   124          3
   125          3
   126          9
   127          3
   128          4
   129         12
   130         22
   131         62
   132         25
   133         27
   134          8
   135         32
   136          4
   137          2
   139          1
   141          2
   142         12
   143         31
   144         47
   145        373
   146         45
   147          5
   149          7
   151         49
   152          3
   153          3
   154          2
   156         11
   157         20
   158         47
   159         62
   160         25
   161         49
   162          5
   163          1
   165          1
   167          1
   168          3
   170         86
   171         32
   172          7
   173          4
   174          2
   175          2
   176          3
   180          1
   182         12
   183          5
   184         17
   185         17
   186         53
   187         34
   188          6
   189          2
   190          1
   191          2
   193          1
   194         13
   195          3
   196          6
   197          6
   198          2
   199          3
   200          4
   201         18
   202         15
   204        269
   205          1
   210          7
   212         46
   213         15
   214          3
   216          7
   217          1
   218          2
   219          3
   220          1
   225          1
   226          8
   227          4
   228         14
   229         12
   230          2
   234          1
   236         42
   237         13
   241          2
   242          2
   243          1
   244          3
   254          2
   256          2
   261         14
   262         14
   263          1
   270         13
   271          4
   283          3
   284          4
   286         24
   287          4
   292          1
   298          2
   311          3
   312          6
   313          1
   318          3
   334          1
   337          2
   338          1
   351          2
   352         10
   353          2
   354         17
   355          2
   360          1
   363          2
   365          1
   366          1
   376          2
   378          5
   379          9
   380         76
   381         12
   382          1
   392          1
   393          3
   394         82
   395         40
   396          6
   406          8
   407          1
   408          5
   409          1
   414          1
   415          1
   416          1
   417          2
   418         38
   419         10
   420          7
   422        308
   423         56
   424          6
   431          2
   432          1
   433          2
   434          2
   436         43
   437        199
   438         39
   439          4