##TITLE=Library Entry 2671
##JCAMP-DX=Revision 4.10 
##DATA TYPE=MASS SPECTRUM
##SAMPLE DESCRIPTION=Chemical Concepts
##NAMES=HP
##CAS NAME=2,3,16,17-Octadecanetetraone tetraoxime
##MOLFORM=C18H34N4O4
##CAS REGISTRY NO=34959-24-5
##MP= -300
##BP= -300
##MW= 370
##$RETENTION INDEX=0
##$CONDENSED SPECTRUM=NO
##NPOINTS= 315
##XYDATA=(XY..XY) 1 
    25          5
    26         24
    27        218
    28        173
    29        300
    30        227
    31        144
    33          3
    34          3
    36          3
    37          5
    38         15
    39        142
    40         70
    41        999
    42        863
    43        695
    44        144
    45         45
    46         23
    50          5
    51         11
    52         23
    53        138
    54        264
    55        886
    56        226
    57        275
    58        770
    59         85
    60         44
    61          7
    62          3
    63          6
    64          6
    65         31
    66         56
    67        351
    68        232
    69        449
    70        133
    71         73
    72         52
    73         35
    74         41
    75         85
    76          6
    77         34
    78         13
    79         97
    80        113
    81        292
    82        232
    83        266
    84        186
    85        191
    86         64
    87         27
    88          8
    89          5
    90          5
    91         43
    92         20
    93         95
    94        129
    95        242
    96        262
    97        170
    98        309
    99        366
   100        184
   101         77
   102          8
   103         13
   104          7
   105         32
   106         26
   107         75
   108        103
   109        192
   110        203
   111        306
   112        365
   113        181
   114         26
   115         16
   116        650
   117         48
   118         11
   119         22
   120         32
   121         58
   122         80
   123         89
   124        117
   125         98
   126        218
   127         50
   128         12
   129        104
   130         18
   131         10
   132         11
   133         29
   134         34
   135         36
   136         48
   137         46
   138         65
   139         80
   140         56
   141         16
   142          5
   143         21
   144          5
   145          5
   146          6
   147         12
   148         20
   149         23
   150         27
   151         25
   152         33
   153         81
   154         22
   155         10
   156          3
   157          7
   158          2
   159          7
   160          7
   161          9
   162         11
   163         17
   164         12
   165         18
   166         15
   167         55
   168         22
   169          9
   170          5
   171          7
   172          3
   173          5
   174          7
   175          9
   176         13
   177         16
   178         15
   179         17
   180         25
   181         33
   182          9
   183          9
   184          4
   185          8
   186          3
   187          4
   188          5
   189          7
   190          9
   191         13
   192         15
   193         15
   194         30
   195         31
   196         13
   197          8
   198          4
   199         10
   200          5
   201          4
   202          7
   203          5
   204         10
   205          9
   206          9
   207         16
   208         10
   209         31
   210         15
   211         12
   212          5
   213         18
   214          7
   215          6
   216          6
   217         12
   218          9
   219        111
   220         28
   221         82
   222         23
   223         20
   224          8
   225         14
   226          6
   227         12
   228          8
   229         10
   230         13
   231         15
   232         15
   233         19
   234         17
   235         26
   236         17
   237         99
   238         20
   239         29
   240          8
   241          8
   242          5
   243          8
   244          6
   245         22
   246         12
   247         60
   248         26
   249         14
   250         11
   251         39
   252         13
   253         17
   254          7
   255        124
   256         28
   257          9
   258         12
   259         13
   260         78
   261         40
   262         66
   263         52
   264         30
   265         14
   266          7
   267          9
   268          6
   269         10
   270          5
   271          6
   272          5
   273          6
   274          8
   275          9
   276         63
   277         32
   278        413
   279        102
   280         39
   281         16
   282          8
   283          5
   284          5
   285          5
   286          7
   287          7
   288          8
   289          7
   290         10
   291          8
   292         12
   293         13
   294        131
   295         33
   296         15
   297          5
   298          3
   299          4
   300          4
   301          6
   302         14
   303         12
   304         34
   305         16
   306         23
   307          9
   308         13
   309          6
   310          6
   312          6
   313          9
   314          5
   317         37
   318         23
   319         79
   320         60
   321        102
   322        121
   323         28
   324         10
   325          7
   331          5
   332          6
   333         10
   334         36
   335        480
   336        133
   337        103
   338         47
   339         27
   340          8
   350          4
   351         12
   352         73
   353        203
   354         61
   355         26
   356          5
   368          4
   369         11
   370        147
   371         35
   372          5