##TITLE=Library Entry 16729
##JCAMP-DX=Revision 4.10 
##DATA TYPE=MASS SPECTRUM
##SAMPLE DESCRIPTION=A.A.Kutin, Moscow, Russia
##NAMES=HP
##CAS NAME=Butanamide, 3-(2-methoxy-1-oxoethylhydrazono)-N-(2-methoxy-5-meth
ylphenyl)-
##MOLFORM=C15H21N3O4
##CAS REGISTRY NO=349575-71-9
##MP= -300
##BP= -300
##MW= 307
##$RETENTION INDEX=0
##$CONDENSED SPECTRUM=NO
##NPOINTS= 114
##XYDATA=(XY..XY) 1 
    33          9
    34          1
    36          0
    37          5
    39        232
    40        145
    41        229
    42        143
    43         93
    45        999
    47          1
    50         20
    51         48
    52         38
    53         35
    54         47
    55         47
    56         42
    57         25
    58          8
    59          6
    60         11
    61          3
    62          5
    63         20
    64         17
    65         83
    66         62
    67         31
    68         13
    69         42
    70         26
    71         36
    72         20
    73         47
    74          7
    77        147
    78         55
    79         63
    80         10
    81          7
    83        104
    84         55
    85          9
    86          2
    88        167
    89         12
    90          6
    91         38
    92         28
    93         77
    94        107
    95          9
    97         12
    98         11
    99         77
   100         17
   101          3
   103         47
   104         23
   105         13
   106         48
   107         18
   108         22
   109         12
   110         16
   111         24
   112          8
   113          7
   114         14
   115          2
   116          0
   117          1
   118          4
   119          6
   120         16
   121         13
   122        151
   123         15
   124          0
   125          1
   127          0
   129         76
   130          4
   131          6
   132          1
   133          1
   134         24
   135         13
   136         19
   137        176
   138         29
   139          1
   140          1
   144         86
   145          6
   146          6
   147          6
   148         40
   149         36
   150         11
   160          0
   161          0
   162          7
   163         28
   164         10
   165          0
   171          1
   174          0
   176          0
   178          0
   181          0
   307          5
   308          0