##TITLE=Library Entry 19260
##JCAMP-DX=Revision 4.10 
##DATA TYPE=MASS SPECTRUM
##SAMPLE DESCRIPTION=Chemical Concepts
##NAMES=HP
##CAS NAME=N'-(5-Methoxysalicylidene)-2-pentyl-1-cyclopropanecarbohydrazide
##MOLFORM=C17H24N2O3
##CAS REGISTRY NO=349572-16-3
##MP= -300
##BP= -300
##MW= 304
##$RETENTION INDEX=0
##$CONDENSED SPECTRUM=NO
##NPOINTS= 140
##XYDATA=(XY..XY) 1 
    33          3
    39        172
    40          3
    41        383
    42          9
    43        189
    44         31
    45          3
    46          1
    51         64
    52         46
    53         87
    55        999
    57         88
    59         60
    60          5
    61          2
    63         25
    65         76
    66         25
    67         67
    69        373
    72         89
    73          6
    74          3
    75          5
    77         51
    78         34
    79         46
    80         19
    81         37
    82         16
    83         28
    84         17
    85         17
    86          4
    87          1
    88          1
    89          2
    90          3
    91         10
    92         15
    93         27
    94         20
    95         53
    97         37
    98         30
    99         16
   100          4
   101          1
   102          2
   103          2
   104          4
   105         14
   106         19
   107         19
   108         23
   109         13
   110          7
   111         10
   112         10
   113          6
   114          2
   115          1
   117          5
   118          2
   119          4
   120          6
   121         14
   122         11
   123         18
   124          3
   125          3
   126          9
   127          2
   128          1
   129          1
   131          2
   134         65
   135         26
   136         22
   137         61
   139         96
   140          9
   141          1
   142          1
   144          1
   145          1
   146          2
   149        295
   150         80
   151         24
   152          6
   153          2
   154          4
   156        120
   157          9
   158          1
   161          3
   162          6
   163          7
   166        224
   167         14
   168          2
   171          4
   172          1
   175          1
   176          1
   177          9
   178          2
   179          1
   189          2
   190          2
   191          2
   192          1
   193          2
   202          1
   203          1
   205          1
   206          2
   207          1
   208          1
   215          1
   216          2
   217          1
   218          1
   219          2
   220          1
   221          1
   233          2
   247          2
   261          1
   275          1
   286          1
   287          3
   288          1
   289          2
   304        247
   305         38
   306          4