##TITLE=Library Entry 48574
##JCAMP-DX=Revision 4.10 
##DATA TYPE=MASS SPECTRUM
##SAMPLE DESCRIPTION=A.A.Kutin, Moscow, Russia
##NAMES=HP
##CAS NAME=Cyclopropane carbohydrazide, 2,2-dicyano-3-(3-fluorophenyl)-
##MOLFORM=C12H9FN4O
##CAS REGISTRY NO=349573-11-1
##MP= -300
##BP= -300
##MW= 244
##$RETENTION INDEX=0
##$CONDENSED SPECTRUM=NO
##NPOINTS= 190
##XYDATA=(XY..XY) 1 
    33         18
    34          3
    37        134
    38        179
    39        255
    40        101
    41         54
    42         48
    43         76
    44         49
    45         12
    46          4
    50        581
    51        500
    52        749
    53         97
    54         10
    55         13
    57        114
    58         39
    59         12
    61         48
    62         60
    63         72
    64         36
    65         26
    66         58
    67         21
    68         39
    69         50
    70         40
    71          9
    72          8
    74         85
    75        138
    76         58
    77         30
    79        999
    80        289
    81        149
    82        223
    83         29
    84          8
    85         14
    86         33
    87         27
    88         19
    89         11
    90          9
    91          9
    92         16
    93         42
    94         72
    95         54
    96         21
    97          7
    98         17
    99         39
   100         36
   101         27
   102          7
   103          4
   104          6
   105         13
   106         21
   107         38
   108         21
   109         26
   110         10
   111         11
   112          9
   113          8
   114          5
   115          3
   116          8
   117          8
   118         27
   119         21
   120         45
   121        177
   122         59
   123         25
   124         21
   125          9
   126         21
   127          6
   128          2
   129          3
   130          6
   131         32
   132         32
   133         31
   134         10
   135         13
   136          6
   137         26
   138         11
   139          8
   140          8
   141          2
   143         31
   145        266
   146         54
   147         15
   148          6
   149          6
   150          6
   151         13
   152          7
   153          9
   154          5
   155          3
   156          9
   158        100
   159         23
   160          9
   161          7
   162          4
   163          2
   164          1
   165          2
   166          1
   167          1
   168          2
   169          4
   170         17
   172        333
   173         86
   174         12
   175          1
   176          0
   177          1
   178          3
   179          1
   180          4
   181          1
   183         13
   184          5
   185          6
   186         33
   187         15
   188         18
   189          2
   190          1
   191          0
   192          0
   193          0
   194          0
   195          1
   196          1
   198         18
   200        195
   201         36
   202         10
   203          6
   204          2
   205          1
   206          0
   207          0
   208          0
   209          0
   210          0
   211          1
   212          1
   213         11
   214         16
   215         32
   216         33
   217          4
   218          1
   219          0
   222          1
   223          0
   224          0
   225          1
   226          2
   227          6
   228         12
   229         29
   230          4
   231          0
   236          0
   237          0
   238          0
   239          1
   240          1
   244        295
   245         30
   246          4
   247          0