##TITLE=Library Entry 44617
##JCAMP-DX=Revision 4.10 
##DATA TYPE=MASS SPECTRUM
##SAMPLE DESCRIPTION=Chemical Concepts
##NAMES=HP
##CAS NAME=Nonanoic acid, 9-hydroxy-, methyl ester
##MOLFORM=C10H20O3
##CAS REGISTRY NO=34957-73-8
##MP= -300
##BP= -300
##MW= 188
##$RETENTION INDEX=0
##$CONDENSED SPECTRUM=NO
##NPOINTS= 103
##XYDATA=(XY..XY) 1 
    26          4
    27         88
    28         23
    29        121
    30          5
    31        161
    33          3
    38          2
    39         78
    40         17
    41        334
    42         94
    43        187
    44         18
    45         31
    51          3
    52          2
    53         27
    54         47
    55        444
    56         46
    57         48
    58          6
    59        136
    60          6
    61          3
    65          4
    66          7
    67         72
    68         83
    69        195
    70         24
    71         21
    72          7
    73         35
    74        999
    75        103
    76          6
    77          4
    78          2
    79         16
    80          8
    81         57
    82         51
    83         57
    84        133
    85         22
    86          3
    87        411
    88         41
    89          4
    91          3
    92          2
    93          8
    94         56
    95         40
    96        114
    97        106
    98         32
    99          9
   100          6
   101         47
   102          7
   107          2
   108          1
   109         32
   110         69
   111         23
   112         41
   113         23
   114         18
   115         57
   116          6
   120         10
   121         11
   122          1
   123         18
   124          3
   125          4
   126          1
   127         26
   128         16
   129         22
   130          2
   137          4
   138        111
   139         47
   140          4
   141          8
   142          5
   143          7
   144          2
   145          3
   155          8
   156          7
   157         38
   158        104
   159         10
   160          0
   170          1
   171          0
   189          1
   190          0