##TITLE=Library Entry 1898
##JCAMP-DX=Revision 4.10 
##DATA TYPE=MASS SPECTRUM
##SAMPLE DESCRIPTION=A.A.Kutin, Moscow, Russia
##NAMES=HP
##CAS NAME=2H-Pyran-5-carboxamide, 2-oxo-N-(2,3-dimethylphenyl)-
##MOLFORM=C14H13NO3
##CAS REGISTRY NO=349575-84-4
##MP= -300
##BP= -300
##MW= 243
##$RETENTION INDEX=0
##$CONDENSED SPECTRUM=NO
##NPOINTS= 118
##XYDATA=(XY..XY) 1 
    33          1
    34          8
    37         58
    38        203
    39        999
    40        247
    41         78
    42         43
    43         16
    44         57
    45         13
    50         81
    51        159
    52         73
    53        120
    54         25
    55         26
    56          1
    57          3
    58          1
    62         19
    63         58
    64         32
    65        107
    66         66
    67         83
    68         22
    69         17
    70          1
    71          3
    73          0
    74          7
    75         13
    77        239
    78         71
    79         68
    80         16
    81          3
    82          3
    83          0
    84          3
    86          1
    87          1
    88          0
    89         25
    90         15
    91        151
    92         24
    93         34
    95        277
    96         11
   100          0
   101          0
   102         14
   103         45
   104         26
   105         26
   106         55
   107          5
   109          0
   115         11
   116          9
   117         17
   118         35
   119         23
   120        131
   121        114
   123        324
   124         15
   125          0
   127          2
   128          9
   129          4
   130         13
   131         12
   132         18
   133          1
   140          0
   141          2
   142          3
   143          9
   144         12
   145          4
   146          1
   154          7
   155          2
   156          6
   157          2
   158         11
   159          1
   160          1
   161          2
   168          3
   169          2
   170          8
   171          1
   172          6
   173          0
   181          0
   182          2
   183          0
   184         28
   185          2
   186          7
   187          5
   196          1
   198         23
   199          2
   200          1
   214          0
   215          2
   225          1
   226         12
   227          0
   228          5
   242          6
   243         38
   244          3