##TITLE=Library Entry 81669
##JCAMP-DX=Revision 4.10 
##DATA TYPE=MASS SPECTRUM
##SAMPLE DESCRIPTION=A.A.Kutin, Moscow, Russia
##NAMES=HP
##CAS NAME=Hydrazine, 1-benzoyl-2-(3-chlorobenzothiophen-2-ylcarbonyl)-
##MOLFORM=C16H11ClN2O2S
##CAS REGISTRY NO=349643-70-5
##MP= -300
##BP= -300
##MW= 330
##$RETENTION INDEX=0
##$CONDENSED SPECTRUM=NO
##NPOINTS= 186
##XYDATA=(XY..XY) 1 
    33          1
    34          3
    35          2
    36         12
    37          3
    38         10
    39         29
    40         48
    41         29
    42          9
    43         28
    44         20
    45         12
    47          0
    50         36
    51        106
    52         10
    53          6
    54          3
    55         25
    56          9
    57         26
    58          4
    59          3
    60          3
    61          5
    62         12
    63         15
    65          8
    66          4
    67          7
    68          5
    69         26
    70         16
    71         14
    72          2
    73          9
    74          8
    75         12
    77        424
    78         28
    79          4
    80          2
    81         10
    82         11
    83         17
    84          8
    85          4
    86          7
    87         11
    88         10
    89         16
    90          2
    91          4
    93         23
    94          2
    95          6
    96          3
    97          7
    98          5
    99          4
   100          0
   101          0
   102          3
   103          8
   105        999
   106         81
   107          5
   108          3
   109          2
   110          2
   111          5
   112          8
   113          5
   114          2
   115          1
   116          1
   117          1
   118          1
   119          2
   120          2
   121          7
   122          6
   123         72
   124          8
   125         26
   126          2
   127          2
   128          1
   129          2
   130          2
   131          6
   132         75
   133         12
   134          6
   135          1
   136          1
   137          1
   139          1
   140          0
   143          2
   144          0
   145          1
   146          5
   147          1
   148          1
   149         22
   150          2
   151          0
   152          2
   154          0
   155          8
   156          0
   157          3
   158          0
   159          2
   161         15
   162          2
   163          1
   164          0
   165          2
   166          5
   167        102
   168         18
   169         32
   170          6
   171         11
   172          1
   175          0
   176          0
   177          0
   181          3
   182          0
   183          0
   189          0
   191          2
   192          3
   193          9
   195        576
   196         61
   197        198
   198         23
   199         10
   200          1
   203          0
   208          1
   209          1
   211          8
   212          1
   213          3
   214          0
   220          0
   222          0
   226          2
   227          0
   228          0
   237          3
   238          0
   239          1
   240          1
   241          0
   250          1
   251          0
   252          1
   253          0
   254          0
   256          0
   263          3
   264          0
   265          1
   277          2
   278          0
   279          5
   283          2
   285          0
   292          0
   294          1
   295          7
   296          3
   297          1
   298          0
   330        136
   331         27
   332         51
   333         10
   334          2