##TITLE=Library Entry 59948
##JCAMP-DX=Revision 4.10 
##DATA TYPE=MASS SPECTRUM
##SAMPLE DESCRIPTION=Chemical Concepts
##NAMES=HP
##CAS NAME=N-(3-Chloro-6-nitro-2-quinoxalinyl)-p-toluenesulfonamide
##MOLFORM=C15H11ClN4O4S
##CAS REGISTRY NO=349652-89-7
##MP= -300
##BP= -300
##MW= 378
##$RETENTION INDEX=0
##$CONDENSED SPECTRUM=NO
##NPOINTS= 185
##XYDATA=(XY..XY) 1 
    33         15
    34          2
    35          4
    36         13
    37          9
    38         41
    39        115
    40         27
    41         47
    43         25
    44         24
    45         18
    46          6
    47          6
    48          6
    50         41
    51         56
    52         24
    53         19
    54          3
    55          9
    57         10
    58          2
    59          2
    62         83
    63        102
    65        411
    66         19
    67          8
    69         10
    70          3
    71          5
    73         15
    74         16
    75         21
    76         20
    77         44
    78         16
    79         14
    80          9
    81          6
    82          8
    83          3
    84          2
    85          3
    86          6
    87         13
    88         40
    89         97
    91        999
    95          4
    96          1
    97          3
    98          2
    99          3
   100          4
   101          5
   102          3
   103          9
   104          6
   105          5
   106          2
   107          5
   108          3
   109          2
   110          2
   111          5
   112          2
   113          2
   115         50
   116         40
   117          5
   118          2
   119          1
   120          1
   121          3
   122          2
   123          3
   124          5
   125          2
   126          1
   127          2
   128          2
   129          2
   130          8
   131          5
   132          2
   133          2
   134          3
   135          1
   137          1
   139         12
   140          2
   141          5
   142         10
   143          3
   145          1
   147          1
   149          5
   150          4
   151          4
   152          4
   153          3
   155         72
   156          6
   157          6
   158         11
   159          1
   161          1
   162          2
   163          1
   164          2
   165          2
   166          4
   167          2
   168          2
   169          1
   171          1
   172          1
   175          1
   177         20
   178          4
   179          6
   180          2
   188          3
   189          1
   190          1
   191          1
   193          8
   194          2
   195          2
   196          1
   203          1
   204          1
   205          2
   206          1
   207          1
   217          1
   218          1
   219          2
   220          1
   221          1
   223          9
   224          3
   225          3
   226          1
   230          2
   231          2
   232          3
   233          3
   234          1
   239          1
   248          1
   253          1
   255          2
   257          1
   265          1
   266          3
   267         15
   268          5
   269          5
   270          1
   279          3
   280          1
   283          3
   284          1
   285          1
   297          2
   298          1
   299          1
   308          1
   309          2
   313        265
   314         72
   315         77
   316         21
   317          2
   343          7
   344          1
   347          2
   348          2
   349          1
   350          1
   378          2
   380          1