##TITLE=Library Entry 38289
##JCAMP-DX=Revision 4.10 
##DATA TYPE=MASS SPECTRUM
##SAMPLE DESCRIPTION=Japan AIST/NIMC Database- Spectrum MS-NW-5735
##NAMES=HP
##CAS NAME=Disulfide, bis(1,1-dimethylpropyl)
##MOLFORM=C10H22S2
##CAS REGISTRY NO=34965-30-5
##MP= -300
##BP= -300
##MW= 206
##$RETENTION INDEX=0
##$CONDENSED SPECTRUM=NO
##NPOINTS= 87
##XYDATA=(XY..XY) 1 
    15          4
    26          3
    27         51
    28          8
    29         97
    30          2
    32          3
    33          1
    34          3
    35          1
    37          1
    38          2
    39         47
    40          5
    41        129
    42         28
    43        641
    44         21
    45         10
    46          1
    47          7
    49          1
    50          2
    51          3
    52          1
    53         14
    54          3
    55        113
    56         10
    57         56
    58          4
    59         22
    60          4
    61         10
    62          1
    63          1
    64          9
    65          1
    66          2
    67          5
    68          3
    69         25
    70         35
    71        999
    72         55
    73          9
    74          6
    75          9
    76          4
    79          2
    83          3
    84          2
    85         35
    86          3
    87          5
    88          1
    89          4
    90          2
    93          3
    97          1
    98          1
    99          1
   101          4
   102          4
   103         20
   104          5
   105          2
   106          1
   107         11
   108          1
   109          1
   117          1
   121          4
   122         11
   123          1
   124          1
   134          3
   135          2
   136         87
   137          8
   138          9
   150          2
   204          1
   206         59
   207          8
   208          5
   209          1