##TITLE=Library Entry 21635
##JCAMP-DX=Revision 4.10 
##DATA TYPE=MASS SPECTRUM
##SAMPLE DESCRIPTION=S. MARKEY UNIV. OF COLO. MED. CTR., DENVER, COLORADO, U
SA
##NAMES=HP
##CAS NAME=.beta.-Alanine, N-(trifluoroacetyl)-, butyl ester
##MOLFORM=C9H14F3NO3
##CAS REGISTRY NO=34961-42-7
##MP= -300
##BP= -300
##MW= 241
##$RETENTION INDEX=0
##$CONDENSED SPECTRUM=NO
##NPOINTS= 69
##XYDATA=(XY..XY) 1 
    15         57
    16          5
    17          5
    18         41
    20         52
    26         39
    27        294
    29        527
    30         38
    31         53
    33         13
    37          3
    39        139
    40        139
    41        538
    42        138
    43        141
    44         89
    45         78
    46          7
    47         24
    50         25
    51         44
    53         15
    54         13
    55        999
    56        417
    57        323
    58         12
    60         68
    61          9
    66         10
    69        314
    70        126
    71         36
    72         85
    73         24
    74         16
    78        119
    79         11
    88         22
    92         23
    94          4
    96         12
    97         38
    98        138
    99         19
   106          8
   107          7
   114         19
   116         82
   118          4
   126        295
   127         11
   138         14
   139        361
   140         49
   141        100
   142         10
   146         11
   166         29
   167        105
   168        717
   169         39
   172         34
   173          4
   185         33
   186         87
   187          7