##TITLE=Library Entry 46206
##JCAMP-DX=Revision 4.10 
##DATA TYPE=MASS SPECTRUM
##SAMPLE DESCRIPTION=Chemical Concepts
##NAMES=HP
##CAS NAME=2,2'-(4,4'-Methylenediphenyl)diquinoxaline
##MOLFORM=C29H20N4
##CAS REGISTRY NO=34963-37-6
##MP= -300
##BP= -300
##MW= 424
##$RETENTION INDEX=0
##$CONDENSED SPECTRUM=NO
##NPOINTS= 109
##XYDATA=(XY..XY) 1 
    33        732
    34         19
    39        173
    40        222
    41        262
    43        319
    44        271
    50        482
    51         85
    52         26
    53         35
    55        223
    56         72
    57        142
    60         66
    62         12
    63         51
    64         25
    65         44
    67         59
    69        171
    70         40
    71         76
    73         57
    76        999
    77        162
    79         12
    81         61
    82         28
    83         56
    84         31
    85         34
    87         24
    88         15
    89         58
    90         36
    91         42
    92         16
    93         12
    94         11
    95         27
    96         18
    97         34
    98         21
    99         13
   100         12
   102        222
   103        102
   104         17
   105         10
   109         17
   111         31
   112         19
   113         24
   116        200
   125         12
   126          9
   127         14
   129        214
   131         12
   137         13
   139         12
   140         17
   141         12
   147         16
   149         33
   150         13
   151         23
   152         27
   161         16
   163         22
   164         31
   165        116
   167         16
   171         17
   177         38
   178         63
   179         14
   185         23
   190        143
   191         36
   192         42
   193         10
   199         13
   203         10
   205         34
   206         22
   212        262
   215         17
   217         52
   218         59
   219        109
   220         19
   266         12
   267         11
   292         52
   293         56
   294         52
   295        144
   296         26
   320         41
   321         14
   322         11
   418         14
   420         75
   423        149
   424        313
   425         92
   426         13