##TITLE=Library Entry 14680
##JCAMP-DX=Revision 4.10 
##DATA TYPE=MASS SPECTRUM
##SAMPLE DESCRIPTION=A.A.Kutin, Moscow, Russia
##NAMES=HP
##CAS NAME=1-[3-(2-Chloro-phenyl)-5-methyl-isoxazole-4-carbonyl]-piperidine-
4-carboxylic acid methyl ester
##MOLFORM=C18H19ClN2O4
##CAS REGISTRY NO=349613-43-0
##MP= -300
##BP= -300
##MW= 362
##$RETENTION INDEX=0
##$CONDENSED SPECTRUM=NO
##NPOINTS= 230
##XYDATA=(XY..XY) 1 
    33          2
    34          2
    35          2
    36         12
    37          2
    38         11
    39         57
    40         55
    41        118
    42        151
    43        999
    44         46
    45         22
    49          1
    50         23
    51         24
    52         10
    53         32
    54         40
    55        188
    56         76
    57         24
    58          6
    59         85
    60          4
    61          4
    62          6
    63         14
    64          6
    65          9
    66          5
    67         50
    68         25
    69         29
    70         10
    71         15
    72          4
    73          8
    74         13
    75         66
    76         16
    77         17
    78          7
    79          5
    80         26
    81         16
    82        331
    83         37
    84         29
    85         16
    86          7
    87         21
    88         13
    89          7
    90          3
    91          3
    92          4
    93          2
    94          9
    95          8
    96          6
    97          6
    98          7
    99         15
   100         11
   101          9
   102         19
   103          5
   104          2
   105          2
   106          2
   108          2
   109          4
   110         16
   111         42
   112         23
   113         19
   114         43
   115         15
   116          7
   117          2
   120          3
   121          2
   122          5
   123         28
   124          6
   125         16
   126         12
   127         15
   128         13
   129          4
   130          5
   131          1
   132          1
   133          1
   134          5
   135          2
   136          3
   137         15
   138         22
   139         23
   140         11
   141         13
   142        401
   143         38
   144         27
   145          3
   148          7
   149         11
   150         80
   151         19
   152         29
   153          5
   154          2
   155          2
   156          4
   157          3
   158          3
   159          2
   160          3
   162          2
   163          5
   164          5
   165          4
   166          3
   167          2
   168          2
   169          2
   170          5
   171          6
   172          2
   173          2
   174          1
   175          2
   176          7
   177         38
   178        395
   179         56
   180        143
   181         17
   182          6
   183          2
   184          1
   185          5
   186         45
   187          6
   188          1
   191          2
   192          3
   193          6
   194          6
   195          3
   196          2
   197          3
   198          3
   199          4
   200          3
   201          5
   202         15
   203          2
   204          1
   206          2
   208          4
   209          1
   211          1
   213         64
   214          9
   215          2
   216         31
   217          5
   218          1
   219          3
   220         51
   221          8
   222         26
   223          6
   224          4
   225          4
   227          6
   231          2
   233          1
   239          5
   240          2
   241         11
   242          2
   247          3
   249          9
   250          2
   251          5
   252          1
   253          2
   257          8
   258          1
   259          2
   267         21
   268          5
   269          3
   275         11
   276          2
   277          4
   283          3
   285          6
   287          1
   291          3
   295          9
   296          1
   301          2
   302          2
   303         14
   304          2
   305          4
   309          2
   311          2
   323         16
   325         29
   327        745
   328        150
   329         22
   330          3
   331         24
   332          4
   333          9
   344          4
   345          6
   346          2
   347          5
   361          4
   362         21
   363          5
   364          6