##TITLE=Library Entry 47945
##JCAMP-DX=Revision 4.10 
##DATA TYPE=MASS SPECTRUM
##SAMPLE DESCRIPTION=Chemical Concepts
##NAMES=HP
##CAS NAME=2,6-Diamino-3,5-bis(phenylazo)pyridine
##MOLFORM=C17H15N7
##CAS REGISTRY NO=34981-09-4
##MP= -300
##BP= -300
##MW= 317
##$RETENTION INDEX=0
##$CONDENSED SPECTRUM=NO
##NPOINTS= 127
##XYDATA=(XY..XY) 1 
    33          9
    34          2
    35          2
    38         97
    39         99
    40         17
    41         26
    43        243
    45          6
    47          6
    51        478
    52        260
    53        143
    54         35
    55         17
    56         13
    57          6
    58          2
    59          1
    63         75
    64         89
    65        155
    66         35
    67         30
    68         14
    69         13
    70         22
    71          3
    74         12
    77        999
    78         66
    79         40
    80         67
    81         14
    83         10
    85          7
    87          2
    89         27
    92        168
    93         38
    94         26
    95          3
    96          2
    97          1
    98          1
    99          1
   102         16
   104         51
   105         34
   107         42
   108          8
   109          1
   110          1
   111          1
   112          2
   113          4
   114          9
   115         17
   116         36
   117          9
   119         24
   120          2
   121          4
   123          5
   126          3
   128         11
   129         15
   130         21
   131          6
   132          3
   133          2
   134          2
   135          3
   136          1
   137          1
   140         59
   141         32
   142         16
   143         22
   144          8
   145          1
   149          2
   151          1
   153          8
   154          3
   155          7
   156          6
   157         14
   159         50
   167         26
   168         30
   169         14
   170         20
   171          4
   178          1
   180          2
   181          1
   184         48
   186        117
   187         10
   189          2
   191          2
   195        435
   196         44
   197          9
   198          2
   207          1
   208          2
   212        335
   213         32
   224          1
   225          2
   226          1
   228          3
   240          5
   241          1
   243          1
   260          2
   261          1
   271          1
   272          1
   288         12
   289          6
   290          1
   317        727
   318        130
   319         12