##TITLE=Library Entry 18369
##JCAMP-DX=Revision 4.10 
##DATA TYPE=MASS SPECTRUM
##SAMPLE DESCRIPTION=A.A.Kutin, Moscow, Russia
##NAMES=HP
##CAS NAME=2,6-Pyridinediamine, 3,5-dinitro-
##MOLFORM=C5H5N5O4
##CAS REGISTRY NO=34981-11-8
##MP= -300
##BP= -300
##MW= 199
##$RETENTION INDEX=0
##$CONDENSED SPECTRUM=NO
##NPOINTS= 136
##XYDATA=(XY..XY) 1 
    33          7
    34          8
    36         23
    37        201
    38        319
    39        145
    40        222
    41        100
    43        924
    44        188
    46        217
    48         10
    49          6
    50         17
    51        129
    52        999
    53        910
    54        160
    55        147
    56         45
    57         15
    58          2
    59          4
    60          3
    62         25
    63        102
    64        187
    65        289
    66         89
    67        166
    68        130
    69         76
    70         26
    71          9
    72          2
    73          2
    74          3
    75          6
    77        151
    78         62
    79        161
    80        529
    81         74
    82         14
    83         29
    84          8
    85          2
    86          1
    87          1
    89          6
    90         28
    91         15
    93        123
    94         45
    95        352
    96         42
    97          6
    98          2
    99          1
   100          0
   101          0
   102          0
   103          1
   104          4
   105          7
   107        436
   108         44
   109          7
   110          7
   111         25
   112          4
   113          1
   114          0
   115          1
   116          0
   117          0
   118          5
   119          7
   120          5
   121          6
   122         10
   123        213
   124         16
   125          3
   126          1
   127          0
   128          0
   129          0
   131          0
   132          0
   133          1
   134          1
   135          3
   136         12
   138          8
   139          3
   140          5
   141          1
   142         19
   143          1
   144          0
   145          0
   148          0
   149          7
   150          2
   151          2
   152          4
   153         15
   154          3
   155          3
   156          0
   157          0
   163          0
   164          0
   165          1
   166          2
   167          6
   169        324
   170         35
   171          8
   172          0
   179          0
   180          1
   181          4
   183         42
   184          4
   185          1
   186          0
   194          0
   195          1
   196          4
   197         14
   199        976
   200        114
   201         12
   202          1