##TITLE=Library Entry 22620
##JCAMP-DX=Revision 4.10 
##DATA TYPE=MASS SPECTRUM
##SAMPLE DESCRIPTION=K.T.POTTS RENSSELAER POLYTECHNIC INST., TROY, NEW YORK,
 USA
##NAMES=HP
##CAS NAME=1H-1,2,4-Triazole, 3-methyl-5-(methylthio)-
##MOLFORM=C4H7N3S
##CAS REGISTRY NO=34985-98-3
##MP= -300
##BP= -300
##MW= 129
##$RETENTION INDEX=0
##$CONDENSED SPECTRUM=NO
##NPOINTS= 15
##XYDATA=(XY..XY) 1 
    42        270
    43        140
    45        140
    56        999
    58        150
    59        100
    73        120
    74        170
    84        450
    88        320
    96        110
   114         70
   115        100
   128        110
   129        260