##TITLE=Library Entry 30329
##JCAMP-DX=Revision 4.10 
##DATA TYPE=MASS SPECTRUM
##SAMPLE DESCRIPTION=NIST Mass Spectrometry Data Center, 2010
##NAMES=HP
##CAS NAME=trans-Linalool oxide (furanoid)
##MOLFORM=C10H18O2
##CAS REGISTRY NO=34995-77-2
##MP= -300
##BP= -300
##MW= 170
##$RETENTION INDEX=1086
##$CONDENSED SPECTRUM=NO
##NPOINTS= 93
##XYDATA=(XY..XY) 1 
    26          3
    27         44
    28          8
    29         39
    30          1
    31         62
    37          1
    38          4
    39        110
    40         24
    41        224
    42         37
    43        385
    44         18
    45         30
    46          1
    47          1
    50          8
    51         22
    52         12
    53         97
    54         24
    55        380
    56         38
    57         64
    58         17
    59        999
    60         34
    61          5
    62          2
    63          4
    64          1
    65         37
    66         17
    67        333
    68        367
    69        163
    70         91
    71        133
    72         82
    73         18
    74          2
    75          1
    77         55
    78         10
    79        142
    80         12
    81        198
    82         39
    83        185
    84         65
    85         84
    86          7
    87          3
    91         59
    92          7
    93        363
    94        516
    95         85
    96         12
    97        107
    98         10
    99          4
   100          1
   101          1
   102         24
   103          2
   106          1
   107         11
   108          2
   109         46
   110         21
   111        345
   112         64
   113          6
   119         15
   120          2
   122          1
   123          2
   124          1
   125          7
   126          1
   127          2
   135          2
   137         71
   138          7
   139          1
   143          5
   152          2
   153          1
   155         75
   156          7
   157          1