##TITLE=Library Entry 42574
##JCAMP-DX=Revision 4.10 
##DATA TYPE=MASS SPECTRUM
##SAMPLE DESCRIPTION=NIST Mass Spectrometry Data Center, 2010
##NAMES=HP
##CAS NAME=L-(-)-Arabitol, 5TMS derivative
##MOLFORM=C20H52O5Si5
##CAS REGISTRY NO=35-21-2
##MP= -300
##BP= -300
##MW= 512
##$RETENTION INDEX=0
##$CONDENSED SPECTRUM=NO
##NPOINTS= 172
##XYDATA=(XY..XY) 1 
    29          1
    31          1
    39          1
    41          7
    42          1
    43          6
    44          8
    45         47
    46          3
    47          4
    53          3
    54          3
    55          7
    56          1
    57          3
    58          7
    59         30
    60          3
    61          4
    66          1
    67          1
    69          4
    70          2
    71          2
    72         19
    73        999
    74         83
    75         59
    76          3
    77          3
    81          4
    83          1
    85          3
    86          1
    87          5
    88          5
    89         22
    90          2
    91          1
    97          1
    99          3
   100          1
   101         26
   102          5
   103        496
   104         47
   105         21
   106          1
   111          2
   113          8
   114          1
   115          6
   116         17
   117        142
   118         14
   119         12
   120          1
   121          1
   125          1
   127          3
   128          1
   129        216
   130         26
   131         45
   132          6
   133         99
   134         14
   135          8
   136          1
   141          1
   142          2
   143         11
   144          2
   145          6
   146          2
   147        514
   148         79
   149         49
   150          5
   151          2
   153          1
   155          5
   156          1
   157         16
   158          2
   159          4
   160          1
   161          6
   162          1
   163          7
   164          1
   165          1
   169          1
   170          1
   171          3
   173          2
   174          1
   175         12
   176          2
   177          8
   178          1
   179          1
   187          1
   189         83
   190         17
   191         62
   192         10
   193          6
   194          1
   201          1
   202          1
   203         35
   204        105
   205        258
   206         53
   207         28
   208          4
   209          1
   215          2
   217        486
   218        115
   219         47
   220          8
   221         16
   222          4
   223          2
   229          9
   230          3
   231          2
   242          1
   243         38
   244          9
   245          5
   246          1
   247          1
   265          1
   277         40
   278         12
   279          6
   280          1
   291         14
   292          4
   293          3
   294          1
   305          5
   306         13
   307        168
   308         49
   309         24
   310          5
   311          1
   317         19
   318          6
   319        142
   320         41
   321         20
   322          4
   323          1
   331          1
   332         11
   333          4
   334          2
   335          1
   395          8
   396          3
   397          2
   407          2
   408          1
   409          1
   422          5
   423          2
   424          1