##TITLE=Library Entry 42684
##JCAMP-DX=Revision 4.10 
##DATA TYPE=MASS SPECTRUM
##SAMPLE DESCRIPTION=NIST Mass Spectrometry Data Center, 2010
##NAMES=HP
##CAS NAME=Dulcitol, 6TMS derivative
##MOLFORM=C24H62O6Si6
##CAS REGISTRY NO=35-23-4
##MP= -300
##BP= -300
##MW= 614
##$RETENTION INDEX=0
##$CONDENSED SPECTRUM=NO
##NPOINTS= 206
##XYDATA=(XY..XY) 1 
    28          1
    29          1
    31          1
    39          1
    41          8
    42          1
    43          5
    44          7
    45         35
    46          2
    47          4
    53          2
    54          3
    55          6
    56          1
    57          2
    58          5
    59         20
    60          2
    61          3
    66          1
    67          1
    69          5
    70          2
    71          2
    72         16
    73        999
    74         82
    75         60
    76          3
    77          2
    81          2
    83          2
    85          2
    86          1
    87          5
    88          5
    89         21
    90          2
    91          1
    97          4
    99          3
   100          1
   101         21
   102          4
   103        452
   104         43
   105         18
   106          1
   111          2
   113          7
   114          1
   115          5
   116          8
   117        148
   118         15
   119         11
   120          1
   121          1
   125          1
   127          3
   128          1
   129         75
   130          9
   131         37
   132          5
   133         92
   134         13
   135          8
   136          1
   141          3
   142          2
   143         18
   144          2
   145          7
   146          2
   147        574
   148         89
   149         56
   150          6
   151          3
   153          1
   155          4
   156          1
   157         33
   158          4
   159          5
   160          1
   161          7
   162          1
   163          9
   164          1
   165          1
   167          1
   169          6
   170          1
   171          1
   173          2
   174          1
   175         15
   176          2
   177          8
   178          1
   179          1
   183          7
   184          1
   185          1
   187          1
   189         71
   190         18
   191         89
   192         16
   193          8
   194          1
   201          2
   202          1
   203          8
   204        102
   205        361
   206         73
   207         36
   208          5
   209          2
   215          3
   216          2
   217        557
   218        114
   219         50
   220          7
   221         19
   222          4
   223          2
   229         19
   230          8
   231         40
   232          9
   233          4
   235          1
   239          1
   243          4
   244          1
   245          1
   247          2
   249          1
   255         14
   256          3
   257          3
   258          1
   259          8
   260          2
   261          1
   263          1
   265          3
   266          1
   273          1
   277         37
   278         14
   279          7
   280          2
   281          1
   291         24
   292          7
   293          4
   294          1
   303          1
   304          1
   305         29
   306         22
   307        247
   308         70
   309         34
   310          7
   311          1
   313          1
   317          2
   318          2
   319        288
   320         86
   321         44
   322          9
   323          2
   329          2
   330          1
   331         43
   332         13
   333          7
   334          2
   345         23
   346          8
   347          4
   348          1
   349          1
   393          1
   405          1
   409          3
   410          1
   411          1
   419         15
   420          6
   421         23
   422          8
   423          4
   424          1
   434          1
   524          1
   525          1