##TITLE=Library Entry 68726
##JCAMP-DX=Revision 4.10 
##DATA TYPE=MASS SPECTRUM
##SAMPLE DESCRIPTION=Japan AIST/NIMC Database- Spectrum MS-NW-1000
##NAMES=HP
##CAS NAME=Benzene, 1-fluoro-4-nitro-
##MOLFORM=C6H4FNO2
##CAS REGISTRY NO=350-46-9
##MP= -300
##BP= -300
##MW= 141
##$RETENTION INDEX=0
##$CONDENSED SPECTRUM=NO
##NPOINTS= 78
##XYDATA=(XY..XY) 1 
    16          1
    17          1
    18          3
    20          1
    25          2
    26          6
    27          8
    28         50
    29          1
    30        128
    31         29
    32          9
    33          2
    36          5
    37         26
    38         24
    39         23
    40          1
    41          1
    44          5
    45         10
    46          7
    47          1
    48          2
    49         16
    50        122
    51         68
    52          6
    53          1
    55          3
    56         13
    57         87
    58          4
    60          4
    61         23
    62         21
    63         26
    64          6
    68         53
    69         97
    70          5
    72          1
    73         16
    74         83
    75        550
    76         45
    77          3
    78          1
    80          2
    81         12
    82         12
    83        224
    84         14
    86          1
    87          2
    88          1
    89          2
    91          1
    92         11
    93         18
    94         58
    95        999
    96         66
    97          2
    99          1
   108          2
   109          5
   110          3
   111        300
   112         18
   113          2
   122          1
   125         38
   126          3
   127          2
   141        859
   142         60
   143          5