##TITLE=Library Entry 86184
##JCAMP-DX=Revision 4.10 
##DATA TYPE=MASS SPECTRUM
##SAMPLE DESCRIPTION=Japan AIST/NIMC Database- Spectrum MS-NW-7141
##NAMES=HP
##CAS NAME=Benzene, (fluoromethyl)-
##MOLFORM=C7H7F
##CAS REGISTRY NO=350-50-5
##MP= -300
##BP= -300
##MW= 110
##$RETENTION INDEX=830
##$CONDENSED SPECTRUM=NO
##NPOINTS= 71
##XYDATA=(XY..XY) 1 
    20          1
    25          1
    26          7
    27         13
    28          5
    31          9
    32          4
    33          1
    36          1
    37         11
    38         24
    39         74
    40          5
    41          6
    42          1
    43          8
    44          9
    45         14
    46          1
    48          1
    49          6
    50         52
    51         81
    52         13
    53          3
    54         13
    55         11
    56          3
    57         52
    58          4
    59         15
    60          2
    61         12
    62         26
    63         60
    64         12
    65         43
    66          2
    68          2
    69          3
    70          7
    71          2
    73          4
    74         13
    75          9
    76          5
    77         21
    78          5
    79          2
    80          2
    81         16
    82          6
    83        124
    84         10
    85          4
    86          6
    87          4
    88          2
    89         37
    90         13
    91         82
    92         10
    95          1
   105          3
   106          2
   107         23
   108         10
   109        999
   110        548
   111         38
   112          1