##TITLE=Library Entry 49381
##JCAMP-DX=Revision 4.10 
##DATA TYPE=MASS SPECTRUM
##SAMPLE DESCRIPTION=A.A.Kutin, Moscow, Russia
##NAMES=HP
##CAS NAME=Pyridine-3-carbonitrile, 6-(2-adamantylidenhydrazino)-2,4,5-trich
loro-
##MOLFORM=C16H15Cl3N4
##CAS REGISTRY NO=350025-52-4
##MP= -300
##BP= -300
##MW= 368
##$RETENTION INDEX=0
##$CONDENSED SPECTRUM=NO
##NPOINTS= 230
##XYDATA=(XY..XY) 1 
    35          5
    36         11
    39        179
    41        302
    43         38
    47          9
    49          4
    50          8
    51         60
    52         57
    53        141
    55        222
    56         35
    57          4
    62         41
    63         28
    65        183
    66         94
    67        188
    68         53
    69         60
    70         16
    71         12
    72          7
    74         23
    75         12
    77        531
    79        999
    80        190
    81        234
    82         33
    83         10
    85         39
    86         20
    87         26
    88         55
    89         40
    91        522
    92        238
    93        409
    94        120
    95         50
    97         68
    99         50
   100         37
   101         10
   102         18
   103         44
   105        264
   106        370
   107        164
   108         35
   109         31
   110         13
   111          9
   112          9
   113          6
   114         36
   116         54
   117         61
   118         92
   119         97
   120        109
   121        250
   123        164
   124         32
   125         45
   126          9
   127          9
   129         48
   130         56
   131        216
   132        332
   133         90
   134         57
   135         35
   136         12
   137         11
   139          5
   140          3
   142          6
   144         57
   146        183
   147        205
   148        528
   149         96
   150         59
   151         19
   152         21
   153          8
   154          3
   155          8
   156         12
   157         10
   158         18
   159         24
   160         15
   161         23
   163         50
   164         26
   165          6
   169         23
   171         71
   172         24
   173         27
   174         12
   175          6
   176          3
   179          9
   181          5
   183          4
   184         14
   185         71
   186        106
   187         67
   188         70
   189         21
   190         10
   191          3
   193        236
   194         67
   195        211
   196        114
   198         16
   199          7
   200         11
   201          7
   202          9
   203          4
   205         37
   206         35
   207         38
   208         28
   209         13
   210         12
   211         10
   212          5
   213          4
   214          5
   215          4
   218          5
   219         12
   221        537
   222        164
   223        456
   224        118
   225        140
   226         46
   227         18
   228          8
   232          3
   234         13
   235          5
   236         17
   237          7
   238         14
   239         12
   240          9
   241         20
   242          7
   243          7
   246         22
   247         11
   248         20
   249         22
   251         15
   252          6
   253         17
   254          5
   255         11
   256          6
   257          5
   259         20
   260         15
   262         31
   263         14
   264         11
   265         10
   266          7
   267          5
   272          6
   273          8
   274          5
   275         12
   276          9
   277         11
   278          4
   279          9
   280          3
   281          3
   285          6
   287          4
   288          6
   289          8
   290          6
   291         17
   292         12
   296          9
   298          5
   299         13
   300          7
   301         12
   302          5
   303          6
   311          7
   312          4
   313          9
   314          5
   315         11
   316          6
   317          5
   325          9
   327         27
   328          4
   329         15
   330          8
   331         16
   333        697
   334        163
   335        388
   336         77
   337         61
   338          9
   339          3
   368        522
   370        571
   371         87
   372        143
   373         22
   374         18