##TITLE=Library Entry 60817
##JCAMP-DX=Revision 4.10 
##DATA TYPE=MASS SPECTRUM
##SAMPLE DESCRIPTION=Chemical Concepts
##NAMES=HP
##CAS NAME=Benzene, 3-hexenyl-
##MOLFORM=C12H16
##CAS REGISTRY NO=35008-86-7
##MP= -300
##BP= -300
##MW= 160
##$RETENTION INDEX=0
##$CONDENSED SPECTRUM=NO
##NPOINTS= 46
##XYDATA=(XY..XY) 1 
    27         26
    28          2
    29         13
    38          3
    39         55
    40          6
    41        154
    42          7
    50          8
    51         27
    52          8
    53         17
    54          3
    55          8
    62          3
    63         17
    64          5
    65         76
    66          6
    67         18
    68         57
    69         93
    70          5
    77         22
    78         11
    79          7
    82          3
    89         12
    90          6
    91        999
    92        124
    93          6
   102          4
   103         10
   104        166
   105         24
   115         17
   116          6
   117         33
   118          7
   128          9
   129          8
   131         26
   132          5
   160         81
   161         10