##TITLE=Library Entry 22036
##JCAMP-DX=Revision 4.10 
##DATA TYPE=MASS SPECTRUM
##SAMPLE DESCRIPTION=D.H. AUE, DEP. CHEM., CALIF. UNIV., SANTA BARBARA, CALI
F., U
##NAMES=HP
##CAS NAME=7-Methoxy-8-oxa-1-azabicyclo(5.1.0)octane
##MOLFORM=C7H13NO2
##CAS REGISTRY NO=35009-23-5
##MP= -300
##BP= -300
##MW= 143
##$RETENTION INDEX=0
##$CONDENSED SPECTRUM=NO
##NPOINTS= 25
##XYDATA=(XY..XY) 1 
    41        860
    42        570
    43        260
    44         60
    45         40
    54        120
    55        830
    56        999
    57        120
    59         80
    60         30
    67         90
    68         80
    69        200
    70         50
    83         50
    84        290
    85        100
    96         50
   112         20
   113         50
   126         11
   127          9
   142          1
   143          0