##TITLE=Library Entry 57559
##JCAMP-DX=Revision 4.10 
##DATA TYPE=MASS SPECTRUM
##SAMPLE DESCRIPTION=Japan AIST/NIMC Database- Spectrum MS-IW-2125
##NAMES=HP
##CAS NAME=Methyl p-(2-(methoxycarbonyl)ethoxy)benzoate
##MOLFORM=C12H14O5
##CAS REGISTRY NO=35005-31-3
##MP= -300
##BP= -300
##MW= 238
##$RETENTION INDEX=0
##$CONDENSED SPECTRUM=NO
##NPOINTS= 107
##XYDATA=(XY..XY) 1 
    14          1
    15        112
    16          1
    26          6
    27         44
    28         23
    29         13
    30          2
    31          8
    37          4
    38         20
    39         34
    40          2
    41         34
    42          6
    43         23
    44          2
    45        129
    46          7
    50         28
    51         13
    52          8
    53         11
    54          2
    55         91
    56          7
    57          5
    58          2
    59        397
    60         23
    61          5
    62         12
    63         54
    64         54
    65         63
    66          9
    67          9
    69          2
    71          2
    73          2
    74         87
    75         24
    76         29
    77         44
    78          7
    79          9
    80          6
    81          1
    82          1
    83          1
    85          3
    86          1
    87        999
    88         65
    89          7
    90          2
    91         28
    92         75
    93         53
    94          6
    95         23
    96          2
   103         29
   104         11
   105         10
   106          3
   107         19
   108          7
   109          4
   118          1
   119         20
   120         47
   121        406
   122         32
   123         40
   124          6
   131          2
   133          3
   135        133
   136         14
   137          6
   138          1
   147         16
   148          3
   149          4
   150          1
   151         15
   152         43
   153          5
   163         64
   164          7
   165         70
   166          9
   167          1
   175          6
   178          4
   179         16
   180          2
   195          4
   206          5
   207        201
   208         23
   209          3
   237          2
   238        408
   239         54
   240          8