##TITLE=Library Entry 57206
##JCAMP-DX=Revision 4.10 
##DATA TYPE=MASS SPECTRUM
##SAMPLE DESCRIPTION=Exported from NIST MS Search
##NAMES=HP
##CAS NAME=.alpha.-D-Xylofuranoside, methyl 2,5-di-O-methyl-
##MOLFORM=C8H16O5
##CAS REGISTRY NO=35007-52-4
##MP= -300
##BP= -300
##MW= 192
##$RETENTION INDEX=0
##$CONDENSED SPECTRUM=NO
##NPOINTS= 24
##XYDATA=(XY..XY) 1 
    45        288
    55         28
    57         77
    58         24
    59         75
    61         28
    71        100
    73         40
    74         66
    75         44
    85         40
    87        999
    88        100
    89         33
   100         53
   101         46
   111         11
   115          8
   117          6
   129         13
   132         11
   143         40
   147         17
   161         15