##TITLE=Library Entry 46145
##JCAMP-DX=Revision 4.10 
##DATA TYPE=MASS SPECTRUM
##SAMPLE DESCRIPTION=Chemical Concepts
##NAMES=HP
##CAS NAME=1,5-Bis(3,5-dibromosalicylidene)carbonohydrazide
##MOLFORM=C15H10Br4N4O3
##CAS REGISTRY NO=350039-83-7
##MP= -300
##BP= -300
##MW= 610
##$RETENTION INDEX=0
##$CONDENSED SPECTRUM=NO
##NPOINTS= 228
##XYDATA=(XY..XY) 1 
    34         20
    36        145
    37        429
    38        351
    39        305
    40        329
    41        405
    42        303
    43        663
    44        538
    45         67
    46         17
    48         20
    49        119
    50        698
    51        368
    52        256
    53        642
    55        323
    56        238
    57        228
    58         24
    60        157
    61        763
    62        730
    63        630
    64         89
    65         57
    66         67
    67         70
    68         36
    69        152
    70        100
    71         72
    73        155
    74        721
    75        999
    76        522
    77        329
    78        230
    79        213
    80        125
    81        151
    82        136
    84        470
    85        189
    86        111
    87        125
    88        215
    89        141
    90        177
    91        225
    92         94
    93         58
    94         15
    95         25
    96         14
    97         31
    98         47
    99         32
   100         25
   101         33
   102         16
   103         52
   104        110
   105        172
   106        120
   107         96
   109         21
   110         15
   111         27
   112         79
   113         26
   114          9
   115         30
   116         76
   117        112
   118         82
   119         73
   120          9
   121          9
   123          7
   124         14
   125         14
   126         32
   128         65
   129         43
   130         25
   131         53
   132         26
   133         39
   134         98
   135         21
   138         12
   139         17
   141        332
   143        388
   144         47
   145         59
   146         18
   147         30
   148         11
   149         24
   150         12
   152         19
   153         40
   154        101
   155        165
   156        172
   157        144
   158         99
   159         24
   160         26
   161          9
   166         15
   167         31
   168        154
   169         87
   170        213
   171        116
   172         76
   173         59
   174         10
   175         29
   177          9
   178         10
   179         23
   180         14
   183        569
   184        129
   185        482
   186         75
   187         23
   188          9
   189         18
   191         13
   192          7
   193         20
   194         52
   195         38
   196        174
   197        127
   198        182
   199        108
   200         18
   201          8
   207          8
   208         27
   212         85
   213         58
   214         68
   215         46
   219         14
   221         57
   222         49
   223         74
   224         28
   225         37
   233         15
   234         32
   235         32
   236         57
   237         23
   238         33
   239          9
   240         12
   242          9
   246         10
   247         64
   248         31
   249        117
   250         43
   251         72
   252         28
   253         10
   254          9
   260         17
   261         33
   262        244
   263        262
   264        451
   265        441
   266        241
   267        206
   268         18
   272          7
   273          9
   275        233
   276        161
   277        434
   278        247
   279        316
   280        147
   281         74
   282         27
   283         13
   288          9
   289         15
   291        268
   294        804
   295        259
   296        393
   297         37
   303          9
   305         17
   307          8
   316         15
   318        187
   319         92
   320        322
   321        151
   322        169
   323         67
   330         13
   332          9
   347          8
   349          7
   537         24
   539         31
   541         19
   551         11
   552         34
   554        127
   556        170
   557         33
   558        119
   559         15
   560         23