##TITLE=Library Entry 6600
##JCAMP-DX=Revision 4.10 
##DATA TYPE=MASS SPECTRUM
##SAMPLE DESCRIPTION=Japan AIST/NIMC Database- Spectrum MS-NW-7612
##NAMES=HP
##CAS NAME=(4S,5S)-(+)-5-Amino-2,2-dimethyl-4-phenyl-1,3-dioxane
##MOLFORM=C12H17NO2
##CAS REGISTRY NO=35019-66-0
##MP= -300
##BP= -300
##MW= 207
##$RETENTION INDEX=0
##$CONDENSED SPECTRUM=NO
##NPOINTS= 110
##XYDATA=(XY..XY) 1 
    14          1
    15         16
    26          3
    27         10
    28         19
    29         11
    30         17
    31          6
    32          1
    37          2
    38          4
    39         20
    40          4
    41         21
    42         68
    43        999
    44         43
    45          1
    50          9
    51         25
    52          7
    53          3
    54          2
    55          3
    56          2
    57          4
    58         21
    59         14
    60          5
    61          1
    62          3
    63          9
    64          4
    65         14
    66          2
    67          1
    68          8
    69          1
    70          2
    71          2
    72          7
    73          2
    74          3
    75          3
    76          4
    77         48
    78         10
    79          9
    80          3
    81          1
    82          2
    83         13
    84          4
    85          2
    87          1
    89         13
    90         18
    91         67
    92         14
    93          3
    94          2
   100         11
   101         38
   102          7
   103         25
   104         13
   105         27
   106         13
   107          8
   108          1
   109          1
   115          9
   116          8
   117         24
   118         38
   119         52
   120         18
   121          1
   122          1
   127          1
   128          2
   129          4
   130         12
   131          9
   132         51
   133         11
   134          1
   135          1
   141          1
   143          1
   144         16
   145          3
   147          4
   148          5
   149         10
   150          7
   151          1
   156          2
   157          1
   158          2
   159         12
   160          2
   168          1
   169          4
   170          4
   171          4
   173          1
   174          1
   192         11
   193          2