##TITLE=Library Entry 6642
##JCAMP-DX=Revision 4.10 
##DATA TYPE=MASS SPECTRUM
##SAMPLE DESCRIPTION=CARL DJERASSI DEPT OF CHEM STANFORD UNIV STANFORD CALIF
 94305
##NAMES=HP
##CAS NAME=2-Butanone, 3-hydroxy-, (2,4-dinitrophenyl)hydrazone
##MOLFORM=C10H12N4O5
##CAS REGISTRY NO=35015-94-2
##MP= -300
##BP= -300
##MW= 268
##$RETENTION INDEX=0
##$CONDENSED SPECTRUM=NO
##NPOINTS= 39
##XYDATA=(XY..XY) 1 
    30        140
    41         20
    42        260
    43        999
    44         20
    50         20
    51         50
    52         30
    62         60
    63         80
    64         40
    75         70
    76         30
    77         40
    78         60
    79         50
    80         20
    88         40
    89         20
    90         30
    91         20
   106         30
   122         20
   131         20
   132         20
   135         50
   136         20
   137         20
   152         40
   153         20
   165         30
   177         20
   179         20
   180         20
   181        220
   182         80
   183         30
   266        180
   267         40