##TITLE=Library Entry 22087
##JCAMP-DX=Revision 4.10 
##DATA TYPE=MASS SPECTRUM
##SAMPLE DESCRIPTION=Exported from NIST MS Search
##NAMES=HP
##CAS NAME=1,3-Cyclopentanedione, 4,5-dimethyl-
##MOLFORM=C7H10O2
##CAS REGISTRY NO=35029-05-1
##MP= -300
##BP= -300
##MW= 126
##$RETENTION INDEX=0
##$CONDENSED SPECTRUM=NO
##NPOINTS= 29
##XYDATA=(XY..XY) 1 
    39        140
    40         40
    41        430
    42        110
    43        100
    44         60
    50         10
    51         20
    52         10
    53         30
    54         20
    55        110
    56        999
    57         70
    58         10
    67         10
    69         60
    70         10
    71         10
    79         10
    83         30
    84         10
    98         80
   109         10
   111         70
   112         10
   125         10
   126        210
   127         20