##TITLE=Library Entry 66958
##JCAMP-DX=Revision 4.10 
##DATA TYPE=MASS SPECTRUM
##SAMPLE DESCRIPTION=Institute of Organic Chemistry, USSR, 1990
##NAMES=HP
##CAS NAME=Decyloxybenzene
##MOLFORM=C16H26O
##CAS REGISTRY NO=35021-67-1
##MP= -300
##BP= -300
##MW= 234
##$RETENTION INDEX=0
##$CONDENSED SPECTRUM=NO
##NPOINTS= 64
##XYDATA=(XY..XY) 1 
    40         10
    41        242
    42         32
    43        251
    44          5
    45         11
    50         12
    51         39
    52          5
    53          8
    54         16
    55        175
    56         69
    57        166
    58         13
    59         15
    61          9
    63         24
    65         84
    66         33
    67         13
    68         10
    69        102
    70         20
    71         62
    75         16
    77         92
    78         22
    79         13
    82         20
    83         28
    84          8
    85         31
    86         11
    91         54
    92         13
    94        999
    95        101
    96         22
    97         36
    98         21
   103         42
   104         13
   105         78
   107         16
   109          7
   110          6
   111         11
   112         11
   115          6
   116          7
   117         14
   119        143
   120         58
   124          5
   138          6
   139          5
   140         14
   141          6
   143          5
   168          7
   169          8
   234        168
   235         44