##TITLE=Library Entry 59103
##JCAMP-DX=Revision 4.10 
##DATA TYPE=MASS SPECTRUM
##SAMPLE DESCRIPTION=Exported from NIST MS Search
##NAMES=HP
##CAS NAME=1,2,4,5-Tetrazine, 1,4-diacetylhexahydro-2,5-bis(3-phenylpropyl)-
##MOLFORM=C24H32N4O2
##CAS REGISTRY NO=35029-01-7
##MP= -300
##BP= -300
##MW= 408
##$RETENTION INDEX=0
##$CONDENSED SPECTRUM=NO
##NPOINTS= 54
##XYDATA=(XY..XY) 1 
    40        140
    42        230
    43        750
    44        380
    57        130
    65         80
    69        150
    71        750
    77         50
    78         30
    79         30
    85         60
    91        999
    92         80
    99        500
   100         60
   101        130
   102         40
   103         40
   104         50
   105         50
   115         50
   116         30
   117        180
   118        150
   119         60
   126         70
   144         60
   145         40
   146        130
   147         30
   148        160
   149         30
   159         10
   160         10
   161         80
   162         20
   163         20
   175        210
   176         30
   202         50
   203        630
   204        580
   205        270
   206         40
   217        190
   220        100
   247         90
   261        370
   262        220
   275         90
   365        370
   366         90
   408         30