##TITLE=Library Entry 88335
##JCAMP-DX=Revision 4.10 
##DATA TYPE=MASS SPECTRUM
##SAMPLE DESCRIPTION=V.A. KOPTYUG, VOL5, ATLAS OF MS OF ORGANIC COMPOUNDS
##NAMES=HP
##CAS NAME=2-Aminopyrimidine-1-oxide
##MOLFORM=C4H5N3O
##CAS REGISTRY NO=35034-15-2
##MP= -300
##BP= -300
##MW= 111
##$RETENTION INDEX=0
##$CONDENSED SPECTRUM=NO
##NPOINTS= 34
##XYDATA=(XY..XY) 1 
    44         41
    45         16
    47          2
    50          3
    51         19
    52         60
    53         75
    54         44
    55         14
    56          9
    57         16
    60          5
    61          2
    65          4
    66         33
    67        110
    68        176
    69         28
    70        142
    77         11
    78          3
    79          8
    80          8
    81         17
    83          6
    84         17
    91          9
    92          3
    93          8
    94         22
    95        248
    96         17
   111        999
   112         63