##TITLE=Library Entry 90039
##JCAMP-DX=Revision 4.10 
##DATA TYPE=MASS SPECTRUM
##SAMPLE DESCRIPTION=Exported from NIST MS Search
##NAMES=HP
##CAS NAME=1,2,4,5-Tetrazine, 1,4-dibutylhexahydro-
##MOLFORM=C10H24N4
##CAS REGISTRY NO=35035-70-2
##MP= -300
##BP= -300
##MW= 200
##$RETENTION INDEX=0
##$CONDENSED SPECTRUM=NO
##NPOINTS= 22
##XYDATA=(XY..XY) 1 
    41        130
    42        130
    43         90
    44         40
    45         60
    55         30
    56         30
    57        750
    58         30
    70         20
    71        220
    72         30
    84         50
    99         20
   100         80
   101        160
   102         10
   113        999
   114         70
   198         20
   200        130
   201         20