##TITLE=Library Entry 22747
##JCAMP-DX=Revision 4.10 
##DATA TYPE=MASS SPECTRUM
##SAMPLE DESCRIPTION=A.A.Kutin, Moscow, Russia
##NAMES=HP
##CAS NAME=N,N'-Bis-[2-(2-oxo-oxazolidin-3-yl)-ethyl]-oxalamide
##MOLFORM=C12H18N4O6
##CAS REGISTRY NO=350497-28-8
##MP= -300
##BP= -300
##MW= 314
##$RETENTION INDEX=0
##$CONDENSED SPECTRUM=NO
##NPOINTS= 199
##XYDATA=(XY..XY) 1 
    33          1
    34          4
    35          0
    36          6
    37          1
    38          4
    39         13
    40         68
    41        109
    42        311
    43        223
    44        242
    45         28
    46          3
    47          2
    48          2
    49          1
    50          5
    51          8
    52          4
    53          8
    54        101
    55         74
    56        999
    57        120
    58         17
    59         14
    60         11
    61          1
    62          2
    63          8
    64         10
    65          9
    66          2
    67          6
    68         63
    69        415
    70        324
    71        108
    72         17
    73         13
    74         19
    75          7
    76         12
    77         14
    78          4
    79          4
    80          1
    81          8
    82          6
    83         14
    84         12
    85         32
    86         31
    87         24
    88         23
    89          3
    90          4
    91         10
    92          5
    93          6
    94          2
    95          5
    96          3
    97          7
    98         12
    99         44
   100        374
   101        149
   102         13
   103          3
   104          3
   105          5
   106          6
   107          2
   108          2
   109          3
   110          2
   111         14
   112         38
   113        853
   114        166
   115         40
   116          5
   117          3
   118          2
   119          4
   120          8
   121          3
   122          2
   123          3
   124          2
   125          3
   126         10
   127         15
   128         15
   129         32
   130         26
   131         61
   132          7
   133         12
   134          2
   135          4
   136          2
   137         10
   138          2
   139          4
   140          8
   141          8
   142          7
   143         17
   144          7
   145          1
   146          2
   147          4
   148          1
   149          9
   150          4
   151          5
   152         15
   153         10
   154          4
   155         10
   157        413
   158         39
   159         10
   160          1
   161          3
   162          2
   163          1
   164          1
   165          2
   166          0
   167          5
   168          1
   169          3
   170          1
   171         13
   172          4
   173          2
   174          9
   175          0
   176          1
   177          4
   178          1
   179          3
   181         35
   182         10
   183          7
   184          9
   185         10
   186         29
   187          8
   188          0
   189          0
   193          1
   194          0
   196          6
   197          1
   198          1
   199          3
   200          7
   201         54
   202        230
   203         20
   204          1
   212          1
   213          8
   214         63
   215         64
   216          6
   219          0
   224          0
   225          0
   227         27
   228         10
   229          0
   231          1
   233          1
   234          0
   235          4
   236          0
   241          0
   242          1
   244          4
   250          0
   252          2
   253          0
   254          1
   255          0
   256          0
   257          1
   258          0
   259          0
   267          0
   268          0
   270         97
   271         13
   272          1