##TITLE=Library Entry 29303
##JCAMP-DX=Revision 4.10 
##DATA TYPE=MASS SPECTRUM
##SAMPLE DESCRIPTION=Exported from NIST MS Search
##NAMES=HP
##CAS NAME=4-Isoxazolecarboxamide, 4,5-dihydro-N-methyl-5-[[(methylamino)car
bonyl]amino]-3-phenyl-, cis-
##MOLFORM=C13H16N4O3
##CAS REGISTRY NO=35053-71-5
##MP= -300
##BP= -300
##MW= 276
##$RETENTION INDEX=0
##$CONDENSED SPECTRUM=NO
##NPOINTS= 25
##XYDATA=(XY..XY) 1 
    29         60
    30        250
    42         60
    50         70
    51         90
    57         60
    58        999
    59        400
    65        160
    70         60
    77        180
    88         50
    89         60
   103        440
   104        480
   105         60
   115        190
   116         60
   133         70
   146         70
   161         50
   188         40
   218        639
   245         40
   276         40