##TITLE=Library Entry 22737
##JCAMP-DX=Revision 4.10 
##DATA TYPE=MASS SPECTRUM
##SAMPLE DESCRIPTION=Japan AIST/NIMC Database- Spectrum MS-IW- 83
##NAMES=HP
##CAS NAME=1,6-Dioxaspiro[4.4]nonane-2,7-dione
##MOLFORM=C7H8O4
##CAS REGISTRY NO=3505-67-7
##MP= -300
##BP= -300
##MW= 156
##$RETENTION INDEX=0
##$CONDENSED SPECTRUM=NO
##NPOINTS= 74
##XYDATA=(XY..XY) 1 
    14          7
    15          6
    17          1
    18          4
    25          2
    26         58
    27        160
    28        704
    29        101
    30          4
    31          4
    37          3
    38          6
    39         26
    40          7
    41         28
    42        168
    43         40
    44         14
    45         14
    50          4
    51          4
    52          4
    53         12
    54         33
    55        341
    56        999
    57        398
    58         15
    59          1
    61          1
    62          1
    63          1
    65          3
    66          6
    67         18
    68          7
    69         24
    70         99
    71          6
    72          5
    73         39
    74          1
    77          1
    78          2
    79          5
    81          2
    82          5
    83         64
    84        161
    85         12
    93          1
    94          2
    95          2
    96          3
    97         25
    98          3
    99          1
   100          4
   101        214
   102          9
   103          1
   109          7
   110          4
   111         21
   112        914
   113         61
   114          5
   128          6
   129          9
   135          1
   138          3
   139          1
   156          1