##TITLE=Library Entry 81046
##JCAMP-DX=Revision 4.10 
##DATA TYPE=MASS SPECTRUM
##SAMPLE DESCRIPTION=Chemical Concepts
##NAMES=HP
##CAS NAME=2-Naphthalenemethanol, .alpha.-phenyl-
##MOLFORM=C17H14O
##CAS REGISTRY NO=35060-38-9
##MP= -300
##BP= -300
##MW= 234
##$RETENTION INDEX=0
##$CONDENSED SPECTRUM=NO
##NPOINTS= 115
##XYDATA=(XY..XY) 1 
    27         16
    28          9
    29         11
    31          5
    38          3
    39         29
    41          6
    42          3
    45          3
    50         30
    51        102
    52         19
    53          9
    55          3
    62         11
    63         36
    64         15
    65          8
    71          3
    74         23
    75         42
    76         32
    77        347
    78         60
    79         96
    80          6
    81          2
    83          2
    86          7
    87         15
    88         14
    89         21
    90          3
    91         13
    92          2
    93          2
    94          7
    98          6
    99          7
   100         11
   101         61
   102         30
   103         26
   104          5
   105        999
   106         96
   107         69
   108         80
   109          4
   110          2
   114          3
   115         22
   116          6
   117          2
   119          3
   125          8
   126         66
   127        353
   128        643
   129        922
   130        101
   131          6
   137          2
   138          2
   139         15
   140          4
   141          4
   149          7
   150          6
   153          2
   154          5
   155        294
   156         92
   157        111
   158         13
   163         10
   164          4
   165         12
   166          2
   174          2
   175          2
   176         10
   177          3
   178         10
   179          4
   180          2
   187          8
   188          6
   189         24
   190         10
   191          4
   198          2
   199          2
   200          9
   201          9
   202         83
   203         31
   204         13
   205         34
   206          6
   211          3
   212          3
   213         29
   214         11
   215        149
   216         51
   217         77
   218         20
   219          5
   231          9
   232          9
   233        108
   234        715
   235        133
   236         13