##TITLE=Library Entry 28911
##JCAMP-DX=Revision 4.10 
##DATA TYPE=MASS SPECTRUM
##SAMPLE DESCRIPTION=Japan AIST/NIMC Database- Spectrum MS-IW-8117
##NAMES=HP
##CAS NAME=1-Propanone, 3-(dimethylamino)-1-phenyl-
##MOLFORM=C11H15NO
##CAS REGISTRY NO=3506-36-3
##MP= -300
##BP= -300
##MW= 177
##$RETENTION INDEX=0
##$CONDENSED SPECTRUM=NO
##NPOINTS= 72
##XYDATA=(XY..XY) 1 
    14          1
    15         10
    17          6
    18          1
    26          3
    27         32
    28         32
    29          8
    30         29
    39          9
    40          4
    41          7
    42         68
    43         33
    44        183
    45        115
    46          4
    49          2
    50         34
    51        113
    52          9
    53          4
    54          2
    55         57
    56         12
    57         81
    58        999
    59         46
    61          1
    62          3
    63          5
    64          1
    65          3
    66          1
    70         10
    71          7
    72         61
    73          4
    74         13
    75          9
    76         14
    77        415
    78         36
    79          2
    86          1
    89          2
    91          9
    98          3
   100          4
   102          4
   103         13
   104         26
   105        676
   106         53
   107          3
   115          4
   117          1
   118          1
   120          3
   130          1
   131        104
   132        325
   133         48
   134          4
   146          2
   158          1
   160          7
   162          1
   176          9
   177         84
   178         12
   179          1