##TITLE=Library Entry 89792
##JCAMP-DX=Revision 4.10 
##DATA TYPE=MASS SPECTRUM
##SAMPLE DESCRIPTION=A.A.Kutin, Moscow, Russia
##NAMES=HP
##CAS NAME=Benzene, 3-bromo-1,2-difluoro-4-nitro-
##MOLFORM=C6H2BrF2NO2
##CAS REGISTRY NO=350699-92-2
##MP= -300
##BP= -300
##MW= 237
##$RETENTION INDEX=0
##$CONDENSED SPECTRUM=NO
##NPOINTS= 123
##XYDATA=(XY..XY) 1 
    36         30
    37         34
    38         26
    40        221
    41          2
    42          2
    43          3
    44          4
    45         13
    46         31
    47          3
    48          2
    49         18
    50         49
    51         35
    52         15
    53          7
    54          2
    55          3
    56          4
    57          2
    60         17
    61        149
    62        301
    63         27
    64         14
    65          8
    66         11
    68        101
    69         26
    71          9
    72          1
    74         85
    75         44
    76         17
    77         17
    79         32
    80         72
    81         93
    82         14
    83          2
    84          1
    86         25
    87          3
    89          4
    91         20
    92         65
    93         47
    94          5
    95          6
    99         41
   100         48
   101          4
   102         10
   103          5
   104          6
   105          4
   106          2
   107          1
   108         13
   109          7
   112        999
   113         46
   115          3
   116          6
   117          9
   119         20
   120          2
   126          7
   127          6
   128         40
   129         26
   130         28
   131         10
   132          3
   133          2
   134          1
   135          2
   139          6
   141         23
   143         50
   144          3
   145          6
   146          7
   153          4
   155         10
   156          2
   157         12
   159          2
   161          2
   169          1
   171          2
   173          2
   176          1
   177         16
   179        127
   181        128
   182          2
   187          2
   188          4
   189         11
   191        188
   193        191
   194          4
   199         12
   200          1
   201          9
   203          2
   205          2
   206          9
   207        221
   209        231
   210          5
   215          1
   216          1
   221         11
   223         12
   229          5
   230         10
   235         11
   237        345
   239        319
   240         13