##TITLE=Library Entry 5196
##JCAMP-DX=Revision 4.10 
##DATA TYPE=MASS SPECTRUM
##SAMPLE DESCRIPTION=A.A.Kutin, Moscow, Russia
##NAMES=HP
##CAS NAME=Methanamine, N-bis(5-methyl-1,3,4-oxadiazol-2-yl)-
##MOLFORM=C9H13N5O2
##CAS REGISTRY NO=350682-00-7
##MP= -300
##BP= -300
##MW= 223
##$RETENTION INDEX=0
##$CONDENSED SPECTRUM=NO
##NPOINTS= 80
##XYDATA=(XY..XY) 1 
    33         34
    34          1
    35          0
    38         26
    39         42
    40         97
    42        999
    43        516
    44        113
    46          0
    48          0
    50          4
    51          6
    52         14
    53         21
    54         50
    56        604
    58         37
    60          0
    62          0
    63          0
    64          0
    65          1
    66          5
    67         12
    68         13
    69         41
    70         39
    72          1
    73          0
    74          1
    76          3
    77          1
    79          1
    80          2
    83         72
    85        259
    90          0
    91          0
    92          0
    93          1
    98        788
   100          2
   101          0
   103          1
   104          2
   105          0
   108          1
   109          1
   110          3
   111          7
   112          3
   113          0
   115          0
   119          0
   121          1
   126        866
   128         34
   129          0
   136          0
   138         13
   140        168
   142          1
   147          1
   149          1
   150          0
   152          1
   153          4
   154          0
   164          0
   165          0
   166          0
   167          0
   169          0
   181          4
   182          0
   195          0
   223         17
   224          3
   225          0