##TITLE=Library Entry 15773
##JCAMP-DX=Revision 4.10 
##DATA TYPE=MASS SPECTRUM
##SAMPLE DESCRIPTION=A.A.Kutin, Moscow, Russia
##NAMES=HP
##CAS NAME=Benzamide, 2,4,6-trinitro-N,N-dimethyl-
##MOLFORM=C9H8N4O7
##CAS REGISTRY NO=350699-89-7
##MP= -300
##BP= -300
##MW= 284
##$RETENTION INDEX=0
##$CONDENSED SPECTRUM=NO
##NPOINTS= 128
##XYDATA=(XY..XY) 1 
    33         20
    34          0
    37         16
    38         15
    39         14
    40         23
    42        487
    43        356
    44        999
    46        193
    47          0
    49          7
    50         21
    51         15
    52          8
    53         14
    54          2
    56         53
    58          4
    59          2
    60         28
    61         47
    62        126
    63         43
    64         12
    65          9
    66         16
    67          3
    68          2
    69          6
    72        328
    74        641
    75        229
    76         38
    77         23
    78         11
    79         15
    80          8
    81          1
    82          0
    83          0
    85          1
    86          6
    87         20
    88         47
    90        154
    91         48
    92         11
    93          4
    94          3
    95          0
    96          1
    99          2
   100          2
   101          9
   102         24
   103         68
   104         11
   105          5
   106         11
   107         26
   108          2
   109          0
   114          2
   115          2
   116          7
   117         13
   118         25
   119         24
   120        114
   121          6
   122          1
   123          0
   124          0
   130          1
   131          1
   132          2
   134          5
   135         10
   136          4
   137          2
   144          3
   145          1
   146          3
   148        152
   149         15
   150         12
   151          4
   152          0
   161          1
   162          2
   163          3
   164          5
   165          3
   167          9
   168          0
   178          1
   180         18
   181          3
   182          0
   185          0
   190          2
   191          1
   192          1
   194        203
   195         18
   196          3
   197          2
   207          4
   208          2
   210         10
   211          2
   224         54
   225          4
   226          1
   237          9
   238         10
   240        180
   241         74
   242          8
   243          1
   254         10
   255          0
   267          8
   268          0
   284        146
   285         16
   286          2