##TITLE=Library Entry 57359
##JCAMP-DX=Revision 4.10 
##DATA TYPE=MASS SPECTRUM
##SAMPLE DESCRIPTION=Chemical Concepts
##NAMES=HP
##CAS NAME=7-Octynamide, N,N-dimethyl-
##MOLFORM=C10H17NO
##CAS REGISTRY NO=35066-53-6
##MP= -300
##BP= -300
##MW= 167
##$RETENTION INDEX=0
##$CONDENSED SPECTRUM=NO
##NPOINTS= 99
##XYDATA=(XY..XY) 1 
    26          6
    27         98
    28         48
    29         55
    30         28
    31          5
    37          2
    38         11
    39        129
    40         21
    41        178
    42        147
    43         82
    44        372
    45        594
    46        132
    47          4
    50         11
    51         26
    52         19
    53         87
    54         18
    55        282
    56         35
    57         16
    58         42
    59         10
    60          2
    62          4
    63          8
    64          2
    65         28
    66         18
    67        150
    68         20
    69         31
    70         11
    71         18
    72        705
    73         40
    74         10
    75          3
    77         43
    78         14
    79         56
    80         29
    81        105
    82         16
    83          9
    84         15
    85          8
    86         12
    87        999
    88         67
    89          7
    91         19
    92          5
    93         29
    94         23
    95         98
    96         18
    97         10
    98         23
    99          7
   100        121
   101         28
   102          3
   105          4
   107          6
   108          3
   109          4
   110         15
   111         11
   112         52
   113         16
   114         17
   115          5
   121          6
   122          9
   123         24
   124         89
   125         36
   126         15
   127          3
   128        163
   129         14
   138         41
   139         27
   140          4
   141         17
   142          3
   149          5
   150         23
   151          3
   152         22
   153          3
   166         15
   167         22
   168          5