##TITLE=Library Entry 6578
##JCAMP-DX=Revision 4.10 
##DATA TYPE=MASS SPECTRUM
##SAMPLE DESCRIPTION=A.A.Kutin, Moscow, Russia
##NAMES=HP
##CAS NAME=Propynol, 1-[3-fluoro-4-(4-methyl-1-piperazinyl)phenyl]-1-methyl-
3-phenyl-
##MOLFORM=C21H23FN2O
##CAS REGISTRY NO=350699-88-6
##MP= -300
##BP= -300
##MW= 338
##$RETENTION INDEX=0
##$CONDENSED SPECTRUM=NO
##NPOINTS= 228
##XYDATA=(XY..XY) 1 
    33          6
    36          0
    37          2
    39         27
    42        549
    43        999
    45          3
    49          0
    50         17
    51         26
    52          8
    53          3
    54         17
    56        104
    57         92
    58         41
    59          3
    61          1
    62          7
    63         15
    64          2
    65          5
    66          1
    67          2
    68          5
    70        119
    71        429
    74         14
    75         44
    76         19
    77         34
    78          8
    79          1
    81          4
    82         11
    83         11
    84          3
    85         10
    86          3
    87          4
    88          3
    89          9
    91         11
    92          3
    94         25
    95         32
    96          9
    97         11
    98         16
    99         14
   101         29
   102         50
   103         12
   105         11
   106          2
   107          9
   108         14
   109         11
   110         16
   111          3
   112          1
   113          2
   114          2
   115         18
   116          5
   117          3
   118          3
   119          2
   120          8
   121         14
   122         37
   123         20
   124          6
   126         14
   127         24
   129        232
   130         20
   132          5
   133         10
   134          3
   135          6
   136         12
   137          5
   138          4
   139          2
   140          1
   141          0
   143          1
   144          4
   145         13
   146          7
   147          4
   148          7
   150         73
   151         14
   152          4
   153          0
   154          0
   155          1
   156          0
   157          3
   158          1
   159          1
   160          4
   161         19
   162          6
   163          3
   164          7
   165          6
   166          3
   167          1
   168          3
   169          6
   170         11
   171          1
   172          0
   174          4
   175          7
   176          6
   177          3
   178          2
   179          2
   180          2
   181          3
   183          6
   184          0
   186          0
   187          1
   188          1
   189          5
   190          1
   191          2
   192          4
   193          5
   194         16
   195          7
   196         40
   197          6
   198          0
   199          1
   200          2
   201          3
   202          5
   203          2
   204          1
   205          4
   206          3
   207         12
   208          4
   209         12
   210          4
   211          3
   212          0
   214          0
   215          1
   216          0
   217          1
   218          4
   219          3
   220         25
   221         18
   222         11
   223          9
   224         34
   225         12
   226          1
   227          0
   228          0
   231          1
   232          1
   233          2
   234          2
   235          6
   236         22
   237          8
   238         15
   239          9
   240          1
   246          0
   247          0
   248          1
   249          2
   250          9
   251          4
   252         50
   253         30
   254          5
   255          0
   256          0
   260          0
   262          0
   263          0
   264          1
   265          2
   266         21
   267         10
   268         20
   269          3
   274          0
   275          1
   276          1
   277          0
   278          0
   279          0
   280          7
   281          2
   282          4
   283          1
   289          0
   293          0
   294          9
   295          9
   296          7
   297          1
   303          1
   307          0
   318          0
   319          1
   320          4
   321         22
   323        239
   324         51
   325          5
   336          1
   337         12
   338        218
   339         49
   340          5