##TITLE=Library Entry 36326
##JCAMP-DX=Revision 4.10 
##DATA TYPE=MASS SPECTRUM
##SAMPLE DESCRIPTION=Exported from NIST MS Search
##NAMES=HP
##CAS NAME=D:B-Friedo-18,19-secolup-19-ene, 3,10-epoxy-, (3.beta.,10.beta.)-
##MOLFORM=C30H50O
##CAS REGISTRY NO=35060-26-5
##MP= -300
##BP= -300
##MW= 426
##$RETENTION INDEX=0
##$CONDENSED SPECTRUM=NO
##NPOINTS= 170
##XYDATA=(XY..XY) 1 
    41        709
    42         30
    43        256
    44        143
    53         83
    54         20
    55        639
    56         45
    57        113
    65         28
    66         16
    67        425
    68         61
    69        999
    70         50
    71         58
    77         73
    78         20
    79        190
    80         41
    81        495
    82        130
    83        283
    84         30
    85         25
    91        156
    92         28
    93        323
    94         56
    95        639
    96        106
    97        121
    98          8
    99         10
   105        180
   106         48
   107        390
   108        106
   109        425
   110         76
   111         76
   115         16
   117         36
   118         13
   119        210
   120         26
   121        350
   122        108
   123        346
   124         50
   125         41
   126         13
   128         11
   129         28
   131         51
   132         21
   133        133
   134         40
   135        210
   136         98
   137        916
   138        245
   139         70
   140         21
   143         23
   144         10
   145         70
   146         20
   147        113
   148         48
   149        163
   150         58
   151         95
   152         76
   153         31
   157         16
   159         66
   160         20
   161        111
   162         30
   163        116
   164         26
   165         48
   166         10
   172         21
   174         56
   175        163
   176         90
   177         23
   178         86
   179         16
   180         73
   185         20
   187         55
   188         16
   189        103
   190         36
   191         91
   192         26
   193         30
   199          6
   201         33
   202         18
   203         81
   204         26
   205        118
   206         46
   207         25
   213         13
   215         31
   216         10
   217         45
   218         33
   219         30
   220         11
   227         13
   229         33
   230         10
   231         31
   232         10
   233         10
   241         13
   243         20
   245         23
   246         10
   248         20
   255         11
   257         16
   259         81
   260         23
   261         13
   281         16
   282         11
   283         41
   284         73
   285         21
   299         10
   300         13
   311         10
   313         91
   314         21
   325         20
   326          8
   327         30
   328          8
   329         16
   340         10
   341         18
   342         16
   343        145
   344         95
   345         21
   354          8
   355         75
   356         23
   369         30
   370         21
   383         20
   393         33
   394         11
   395         10
   396         10
   397         10
   407         41
   411        778
   412        280
   413         48
   426        563
   427        180
   428         43