##TITLE=Library Entry 56199
##JCAMP-DX=Revision 4.10 
##DATA TYPE=MASS SPECTRUM
##SAMPLE DESCRIPTION=V.G. Zaikin, TIPS RAS, Moscow, Russia
##NAMES=HP
##CAS NAME=Cyclopropanecarboxamide, N-cycloheptyl
##MOLFORM=C11H19NO
##CAS REGISTRY NO=350698-94-1
##MP= -300
##BP= -300
##MW= 181
##$RETENTION INDEX=0
##$CONDENSED SPECTRUM=NO
##NPOINTS= 83
##XYDATA=(XY..XY) 1 
    26         26
    27        159
    28        170
    29        105
    30         75
    31          5
    36         13
    37         13
    38         32
    39        416
    40         75
    41        948
    42        119
    43        229
    44        131
    45          7
    50          7
    51         18
    52         13
    53         47
    54         95
    55        255
    56        676
    57         86
    58         13
    59         39
    60         11
    63          5
    65          9
    66         15
    67         93
    68        109
    69        989
    70        218
    71         27
    72         65
    73          7
    75          5
    77          9
    78          8
    79         13
    80         13
    81         76
    82         31
    83         31
    84         56
    85         21
    86        999
    87         58
    88          5
    91          7
    93          7
    94         11
    95         35
    96         78
    97         39
    98         49
    99         39
   100          4
   107          4
   108          4
   110         42
   111         52
   112        151
   113        127
   114          8
   122         29
   123         11
   124        223
   125         32
   126         19
   127          7
   138         45
   139         19
   140         15
   152         27
   153         15
   164          8
   166         35
   167          4
   180         11
   181        103
   182         15