##TITLE=Library Entry 64698
##JCAMP-DX=Revision 4.10 
##DATA TYPE=MASS SPECTRUM
##SAMPLE DESCRIPTION=A.A.Kutin, Moscow, Russia
##NAMES=HP
##CAS NAME=Pyrrolo[2,3-b]quinoxaline, 1-benzyl-3-methylsulfonyl-2-phenyl-
##MOLFORM=C24H19N3O2S
##CAS REGISTRY NO=350699-99-9
##MP= -300
##BP= -300
##MW= 413
##$RETENTION INDEX=0
##$CONDENSED SPECTRUM=NO
##NPOINTS= 183
##XYDATA=(XY..XY) 1 
    33         21
    34          1
    37          4
    39         56
    40         51
    41         11
    43          5
    44          8
    45         13
    46          4
    47          1
    49          1
    51         64
    52          6
    53          2
    55          3
    56          1
    57          2
    58          0
    60          0
    61          8
    63         66
    65        137
    67          0
    69          1
    70          2
    71          0
    73          0
    74          4
    75         21
    77         49
    79          7
    80          1
    81          1
    82          0
    83          0
    84          0
    85          2
    86          3
    89         60
    91        999
    92        163
    94          1
    97          1
    99          1
   100          6
   102         32
   103         18
   104          3
   105          3
   106          1
   108          1
   109          0
   110          0
   111          1
   112          2
   113          4
   114          8
   115         20
   116          5
   117          2
   119          0
   121          1
   123          1
   124          0
   125          0
   126          3
   127         10
   128         19
   129          7
   130          1
   132          0
   134          0
   135          4
   138          3
   140          5
   141          3
   142          0
   143          1
   144          1
   145          0
   146          0
   148          0
   151          1
   152          2
   153          4
   154          0
   155          0
   159          0
   160          1
   161          2
   163          0
   164          2
   165          5
   166          9
   167         12
   171          0
   174          0
   175          3
   176          1
   177          2
   178          1
   179          0
   187          0
   188          1
   189          3
   190          4
   191          1
   192          0
   194          1
   201          1
   202          1
   203          2
   204          2
   205          1
   206          2
   207          1
   215          4
   216          5
   217          3
   218          3
   219          9
   220          0
   228          0
   229          3
   230          7
   231         27
   232          5
   233          0
   241          1
   242          3
   243          7
   244          7
   245          2
   246          5
   247          1
   254          0
   255          2
   256         19
   257         13
   258         43
   260          0
   270          0
   272          0
   274          0
   275          0
   288          0
   290          1
   304          1
   305          1
   306          1
   319          1
   320          0
   322          1
   330          1
   331          5
   332         18
   334        194
   335        122
   336         29
   337          3
   346          2
   347         13
   348         21
   350         11
   351          1
   377          0
   380          4
   381          9
   382          3
   383          0
   396          1
   397          0
   398          3
   399          0
   408          0
   409          1
   410          2
   412         75
   413        189
   414         50
   415         12
   416          2