##TITLE=Library Entry 80934
##JCAMP-DX=Revision 4.10 
##DATA TYPE=MASS SPECTRUM
##SAMPLE DESCRIPTION=A.A.Kutin, Moscow, Russia
##NAMES=HP
##CAS NAME=Benzaldehyde, 3,4-methylenedioxy-, 3,4-dimethylphenoxyacetyl hydr
azone
##MOLFORM=C18H18N2O4
##CAS REGISTRY NO=350611-98-2
##MP= -300
##BP= -300
##MW= 326
##$RETENTION INDEX=0
##$CONDENSED SPECTRUM=NO
##NPOINTS= 92
##XYDATA=(XY..XY) 1 
    34         19
    36          9
    37         13
    38         73
    39        222
    40          3
    41         98
    42        107
    43         91
    44         12
    45          7
    50        172
    51        211
    52         78
    53        112
    54         15
    55         53
    56         10
    57         18
    58          5
    60         14
    61         12
    62         92
    63        207
    64         57
    65        276
    66         37
    67         23
    69          5
    70          7
    71          6
    74         45
    75         50
    76        392
    77        717
    78        332
    79        432
    80        106
    81          9
    83          5
    88          4
    89         42
    90         46
    91        316
    92         62
    93         61
    94         12
    95          6
   102         24
   103        263
   104        172
   105        999
   106        168
   107        290
   108         42
   109         12
   117          9
   118         20
   119         39
   120         70
   121        764
   122        315
   123         50
   132         13
   133        237
   134        233
   135        480
   136        117
   137        121
   138          6
   146        167
   147        465
   148        376
   149        277
   150         31
   160         19
   161         18
   162         96
   163        231
   164         62
   165         16
   175         49
   176          7
   177        102
   179        243
   180         24
   191         41
   205        212
   206         18
   267          3
   326        451
   327         93