##TITLE=Library Entry 51232
##JCAMP-DX=Revision 4.10 
##DATA TYPE=MASS SPECTRUM
##SAMPLE DESCRIPTION=A.HAAS RUHR UNIVERSITY, BOCHUM, GERMANY, F.R.G.
##NAMES=HP
##CAS NAME=Carbonimidic dichloride, [(chlorodifluoromethyl)dithio]-
##MOLFORM=C2Cl3F2NS2
##CAS REGISTRY NO=35075-14-0
##MP= -300
##BP= -300
##MW= 245
##$RETENTION INDEX=0
##$CONDENSED SPECTRUM=NO
##NPOINTS= 14
##XYDATA=(XY..XY) 1 
    31        155
    35         89
    44         82
    47         31
    50         86
    61        832
    63        723
    76         20
    82        999
    85         21
    93          8
   149          8
   160          5
   245          6