##TITLE=Library Entry 107887
##JCAMP-DX=Revision 4.10 
##DATA TYPE=MASS SPECTRUM
##SAMPLE DESCRIPTION=A.A.Kutin, Moscow, Russia
##NAMES=HP
##CAS NAME=1,3-Cyclohexanedione, 2-(2,2,,6,6-tetramethyl-4piperidyl)aminomet
hylene-5-phenyl-
##MOLFORM=C22H30N2O2
##CAS REGISTRY NO=350713-98-3
##MP= -300
##BP= -300
##MW= 354
##$RETENTION INDEX=0
##$CONDENSED SPECTRUM=NO
##NPOINTS= 181
##XYDATA=(XY..XY) 1 
    33          2
    36          0
    37          0
    39          9
    41         45
    42         64
    43         17
    44         12
    45          0
    49          0
    51          4
    53          7
    55         42
    56         13
    58        197
    60          0
    61          0
    63          1
    65          5
    67         15
    68          8
    69         10
    70         12
    71          8
    72          1
    73          0
    74          0
    75          1
    77          9
    78          8
    79          7
    80          6
    81          7
    82         21
    83         10
    84         14
    85          1
    86          0
    89          2
    91         28
    92         11
    93          4
    94          8
    95          6
    96         16
    98         93
    99        104
   100          5
   103         10
   104         11
   106         31
   107         35
   108          9
   109          9
   110         20
   111          3
   112          9
   113          2
   115          5
   116          1
   117          3
   118          1
   119          0
   120          2
   124        999
   125         66
   126          9
   127          1
   128          1
   129          1
   131          7
   132          1
   133          0
   134          1
   135          1
   136          4
   138         20
   139         13
   141        163
   142         11
   143          0
   144          0
   145          0
   146          0
   147          0
   148          0
   149          0
   150          1
   151          0
   152          1
   153          0
   154          0
   155          1
   156          2
   157          0
   158          0
   159          0
   160          1
   161          1
   162          0
   163          0
   164          0
   165          0
   166          0
   167          0
   168          0
   169          8
   171          0
   172          0
   173          0
   176          0
   178          0
   182          0
   184          0
   185          0
   186          0
   188          0
   191          0
   192          0
   193          0
   194          0
   195          0
   198          0
   199          0
   200          0
   201          0
   205          0
   206          0
   212          0
   213          0
   214          3
   216          8
   217          0
   222          0
   224          0
   226          0
   228          0
   229          1
   230          0
   235          0
   237          0
   238          0
   239          1
   240          1
   241          4
   242          6
   243          0
   244          0
   254          0
   256         11
   257          5
   258          0
   259          0
   266          0
   268          0
   278          0
   279          0
   280          1
   281          1
   282          9
   283          2
   284          0
   294          0
   296          1
   297          5
   298          1
   299          1
   305          0
   306          0
   323          0
   336          0
   337          1
   339         41
   340          8
   341          1
   350          0
   351          0
   352          0
   354         57
   355         12
   356          1