##TITLE=Library Entry 19530
##JCAMP-DX=Revision 4.10 
##DATA TYPE=MASS SPECTRUM
##SAMPLE DESCRIPTION=Div. of Experiment Therapeutics WRAIR, WRAMC, Washingto
n DC 20307
##NAMES=HP
##CAS NAME=6-[5-Cyclohexylpentyl]-7-hydroxy-5,8-quinolinedione
##MOLFORM=C20H25NO3
##CAS REGISTRY NO=35073-64-4
##MP= -300
##BP= -300
##MW= 327
##$RETENTION INDEX=0
##$CONDENSED SPECTRUM=NO
##NPOINTS= 125
##XYDATA=(XY..XY) 1 
    41        756
    43        188
    44          3
    45          4
    50         31
    51         76
    52         48
    53        107
    55        999
    56         35
    57         16
    60          5
    61          1
    63         27
    64          9
    65         38
    67         94
    69         63
    71          9
    73          9
    74          1
    75          2
    76         42
    77        105
    78        101
    79         91
    80         11
    81         38
    83        133
    84          8
    85          1
    87          5
    89         22
    90         14
    91         23
    92          8
    93          9
    94          6
    95         15
    97         11
   100          1
   101          5
   102         16
   103         21
   104         99
   105         97
   106         32
   107          6
   115         21
   117        106
   118         15
   119          3
   122          5
   128         13
   130         26
   132         58
   133         11
   134          8
   135          1
   141          7
   142          9
   143          6
   144         13
   145         12
   146         21
   148         39
   149          2
   154          7
   156         19
   157          2
   158          8
   160         90
   161         40
   162         59
   163          9
   167          1
   170         10
   172          9
   173          6
   174         32
   176         75
   177         48
   178         16
   183          3
   184          6
   186         18
   189        239
   190         87
   191        466
   192         46
   193          6
   198          7
   199          3
   200         17
   202        261
   203         40
   204         72
   205         31
   206          2
   212          9
   213          2
   214         44
   216        125
   217         21
   218         39
   219          9
   226          5
   228         11
   230         47
   231         16
   232         23
   233          7
   244         69
   245         17
   246         13
   256          1
   284          4
   299          6
   309          3
   310         33
   311          5
   326         34
   327        282
   328         56
   329         10