##TITLE=Library Entry 49711
##JCAMP-DX=Revision 4.10 
##DATA TYPE=MASS SPECTRUM
##SAMPLE DESCRIPTION=NIST Mass Spectrometry Data Center, 1994
##NAMES=HP
##CAS NAME=Cyclohexane, 1,4-dibromo-
##MOLFORM=C6H10Br2
##CAS REGISTRY NO=35076-92-7
##MP= -300
##BP= -300
##MW= 240
##$RETENTION INDEX=0
##$CONDENSED SPECTRUM=NO
##NPOINTS= 68
##XYDATA=(XY..XY) 1 
    12          0
    14          3
    15         22
    18          0
    24          0
    26         40
    27        160
    28          0
    29         31
    30          0
    37         10
    38         36
    39        204
    40         43
    41        190
    42          8
    43          0
    49          6
    50         33
    51         48
    52         27
    53        116
    54         36
    55         43
    56          2
    60          0
    61          1
    62          2
    63          8
    65         26
    66         17
    67         28
    68          1
    73          1
    74          3
    75          1
    77         38
    79        188
    81        999
    82         74
    83          4
    91          0
    93          3
    94          0
    95          3
   104          0
   105          2
   106          4
   107          5
   108          4
   109          4
   117          1
   119         14
   121         13
   122          0
   131          0
   132          0
   133          2
   134          0
   135          1
   145          0
   158          0
   161        186
   163        183
   164         11
   240          4
   242          9
   244          4