##TITLE=Library Entry 62172
##JCAMP-DX=Revision 4.10 
##DATA TYPE=MASS SPECTRUM
##SAMPLE DESCRIPTION=A.A.Kutin, Moscow, Russia
##NAMES=HP
##CAS NAME=Acetamide, N-benzyl-2-cyano-2-(4-methylcyclohexylidene)-
##MOLFORM=C17H20N2O
##CAS REGISTRY NO=350795-36-7
##MP= -300
##BP= -300
##MW= 268
##$RETENTION INDEX=0
##$CONDENSED SPECTRUM=NO
##NPOINTS= 61
##XYDATA=(XY..XY) 1 
    33         39
    34         12
    40         26
    41         60
    42         12
    44         38
    51         43
    52         16
    53         16
    55         33
    57          0
    63         13
    65        130
    67         12
    69          6
    77         52
    78         29
    79         37
    80          9
    81          4
    89         13
    91        999
    93         89
    94         11
    95          8
   104         22
   106         76
   107         14
   108          3
   116          0
   117          1
   119         10
   120         14
   121         22
   122          2
   132          3
   133          6
   135        140
   136          9
   149          1
   161         11
   162          4
   174         15
   177         61
   178          4
   183          9
   197          6
   198          3
   200          1
   209          2
   211         53
   212          5
   224         40
   225         16
   226         18
   239          9
   251          0
   253          6
   268        126
   269         17
   270          1