##TITLE=Library Entry 54532
##JCAMP-DX=Revision 4.10 
##DATA TYPE=MASS SPECTRUM
##SAMPLE DESCRIPTION=Chemical Concepts
##NAMES=HP
##CAS NAME=4-(3,4-Dimethoxyphenyl)-6-phenyl-2-piperidinopyrimidine
##MOLFORM=C23H25N3O2
##CAS REGISTRY NO=350711-64-7
##MP= -300
##BP= -300
##MW= 375
##$RETENTION INDEX=0
##$CONDENSED SPECTRUM=NO
##NPOINTS= 110
##XYDATA=(XY..XY) 1 
    39        167
    41        299
    42         78
    43         27
    44         36
    50         69
    51        105
    52         42
    53         52
    55        217
    56         79
    62         28
    63         42
    65         45
    67         80
    68         22
    75         92
    76        114
    77        207
    79         66
    84        999
    88         33
    89         51
    90         28
    91         34
    95         23
    96         21
   101         68
   102        106
   103         95
   104         61
   109         42
   110         25
   115         79
   116         64
   117         49
   119         22
   122         30
   123         43
   124         49
   127         30
   128         73
   129        155
   131         65
   135         45
   137         25
   138         48
   139         27
   142         64
   144         47
   145         37
   146         23
   151        112
   152         50
   153         29
   158         31
   161         70
   163         21
   164         27
   165         49
   167         58
   173        129
   177         22
   178         30
   179         26
   180         44
   187        240
   189         28
   190         27
   204         22
   205         43
   206         29
   218         35
   231         23
   232         24
   233         27
   234         37
   246         35
   247         43
   248         27
   259         23
   260         31
   261         75
   262         26
   274         22
   275         34
   276         43
   277         78
   288         22
   291        121
   292        178
   293         64
   304         31
   306         67
   307         38
   316         51
   317         25
   319        292
   320        144
   321         35
   330         88
   332        219
   333         72
   334         31
   346        317
   347         73
   358         44
   360        107
   375        826
   376        120