##TITLE=Library Entry 1647
##JCAMP-DX=Revision 4.10 
##DATA TYPE=MASS SPECTRUM
##SAMPLE DESCRIPTION=Humboldt-Universitat zu Berlin, Department of Chemistry
, Analytical Group
##NAMES=HP
##CAS NAME=4-Chloro-5-(2-chloro-1H-indol-3-yl)-2-vinyl-1,3-oxazole
##MOLFORM=C13H8Cl2N2O
##CAS REGISTRY NO=350816-94-3
##MP= -300
##BP= -300
##MW= 278
##$RETENTION INDEX=0
##$CONDENSED SPECTRUM=NO
##NPOINTS= 203
##XYDATA=(XY..XY) 1 
    12          8
    13          6
    14         15
    15         29
    16          4
    17          9
    18         20
    19          1
    25         21
    26        189
    27        746
    28        108
    29         41
    30          4
    31         32
    32         22
    35         19
    36         27
    37        119
    38        222
    39        999
    40         49
    41         15
    42          4
    43          9
    44          8
    45          4
    47        132
    48         10
    49         61
    50        107
    51        111
    52         83
    53         43
    54        108
    55        445
    56         19
    58         31
    59          2
    60          7
    61         70
    62        182
    63        154
    64        153
    65         27
    66         45
    67         11
    68          4
    69          1
    71          9
    72         17
    73        103
    74        146
    75        158
    76        102
    77         65
    78         10
    79          1
    81         18
    82          9
    84         21
    85         44
    86         71
    87        117
    88        116
    89         50
    90         14
    91          3
    95         11
    96         22
    97         63
    98         53
    99        177
   100        117
   101         99
   102         27
   103         23
   104          3
   106          3
   107         28
   108         28
   109         20
   110         15
   111         21
   112         16
   114        170
   115         58
   116          6
   117          1
   119          1
   120          5
   121         17
   123        412
   124         61
   125        168
   126        231
   127        147
   128         35
   129          4
   130          2
   131          2
   132          2
   133          6
   134         10
   135         31
   136          8
   137         10
   138          6
   139         43
   140         28
   141          9
   142          2
   143         13
   144          2
   147          2
   148          7
   149         17
   150        233
   151         42
   152        171
   153         96
   154        366
   155         47
   156          3
   157          2
   159          2
   160         11
   161         61
   162         99
   163         32
   164         35
   165          6
   166          2
   168          1
   169          2
   170          2
   171          1
   172          1
   173          1
   174          3
   175          7
   176         10
   178        166
   179        154
   180        199
   181         27
   182          9
   183          1
   184          1
   186          6
   187         23
   188        204
   189        127
   190         81
   191         40
   192          7
   193          1
   195          1
   196         14
   197          7
   198         11
   199          3
   200          2
   201          1
   202          0
   203          8
   204          1
   205          3
   206          0
   207          4
   208         22
   209          4
   212          2
   213         10
   215        403
   216         63
   217        133
   218         17
   219          1
   223         22
   224          9
   225         14
   226          5
   227          3
   228          1
   242          1
   243         13
   244          3
   245          4
   246          0
   249         24
   250         26
   251         17
   252         16
   253          4
   254          3
   255          0
   278        154
   279         31
   280        100
   281         17
   282         18
   283          2