##TITLE=Library Entry 5498
##JCAMP-DX=Revision 4.10 
##DATA TYPE=MASS SPECTRUM
##SAMPLE DESCRIPTION=Humboldt-Universitat zu Berlin, Department of Chemistry
, Analytical Group
##NAMES=HP
##CAS NAME=2-Chloro-3-(4-chloro-2-methyl-oxazol-5-yl)-1H-indole
##MOLFORM=C12H8Cl2N2O
##CAS REGISTRY NO=350816-93-2
##MP= -300
##BP= -300
##MW= 266
##$RETENTION INDEX=0
##$CONDENSED SPECTRUM=NO
##NPOINTS= 159
##XYDATA=(XY..XY) 1 
    12         14
    13         26
    14        122
    15        527
    17          5
    18         11
    26        295
    27        553
    28        120
    29         19
    31          5
    35         38
    36         19
    37         48
    38         85
    39        173
    40         49
    41         55
    42        403
    43        999
    44         34
    45          6
    47        200
    48         18
    49         85
    50        138
    51        199
    52        224
    53         25
    54         45
    55          5
    58         41
    60         24
    61        100
    62        516
    63        164
    64        164
    65         28
    66          6
    67         11
    68          7
    71          9
    72         19
    73        104
    74        116
    75        153
    76         91
    77         50
    78         13
    81         25
    82         12
    84         29
    85         55
    86        115
    87        160
    88        157
    89        108
    90         25
    91         20
    95          6
    96         22
    97         60
    98         48
    99        153
   100         90
   101         46
   102         23
   103          5
   108         17
   109         20
   110         13
   111         23
   112         16
   113         22
   114        164
   115        101
   116         16
   119         18
   120         16
   121         12
   123        301
   124         55
   125        115
   126        200
   127         85
   128         13
   133         29
   134         22
   135         35
   136          6
   137         12
   138          5
   139          8
   140         48
   141         38
   142         57
   143         16
   148          7
   149         38
   150        164
   151         39
   152         83
   153         48
   154          8
   160         11
   161         55
   162        130
   163         29
   164         43
   165          7
   166          7
   167         34
   168         85
   169         13
   170          6
   174          5
   176        141
   177        144
   178        179
   179         57
   180         40
   181          5
   187         14
   188         14
   189         35
   190         14
   191          9
   192          3
   195          4
   196         16
   197         29
   198         14
   199         17
   200          6
   201         11
   203        429
   204         62
   205        148
   206         19
   223         19
   224         10
   225         14
   226          7
   227          3
   231         11
   232          4
   233          4
   234          2
   237         77
   238         10
   239         49
   240          7
   241          8
   266        230
   267         46
   268        147
   269         27
   270         25
   271          4