##TITLE=Library Entry 10467
##JCAMP-DX=Revision 4.10 
##DATA TYPE=MASS SPECTRUM
##SAMPLE DESCRIPTION=Exported from NIST MS Search
##NAMES=HP
##CAS NAME=2,4-Pentanedione, 3-(2-propenyl)-
##MOLFORM=C8H12O2
##CAS REGISTRY NO=3508-78-9
##MP= -300
##BP= -300
##MW= 140
##$RETENTION INDEX=0
##$CONDENSED SPECTRUM=NO
##NPOINTS= 23
##XYDATA=(XY..XY) 1 
    39         50
    41         50
    42         20
    43        999
    44         30
    51         20
    53         20
    55         50
    69         30
    71         30
    77         30
    79         50
    80         20
    81         20
    82         20
    83         80
    95         20
    97        200
    98         70
   107         50
   122         30
   125         30
   140         50