##TITLE=Library Entry 58956
##JCAMP-DX=Revision 4.10 
##DATA TYPE=MASS SPECTRUM
##SAMPLE DESCRIPTION=A.A.Kutin, Moscow, Russia
##NAMES=HP
##CAS NAME=Benzenepropanoic acid, .alpha.-(diethoxyphosphinyl)-, ethyl ester
##MOLFORM=C15H23O5P
##CAS REGISTRY NO=35085-32-6
##MP= -300
##BP= -300
##MW= 314
##$RETENTION INDEX=0
##$CONDENSED SPECTRUM=NO
##NPOINTS= 127
##XYDATA=(XY..XY) 1 
    33        297
    34         44
    36          6
    40        712
    41         29
    42         19
    44        155
    45         22
    47          5
    48          1
    50         13
    51         33
    52          9
    53          3
    54          1
    55         30
    56         11
    57         22
    58          1
    62          1
    63         21
    65        157
    66          7
    67          4
    68          2
    69          5
    70         11
    71          4
    75          5
    77         86
    78         36
    79         31
    81         88
    82         84
    83         48
    84          2
    89         30
    91        999
    92         78
    93         16
    94         10
    95          5
    97          1
    99          5
   101          2
   102         39
   103         78
   104         50
   105         43
   106          8
   107         31
   108          1
   109         40
   110         45
   111        125
   112          6
   113          2
   115        127
   116         31
   117         29
   118         12
   119          9
   120          7
   121          8
   123          2
   124          3
   125          1
   128          4
   129         14
   131        181
   132         14
   133          4
   135         19
   137          1
   138        118
   139         68
   143          4
   147         10
   148          2
   149         29
   152          2
   153          2
   159          9
   163          2
   165         19
   167         14
   169          2
   175          1
   177        193
   178         38
   179         18
   180         53
   181         10
   182          1
   183         18
   184          6
   185         26
   189         16
   191         49
   192         67
   193         42
   194          9
   195         10
   196          9
   197          4
   211         32
   212          3
   213         23
   214          2
   215          7
   217          7
   219          9
   220         29
   221        111
   222         17
   223          3
   228          4
   239         28
   241         88
   242          9
   267        272
   268         36
   269          7
   311          1
   313        250
   314         50
   315          4