##TITLE=Library Entry 24522
##JCAMP-DX=Revision 4.10 
##DATA TYPE=MASS SPECTRUM
##SAMPLE DESCRIPTION=Chemical Concepts
##NAMES=HP
##CAS NAME=Heptadecane, 1-bromo-
##MOLFORM=C17H35Br
##CAS REGISTRY NO=3508-00-7
##MP= -300
##BP= -300
##MW= 318
##$RETENTION INDEX=2059
##$CONDENSED SPECTRUM=NO
##NPOINTS= 169
##XYDATA=(XY..XY) 1 
    26          1
    27         91
    28         13
    29        231
    30          5
    38          0
    39         45
    40          8
    41        499
    42        117
    43        847
    44         33
    45          0
    51          1
    52          1
    53         24
    54         36
    55        518
    56        166
    57        999
    58         43
    59          1
    60          0
    65          2
    66          1
    67         44
    68         29
    69        358
    70        105
    71        586
    72         27
    73          0
    77          3
    78          0
    79          4
    80          0
    81         15
    82         29
    83        231
    84         57
    85        344
    86         30
    88          1
    89          0
    91          1
    92          0
    93          1
    94          0
    95          9
    96         11
    97        140
    98         38
    99        109
   100          7
   105          1
   106          0
   107         11
   108          0
   109         12
   110          3
   111         53
   112         19
   113         69
   114          6
   115          0
   118          0
   119          0
   120          1
   121          6
   122          0
   123          6
   124          2
   125         15
   126         13
   127         50
   128          4
   133          1
   134          2
   135        621
   136         29
   137        570
   138         23
   139          5
   140          8
   141         46
   142          3
   148          9
   149        118
   150         14
   151        112
   152          5
   153          1
   154          4
   155         38
   156          5
   157          0
   161          0
   162          5
   163         24
   164          4
   165         20
   166          1
   167          2
   168          2
   169         26
   170          4
   171          0
   175          0
   176          1
   177         11
   178          1
   179         10
   180          0
   181          0
   182          2
   183         19
   184          2
   185          0
   190          0
   191          7
   192          0
   193          6
   194          0
   195          0
   196          0
   197          7
   198          1
   203          1
   204          1
   205          4
   206          1
   207          4
   210          2
   218          1
   219          3
   220          1
   221          2
   232          1
   233          1
   234          0
   235          1
   238          1
   239        122
   240         20
   241          3
   246          1
   247          1
   248          1
   249          2
   260          1
   261          4
   262          1
   263          3
   275          2
   276          1
   277          1
   278          0
   288          0
   289          1
   290          0
   291          1
   304          0
   316          0
   317          1
   318         96
   319         19
   320         92
   321         21
   322          2