##TITLE=Library Entry 31621
##JCAMP-DX=Revision 4.10 
##DATA TYPE=MASS SPECTRUM
##SAMPLE DESCRIPTION=Humboldt-Universitat zu Berlin, Department of Chemistry
, Analytical Group
##NAMES=HP
##CAS NAME=2-Chloro-3-[4-chloro-2-(2-chloroethyl)-1,3-oxazol-5-yl]-1H-indol-
1-carboxylic acid, 2,2,2-trichloroethyl ester
##MOLFORM=C16H10Cl6N2O3
##CAS REGISTRY NO=350816-90-9
##MP= -300
##BP= -300
##MW= 488
##$RETENTION INDEX=0
##$CONDENSED SPECTRUM=NO
##NPOINTS= 213
##XYDATA=(XY..XY) 1 
    12         17
    13         11
    14         40
    15         25
    16         15
    17         18
    18         55
    24          6
    25         40
    26        387
    27        810
    28        171
    29        120
    30         60
    31         31
    35         63
    36         65
    37         41
    38         88
    39        519
    40        110
    41         20
    42         28
    43         90
    44         67
    45         20
    47        126
    48         50
    49        342
    50         93
    51        180
    52         70
    53         16
    54         19
    55        201
    56         10
    57          9
    60        115
    61        556
    62        187
    63        999
    64         81
    65        256
    66         13
    71          6
    72         11
    73         38
    74         65
    75        111
    76         60
    77         30
    78          6
    80          6
    82         40
    83         24
    84         42
    85         39
    86         50
    87        146
    88         99
    89         50
    91        267
    92         13
    93         80
    95        959
    96        366
    97        643
    98        256
    99        274
   100        122
   101         32
   102         18
   108         16
   109         22
   110         13
   111         26
   112         17
   113         34
   114        417
   115         48
   117         99
   119         92
   121         40
   122         13
   123         40
   124         32
   125         53
   126        190
   127         57
   128         20
   129          7
   131        470
   133        416
   134         24
   135        217
   136         20
   137         45
   138         19
   139         24
   140         96
   141         23
   147          5
   148         19
   149        103
   150         40
   151         48
   152        109
   153         75
   154         72
   155         15
   160         24
   161        210
   162         57
   163         71
   164         20
   165         12
   166         10
   167          5
   168          6
   169          5
   170          7
   173          5
   174         16
   175        122
   176         87
   177        121
   178         71
   179         40
   180         19
   184          6
   186          8
   187         85
   188         45
   189         61
   190         37
   191         10
   192          6
   196        136
   197         21
   198         94
   199         14
   200         18
   201         14
   202          9
   203          8
   204          5
   205          4
   208          6
   210          4
   213         18
   214          7
   215         26
   216          7
   217          8
   222          5
   223         21
   224         32
   225         17
   226         20
   227          6
   228          5
   236         10
   237          2
   238          5
   243          4
   249         18
   250          4
   251         26
   252          5
   253         11
   264         10
   265         36
   266         11
   267         20
   268          5
   269          4
   277         58
   278         11
   279         47
   280          9
   281         13
   282          2
   285          6
   287          6
   313        303
   314         80
   315        289
   316         74
   317        104
   318         25
   319         11
   320          3
   341          5
   343          5
   345          1
   440          1
   442          1
   444          0
   453          2
   454          0
   455          4
   456          0
   457          2
   459          1
   488         36
   489          8
   490         69
   491         12
   492         59
   493         10
   494         24
   495          4
   496          6