##TITLE=Library Entry 114963
##JCAMP-DX=Revision 4.10 
##DATA TYPE=MASS SPECTRUM
##SAMPLE DESCRIPTION=NIST Mass Spectrometry Data Center
##NAMES=HP
##CAS NAME=4-Pyridylthioacetmorpholide
##MOLFORM=C11H14N2OS
##CAS REGISTRY NO=35081-79-9
##MP= -300
##BP= -300
##MW= 222
##$RETENTION INDEX=0
##$CONDENSED SPECTRUM=NO
##NPOINTS= 171
##XYDATA=(XY..XY) 1 
    15         32
    16          1
    19          5
    25          1
    26         37
    27        191
    29        136
    30         98
    31         29
    32          3
    33          3
    34          3
    35          2
    37         12
    38         43
    39        307
    40         32
    41        244
    42        154
    43        494
    44         68
    45        380
    46         28
    47         41
    48          3
    49          7
    50         95
    51        293
    52        112
    53         43
    54        120
    55         86
    56        202
    57         95
    58        167
    59        175
    60        222
    61         48
    62         38
    63        135
    64         81
    65        384
    66         51
    67         27
    68         39
    69         68
    70         43
    71        181
    72        145
    73         18
    74         36
    75         26
    76         43
    77         75
    78        126
    79         58
    80         37
    81         30
    82         54
    83         26
    84         55
    85         23
    86        894
    87         54
    88        151
    89         45
    90         56
    91        101
    92        364
    93        535
    94         48
    95         21
    96         13
    97         18
    98         11
    99          3
   100         23
   101          5
   102        159
   103         28
   104        141
   105        111
   106        206
   107         67
   108         70
   109        272
   110         85
   111         23
   112        106
   113          9
   114         13
   115          2
   116         19
   117        158
   118        197
   119        904
   120        137
   121         24
   122         71
   123         36
   124         50
   125          7
   126          3
   128          4
   129         15
   130        999
   131        227
   132        118
   133         87
   134         73
   135        429
   136        818
   137        131
   138         74
   139          8
   140          2
   142          2
   143         10
   144         34
   145        224
   146         50
   147         46
   148         46
   149         27
   150         44
   151         54
   152         14
   153          5
   154          1
   156          2
   157          7
   158          9
   159         50
   160         14
   161         69
   162         28
   163         67
   164         17
   165         22
   166          4
   167          1
   169          1
   171          2
   173          2
   174          3
   175          5
   176          4
   177         54
   178         24
   179         81
   180         39
   181          7
   182          2
   187          6
   188         10
   189        448
   190         66
   191        220
   192         27
   193         15
   194          4
   195         13
   196          1
   203          1
   205          1
   207          2
   221         65
   222        831
   223        120
   224         47
   225          5