##TITLE=Library Entry 82121
##JCAMP-DX=Revision 4.10 
##DATA TYPE=MASS SPECTRUM
##SAMPLE DESCRIPTION=A.A.Kutin, Moscow, Russia
##NAMES=HP
##CAS NAME=Methanone, [6-(2-hydroxyphenyl)-4-methyl-1,5,2-dioxazinan-2-yl](p
henyl)-
##MOLFORM=C17H17NO4
##CAS REGISTRY NO=350994-34-2
##MP= -300
##BP= -300
##MW= 299
##$RETENTION INDEX=0
##$CONDENSED SPECTRUM=NO
##NPOINTS= 200
##XYDATA=(XY..XY) 1 
    33          0
    34          0
    35          0
    36          1
    37          1
    38          5
    39         36
    40         12
    41         53
    42          9
    43         12
    44          5
    45          4
    46          0
    50         27
    51        100
    52         20
    53         11
    54          4
    55         11
    56          4
    57          5
    58          1
    59          4
    60          0
    61          0
    62          2
    63         11
    64         10
    65         24
    66          6
    67          3
    68          5
    69          1
    70          1
    71          1
    72          0
    73          1
    74          6
    75          8
    76         24
    77        414
    78         79
    79         27
    80          6
    81          6
    82          0
    83          3
    84          6
    85          0
    86          0
    87          0
    88          1
    89          2
    90          6
    91         33
    92         10
    93          9
    94          6
    95         10
    96          0
    97          0
    98          0
    99          0
   100          0
   101          0
   102          9
   103          6
   105        999
   107        158
   108          7
   109          1
   110          1
   111          0
   112          0
   113          0
   114          0
   115          3
   116          3
   117          6
   118         26
   119         24
   120         72
   121         43
   122         52
   123         35
   124          2
   125          0
   126          0
   127          1
   128          1
   129          0
   130          3
   131         11
   132         69
   133         41
   134         93
   135         14
   136          2
   137         44
   138          4
   139          1
   140          0
   141          0
   142          0
   143          0
   144          2
   145          6
   146          9
   147          5
   148          4
   149          2
   150          7
   151          2
   152          1
   153          0
   154          0
   155          0
   156          0
   157          0
   158          1
   159         16
   160        245
   161         47
   162         10
   163        291
   164         31
   165          3
   166          0
   167          0
   168          0
   169          0
   171          0
   172          0
   173          0
   174          0
   175          0
   176          5
   177         71
   178        108
   179         13
   180          1
   181          1
   182          0
   183          0
   185          0
   186          1
   187          0
   188          0
   189          0
   190          0
   191          0
   193          0
   194          5
   195          1
   196          0
   197          0
   198          0
   199          0
   204          0
   206          0
   208          0
   209          0
   210          0
   211          0
   212          0
   213          2
   214          0
   215          1
   216          0
   217          0
   222          0
   223          0
   225          0
   229          1
   230          0
   231          1
   232          0
   233          0
   237          0
   238          0
   239          0
   240          0
   242          1
   243          0
   263          0
   264          0
   282         76
   283         57
   284          9
   285          1
   286          0
   294          0
   296          0
   297          0
   299        488
   300         95
   301         13
   302          1
   303          0