##TITLE=Library Entry 79462
##JCAMP-DX=Revision 4.10 
##DATA TYPE=MASS SPECTRUM
##SAMPLE DESCRIPTION=A.A.Kutin, Moscow, Russia
##NAMES=HP
##CAS NAME=1,3,4-Dioxazine, perhydro-4-benzoyl-6-methyl-2-(3-pyridyl)-
##MOLFORM=C16H16N2O3
##CAS REGISTRY NO=350994-37-5
##MP= -300
##BP= -300
##MW= 284
##$RETENTION INDEX=0
##$CONDENSED SPECTRUM=NO
##NPOINTS= 130
##XYDATA=(XY..XY) 1 
    33          4
    36          0
    38         18
    39         48
    41         67
    42         12
    43         12
    44          2
    45          2
    46          0
    50         37
    51        109
    52         19
    53         16
    54          8
    55         21
    56          2
    57          3
    58          1
    59          0
    61          1
    62          8
    63         47
    64         34
    65         31
    66         13
    67          6
    68          5
    69          0
    70          0
    71          0
    72          0
    74          7
    75          9
    77        415
    78         61
    79         24
    80         22
    81          1
    82          0
    83          0
    84          1
    87          0
    88          0
    89          1
    90          4
    91         29
    92         83
    93         11
    94          4
    96          1
   103          6
   105        999
   106         91
   107         17
   108         68
   109          5
   110          0
   111          0
   112          0
   115          0
   117          9
   118         27
   119        121
   121         16
   122         17
   123          9
   124          0
   127          0
   128          0
   129          0
   130          4
   131          2
   132          4
   133          9
   134          8
   135         16
   136          5
   137          0
   139          0
   140          0
   142          0
   143          1
   144          6
   145         75
   146         44
   147          9
   149          3
   150          0
   151          0
   152          0
   154          0
   161         25
   162        160
   163        122
   164         13
   165          1
   166          1
   167          1
   168          0
   169          0
   170          0
   171          0
   177          0
   179         14
   181          1
   182          0
   183          0
   184          0
   188          0
   189          0
   195          1
   196          0
   197          0
   198          0
   211          0
   212          0
   224          0
   225          1
   227         34
   228          4
   229          0
   237          0
   240          0
   267         90
   268         17
   269          1
   284        122
   285         21
   286          3