##TITLE=Library Entry 21372
##JCAMP-DX=Revision 4.10 
##DATA TYPE=MASS SPECTRUM
##SAMPLE DESCRIPTION=Exported from NIST MS Search
##NAMES=HP
##CAS NAME=3-Furancarboxylic acid, tetrahydro-2-methyl-5-oxo-, methyl ester
##MOLFORM=C7H10O4
##CAS REGISTRY NO=35096-31-2
##MP= -300
##BP= -300
##MW= 158
##$RETENTION INDEX=0
##$CONDENSED SPECTRUM=NO
##NPOINTS= 13
##XYDATA=(XY..XY) 1 
    55        999
    59        230
    83        250
    87        270
    99        270
   111         60
   114        490
   115        260
   116        320
   127        220
   130        190
   143        100
   158         38