##TITLE=Library Entry 73095
##JCAMP-DX=Revision 4.10 
##DATA TYPE=MASS SPECTRUM
##SAMPLE DESCRIPTION=A.A.Kutin, Moscow, Russia
##NAMES=HP
##CAS NAME=Propionamide, N-(2-thiazolyl)-
##MOLFORM=C6H8N2OS
##CAS REGISTRY NO=35098-39-6
##MP= -300
##BP= -300
##MW= 156
##$RETENTION INDEX=0
##$CONDENSED SPECTRUM=NO
##NPOINTS= 72
##XYDATA=(XY..XY) 1 
    33          2
    34          4
    35          0
    36          2
    38          7
    39         11
    40         51
    41         14
    42         12
    43         12
    44         28
    45        119
    46         19
    47          6
    48          1
    50          1
    51          2
    52          3
    53         10
    55        125
    57        425
    58        126
    59         22
    60          9
    61          1
    64          2
    65          0
    66          1
    67          1
    69          3
    70          9
    71         11
    73         73
    74          3
    75          3
    76          0
    77          1
    78          0
    79          0
    80          0
    81          0
    82          1
    83          4
    84          1
    85          1
    86          3
    91          0
    92          0
    93          0
    95          0
   100        999
   101         47
   102         43
   103          1
   104          0
   105          0
   111          0
   112          0
   113          2
   119          0
   121          0
   126          2
   127         14
   128          2
   129          0
   135          0
   149          1
   154          1
   156        159
   158         16
   159          0
   160          0