##TITLE=Library Entry 88899
##JCAMP-DX=Revision 4.10 
##DATA TYPE=MASS SPECTRUM
##SAMPLE DESCRIPTION=Div. of Experiment Therapeutics WRAIR, WRAMC, Washingto
n DC 20307
##NAMES=HP
##CAS NAME=p-Fluoroisonitrosoacetanilide
##MOLFORM=C8H7FN2O2
##CAS REGISTRY NO=351-09-7
##MP= -300
##BP= -300
##MW= 182
##$RETENTION INDEX=0
##$CONDENSED SPECTRUM=NO
##NPOINTS= 84
##XYDATA=(XY..XY) 1 
    41          5
    42          2
    43         18
    44        150
    45         11
    46          2
    49          3
    50         23
    51         16
    52         17
    53          3
    54          7
    55         10
    56         19
    57        110
    58          8
    59          2
    61          9
    62         19
    63         40
    64         16
    65          6
    68         10
    69         15
    70          6
    71         10
    72        156
    73          4
    74         14
    75         66
    76          8
    77          1
    80          3
    81         28
    82         55
    83        262
    84         67
    85          5
    87          0
    88          3
    89         12
    90          9
    91         10
    92          2
    93          3
    94         11
    95        104
    96         11
    99          2
   107          0
   108         11
   109         63
   110        244
   111        999
   112         98
   113          4
   117          0
   119          2
   122         13
   123          2
   126          2
   127          9
   129          2
   135          1
   136          6
   137        158
   138         76
   139          5
   140          2
   147          6
   150         15
   151         73
   152          8
   153          3
   154          3
   163          3
   164          4
   165         81
   166          8
   180          4
   181          5
   182        857
   183        116
   184         10