##TITLE=Library Entry 88687
##JCAMP-DX=Revision 4.10 
##DATA TYPE=MASS SPECTRUM
##SAMPLE DESCRIPTION=NIST Mass Spectrometry Data Center
##NAMES=HP
##CAS NAME=Acetanilide, 4'-fluoro-
##MOLFORM=C8H8FNO
##CAS REGISTRY NO=351-83-7
##MP= -300
##BP= -300
##MW= 153
##$RETENTION INDEX=0
##$CONDENSED SPECTRUM=NO
##NPOINTS= 74
##XYDATA=(XY..XY) 1 
    15          2
    27          1
    31          4
    33          1
    37          3
    38          6
    39          9
    40          2
    41          5
    42         11
    43        192
    44          5
    45          2
    49          1
    50         12
    51         10
    52         14
    53          1
    54          2
    55          2
    56         13
    57         91
    58          6
    59          1
    61          8
    62         16
    63         33
    64         23
    65          8
    66          1
    67          1
    68          4
    69          7
    70          3
    71          1
    72          2
    73          1
    74          7
    75         26
    76          4
    77          2
    78          1
    80          2
    81         20
    82         24
    83        137
    84        131
    85         11
    87          1
    88          1
    89          6
    90          4
    91         17
    92          3
    93          1
    94          5
    95         19
    96          6
    97          2
   107          1
   108          4
   109         20
   110         47
   111        999
   112         73
   113          2
   122          3
   124          7
   137          5
   138          4
   152          2
   153        198
   154         18
   155          1