##TITLE=Library Entry 28923
##JCAMP-DX=Revision 4.10 
##DATA TYPE=MASS SPECTRUM
##SAMPLE DESCRIPTION=NIST Mass Spectrometry Data Center, 2013
##NAMES=HP
##CAS NAME=4-fluoromethamphetamine
##MOLFORM=C10H14FN
##CAS REGISTRY NO=351-03-1
##MP= -300
##BP= -300
##MW= 167
##$RETENTION INDEX=1278
##$CONDENSED SPECTRUM=NO
##NPOINTS= 98
##XYDATA=(XY..XY) 1 
    15          6
    26          1
    27          6
    28         26
    29         13
    30         69
    31          2
    32          2
    33          1
    38          2
    39         17
    40          2
    41         17
    42         45
    43         21
    44          4
    50          5
    51          8
    52          2
    53          1
    54          3
    55          2
    56         53
    57         30
    58        999
    59         43
    60          1
    61          1
    62          4
    63         11
    64          2
    65          3
    66          1
    68          2
    69          2
    70          4
    71          1
    74          2
    75         10
    76          6
    77          3
    78          1
    80          1
    81          6
    82          2
    83         45
    84          3
    85          1
    86          1
    87          1
    88          1
    89          6
    90          1
    91          2
    92          1
    93          1
    94          2
    95          5
    96          8
    97          2
    98          1
   101          7
   102          1
   103          3
   104          1
   105          1
   106          1
   107         15
   108          7
   109        115
   110         10
   115          6
   116          1
   117          4
   118          1
   120          2
   121          4
   122          5
   123          2
   124          1
   130          1
   131          1
   132          1
   133         12
   134          4
   135         14
   136          8
   137         13
   138          1
   148          2
   149          1
   150          5
   151          5
   152         18
   153          2
   164          1
   166          5
   167          1