##TITLE=Library Entry 60433
##JCAMP-DX=Revision 4.10 
##DATA TYPE=MASS SPECTRUM
##SAMPLE DESCRIPTION=V.G.Zaikin,TIPS,Russian Acad.Sci.Moscow
##NAMES=HP
##CAS NAME=Acetic acid, trifluoro-, phenylmethyl ester
##MOLFORM=C9H7F3O2
##CAS REGISTRY NO=351-70-2
##MP= -300
##BP= -300
##MW= 204
##$RETENTION INDEX=988
##$CONDENSED SPECTRUM=NO
##NPOINTS= 56
##XYDATA=(XY..XY) 1 
    25          2
    26         49
    27         68
    28         12
    29         45
    31         47
    36          5
    37         26
    38         69
    39        268
    40         28
    41         61
    43          3
    44        125
    45         57
    46         73
    47          4
    49         19
    50        215
    51        299
    52        161
    53         35
    61         19
    62         48
    63        118
    64         41
    65        239
    66         17
    69        349
    70          4
    73          7
    74         25
    75         19
    76         11
    77        161
    78         53
    79        203
    80         16
    81          9
    83         11
    85         12
    88         12
    89         99
    90        729
    91        999
    92         82
    93          1
    97          8
   100          5
   105         29
   107         47
   109          4
   127          8
   203          8
   204        225
   205         26