##TITLE=Library Entry 86709
##JCAMP-DX=Revision 4.10 
##DATA TYPE=MASS SPECTRUM
##SAMPLE DESCRIPTION=A.A.Kutin, Moscow, Russia
##NAMES=HP
##CAS NAME=Propanoic acid, 2-(4-fluorophenylhydrazono)-, ethyl ester
##MOLFORM=C11H13FN2O2
##CAS REGISTRY NO=351-64-4
##MP= -300
##BP= -300
##MW= 224
##$RETENTION INDEX=0
##$CONDENSED SPECTRUM=NO
##NPOINTS= 89
##XYDATA=(XY..XY) 1 
    37          2
    38          4
    39          8
    40          6
    41          6
    42         45
    43         11
    44          0
    45          6
    50          7
    51          5
    52          9
    53          3
    54          2
    55          7
    56         11
    57         78
    58          6
    59          1
    61          2
    62         15
    63         23
    64         10
    65          3
    68          3
    69          6
    70          3
    71          2
    72          2
    73          2
    74          7
    75         38
    76          6
    77          2
    81         27
    82         92
    83        341
    84         31
    85          1
    87          1
    89         37
    90         14
    91          4
    92          1
    93          1
    95         64
    96          7
    97          4
    98          1
    99          0
   101         19
   102          2
   103          1
   104          1
   106          2
   109        999
   110        464
   111         69
   112          4
   119          1
   121         34
   122          6
   123          7
   124         14
   125          3
   126          1
   131          1
   132          1
   135          0
   136          3
   137          2
   138         14
   139          2
   147          1
   150        482
   151         82
   152          5
   177          1
   178          8
   179          9
   180          1
   182          1
   195         13
   196          4
   219          0
   224        875
   225        130
   226         12
   227          1