##TITLE=Library Entry 87966
##JCAMP-DX=Revision 4.10 
##DATA TYPE=MASS SPECTRUM
##SAMPLE DESCRIPTION=NIST Mass Spectrometry Data Center
##NAMES=HP
##CAS NAME=3'-Fluoroacetanilide
##MOLFORM=C8H8FNO
##CAS REGISTRY NO=351-28-0
##MP= -300
##BP= -300
##MW= 153
##$RETENTION INDEX=0
##$CONDENSED SPECTRUM=NO
##NPOINTS= 85
##XYDATA=(XY..XY) 1 
    13          4
    14         23
    15        114
    16          1
    18          1
    25          1
    26          4
    27          5
    28         24
    29          1
    31         18
    32          1
    33          9
    37         14
    38         27
    39         32
    40         10
    41         17
    42         42
    43        459
    44         14
    45          3
    46          2
    48          2
    49          4
    50         20
    51         17
    52         20
    53          3
    54          2
    55          3
    56         14
    57        110
    58          7
    61         14
    62         24
    63         43
    64         34
    65         16
    66          2
    67          1
    68          8
    69         12
    70          9
    71          2
    72          4
    73          2
    74          8
    75         39
    76          6
    77          4
    78          1
    79          1
    80          4
    81         24
    82         32
    83        141
    84        159
    85         13
    86          1
    87          1
    88          2
    89          7
    90          6
    91         29
    92          4
    93          2
    94          7
    95         28
    96          7
    97          4
   106          1
   107          1
   108          5
   109         18
   111        999
   112         71
   113          2
   122          2
   124          6
   137          4
   138          4
   153        216
   154         19
   155          1