##TITLE=Library Entry 78994
##JCAMP-DX=Revision 4.10 
##DATA TYPE=MASS SPECTRUM
##SAMPLE DESCRIPTION=A.A.Kutin, Moscow, Russia
##NAMES=HP
##CAS NAME=Benzaldehyde, 3,5-dibromo-4-(3-methylbenzyloxy)-
##MOLFORM=C15H12Br2O2
##CAS REGISTRY NO=351066-39-2
##MP= -300
##BP= -300
##MW= 382
##$RETENTION INDEX=0
##$CONDENSED SPECTRUM=NO
##NPOINTS= 165
##XYDATA=(XY..XY) 1 
    36          0
    37          6
    38          9
    39         35
    40          5
    41          4
    42          0
    43          1
    44          0
    49          1
    50         16
    51         32
    52         15
    53         24
    54          1
    55          0
    56          0
    57          0
    58          0
    59          0
    60          1
    61         24
    62         55
    63         71
    64          9
    65         30
    66          5
    67          0
    69          0
    72          0
    73          3
    74         19
    75         16
    76         11
    77        149
    78         71
    79        103
    80          7
    81          2
    82          2
    83          1
    84          0
    85          0
    86          1
    87          2
    88          0
    89         18
    90         12
    91         25
    92          3
    93          1
    94          0
    95          0
    97          0
    98          0
    99          0
   101          1
   102         14
   103        106
   104         56
   105        999
   106         87
   107          2
   109          0
   110          0
   111          0
   115          2
   116          3
   117          7
   118          3
   119         13
   120          1
   126          0
   127          0
   128          1
   129          1
   130          1
   131          1
   133          0
   138          0
   139          2
   140          2
   141         21
   142         10
   143         21
   144          8
   145          1
   149          0
   150          0
   151          1
   152          6
   153          5
   154          2
   155          4
   156          2
   157          1
   163          1
   164          1
   165          8
   166          2
   167          2
   168          1
   169          3
   170         13
   171          5
   172         12
   173          3
   175          1
   176          0
   178          0
   179          0
   181          7
   182          1
   183          1
   184          0
   185          0
   193          0
   194          1
   195          7
   196          2
   197          9
   199          8
   200          0
   209          0
   219          0
   220          2
   221         28
   222          6
   223         54
   224          4
   225         25
   226          1
   233          0
   235          0
   237          0
   248          0
   249          5
   250          2
   251         10
   252          1
   253          5
   259          0
   260          0
   261          0
   273          0
   274          0
   275          0
   276          0
   277          3
   278          1
   279          7
   280          2
   281          3
   282          0
   287          1
   289          0
   301          0
   303          0
   304          0
   382          1
   383          0
   384          3
   385          0
   386          1
   387          0