##TITLE=Library Entry 6963
##JCAMP-DX=Revision 4.10 
##DATA TYPE=MASS SPECTRUM
##SAMPLE DESCRIPTION=A.A.Kutin, Moscow, Russia
##NAMES=HP
##CAS NAME=Acetic acid, 4-methyl-2,6-dinitrophenyl ester
##MOLFORM=C9H8N2O6
##CAS REGISTRY NO=351065-08-2
##MP= -300
##BP= -300
##MW= 240
##$RETENTION INDEX=0
##$CONDENSED SPECTRUM=NO
##NPOINTS= 67
##XYDATA=(XY..XY) 1 
    35          0
    37         23
    38         11
    41         89
    42         88
    43        999
    44         51
    45          5
    46         24
    50        250
    51        437
    52         79
    53         33
    54          0
    55         28
    56          6
    57         21
    61         23
    62         48
    63         77
    65        128
    66         74
    67         15
    68          1
    69         23
    71         15
    73          4
    74         30
    75         54
    76        106
    77        156
    78         28
    79          1
    80          1
    81         10
    82         11
    83          3
    84          0
    85          6
    86         17
    87          6
    90          0
    91         18
    92          0
    93          1
    96          1
    97          9
   104          1
   105         28
   106         21
   107         16
   116          0
   117          0
   121         35
   122          3
   135          4
   137          5
   140         81
   141          0
   149          5
   167          0
   182         35
   197          0
   198         99
   199          0
   240         52
   241          1