##TITLE=Library Entry 61805
##JCAMP-DX=Revision 4.10 
##DATA TYPE=MASS SPECTRUM
##SAMPLE DESCRIPTION=A.A.Kutin, Moscow, Russia
##NAMES=HP
##CAS NAME=Acetic acid, 2-(2-methylphenoxy)-, 2,5-dimethoxybenzylidenamino e
ster
##MOLFORM=C18H19NO5
##CAS REGISTRY NO=351061-12-6
##MP= -300
##BP= -300
##MW= 329
##$RETENTION INDEX=0
##$CONDENSED SPECTRUM=NO
##NPOINTS= 89
##XYDATA=(XY..XY) 1 
    33          3
    37          1
    38         27
    39        100
    41         39
    42         21
    43          6
    44          9
    45         10
    49          0
    50         58
    51        126
    52         45
    53         62
    54         12
    55          9
    59          0
    60          5
    61          9
    63        181
    65        376
    66         50
    68          9
    69          8
    70          0
    73          1
    74         16
    77        473
    78        139
    79        183
    80         20
    82         18
    86          1
    87          4
    89         91
    91        999
    93        250
    94         42
    95         14
    96          1
   102          4
   103          6
   104         18
   105         40
   107        432
   108        125
   109         85
   110          8
   117         10
   118          9
   120        173
   121        489
   122        125
   123         30
   125         25
   132          8
   133         24
   134         72
   135         25
   137        171
   138         10
   146          5
   148        432
   149        345
   151        157
   152         11
   153          4
   163        433
   164        258
   165         61
   166         89
   167          7
   173          0
   176          1
   178         80
   180         32
   181         22
   182          3
   190          0
   221          0
   222         42
   223          4
   256          3
   270          0
   326          2
   327          4
   329        242
   330         35
   331          4