##TITLE=Library Entry 83299
##JCAMP-DX=Revision 4.10 
##DATA TYPE=MASS SPECTRUM
##SAMPLE DESCRIPTION=A.A.Kutin, Moscow, Russia
##NAMES=HP
##CAS NAME=Pyrrolidine-3-carboxamide, 5-oxo-N-(4-oxo-2-thioxothiazolidin-3-y
l)-1-phenyl-
##MOLFORM=C14H13N3O3S2
##CAS REGISTRY NO=351066-19-8
##MP= -300
##BP= -300
##MW= 335
##$RETENTION INDEX=0
##$CONDENSED SPECTRUM=NO
##NPOINTS= 96
##XYDATA=(XY..XY) 1 
    33          0
    34          1
    37          2
    38         18
    39        117
    40         39
    41        371
    42        139
    43         62
    44         29
    45         96
    46        151
    47         15
    48         10
    50         38
    51        197
    52         43
    53         34
    54          7
    55        202
    56          7
    58          6
    59          5
    60         14
    61          1
    62          2
    63         22
    64         69
    65         28
    66          7
    67          1
    68         23
    69          3
    70          1
    72          0
    74         19
    75          6
    76         84
    77        344
    78         52
    79         39
    80          7
    81          1
    82          6
    86          6
    89          0
    90          6
    91         49
    92          5
    93          6
    96          0
    98          0
    99          2
   100          5
   101          2
   102          1
   103          9
   104        136
   105         61
   106        999
   107         69
   108          0
   116          3
   117         26
   118          3
   119         72
   120          5
   121          1
   129          1
   130        225
   131         92
   132        195
   133         19
   142          0
   146          4
   157          0
   158         33
   159        428
   160        183
   161         26
   162          0
   185          0
   186        170
   187         22
   188          1
   202          5
   203         62
   204          1
   205          0
   229          1
   261          0
   302          3
   334          2
   335        460
   336         95
   337         55