##TITLE=Library Entry 2926
##JCAMP-DX=Revision 4.10 
##DATA TYPE=MASS SPECTRUM
##SAMPLE DESCRIPTION=A.A.Kutin, Moscow, Russia
##NAMES=HP
##CAS NAME=Pyrrolidine-3-carboxamide, 1-isopropyl-5-oxo-N-(2-thiazolyl)-
##MOLFORM=C11H15N3O2S
##CAS REGISTRY NO=351067-38-4
##MP= -300
##BP= -300
##MW= 253
##$RETENTION INDEX=0
##$CONDENSED SPECTRUM=NO
##NPOINTS= 179
##XYDATA=(XY..XY) 1 
    33          2
    34          0
    35          0
    36          1
    37          0
    38         15
    39        276
    40        117
    41        999
    42        336
    43        700
    44        113
    45        270
    46         32
    47         12
    48          2
    49          0
    50          0
    51          4
    52         13
    53         42
    54        129
    55        964
    56        397
    57        117
    58        252
    59         76
    60         15
    61          2
    62          0
    63          1
    64          1
    65          2
    66          8
    67         47
    68        112
    69         62
    70        115
    71         69
    72        321
    73         61
    74          7
    75          1
    76          0
    77          1
    78          0
    79          1
    80         12
    81         10
    82        101
    83        146
    84        653
    85         58
    86         23
    87          1
    88          0
    89          0
    90          0
    91          0
    92          2
    93          1
    94         11
    95          7
    96         19
    97         10
    98         45
    99         77
   100        839
   101        837
   102         79
   103         38
   104          3
   105          1
   106          0
   107          0
   108          2
   109         13
   110        483
   111         64
   112        104
   113         42
   114          4
   115          2
   118          0
   119         25
   120          6
   121          1
   122          1
   123          3
   124         21
   125        535
   126        848
   127        449
   128         56
   129         26
   130          0
   134          0
   135          1
   136          0
   137         14
   138        154
   139         29
   140          5
   141         10
   142          1
   143          0
   144          0
   149          0
   150          0
   151          6
   152         86
   153        106
   154         52
   155        110
   156         11
   157          2
   158          0
   159          0
   163          0
   164          0
   165          2
   166          7
   167         53
   168         46
   169         22
   170          2
   173          0
   176          0
   178          0
   179          0
   180          1
   181         35
   182         71
   183        184
   184         24
   185         10
   186          0
   192          1
   193          0
   194         12
   195        161
   196         31
   197          8
   198          0
   199          0
   204          0
   207          0
   208          0
   209         28
   210         10
   211          5
   212          0
   213          0
   214          0
   217          0
   220         10
   221          1
   223          5
   224          5
   225        144
   226         17
   227          5
   228          0
   234          0
   235          0
   236          0
   237          2
   238        123
   239         20
   240          6
   243          0
   244          0
   250          0
   251          2
   252         19
   253        414
   254        162
   255         40
   256          7