##TITLE=Library Entry 86387
##JCAMP-DX=Revision 4.10 
##DATA TYPE=MASS SPECTRUM
##SAMPLE DESCRIPTION=A.A.Kutin, Moscow, Russia
##NAMES=HP
##CAS NAME=Acetamide, 2-(4-fluorophenyl)-N-(5-methyl-3-isoxazolyl)-
##MOLFORM=C12H11FN2O2
##CAS REGISTRY NO=351060-75-8
##MP= -300
##BP= -300
##MW= 234
##$RETENTION INDEX=0
##$CONDENSED SPECTRUM=NO
##NPOINTS= 71
##XYDATA=(XY..XY) 1 
    33          5
    34         19
    38         26
    39        121
    40        294
    41         56
    42         36
    43        167
    44         76
    45          3
    50         15
    51         21
    52         10
    53          5
    55         61
    56         11
    57         76
    58          1
    59         22
    62         16
    63         47
    64          7
    65          2
    66          7
    67         23
    68         22
    69         29
    70         34
    71          3
    75          5
    77         11
    81         25
    83        225
    84         16
    85          2
    89         21
    91          7
    95          6
    97         17
    98         66
    99        191
   105          4
   107        107
   108        185
   109        999
   110        112
   111          3
   119          2
   121          7
   122         10
   123          6
   124         58
   125         24
   127          4
   134         10
   136        462
   137         34
   148          4
   150          8
   151          7
   162          5
   163          8
   171          2
   191          8
   205          4
   216          1
   219         30
   232          2
   233         13
   234        265
   235         38