##TITLE=Library Entry 6580
##JCAMP-DX=Revision 4.10 
##DATA TYPE=MASS SPECTRUM
##SAMPLE DESCRIPTION=A.A.Kutin, Moscow, Russia
##NAMES=HP
##CAS NAME=Propan-1-one, 1-[3-fluoro-4-(4-methyl-1-piperazinyl)phenyl]-
##MOLFORM=C14H19FN2O
##CAS REGISTRY NO=351040-48-7
##MP= -300
##BP= -300
##MW= 250
##$RETENTION INDEX=0
##$CONDENSED SPECTRUM=NO
##NPOINTS= 123
##XYDATA=(XY..XY) 1 
    33         29
    34          3
    36          0
    38          4
    39         14
    40         60
    42        595
    43        999
    45          4
    50         13
    51         16
    52          7
    53          6
    54         21
    55         37
    56         92
    57        141
    58         29
    59          1
    60          0
    61          1
    62          4
    63          9
    64          3
    65          2
    68         11
    70        312
    71        433
    72         15
    75         58
    77         19
    78          4
    79          1
    81         13
    82         13
    83         13
    84          5
    85          7
    86          0
    88          1
    89          6
    90          0
    91          2
    94         62
    95         66
    96         32
    98         15
    99         10
   100          3
   101          7
   102         29
   103          6
   104          1
   105          0
   107         20
   108         22
   109         18
   110         16
   113          3
   115          2
   116          4
   117          1
   120          8
   121         28
   122         61
   123         21
   125         14
   126          0
   128          1
   130          1
   131          1
   133          2
   134          2
   135         13
   136         18
   137         18
   138          2
   144          0
   146          3
   148          9
   150        243
   151         14
   152          2
   158          1
   160          1
   161          0
   162          2
   164         28
   165         16
   166         11
   167          0
   175          0
   176          1
   178         24
   179         26
   180         37
   181          2
   188          2
   191          1
   192          4
   193          8
   194         10
   195          1
   201          1
   202          0
   206         15
   207         17
   208         32
   209          4
   218          1
   219          2
   221         49
   222          6
   233          0
   234          0
   235          6
   236          0
   246          5
   247         10
   249         56
   250        190
   251         23
   252          1