##TITLE=Library Entry 83310
##JCAMP-DX=Revision 4.10 
##DATA TYPE=MASS SPECTRUM
##SAMPLE DESCRIPTION=A.A.Kutin, Moscow, Russia
##NAMES=HP
##CAS NAME=Pyrrolidine-3-carboxamide, 5-oxo-N-[2-(2,4-dioxothiazolidin-3-yl)
ethyl]-1-phenyl-
##MOLFORM=C16H17N3O4S
##CAS REGISTRY NO=351066-25-6
##MP= -300
##BP= -300
##MW= 347
##$RETENTION INDEX=0
##$CONDENSED SPECTRUM=NO
##NPOINTS= 106
##XYDATA=(XY..XY) 1 
    38          4
    39         83
    40         37
    41        263
    42         98
    43         26
    44         42
    45         41
    46        150
    47         20
    48         13
    49          0
    50         12
    51         53
    52          5
    53          4
    54         10
    55        165
    56         59
    58          0
    59          0
    60          4
    63          1
    64         22
    65         12
    66          1
    67          1
    68         19
    69         30
    70         33
    73          0
    74         45
    75          1
    76          2
    77        154
    78         22
    79         22
    80          4
    82         28
    83          9
    84         24
    85          2
    87          0
    88          4
    89          4
    90          6
    91         12
    92          1
    93          9
    94          1
    96          0
    97          6
    98          7
    99          1
   100          0
   102         18
   103          6
   104         86
   105         45
   106        999
   107         82
   109          1
   112          0
   115          6
   116         15
   117         44
   118         28
   119         80
   120         15
   124          0
   125          9
   126          0
   127          2
   129          3
   130        163
   131         43
   132        158
   133          8
   143         12
   144         48
   145         21
   146         28
   147          0
   158          8
   159        227
   160        387
   161         79
   162          3
   169          4
   187          2
   188          6
   214          0
   217          0
   230          1
   240          0
   241          0
   242         82
   243          2
   244          0
   305          2
   319          3
   346          0
   347        529
   348        108
   349         29
   350          0