##TITLE=Library Entry 70281
##JCAMP-DX=Revision 4.10 
##DATA TYPE=MASS SPECTRUM
##SAMPLE DESCRIPTION=A.A.Kutin, Moscow, Russia
##NAMES=HP
##CAS NAME=Acetamide, N-(3-trifluoromethylbenzyl)-2-(2-thienyl)-
##MOLFORM=C14H12F3NOS
##CAS REGISTRY NO=351061-64-8
##MP= -300
##BP= -300
##MW= 299
##$RETENTION INDEX=0
##$CONDENSED SPECTRUM=NO
##NPOINTS= 163
##XYDATA=(XY..XY) 1 
    33          2
    34          4
    35          0
    36          3
    37          2
    38         10
    39         59
    40         53
    41          4
    42          5
    43          7
    44         18
    45        138
    47         16
    48          3
    49          1
    50         14
    51         25
    52         12
    53        103
    54          5
    55          4
    56          4
    57         12
    58         14
    59          5
    60          2
    61          1
    62          6
    63         22
    64          7
    65          6
    66          1
    67          0
    69         30
    70         17
    71         15
    72          2
    73          1
    74          3
    75         12
    76          5
    77         10
    78          2
    79          1
    80          1
    81          4
    82          5
    83         12
    84         14
    85          8
    86          1
    87          2
    88          2
    89         13
    90          6
    91          2
    93          3
    94          2
    95         18
    97        999
    98        780
    99         91
   100         38
   101          4
   102          0
   103          0
   104          3
   105          4
   106          1
   107          4
   108          3
   109         73
   110          7
   111         18
   112          5
   113         19
   114         12
   115          5
   116          0
   117          1
   118          2
   119         27
   120          4
   121          1
   122          1
   123          1
   124          5
   125          7
   126          4
   127         12
   128          2
   129          2
   130          0
   131          6
   132          8
   133          5
   134          2
   135          0
   137          1
   138          3
   139          8
   140         14
   141          2
   142          0
   143          0
   145         18
   146          6
   147          2
   150          2
   151          0
   152          1
   153          0
   154          1
   155          2
   156          2
   157          2
   159        391
   160         33
   161          0
   166          0
   170          0
   171          2
   172          9
   173          3
   174         12
   175          2
   180          0
   182         18
   183          3
   184          0
   185          1
   186          5
   187          7
   188          0
   189          0
   191          0
   200          1
   201          1
   202          0
   203          1
   204          0
   209          0
   214          0
   215          9
   216          0
   217          0
   222          0
   237          2
   238          0
   241          3
   242          0
   245          0
   254          1
   255          0
   279          0
   280          0
   282          0
   297          0
   299        112
   300         18
   301          6
   302          0