##TITLE=Library Entry 41031
##JCAMP-DX=Revision 4.10 
##DATA TYPE=MASS SPECTRUM
##SAMPLE DESCRIPTION=Chemical Concepts
##NAMES=HP
##CAS NAME=Silane, trimethylpropyl-
##MOLFORM=C6H16Si
##CAS REGISTRY NO=3510-70-1
##MP= -300
##BP= -300
##MW= 116
##$RETENTION INDEX=634
##$CONDENSED SPECTRUM=NO
##NPOINTS= 58
##XYDATA=(XY..XY) 1 
    25          1
    26          3
    27         35
    28         22
    29         39
    30          5
    31         55
    32          3
    33          1
    34          0
    37          1
    38          0
    39         22
    40          2
    41         17
    42         17
    43        164
    44         53
    45        153
    46         10
    47          3
    49          1
    51          0
    52          0
    53         17
    54          4
    55         19
    56          0
    57         20
    58         32
    59        539
    60         41
    61         14
    62          0
    65          1
    66          2
    67          4
    69          2
    70          4
    71          5
    72         21
    73        999
    74         79
    75         31
    76          0
    81          0
    83          0
    85          5
    86          0
    97          0
    99          2
   100          1
   101        113
   102         10
   103          4
   116         10
   117          1
   118          0