##TITLE=Library Entry 12370
##JCAMP-DX=Revision 4.10 
##DATA TYPE=MASS SPECTRUM
##SAMPLE DESCRIPTION=A.A.Kutin, Moscow, Russia
##NAMES=HP
##CAS NAME=Ethanone, 1-[1-(2-methyl-4-nitrophenyl)-5-methyl-1H-1,2,3-triazol
e-4-yl]-
##MOLFORM=C12H12N4O3
##CAS REGISTRY NO=351068-66-1
##MP= -300
##BP= -300
##MW= 260
##$RETENTION INDEX=0
##$CONDENSED SPECTRUM=NO
##NPOINTS= 172
##XYDATA=(XY..XY) 1 
    34          0
    36          1
    37          4
    38         22
    39        134
    40         38
    41         19
    42         32
    43        999
    44         28
    45          3
    46          5
    49          0
    50         40
    51        103
    52         59
    53         26
    54         17
    55         18
    56          2
    57          2
    58          0
    61          4
    62         34
    63        163
    64         77
    65         35
    66         12
    67         30
    68          5
    69          3
    70         20
    71          2
    72          0
    73          1
    74         16
    75         32
    76         39
    77         80
    78         56
    79         10
    80          5
    81          1
    82          2
    83          1
    84          1
    85          1
    86          7
    87         11
    88         11
    89        399
    90        153
    91         49
    92          8
    93          2
    94          1
    95          0
    96          0
    98          0
    99          2
   100          3
   101         14
   102         28
   103         21
   104         18
   105         10
   106          5
   107          1
   108          0
   110          0
   111          0
   112          0
   113          3
   114          9
   115        132
   116         63
   117         82
   118         15
   119          6
   120          1
   121          0
   122          0
   126          1
   127         13
   128         29
   129         67
   130         62
   131        107
   132         33
   133          4
   134          1
   135          0
   136          2
   137          0
   139          0
   140         13
   141         23
   142        107
   143        545
   144        180
   145         25
   146         11
   147          4
   148          2
   149          1
   150          0
   151          0
   152          0
   153          1
   154          3
   155          3
   156         17
   157         42
   158        112
   159         28
   160         38
   161          5
   162         22
   163         21
   164          3
   166          0
   167          3
   168          3
   169          2
   170         17
   171        118
   172         26
   173         47
   174         14
   175         35
   176          5
   177         86
   178          9
   179          0
   183          0
   184          4
   185         52
   186         43
   187         12
   188          2
   189        112
   190        311
   191         36
   192          3
   197          0
   198          0
   199          1
   200         14
   201          4
   202         11
   203          9
   204          1
   205          0
   213          0
   214          3
   215         82
   216         12
   217        226
   218         29
   219          3
   230          1
   231          7
   232          9
   233          1
   244          0
   245         16
   246          2
   247          0
   260        281
   261         41
   262          4
   263          0