##TITLE=Library Entry 72307
##JCAMP-DX=Revision 4.10 
##DATA TYPE=MASS SPECTRUM
##SAMPLE DESCRIPTION=A.A.Kutin, Moscow, Russia
##NAMES=HP
##CAS NAME=Acetamide, N-[1-(2-diethylamino)ethyl-2-benzimidazolyl]-2-(2,3,5,
6-tetrafluorophenoxy)-
##MOLFORM=C21H22F4N4O2
##CAS REGISTRY NO=351061-06-8
##MP= -300
##BP= -300
##MW= 438
##$RETENTION INDEX=0
##$CONDENSED SPECTRUM=NO
##NPOINTS= 132
##XYDATA=(XY..XY) 1 
    33          1
    36         74
    38         21
    39          3
    42         63
    43         13
    44         25
    45          0
    50          2
    51          6
    52          3
    54          8
    56         99
    58        109
    60          1
    62          2
    63          4
    64          5
    65          5
    66          0
    68          7
    70         89
    71        135
    72         18
    74          1
    75          3
    76          7
    77         12
    78          7
    79          2
    80          2
    81          3
    82          3
    84        103
    86        836
    87         31
    88          2
    90         19
    91         11
    92          6
    93          2
    94          0
    95          0
    96          3
    99        999
   101         83
   102          4
   103          4
   104         13
   105          5
   106          1
   108          2
   110          0
   111          0
   112          0
   114          0
   115          2
   116          3
   117         14
   118         30
   119         12
   120          1
   122          4
   123          2
   124          0
   129          6
   131         57
   132         20
   133         24
   134          3
   135          0
   137         10
   139          0
   144         26
   145          7
   146         13
   147          2
   149         29
   151         19
   154          0
   155          0
   157         11
   158         22
   159         23
   160         11
   161          1
   165          1
   166          6
   167          0
   170          1
   172         31
   173         34
   174          7
   175          1
   176          1
   177          1
   179         15
   180          0
   183          0
   185          3
   186          9
   187         21
   188          9
   189          0
   199          0
   200          1
   201          4
   202          1
   203          0
   213          1
   214          2
   215         13
   216          1
   217          0
   219          0
   224          0
   228          0
   229          3
   230          0
   232          3
   243          0
   245          0
   259          3
   260          0
   274          0
   339          2
   340          2
   351          0
   352          1
   353          0
   366          1
   438          2