##TITLE=Library Entry 68211
##JCAMP-DX=Revision 4.10 
##DATA TYPE=MASS SPECTRUM
##SAMPLE DESCRIPTION=NIST Mass Spectrometry Data Center
##NAMES=HP
##CAS NAME=Ethyl L-menthyl carbonate
##MOLFORM=C13H24O3
##CAS REGISTRY NO=35106-15-1
##MP= -300
##BP= -300
##MW= 228
##$RETENTION INDEX=0
##$CONDENSED SPECTRUM=NO
##NPOINTS= 88
##XYDATA=(XY..XY) 1 
    12          1
    13          1
    14          4
    15         27
    16          2
    18          6
    19          6
    25          1
    26         16
    27        291
    28         68
    29        668
    30         25
    31         30
    36          1
    37          1
    39        150
    40         31
    41        588
    42         75
    43        382
    44         46
    45         33
    46          2
    50          2
    51         11
    52         12
    53         98
    54         83
    55        448
    56         87
    57        222
    58         13
    59         17
    63         63
    64          2
    65         27
    66         12
    67        288
    68        104
    69        226
    70         53
    71        193
    72         13
    73          5
    77         33
    78          6
    79         75
    80        129
    81        821
    82        323
    83        254
    84         23
    85         21
    86          4
    87          1
    89          1
    91         64
    92          5
    93         33
    94        124
    95        999
    96        242
    97         60
    98          7
    99         40
   100          2
   105          1
   107          5
   109         95
   110         41
   111          7
   112          4
   113          9
   117          1
   119          1
   121          3
   123        357
   124         36
   125          2
   127          1
   138        689
   139        151
   140         12
   141          6
   155          5
   157          1
   185          1