##TITLE=Library Entry 17992
##JCAMP-DX=Revision 4.10 
##DATA TYPE=MASS SPECTRUM
##SAMPLE DESCRIPTION=F. HOFLER, INST. ANORG. CHEMIE TECH. HOCHSCHULE, GRAZ,
 AUSTR
##NAMES=HP
##CAS NAME=1,1,1,3,3,3-Hexafluoro-2-(trifluorosilyl)trisilane
##MOLFORM=F9HSi4
##CAS REGISTRY NO=35103-08-3
##MP= -300
##BP= -300
##MW= 284
##$RETENTION INDEX=0
##$CONDENSED SPECTRUM=NO
##NPOINTS= 15
##XYDATA=(XY..XY) 1 
    28        160
    47        999
    66         30
    67         50
    85        833
    94         20
   104         20
   113         50
   114        160
   151         20
   198        110
   199         40
   265        120
   283          0
   284          0