##TITLE=Library Entry 80634
##JCAMP-DX=Revision 4.10 
##DATA TYPE=MASS SPECTRUM
##SAMPLE DESCRIPTION=A.A.Kutin, Moscow, Russia
##NAMES=HP
##CAS NAME=Benzaldehyde, 3-chloro-5-methoxy-4-[(4-methylphenyl)methoxy]-
##MOLFORM=C16H15ClO3
##CAS REGISTRY NO=351066-32-5
##MP= -300
##BP= -300
##MW= 290
##$RETENTION INDEX=0
##$CONDENSED SPECTRUM=NO
##NPOINTS= 120
##XYDATA=(XY..XY) 1 
    37          0
    39         21
    40          5
    41          4
    42          0
    43          4
    49          0
    50         10
    51         24
    52          5
    53         10
    57          0
    60          2
    61          5
    62          6
    63         33
    64          5
    65         51
    66          4
    67          1
    69          5
    70          0
    71          0
    72          3
    73          3
    74          1
    75          1
    76          2
    77         10
    78         16
    79         50
    80          4
    81          3
    82          1
    83          1
    84          0
    85         15
    86         13
    87          6
    89         12
    90          4
    91         26
    92          4
    93          8
    94          2
    95          0
    96          0
    97          4
    98          0
    99         14
   100          0
   101          7
   102          5
   103         40
   104         22
   105        999
   106         82
   107          7
   108          0
   109          0
   110          0
   111          6
   112          1
   113         17
   114         16
   115          5
   116          3
   117          0
   118          1
   119          8
   120          1
   121         12
   122          5
   126          1
   127          1
   128          1
   131          3
   132          0
   133          1
   139          1
   141          1
   142          2
   143          2
   149          2
   151          0
   152          3
   153          2
   155          0
   157          0
   162          1
   163          0
   166          0
   167          1
   171          0
   172          0
   181          0
   182          0
   183          3
   185          8
   186          1
   187          1
   188          0
   193          0
   194          0
   202          0
   212          0
   213          0
   221          0
   233          0
   252          0
   253          0
   262          0
   263          0
   264          0
   272          0
   273          0
   290         16
   291          1
   292          1
   293          0