##TITLE=Library Entry 13139
##JCAMP-DX=Revision 4.10 
##DATA TYPE=MASS SPECTRUM
##SAMPLE DESCRIPTION=A.A.Kutin, Moscow, Russia
##NAMES=HP
##CAS NAME=Ethanone, 1-[5-methyl-1-(3-nitrophenyl)-1H-1,2,3-triazol-4-yl]-
##MOLFORM=C11H10N4O3
##CAS REGISTRY NO=351068-65-0
##MP= -300
##BP= -300
##MW= 246
##$RETENTION INDEX=0
##$CONDENSED SPECTRUM=NO
##NPOINTS= 82
##XYDATA=(XY..XY) 1 
    33          2
    34         13
    36          1
    38         17
    39         78
    40        312
    41         15
    43        999
    44         87
    45          4
    50        105
    51         35
    52         22
    54         46
    55         18
    62         13
    63         65
    64         45
    65         21
    66          5
    67         41
    68          1
    69          4
    70          9
    74         28
    75         93
    76        349
    77         92
    78         16
    87          1
    88         11
    89         11
    90         22
    91         23
    92         29
   101         13
   102         55
   103        100
   104         18
   109         15
   114          4
   115         14
   116          7
   117        110
   118         28
   123          1
   127          3
   128         43
   129        172
   130        107
   131         16
   142         26
   143         37
   144         38
   145         44
   146         50
   147          4
   149         15
   156          4
   157        117
   158          8
   159          9
   160          4
   163         70
   164          1
   171         22
   172         19
   173         15
   175         81
   176        469
   177         47
   187          1
   189          3
   191          2
   201         11
   203        151
   204         10
   217          4
   218         19
   231          9
   246        183
   247         19