##TITLE=Library Entry 64859
##JCAMP-DX=Revision 4.10 
##DATA TYPE=MASS SPECTRUM
##SAMPLE DESCRIPTION=A.A.Kutin, Moscow, Russia
##NAMES=HP
##CAS NAME=Acetic acid, 2-[2-benzylthio-4-(4-nitrophenyl)-1-imidazolyl-, eth
yl ester
##MOLFORM=C20H19N3O4S
##CAS REGISTRY NO=351064-50-1
##MP= -300
##BP= -300
##MW= 397
##$RETENTION INDEX=0
##$CONDENSED SPECTRUM=NO
##NPOINTS= 189
##XYDATA=(XY..XY) 1 
    35          0
    36          0
    38          0
    39         28
    40          3
    41          9
    42          3
    43          1
    44          0
    45         25
    46          1
    47          0
    50          4
    51         16
    52          4
    53          1
    54          0
    56          0
    57          1
    58          6
    59          1
    60          2
    61          0
    62          1
    63         15
    64          4
    65         67
    66          3
    69          0
    70          0
    71          0
    72          0
    74          0
    75         12
    76          8
    77          7
    78          2
    79          0
    84          2
    86          1
    87          0
    88          2
    89         27
    90         21
    91        999
    92         78
    93          2
    94          0
    95          0
    96          1
    99          0
   100          0
   101         10
   102         14
   103          7
   104          1
   105          1
   106          0
   108          0
   109          2
   114          1
   115          6
   116         11
   117          5
   118          0
   120          6
   121         19
   122          2
   123          1
   125          0
   126          1
   127          2
   128         16
   129         23
   130          4
   131          0
   132          2
   133          2
   134          2
   135          5
   136          2
   142          4
   143          1
   144          0
   145          4
   146          7
   147          4
   148          0
   154          0
   155          4
   156          0
   157          0
   158          0
   159          6
   160          9
   161          2
   163          0
   164          3
   165          0
   167          0
   171          0
   172          2
   173          3
   174          4
   175         17
   176          4
   184          0
   185          4
   186         38
   187         34
   188         10
   189          1
   190          0
   191          0
   192          0
   193          0
   195          0
   196          0
   200          0
   201          0
   202          2
   203          2
   204          0
   205          0
   206          0
   215          1
   216          2
   217          0
   218          3
   219          0
   220          1
   221          1
   230          0
   231          3
   232         27
   233          4
   234         18
   235          3
   236          1
   237          0
   245          0
   246          1
   247          0
   248          0
   259          1
   260          2
   261          6
   262          1
   264          0
   265          0
   274          0
   275          0
   276          0
   277          1
   278          3
   288          2
   289          2
   290          6
   291          2
   292          6
   306         10
   307          0
   310         14
   311          0
   317          0
   318          0
   320          6
   324          5
   325          4
   326          1
   336         23
   337          2
   351          1
   352          9
   362          0
   363          2
   364        240
   365         44
   366          9
   368          0
   376          0
   393          0
   395          1
   396         12
   397        390
   398         92
   399         25
   400          2
   401          0