##TITLE=Library Entry 83334
##JCAMP-DX=Revision 4.10 
##DATA TYPE=MASS SPECTRUM
##SAMPLE DESCRIPTION=A.A.Kutin, Moscow, Russia
##NAMES=HP
##CAS NAME=Acetamide, 2-(2,4-difluorophenoxy)-N-(3-pyridyl)-
##MOLFORM=C13H10F2N2O2
##CAS REGISTRY NO=351061-27-3
##MP= -300
##BP= -300
##MW= 264
##$RETENTION INDEX=0
##$CONDENSED SPECTRUM=NO
##NPOINTS= 133
##XYDATA=(XY..XY) 1 
    33          3
    34          3
    39        433
    40        102
    41         44
    42         52
    43         25
    44          9
    45          3
    46          0
    47          1
    48          0
    49          2
    50         40
    51        161
    52         39
    53         30
    54          8
    55          5
    56          9
    57         26
    58          1
    59          0
    61          6
    62         15
    63        145
    64         37
    65         53
    66        121
    67         53
    68         15
    69          8
    70          4
    71          2
    72          0
    73          2
    74          7
    75         36
    76          7
    77          8
    78        375
    79         39
    80         54
    81         23
    82         40
    83          5
    84          1
    85          0
    86          0
    87          2
    88          3
    89          2
    90          1
    91          3
    92         37
    93         81
    94        183
    95        114
    96         11
    97          1
    99          6
   100          3
   101         70
   102          4
   103          1
   104          4
   105         30
   106         34
   107        999
   108         74
   110         22
   111          3
   112         12
   113        233
   114         33
   115         98
   116          6
   117          2
   118          2
   119          2
   120         14
   121        117
   122          8
   123          9
   124          1
   125          1
   126          0
   127          1
   128          1
   129         48
   130         37
   131          2
   132         16
   133          6
   134         22
   135        233
   136         20
   137          1
   138          3
   139          0
   140          0
   141         17
   142          2
   143        222
   144        109
   145          8
   146          0
   149          0
   151          0
   152          0
   153          0
   158          0
   161          3
   162          0
   169          0
   170          0
   171          0
   173          0
   179          0
   186          0
   187          0
   188          0
   190          0
   193          0
   205          0
   206          0
   215          0
   236          1
   246          0
   264        360
   265         56
   266          5
   267          0