##TITLE=Library Entry 90999
##JCAMP-DX=Revision 4.10 
##DATA TYPE=MASS SPECTRUM
##SAMPLE DESCRIPTION=A.A.Kutin, Moscow, Russia
##NAMES=HP
##CAS NAME=Butane-1,4-dione, 1-(4-morpholyl)-3,4-diphenyl-
##MOLFORM=C20H21NO3
##CAS REGISTRY NO=351064-47-6
##MP= -300
##BP= -300
##MW= 323
##$RETENTION INDEX=0
##$CONDENSED SPECTRUM=NO
##NPOINTS= 168
##XYDATA=(XY..XY) 1 
    33          0
    37          0
    39         28
    40          6
    41         43
    42        304
    43         41
    44         16
    45         38
    50         24
    51        107
    52         19
    53          7
    54          9
    55         12
    56         48
    57         30
    58          1
    60          0
    62          1
    63         11
    64          2
    65          4
    67          2
    68          1
    69          5
    70        342
    71         17
    72          5
    73          0
    74          3
    75          4
    76         25
    77        550
    78         93
    79          7
    80          0
    81          0
    82          1
    84          0
    85          4
    86         95
    87         12
    88         94
    89         15
    90         10
    91         54
    92          5
    93          0
    95          0
    96          0
    99          1
   100          1
   101          5
   102         23
   103        137
   104        243
   105        491
   106        201
   107         17
   108          0
   109          0
   110          1
   111          0
   112          3
   113         29
   114        999
   115        109
   116         14
   117         15
   118         12
   119          0
   120          0
   122          4
   123          4
   124         20
   125         12
   126          3
   127         10
   128         40
   129         17
   130          8
   131        156
   132         28
   133         12
   134          0
   137          0
   138          0
   139          8
   140          1
   141          8
   142          0
   143          3
   144          7
   145         42
   146         23
   147          1
   148          1
   149          0
   150         13
   151         15
   152         77
   153         15
   154          0
   155          0
   159          2
   160          0
   162          0
   163          3
   164          8
   165         92
   166         31
   167         50
   168          5
   172          0
   174         10
   175          0
   176         14
   177          2
   178         16
   179         11
   180          5
   181         10
   182          3
   183          0
   186          0
   187          1
   188          0
   189          9
   190         11
   191         57
   192         33
   193         24
   194         31
   195         11
   196         14
   197          1
   198          0
   201          3
   202          2
   203          1
   207          1
   208         43
   209         18
   210          0
   211          0
   212          0
   216          0
   217          2
   218         65
   219         44
   220          7
   221          0
   222          0
   223          0
   233          0
   234          1
   235          5
   236        205
   237         74
   238         10
   239          0
   268          0
   303          0
   322          4
   323        270
   324         62
   325         12