##TITLE=Library Entry 86393
##JCAMP-DX=Revision 4.10 
##DATA TYPE=MASS SPECTRUM
##SAMPLE DESCRIPTION=A.A.Kutin, Moscow, Russia
##NAMES=HP
##CAS NAME=Acetamide, N-(4-chloro-3-trifluoromethylphenyl)-2-(4-fluorophenyl
)-
##MOLFORM=C15H10ClF4NO
##CAS REGISTRY NO=351061-15-9
##MP= -300
##BP= -300
##MW= 331
##$RETENTION INDEX=0
##$CONDENSED SPECTRUM=NO
##NPOINTS= 189
##XYDATA=(XY..XY) 1 
    33          2
    34          0
    35          1
    36          2
    37          2
    38          7
    39         22
    40         10
    41          2
    42          1
    43          1
    44          2
    45          0
    46          0
    47          0
    48          0
    49          1
    50          8
    51         11
    52          4
    53          0
    55          2
    57         44
    59         18
    60          1
    61          4
    62         20
    63         49
    64          7
    65          3
    66          0
    67          0
    68          1
    69          9
    70          3
    71          0
    72          1
    73          5
    74          7
    75         14
    76          2
    77          1
    78          0
    79          0
    80          2
    81         20
    83        147
    84          8
    85          2
    86          2
    87          4
    88         10
    89         23
    90          9
    91          4
    92          0
    93          3
    94          3
    95          3
    96          2
    97          4
    98          2
    99          5
   100          1
   101          1
   102          0
   103          0
   104          0
   105          2
   107         71
   108        132
   109        999
   110        136
   111          8
   112          3
   113          6
   114          1
   115          0
   117          5
   118          1
   119          2
   120          1
   121          0
   122          1
   123          3
   124          6
   125         11
   126          3
   127          2
   129          3
   131         10
   132         42
   133          5
   136        493
   137         40
   138          8
   139          8
   140          3
   141          2
   143          7
   144          8
   145          5
   147          8
   148         13
   149          3
   150          5
   151          0
   152          0
   153          0
   154          2
   155          0
   156          0
   157          1
   158          7
   159          8
   160          8
   161          1
   162          0
   163          0
   166          3
   167         15
   168          2
   169          4
   170          0
   171          0
   173          3
   174          7
   175          4
   176          9
   177          2
   178          3
   179         17
   181          6
   182          0
   186          1
   187          0
   188          0
   189          0
   190          0
   191          2
   193         14
   194         68
   195        329
   196         46
   197        100
   198          9
   199          0
   200          0
   201          0
   202          1
   204          0
   206          1
   208          0
   214          0
   219          0
   221         23
   222         13
   223          7
   224          4
   225          0
   232          0
   233          0
   234          1
   236          0
   244          0
   246          0
   247          0
   248          0
   266          1
   267          0
   268          0
   295          0
   296          2
   297          0
   300          0
   302          1
   303          0
   304          0
   310          0
   312         16
   313          3
   314          5
   315          0
   327          2
   331        180
   332         31
   333         52
   334          8
   335          0