##TITLE=Library Entry 82887
##JCAMP-DX=Revision 4.10 
##DATA TYPE=MASS SPECTRUM
##SAMPLE DESCRIPTION=A.A.Kutin, Moscow, Russia
##NAMES=HP
##CAS NAME=Pyrrolidine-3-carboxamide, N-(4-hydroxyphenyl)-5-oxo-1-phenyl-
##MOLFORM=C17H16N2O3
##CAS REGISTRY NO=351066-21-2
##MP= -300
##BP= -300
##MW= 296
##$RETENTION INDEX=0
##$CONDENSED SPECTRUM=NO
##NPOINTS= 77
##XYDATA=(XY..XY) 1 
    36          1
    38          9
    39        100
    40         14
    41        196
    42          9
    48          0
    50         10
    51         81
    52         61
    53         68
    54         16
    55        195
    56          9
    62          0
    63         15
    64         23
    65         47
    66          8
    67          0
    68          7
    76         12
    77        238
    78         29
    79         24
    80         88
    81         66
    82          4
    91         29
    92          2
    93         23
    94          6
    95          2
    96          0
    97          1
   103          0
   104         73
   105         45
   106        999
   107        121
   108        118
   109        330
   110         13
   116          0
   117         16
   118          3
   119         40
   120          1
   130         78
   131         19
   132         89
   133          4
   134          1
   135          9
   144          0
   146         54
   147          4
   148          6
   158          3
   159         20
   160        263
   161         53
   162         33
   163        118
   164          1
   176          7
   186         16
   187          0
   190          0
   191        150
   192          8
   198          7
   294          0
   295          3
   296        320
   297         66
   298          2