##TITLE=Library Entry 86186
##JCAMP-DX=Revision 4.10 
##DATA TYPE=MASS SPECTRUM
##SAMPLE DESCRIPTION=A.A.Kutin, Moscow, Russia
##NAMES=HP
##CAS NAME=Benzaldehyde, 3-chloro-4-(4-fluorobenzyloxy)-5-methoxy-
##MOLFORM=C15H12ClFO3
##CAS REGISTRY NO=351066-27-8
##MP= -300
##BP= -300
##MW= 294
##$RETENTION INDEX=0
##$CONDENSED SPECTRUM=NO
##NPOINTS= 134
##XYDATA=(XY..XY) 1 
    33          0
    35          0
    36          1
    37          6
    38          7
    39         33
    40          2
    41          8
    42          1
    43          5
    44          3
    45          2
    46          0
    47          2
    48          0
    49          2
    50         42
    51         56
    52          4
    53         14
    54          0
    55          9
    56          4
    57         74
    58          3
    59         23
    60          3
    61         12
    62         32
    63         82
    64          7
    65         42
    66          5
    67          3
    68          3
    69         15
    70          1
    72          0
    73         11
    74          6
    75         22
    76          2
    77         10
    78          1
    79         37
    80          1
    81         19
    82          3
    83        184
    84         12
    85         29
    86         28
    87         18
    88          9
    89         21
    90          2
    91          7
    92          1
    93         14
    94         10
    95         12
    96          4
    97         12
    98          3
    99         17
   100          0
   101          7
   103          0
   105          2
   106          2
   107         54
   108         44
   109        999
   110        217
   111         15
   112          1
   113         15
   114         12
   115          6
   116          4
   117          0
   118          0
   119          5
   121          2
   122          1
   123          8
   125          7
   126          9
   127          5
   128          2
   129         22
   131          4
   133          2
   135          1
   136          0
   137          1
   138          0
   141          0
   142          2
   143          0
   146          0
   147          2
   149          3
   153          4
   154          1
   155          5
   156          3
   157          6
   158          1
   159          1
   167          2
   168          0
   169          0
   170          1
   171          1
   172          0
   177          0
   178          0
   183          1
   185          9
   186          3
   187          4
   197          0
   198          0
   199          0
   218          0
   224          0
   243          0
   247          0
   277          0
   294         38
   295          3
   296         15
   297          1