##TITLE=Library Entry 86871
##JCAMP-DX=Revision 4.10 
##DATA TYPE=MASS SPECTRUM
##SAMPLE DESCRIPTION=A.A.Kutin, Moscow, Russia
##NAMES=HP
##CAS NAME=Benzaldehyde, 2,4-di(4-fluorobenzyloxy)-
##MOLFORM=C21H16F2O3
##CAS REGISTRY NO=351066-29-0
##MP= -300
##BP= -300
##MW= 354
##$RETENTION INDEX=0
##$CONDENSED SPECTRUM=NO
##NPOINTS= 102
##XYDATA=(XY..XY) 1 
    35          0
    37          0
    38          3
    39         13
    40          0
    41         11
    42          2
    43         17
    44         12
    45          2
    46          0
    50          3
    51         13
    52          1
    55          2
    56          3
    57         35
    58          0
    59         18
    60          1
    61          0
    62          8
    63         40
    64         13
    65          6
    66          1
    67          2
    68          1
    69         11
    70          3
    71          4
    73          1
    74          2
    75          2
    76          1
    77          3
    79          1
    80          0
    81          7
    82          7
    83        168
    84         11
    85          3
    86          0
    87          1
    89         18
    90          1
    91          8
    92          3
    93          1
    94          0
    95          8
    96          3
    97          4
    98          0
   101          0
   105          2
   106          1
   107         26
   108         27
   109        999
   110        189
   111          6
   115          1
   116          0
   120          1
   121          5
   122          0
   123          4
   124          0
   125          0
   127          0
   133          1
   135          0
   136          0
   137          1
   145          0
   146          1
   147          0
   149          0
   155          0
   157          0
   159          1
   167          0
   171          1
   185          0
   186          0
   187          0
   197          0
   216          0
   217          3
   228          2
   245         13
   302         22
   303          0
   325         24
   326          5
   327          0
   353          0
   354        190
   355         43
   356          2