##TITLE=Library Entry 85945
##JCAMP-DX=Revision 4.10 
##DATA TYPE=MASS SPECTRUM
##SAMPLE DESCRIPTION=A.A.Kutin, Moscow, Russia
##NAMES=HP
##CAS NAME=Benzaldehyde, 3-(4-fluorobenzyloxy)-4-methoxy-
##MOLFORM=C15H13FO3
##CAS REGISTRY NO=351066-28-9
##MP= -300
##BP= -300
##MW= 260
##$RETENTION INDEX=0
##$CONDENSED SPECTRUM=NO
##NPOINTS= 99
##XYDATA=(XY..XY) 1 
    33          0
    37          5
    38         13
    39         45
    40          5
    41         28
    42          0
    43          8
    44          0
    45          0
    47          3
    48          0
    49          3
    50         35
    51         84
    52         29
    53         13
    55          6
    56          1
    57         44
    58          2
    59         18
    61          2
    62         11
    63         46
    64          6
    65         34
    66          5
    67         13
    68          2
    69          2
    70          1
    71          0
    73          0
    74          3
    75         11
    76         10
    77         33
    78          6
    79         76
    80         17
    81         12
    82          5
    83        148
    84          6
    85          4
    86          0
    87          2
    88          1
    89         17
    90          1
    91          3
    92          2
    93          1
    94          0
    95         34
    96          2
    97          3
    98          0
   104          1
   105          4
   106          0
   107         33
   108         36
   109        999
   110        146
   111          5
   118          0
   119         12
   120          1
   121          6
   122          7
   123          7
   125          1
   126          0
   127          1
   133          0
   137          0
   139          0
   144          0
   148          0
   149          8
   151          7
   152          0
   157          1
   158          0
   159          1
   168          0
   170          0
   187          0
   188          0
   198          0
   199          0
   208          0
   232          0
   258          0
   259          0
   260         69
   261         13