##TITLE=Library Entry 89966
##JCAMP-DX=Revision 4.10 
##DATA TYPE=MASS SPECTRUM
##SAMPLE DESCRIPTION=A.A.Kutin, Moscow, Russia
##NAMES=HP
##CAS NAME=Furoxan, 3-[[hydroxy(4-methyl-3-furoxanyl)methyl]amino]methyl-4-m
ethyl-
##MOLFORM=C8H11N5O5
##CAS REGISTRY NO=351065-13-9
##MP= -300
##BP= -300
##MW= 257
##$RETENTION INDEX=0
##$CONDENSED SPECTRUM=NO
##NPOINTS= 149
##XYDATA=(XY..XY) 1 
    34          0
    35          0
    36          6
    37          7
    38         28
    39        123
    40         46
    41         88
    42        204
    43        173
    44         29
    45          8
    46         32
    50         34
    51        100
    52         87
    53        793
    54         52
    55         42
    56         63
    57         26
    58         32
    59         12
    60         16
    61          1
    62          0
    63          4
    64          7
    65         17
    66         57
    67        148
    68         27
    69         66
    70         20
    71          9
    72          9
    73          8
    74          4
    75          0
    76          0
    77         10
    78          3
    79          8
    80         41
    81         21
    83        318
    84        160
    85         30
    86          6
    87          2
    89          0
    91         14
    92          7
    93          6
    94          6
    95          7
    96          4
    97         43
    98         58
    99          9
   100          7
   101          8
   102          0
   104          2
   105          2
   106          3
   107          6
   108          4
   109          6
   110         12
   111         10
   113        999
   114        144
   115         37
   116          3
   117          2
   118          8
   119          3
   120          6
   121          4
   122          3
   123         29
   124          8
   125          3
   126          4
   127          8
   128          7
   129          3
   130          1
   131          0
   132          1
   133          2
   134          1
   135          3
   136          2
   137          3
   138          3
   139         12
   140         11
   142         50
   143          3
   144          7
   145         24
   146          0
   147          0
   149          4
   150          4
   151          5
   152          4
   153          2
   154          3
   155          0
   158        173
   159          8
   160          1
   162          2
   163          2
   164          2
   165          1
   166          1
   167          5
   168          1
   169          0
   170         13
   171          2
   172          0
   179          1
   180         27
   181          7
   182          1
   183          6
   184          1
   185          0
   193          0
   195          0
   196          0
   197          4
   209          0
   222          2
   224         22
   225          2
   227          0
   240        211
   241         21
   242          2
   255          1
   256          1
   257          7
   258          0