##TITLE=Library Entry 36758
##JCAMP-DX=Revision 4.10 
##DATA TYPE=MASS SPECTRUM
##SAMPLE DESCRIPTION=A.A.Kutin, Moscow, Russia
##NAMES=HP
##CAS NAME=Cyclopentanecarboxamide, N-(4,5,6,7-tetrahydro-6-tert-butyl-3-cya
no-2-benzothienyl)-
##MOLFORM=C19H26N2OS
##CAS REGISTRY NO=351061-05-7
##MP= -300
##BP= -300
##MW= 330
##$RETENTION INDEX=0
##$CONDENSED SPECTRUM=NO
##NPOINTS= 161
##XYDATA=(XY..XY) 1 
    33          1
    39         95
    41        476
    42         26
    43         22
    45          9
    47          1
    50          1
    51          5
    53         30
    55         80
    57        163
    58          8
    59          5
    60          3
    61          0
    62          0
    63          2
    64          8
    65         17
    67         88
    69        999
    70         36
    71          5
    72          0
    73          0
    75          1
    76          4
    77          9
    78          7
    79          4
    80          1
    81          2
    83         11
    84          3
    85          1
    88          0
    89          4
    90          7
    91         12
    92          3
    93          2
    94          4
    95          9
    97        152
    98          6
    99          1
   102          2
   103          2
   104          4
   105         10
   106          4
   107          1
   108          1
   109          3
   110          2
   111          1
   112          0
   113          0
   114          2
   115          7
   116         12
   117          9
   118          6
   119          3
   120          2
   121          9
   122          6
   123          6
   124          1
   125          0
   127          1
   128          1
   129          2
   130          3
   131          4
   132          2
   133          2
   134          4
   135          8
   137         13
   138          1
   139          0
   141          3
   142          9
   143         10
   144          9
   146          7
   148         26
   150        393
   151         44
   152         23
   153          2
   154          0
   155          2
   156          1
   157          2
   158          2
   159          6
   160          6
   161         10
   162          9
   163         16
   164          5
   165          2
   166          0
   168          0
   169          1
   170          1
   171          0
   172          1
   173          2
   174          7
   175         44
   176         40
   177         71
   178         19
   179          3
   180          0
   183          0
   185          1
   186          0
   187          1
   188          1
   189          3
   190          1
   191          3
   192          1
   199          0
   201          2
   202          0
   203          3
   204          2
   205          0
   216          1
   217          2
   218          5
   219         33
   220          3
   221          0
   230          2
   231         11
   234        970
   235        133
   236         39
   237          6
   246          0
   260          0
   261          2
   273          1
   274          0
   286          0
   288          0
   315          2
   326          1
   327          3
   328          5
   330        101
   331         17
   332          7
   333          0