##TITLE=Library Entry 13435
##JCAMP-DX=Revision 4.10 
##DATA TYPE=MASS SPECTRUM
##SAMPLE DESCRIPTION=Chemical Concepts
##NAMES=HP
##CAS NAME=N-(10,11-Dihydro-5H-dibenzo[b,f]azepin-5-yl)malonamic acid
##MOLFORM=C17H16N2O3
##CAS REGISTRY NO=351073-44-4
##MP= -300
##BP= -300
##MW= 296
##$RETENTION INDEX=0
##$CONDENSED SPECTRUM=NO
##NPOINTS= 107
##XYDATA=(XY..XY) 1 
    35         22
    36        118
    38         96
    39        326
    40        130
    41        167
    43        999
    44        432
    45         69
    50        102
    51        255
    52         79
    53         27
    55        114
    57         81
    59         16
    60         29
    61         26
    63        212
    65        215
    66         17
    67         16
    68         11
    69         39
    70         40
    71         31
    73         21
    74         26
    75         45
    76         72
    77        236
    78         43
    79         29
    80         10
    81         16
    82         30
    83        106
    85         18
    87         57
    89        202
    90         68
    91        158
    92         24
    93         22
    95         19
    97         91
    98          9
   101         17
   102         39
   103         23
   105         98
   106         33
   111         10
   112         14
   113         21
   115         78
   116         45
   117         50
   118         20
   121         15
   125          9
   126         20
   127         27
   128         39
   129         15
   130         13
   131         17
   132          9
   139         45
   140         26
   141         13
   150         37
   152        103
   153         24
   154         18
   162         10
   163         26
   165        209
   166         70
   167        143
   168         27
   171         12
   176         23
   177         61
   178        129
   179        102
   180        188
   181         49
   182         87
   190         75
   191        165
   192        358
   193        806
   194        596
   195        175
   196         18
   206         13
   207         47
   209        634
   210        261
   211         36
   236         14
   250         14
   252        409
   253         64
   296        113
   297         21