##TITLE=Library Entry 72747
##JCAMP-DX=Revision 4.10 
##DATA TYPE=MASS SPECTRUM
##SAMPLE DESCRIPTION=A.A.Kutin, Moscow, Russia
##NAMES=HP
##CAS NAME=Ethanediamide, N-[2-(1-piperazinyl)ethyl]-N'-(4-propoxyphenyl)-
##MOLFORM=C17H26N4O3
##CAS REGISTRY NO=351067-55-5
##MP= -300
##BP= -300
##MW= 334
##$RETENTION INDEX=0
##$CONDENSED SPECTRUM=NO
##NPOINTS= 177
##XYDATA=(XY..XY) 1 
    34          3
    35          0
    36          1
    37          0
    39          6
    40         60
    41         31
    42         23
    43         47
    44         93
    45          7
    46          0
    47          2
    49          0
    50          1
    51          4
    52          3
    53          5
    54          4
    55         21
    56         65
    57         33
    58         10
    59          1
    60          5
    61          0
    63          3
    65          7
    66          1
    67          3
    68          5
    69         14
    70         59
    71         19
    72          7
    73          5
    74          2
    75          1
    76          2
    77          6
    78          2
    79          6
    80          5
    81         12
    82          8
    83         14
    84         25
    85         16
    86          1
    87          3
    88          1
    89          0
    91         13
    92          4
    93          4
    95          5
    96          0
    97         18
    99        999
   100         56
   101          1
   102          1
   103          0
   104          4
   105          4
   106          3
   107          9
   108         70
   109         27
   110          3
   111          8
   112         13
   113         21
   114          1
   115          1
   116          0
   117          9
   119         12
   120          3
   121          6
   122          1
   123          1
   125         19
   126          4
   127          4
   128          2
   129          2
   130          0
   131          1
   132          0
   133          0
   134          3
   135         42
   136         11
   137          2
   139          2
   140          1
   143          0
   144          0
   145          1
   146          3
   148          1
   149          8
   150         12
   151          7
   152          4
   153          0
   154          9
   155          1
   156         42
   157          5
   161          0
   162          1
   163          0
   164          4
   165          0
   166          0
   167          2
   168          1
   171         12
   172          0
   175          1
   177          9
   178          5
   179          2
   180          2
   187          1
   189          1
   191          0
   192          0
   194          1
   196          0
   205          2
   206         14
   207          4
   218          0
   219          0
   222          4
   223          0
   224          1
   225          0
   227          0
   231          1
   233          0
   235          7
   236          3
   247          2
   248          5
   249         62
   250          9
   251          1
   259          0
   260          0
   261          0
   263          5
   265          1
   266          4
   267          0
   278          4
   279          0
   283          2
   290          0
   291         24
   292         18
   293          2
   301          0
   304          5
   305          6
   306          0
   315          2
   316          0
   319          0
   332          2
   333         22
   334        278
   335         62
   336          7