##TITLE=Library Entry 12995
##JCAMP-DX=Revision 4.10 
##DATA TYPE=MASS SPECTRUM
##SAMPLE DESCRIPTION=Scientific Instruments & Applications
##NAMES=HP
##CAS NAME=Ethanethioic acid, S-[(4-bromophenyl)methyl] ester
##MOLFORM=C9H9BrOS
##CAS REGISTRY NO=351003-15-1
##MP= -300
##BP= -300
##MW= 244
##$RETENTION INDEX=0
##$CONDENSED SPECTRUM=NO
##NPOINTS= 83
##XYDATA=(XY..XY) 1 
    38         26
    39         78
    40          9
    41          2
    43        999
    44         32
    45        155
    46          7
    47          7
    48          2
    49          5
    50         38
    51         37
    52          5
    53          1
    58          2
    59          5
    60          4
    61          9
    62         24
    63         63
    64         21
    65          3
    69         10
    70          2
    71          3
    73          2
    74         10
    75         19
    76         17
    77         31
    78         20
    79          3
    80          2
    81          2
    82          3
    85          3
    86          5
    87          5
    88          5
    89        118
    90        109
    91         10
    93          4
    94          1
    95          2
    96          2
   107          2
   117          2
   119          2
   120          9
   121         36
   122         34
   123          7
   124          1
   135          5
   145          1
   155          1
   156          1
   157          2
   165         57
   166          5
   167          5
   169        222
   170         20
   171        213
   172         16
   183          2
   184          1
   185          2
   186          2
   199          4
   200         18
   201         46
   202         34
   203         49
   204         14
   205          3
   244         48
   245          6
   246         53
   247          5
   248          1