##TITLE=Library Entry 35986
##JCAMP-DX=Revision 4.10 
##DATA TYPE=MASS SPECTRUM
##SAMPLE DESCRIPTION=NIST Mass Spectrometry Data Center
##NAMES=HP
##CAS NAME=Cyclohexanone, 2-(1-mercapto-1-methylethyl)-5-methyl-, (2S-trans)
-
##MOLFORM=C10H18OS
##CAS REGISTRY NO=35117-85-2
##MP= -300
##BP= -300
##MW= 186
##$RETENTION INDEX=1366
##$CONDENSED SPECTRUM=NO
##NPOINTS= 93
##XYDATA=(XY..XY) 1 
    27         47
    29         50
    33          4
    34          6
    38          8
    39        190
    40         35
    41        553
    42         77
    43        144
    44          7
    45         40
    46          4
    47         57
    49          2
    50         10
    51         32
    52         20
    53        151
    54         34
    55        359
    56         69
    57         61
    58         22
    59        127
    60         11
    61         33
    62          5
    63         13
    65         38
    66         14
    67        216
    68         53
    69        999
    70        201
    71         81
    72          6
    73         22
    74         42
    75        473
    76         22
    77         78
    78          8
    79         77
    80         14
    81        357
    82        118
    83        257
    84         85
    85         28
    86          5
    87         47
    88         37
    89         16
    91         35
    93        133
    94         64
    95        174
    96         24
    97        262
    98         30
    99         18
   100          7
   101         30
   102         17
   103         10
   107         65
   108         10
   109        715
   110        109
   111        213
   112        645
   113         65
   114          2
   115         16
   123         40
   124         16
   125         22
   126          5
   127          9
   129          4
   135         94
   136          8
   137         51
   138          4
   143          7
   151          5
   152        114
   153        319
   154         35
   186        222
   187         29
   188         12