##TITLE=Library Entry 17826
##JCAMP-DX=Revision 4.10 
##DATA TYPE=MASS SPECTRUM
##SAMPLE DESCRIPTION=TEXAS A&M UNIVERSITY, COLLEGE STATION, TEXAS, USA
##NAMES=HP
##CAS NAME=Ethanone, 2-methoxy-1-[(2-methoxy-1-phenylethylidene)hydrazono]-1
-phenyl-
##MOLFORM=C18H20N2O2
##CAS REGISTRY NO=35115-96-9
##MP= -300
##BP= -300
##MW= 296
##$RETENTION INDEX=0
##$CONDENSED SPECTRUM=NO
##NPOINTS= 115
##XYDATA=(XY..XY) 1 
    15         11
    26          1
    27          4
    28          1
    29         25
    30          2
    31          2
    38          3
    39         15
    40          1
    41          4
    42          2
    43          3
    45        999
    46         20
    47          3
    50         17
    51         59
    52         10
    53          2
    58          9
    59          3
    60          5
    61          1
    62          4
    63         17
    64          4
    65         23
    66          1
    74          5
    75          9
    76         23
    77        205
    78         20
    79          3
    87          1
    88          1
    89         17
    90         17
    91        130
    92         12
   101          2
   102         17
   103        256
   104        359
   105         35
   106          3
   115          7
   116         11
   117         20
   118        156
   119         51
   120          6
   121         66
   122          5
   130          4
   131         13
   132          5
   133         35
   134         30
   135          6
   136          3
   145          2
   146          7
   147         17
   148         51
   149         20
   150         10
   151          1
   159          1
   160          1
   161         25
   162         17
   163          2
   165          1
   178          6
   179          2
   180          4
   191          2
   192         23
   193          6
   194          1
   202          1
   203          3
   204          3
   205          4
   206          2
   218          1
   219          6
   220          5
   221         56
   222         10
   223          1
   233         17
   234          6
   235          4
   236          3
   249          4
   250          3
   251        564
   252        102
   253         10
   254          1
   263          5
   264          3
   265          9
   266         33
   267          7
   281        133
   282         30
   283          3
   296        692
   297        133
   298         17
   299          1