##TITLE=Library Entry 63247
##JCAMP-DX=Revision 4.10 
##DATA TYPE=MASS SPECTRUM
##SAMPLE DESCRIPTION=Chemical Concepts
##NAMES=HP
##CAS NAME=Urea, N'-(4-methylphenyl)-N-phenyl-N-(phenylmethyl)-
##MOLFORM=C21H20N2O
##CAS REGISTRY NO=35113-69-0
##MP= -300
##BP= -300
##MW= 316
##$RETENTION INDEX=0
##$CONDENSED SPECTRUM=NO
##NPOINTS= 116
##XYDATA=(XY..XY) 1 
    27         13
    28          8
    29          1
    30          1
    37          1
    38          4
    39         45
    40          4
    41         14
    42          1
    43          0
    44          0
    45          0
    49          0
    50         10
    51         47
    52         17
    53         10
    54          2
    55          0
    57          0
    59          0
    61          0
    62          2
    63         16
    64         12
    65        100
    66          8
    67          1
    74          1
    75          4
    76          5
    77        128
    78         34
    79         49
    80          4
    87          0
    88          0
    89         11
    91        999
    92         71
    93         13
    94          1
   102          1
   103          2
   104         37
   105         20
   106         92
   107         31
   108          3
   115          1
   116          1
   117          0
   118          4
   119         24
   120         31
   121          3
   127          1
   128          0
   129          0
   131          0
   132         10
   133         13
   134          3
   135          1
   139          0
   140          0
   141          0
   146          0
   147          0
   151          1
   152          2
   153          1
   154          2
   155          0
   156          0
   158          2
   161          0
   165          2
   166          1
   167          5
   168          1
   169          0
   177          0
   178          0
   179          0
   180         13
   181         43
   182         75
   183        228
   184         30
   185          2
   194          1
   195          2
   196         33
   197         61
   198          9
   199          0
   208          1
   209          1
   210          1
   211          0
   222          0
   223          2
   224          2
   225          6
   226          1
   237          1
   238          0
   239          0
   314          1
   315          5
   316        224
   317         51
   318          6
   319          0