##TITLE=Library Entry 72493
##JCAMP-DX=Revision 4.10 
##DATA TYPE=MASS SPECTRUM
##SAMPLE DESCRIPTION=Japan AIST/NIMC Database- Spectrum MS-IW-1590
##NAMES=HP
##CAS NAME=Ethyl .alpha.-bromocyclobutanecarboxylate
##MOLFORM=C7H11BrO2
##CAS REGISTRY NO=35120-18-4
##MP= -300
##BP= -300
##MW= 206
##$RETENTION INDEX=0
##$CONDENSED SPECTRUM=NO
##NPOINTS= 101
##XYDATA=(XY..XY) 1 
    14          1
    15          5
    25          1
    26         39
    27        161
    28         45
    29        290
    30          7
    31         12
    37          1
    38          6
    39         77
    40         10
    41         26
    42         10
    43         78
    44          5
    45         99
    46          3
    47          1
    49          1
    50         11
    51         26
    52         14
    53        463
    54        130
    55         78
    56          4
    57          9
    59          3
    67          1
    68          4
    69          8
    70          3
    71         61
    72         11
    73          8
    77          1
    79          2
    80          5
    81        185
    82         23
    83          5
    85          4
    89          3
    91          1
    93          2
    95          2
    97          5
    98          9
    99        999
   100         61
   101          6
   104          1
   105         32
   106         19
   107         35
   108         19
   109          4
   111          1
   113          1
   117          1
   119          2
   120          1
   121          2
   122          1
   123          1
   127        695
   128         53
   129          4
   131          2
   132         10
   133        339
   134         43
   135        330
   136         30
   137          2
   149          2
   150        124
   151         15
   152        120
   153         12
   154          1
   159          1
   160         23
   161         51
   162         26
   163         57
   164          3
   165          9
   177          4
   178        162
   179         15
   180        158
   181         10
   182          1
   205          1
   206          4
   207          6
   208          5
   209          5