##TITLE=Library Entry 75865
##JCAMP-DX=Revision 4.10 
##DATA TYPE=MASS SPECTRUM
##SAMPLE DESCRIPTION=A.A.Kutin, Moscow, Russia
##NAMES=HP
##CAS NAME=Indole-2,3(2H,3H)-dione, 5-bromo-, 3-(5-tetrazolyl)hydrazone
##MOLFORM=C9H6BrN7O
##CAS REGISTRY NO=351329-66-3
##MP= -300
##BP= -300
##MW= 307
##$RETENTION INDEX=0
##$CONDENSED SPECTRUM=NO
##NPOINTS= 224
##XYDATA=(XY..XY) 1 
    33          0
    34          0
    35          6
    36         64
    37         11
    38         18
    39         82
    40         18
    41        142
    42        787
    43        268
    44        185
    45        103
    48         20
    49         86
    50        295
    51        289
    52        165
    53         84
    54         14
    55         20
    56         10
    57         33
    58         24
    59         27
    60         32
    61        134
    62        177
    63        233
    64        113
    65         98
    66         21
    67          9
    68         11
    69         22
    70          8
    71          7
    72         24
    73         98
    74        311
    75        504
    76        195
    77        111
    78         53
    79         49
    80         28
    81         39
    82         27
    83         18
    84         48
    85         41
    86         48
    87         52
    88         85
    89         86
    90        229
    91         59
    93         31
    94          2
    95          6
    96          4
    97          6
    98         34
    99         87
   100        122
   101        162
   102        999
   103        291
   104         61
   105         33
   106         21
   107          5
   108          3
   109          2
   110          3
   111          9
   112          7
   113          8
   114         12
   115         63
   116        105
   117        130
   118         52
   119         56
   120         24
   121          2
   122          0
   123          1
   124          0
   125          1
   126          6
   127         14
   128         27
   129         16
   130        152
   131         44
   132         21
   133         12
   134          1
   135          1
   137          1
   138          0
   139          2
   140          8
   141         13
   142         17
   143         12
   144         19
   145          8
   146          9
   147          6
   148          6
   149          4
   150          1
   151          2
   152          4
   153         10
   154        104
   155         23
   156        114
   157         14
   158         12
   159         13
   160          2
   161          1
   164          0
   165          1
   166          2
   167          3
   168         27
   169         37
   170         48
   171         42
   172         23
   173          4
   174          0
   177          0
   179         10
   180         21
   181        193
   182         87
   183        191
   184         67
   185         17
   186          1
   187          1
   191          0
   192          1
   193          2
   194          9
   195         33
   196        130
   197        114
   198        126
   199         91
   200          8
   201          2
   203          0
   206          6
   207          7
   209        299
   210         55
   211        287
   212         43
   213         33
   214          3
   220          6
   221          7
   222         42
   223         24
   224        102
   225         58
   226         65
   227         43
   228          4
   229          4
   230          0
   233          0
   234          6
   235          9
   236         19
   237        257
   238         47
   239        274
   240         29
   241         22
   242          2
   243          0
   245          1
   247          1
   248          4
   249          5
   250         14
   251          8
   252         11
   253          3
   254          1
   259          1
   261          2
   262          2
   263          5
   264          7
   265         46
   266         10
   267         40
   268          5
   269          1
   275          0
   276          0
   277          2
   278          2
   279          6
   280          1
   281          5
   282          1
   283          0
   287          1
   289          2
   290          0
   291          2
   293          0
   307         20
   309         21
   310          2