##TITLE=Library Entry 96552
##JCAMP-DX=Revision 4.10 
##DATA TYPE=MASS SPECTRUM
##SAMPLE DESCRIPTION=A.A.Kutin, Moscow, Russia
##NAMES=HP
##CAS NAME=2-[2-(4-Amino-furazan-3-yl)-benzoimidazol-1-ylmethyl]-benzonitril
e
##MOLFORM=C17H12N6O
##CAS REGISTRY NO=351365-65-6
##MP= -300
##BP= -300
##MW= 316
##$RETENTION INDEX=0
##$CONDENSED SPECTRUM=NO
##NPOINTS= 199
##XYDATA=(XY..XY) 1 
    36          0
    37          2
    38          6
    39         35
    40         13
    41          9
    42          6
    43          5
    44          5
    45          0
    49          0
    50         18
    51         30
    52         14
    53          8
    54          4
    55          5
    56          1
    57          5
    58          8
    60          0
    61          1
    62         15
    63         60
    64         37
    65         23
    66          5
    67          1
    68          0
    69          3
    70          1
    71          1
    73          2
    74          6
    75         25
    76         36
    77         36
    78          8
    79          1
    80          0
    81          0
    82          0
    83          1
    84          0
    85          0
    86          1
    87          5
    88         23
    89        249
    90         74
    91         21
    92          5
    93          1
    94          0
    95          0
    96          0
    97          0
    99          2
   100          3
   101          7
   102         39
   103         16
   104          7
   105          3
   106          0
   107          0
   108          0
   109          0
   110          0
   111          1
   112          1
   113          3
   114         21
   116        999
   117         89
   118         13
   119          3
   120          0
   121          0
   122          0
   123          0
   124          0
   125          2
   126          2
   127          3
   128          4
   129         23
   131         26
   132          4
   133          0
   136          0
   137          2
   138          4
   139          3
   140          3
   141          4
   142          4
   143         75
   144         28
   145          4
   146          0
   147          0
   148          0
   149          2
   150          4
   151          8
   152          5
   153          2
   154          1
   155          0
   156         21
   157          6
   158         12
   159          2
   160          0
   161          0
   162          0
   163          1
   164          1
   165          3
   166          0
   167          1
   168          0
   169          0
   170          3
   171          5
   172          1
   173          0
   174          0
   175          1
   176          4
   177         10
   178          3
   179          1
   180          0
   181          1
   182          0
   183          0
   185          0
   186          1
   187          1
   188          0
   189          1
   190          2
   191          0
   192          0
   197          0
   201          0
   202          1
   203          3
   204          4
   205          6
   206          2
   207          1
   214          0
   215          1
   216          1
   217          1
   218          4
   219          9
   220          1
   228          0
   230         10
   231         18
   232         12
   233          3
   234          2
   240          1
   241          2
   242          7
   243         80
   244         86
   245         18
   246          2
   247          0
   254          1
   255          8
   257         18
   258         29
   259        247
   260         45
   261          4
   262          0
   268          0
   269          2
   270          5
   271         10
   272          5
   273          0
   274          0
   282          1
   283          2
   286         72
   287         16
   288          1
   299          0
   316         93
   317         17
   318          1