##TITLE=Library Entry 33236
##JCAMP-DX=Revision 4.10 
##DATA TYPE=MASS SPECTRUM
##SAMPLE DESCRIPTION=Asinex Ltd, Moscow, Russia
##NAMES=HP
##CAS NAME=1,2,4-Triazolo[4,3-b]pyridazine, 3-heptafluoropropyl-6-(4,6-dimet
hyl-2-pyrimidylthio)-
##MOLFORM=C14H9F7N6S
##CAS REGISTRY NO=351346-36-6
##MP= -300
##BP= -300
##MW= 426
##$RETENTION INDEX=0
##$CONDENSED SPECTRUM=NO
##NPOINTS= 230
##XYDATA=(XY..XY) 1 
    37         45
    38         56
    39        370
    40        104
    41         64
    42        152
    43         30
    44         18
    45        124
    46         11
    47          8
    50         14
    51         36
    52         56
    53        114
    54         27
    55         38
    56         15
    57         47
    58         31
    59         28
    60         11
    62          6
    63         34
    64        207
    65         91
    66        226
    67        999
    69        207
    70         81
    71         58
    72        157
    73         10
    74         25
    75          6
    76         21
    77         17
    78         30
    79         38
    80        121
    81         81
    82         47
    83         58
    84         52
    85         22
    86          5
    87          7
    88          8
    89         22
    90          9
    91         18
    92         15
    93         52
    94         85
    95         40
    96        229
    97         30
    98         96
    99         30
   100        149
   102         43
   103          6
   104         21
   105         36
   106         16
   107        380
   108         93
   109         13
   110         15
   111         13
   112         52
   113         26
   114         20
   116         36
   117         12
   118         17
   119         39
   120         32
   121         22
   122         12
   123         17
   124         94
   125         45
   126         12
   127          5
   128          4
   129         15
   130         12
   131         18
   132         17
   133         28
   134         11
   135          6
   136          5
   137         48
   138         72
   139         99
   140        158
   141         29
   142         14
   143         26
   144         27
   145         45
   146         14
   147          5
   148         11
   149         17
   150         11
   151         12
   152         13
   153         11
   154          5
   155          7
   156         12
   157         25
   158         39
   159         11
   160          3
   161         19
   162         12
   163         10
   164         11
   165         24
   166          4
   167          4
   168          4
   169         31
   170        159
   171        250
   172         35
   173         14
   174          9
   175         35
   176         42
   177         15
   178          8
   179          7
   181          8
   182          4
   183          5
   185          9
   186          9
   187          7
   188         22
   189        199
   190        131
   191         25
   192          7
   193          5
   195         12
   196         22
   197          7
   198          6
   199          4
   200         18
   201         17
   202        144
   203        140
   204         34
   205         11
   206          5
   208          5
   213         21
   214         46
   215         12
   216          4
   217         11
   219          4
   220         19
   221         17
   226         31
   227          9
   228         22
   229        632
   230        100
   231         47
   232          7
   238         16
   239          4
   240          5
   241          4
   251          6
   252         32
   253          5
   257         26
   258          6
   259          5
   264          6
   266          5
   276          9
   279         31
   280          5
   283          6
   288          3
   289         24
   294         18
   301         20
   302         10
   307         60
   308         13
   309          4
   326         10
   327          4
   328         11
   340          4
   342          7
   352         35
   353          6
   356          7
   357          8
   367         13
   368        113
   369         18
   370          5
   371          4
   383          3
   384          9
   393         18
   400          8
   407         64
   408         11
   409          4
   411        376
   412         63
   413         22
   425        225
   426        748
   427        148
   428         46
   429          6