##TITLE=Library Entry 18140
##JCAMP-DX=Revision 4.10 
##DATA TYPE=MASS SPECTRUM
##SAMPLE DESCRIPTION=Chemical Concepts
##NAMES=HP
##CAS NAME=5-Methyl-4,7-diphenyl-5H-5,6-diazaindene
##MOLFORM=C20H16N2
##CAS REGISTRY NO=351371-39-6
##MP= -300
##BP= -300
##MW= 284
##$RETENTION INDEX=0
##$CONDENSED SPECTRUM=NO
##NPOINTS= 110
##XYDATA=(XY..XY) 1 
    39        330
    40         19
    41         25
    43        147
    51        999
    52         78
    53         10
    54          3
    55          5
    57          5
    63        313
    64         53
    65         57
    66         10
    74        129
    75        119
    77        925
    78         94
    79          9
    80          3
    82          9
    86         58
    87         71
    88         57
    89         74
    91        114
    92          6
    94         15
    95         11
    98         34
    99         24
   100         23
   101         21
   103        124
   104         37
   105          9
   107         23
   108          9
   110         19
   111         15
   113         65
   115        116
   116         26
   117         29
   118         58
   120         51
   122         10
   123          5
   126         89
   127         32
   128         19
   129          8
   130         14
   131          3
   134         42
   137         20
   139         91
   140         51
   141         20
   142         26
   150         49
   151         58
   152         86
   153         47
   154         10
   155          3
   161          5
   163         36
   164         32
   165         21
   166         42
   167         11
   174          6
   175          7
   176         12
   177         19
   178         17
   180         50
   181          6
   186          4
   187         10
   188          5
   189          9
   190          6
   191          8
   192         26
   193          4
   200          8
   201          4
   202          8
   205         13
   206          4
   207          6
   211          5
   212          4
   213         14
   214          4
   215          8
   226          7
   227          3
   237         18
   239         59
   240          9
   241          4
   254          6
   256          3
   281         13
   283         78
   284        120
   285         23