##TITLE=Library Entry 78787
##JCAMP-DX=Revision 4.10 
##DATA TYPE=MASS SPECTRUM
##SAMPLE DESCRIPTION=A.A.Kutin, Moscow, Russia
##NAMES=HP
##CAS NAME=Benzamide, 4-benzoyl-N-(immino)(methylthio)methyl-
##MOLFORM=C16H14N2O2S
##CAS REGISTRY NO=351417-57-7
##MP= -300
##BP= -300
##MW= 298
##$RETENTION INDEX=0
##$CONDENSED SPECTRUM=NO
##NPOINTS= 117
##XYDATA=(XY..XY) 1 
    33          8
    34          0
    36          0
    37          1
    38          6
    39         13
    40          5
    41          2
    42          1
    44          9
    45         17
    47         33
    48          4
    51        288
    53          2
    54          1
    55          0
    56          0
    57          0
    58          0
    59          0
    60          0
    61          0
    62          2
    63          5
    64          3
    65          2
    66          0
    69         10
    70          0
    71          0
    72          0
    74         17
    77        650
    78         29
    80          0
    81          0
    82          0
    83          0
    84          0
    86          2
    88          0
    89          0
    90          1
    91          1
    92          0
    93          0
    94          0
    97          0
    99          0
   100          0
   105        999
   106         51
   107          3
   109          1
   110          0
   115          0
   118          2
   119          0
   120          0
   121          0
   122          0
   123          0
   124          0
   125          0
   127          0
   129          1
   130          0
   132          0
   133          0
   134          0
   135          0
   145          0
   147          8
   148          0
   149          0
   150          0
   151          0
   152          2
   153          0
   161          0
   164          0
   165          0
   176          0
   177          0
   178          0
   179          0
   180          0
   193          2
   194          0
   195          0
   196          0
   204          0
   207         35
   208          3
   209          1
   210          0
   221          1
   222          0
   223          0
   251          3
   252          0
   253          0
   256          0
   265          0
   269          0
   279          0
   280          0
   281          1
   283         37
   284          6
   285          1
   286          0
   295          0
   298         11
   299          2
   300          0