##TITLE=Library Entry 84989
##JCAMP-DX=Revision 4.10 
##DATA TYPE=MASS SPECTRUM
##SAMPLE DESCRIPTION=A.A.Kutin, Moscow, Russia
##NAMES=HP
##CAS NAME=Thiourea, 1-(3-chloro-4-fluorophenyl)-3-(3-methyl-2-pyridyl)-
##MOLFORM=C13H11ClFN3S
##CAS REGISTRY NO=351425-19-9
##MP= -300
##BP= -300
##MW= 295
##$RETENTION INDEX=0
##$CONDENSED SPECTRUM=NO
##NPOINTS= 142
##XYDATA=(XY..XY) 1 
    33         13
    34          4
    35          0
    36          4
    37          7
    39        144
    40         25
    41         37
    42         40
    44          8
    45          6
    46          0
    50         17
    51         17
    52         25
    53         27
    54          6
    55          2
    56          5
    57         16
    58          2
    59          3
    60          3
    62         17
    63         27
    65        254
    66         54
    67         15
    68         13
    69          9
    70          3
    71          0
    72          1
    73          2
    74         10
    75          5
    76          4
    77          4
    78         10
    80        224
    81        303
    83         10
    84          2
    85          1
    86          2
    87          1
    88          2
    89          2
    92        318
    93         47
    94         16
    95          3
    96          1
    97          2
    98          1
   100          1
   103          2
   105          4
   108        999
   109         65
   110          7
   111          4
   112          2
   113          2
   114          3
   115          0
   116          4
   117         15
   119         19
   120          5
   122          2
   123          3
   124          0
   125          4
   126          9
   127          5
   129         41
   130         37
   131         11
   132          4
   133          7
   134         23
   135          3
   136          0
   137          0
   138          1
   139          5
   140          6
   141          5
   142          6
   143          3
   145         62
   147         19
   148         12
   149          6
   151        316
   153         15
   154          2
   155          3
   156          1
   157          0
   158          0
   160          2
   161          4
   162          1
   163          1
   165          0
   167          3
   168         16
   170          4
   171          0
   172          0
   175          0
   176          4
   178          1
   179          1
   187         12
   188          3
   189          4
   200          1
   201          0
   202          0
   203          1
   204          0
   205          0
   219          0
   226          1
   227          0
   235          0
   258          7
   259         11
   260          5
   262         39
   263          5
   264          9
   265          0
   292          2
   295        229
   296         39
   297         63
   298         10
   299          2