##TITLE=Library Entry 89169
##JCAMP-DX=Revision 4.10 
##DATA TYPE=MASS SPECTRUM
##SAMPLE DESCRIPTION=Asinex Ltd, Moscow, Russia
##NAMES=HP
##CAS NAME=Thiophene-2-carboxamide, N-[3-(4-oxo-4H-3,1-benzoxazin-2-yl)pheny
l]-
##MOLFORM=C19H12N2O3S
##CAS REGISTRY NO=351459-70-6
##MP= -300
##BP= -300
##MW= 348
##$RETENTION INDEX=0
##$CONDENSED SPECTRUM=NO
##NPOINTS= 130
##XYDATA=(XY..XY) 1 
    36          2
    37          1
    38          4
    39         36
    40         17
    41          4
    42          2
    43         10
    44          5
    45          3
    50          7
    51          3
    52          1
    53          2
    54          0
    55          1
    56          1
    57          9
    58          1
    62          3
    63         15
    64         15
    65          8
    66          0
    69          4
    70          2
    71          2
    74          2
    75          4
    76          9
    77          8
    78          1
    79          0
    81          2
    82          7
    83         37
    84          5
    85          2
    88          0
    89          9
    90         52
    91         32
    92          9
    93          3
    97          0
    98          0
    99          2
   101          1
   102          2
   104          1
   105          1
   106          0
   107          0
   109          0
   111        999
   112         62
   113         50
   114          3
   115          2
   116          0
   117          2
   118          8
   119         14
   120          5
   121          1
   125         33
   126          3
   127         15
   128          3
   129          2
   130          2
   131          0
   132          0
   133          0
   134          0
   138          0
   139          3
   140          4
   141          1
   142          0
   144          2
   145          7
   146         31
   147          4
   149          0
   150          0
   151          2
   152          2
   153          1
   154          5
   155          0
   164          1
   165          0
   166          4
   167          4
   171          5
   172          2
   173          0
   174          1
   177          2
   178          1
   179          2
   180          1
   181          5
   182          7
   183          0
   189          0
   191          0
   192          1
   194          0
   195          0
   196          1
   200          1
   201          1
   202          1
   203          1
   204          4
   208          1
   209          6
   228          1
   230          8
   231          2
   232          0
   237         10
   238          2
   247          0
   283          0
   348         95
   349          6
   350          6