##TITLE=Library Entry 9602
##JCAMP-DX=Revision 4.10 
##DATA TYPE=MASS SPECTRUM
##SAMPLE DESCRIPTION=J. Klune, Insect Chem. Ecol. Lab., USDA, Beltsville, MD
 20705
##NAMES=HP
##CAS NAME=9-Dodecen-1-ol, acetate, (E)-
##MOLFORM=C14H26O2
##CAS REGISTRY NO=35148-19-7
##MP= -300
##BP= -300
##MW= 226
##$RETENTION INDEX=1607
##$CONDENSED SPECTRUM=NO
##NPOINTS= 99
##XYDATA=(XY..XY) 1 
    41        664
    42        121
    43        999
    44         28
    45          7
    50          1
    51          7
    52          6
    53         88
    54        246
    55        584
    56         87
    57         61
    58          6
    59          3
    60          0
    61         99
    62          2
    63          1
    65         22
    66         57
    67        577
    68        761
    69        350
    70         49
    71         39
    72          5
    73         28
    74          0
    75          1
    77         14
    78          4
    79         54
    80         44
    81        599
    82        854
    83        210
    84         28
    85         32
    86          5
    87          3
    89          4
    91          8
    92          1
    93         19
    94         27
    95        417
    96        453
    97        188
    98         23
    99          8
   100          5
   101         28
   102          1
   103          2
   105          1
   107          7
   108         15
   109        238
   110        262
   111        121
   112         12
   113          2
   114          3
   115          2
   121          6
   122         12
   123        137
   124        134
   125         36
   126          4
   127          1
   128          1
   129          0
   135          4
   136          6
   137         83
   138         72
   139         10
   140          1
   141          0
   149          2
   150          0
   151         11
   152          3
   153          2
   155          1
   163          2
   164          6
   165         69
   166        504
   167        148
   168         15
   169          2
   224          1
   225         10
   226        243
   227         37
   228          5