##TITLE=Library Entry 5823
##JCAMP-DX=Revision 4.10 
##DATA TYPE=MASS SPECTRUM
##SAMPLE DESCRIPTION=A.A.Kutin, Moscow, Russia
##NAMES=HP
##CAS NAME=Benzoic acid, 4-iodo-2-(2-methyl-1-oxopropylamino)-
##MOLFORM=C11H12INO3
##CAS REGISTRY NO=351424-01-6
##MP= -300
##BP= -300
##MW= 333
##$RETENTION INDEX=0
##$CONDENSED SPECTRUM=NO
##NPOINTS= 72
##XYDATA=(XY..XY) 1 
    33         24
    34          1
    37         24
    38         58
    39        123
    40         68
    41        262
    43        999
    45         42
    50         20
    51         16
    52         35
    53         18
    54          4
    55         15
    56          1
    58          0
    61          8
    62         32
    63         62
    64         24
    65         10
    66          4
    67          0
    68          0
    69          4
    70          7
    71         37
    72          1
    73          1
    74          6
    75         10
    76          3
    77          1
    78          2
    79          3
    80          4
    87          0
    88          3
    89         10
    90         19
    91         26
    92          3
   108          6
   117          7
   118          1
   119          4
   127         41
   128          1
   130          0
   136         11
   137          2
   145          8
   146          1
   160          1
   161          1
   164          0
   165          1
   190          0
   191          1
   216          6
   217          3
   218          2
   245         19
   246          1
   254          3
   263         31
   264          1
   272          5
   300          1
   315          1
   333          2