##TITLE=Library Entry 66995
##JCAMP-DX=Revision 4.10 
##DATA TYPE=MASS SPECTRUM
##SAMPLE DESCRIPTION=A.A.Kutin, Moscow, Russia
##NAMES=HP
##CAS NAME=4H-3,1-Benzoxazin-4-one, 6,8-dibromo-2-(1-phenoxyethyl)-
##MOLFORM=C16H11Br2NO3
##CAS REGISTRY NO=351424-73-2
##MP= -300
##BP= -300
##MW= 423
##$RETENTION INDEX=0
##$CONDENSED SPECTRUM=NO
##NPOINTS= 171
##XYDATA=(XY..XY) 1 
    33          1
    34          6
    36          9
    37         16
    38         32
    39        160
    40        122
    41         12
    42          8
    43         54
    44         46
    45          4
    50         33
    51        102
    52         11
    53         13
    55        312
    56         32
    57         10
    61         30
    62         25
    63         39
    64         22
    65        120
    66         49
    67          4
    68          2
    69          2
    70          2
    71          3
    73         16
    74         63
    75         24
    77        274
    78         18
    79         13
    80         21
    81         11
    82         21
    83          2
    84          0
    85          1
    86          4
    87         23
    88         92
    89         26
    90          6
    91         21
    94        999
    95         50
    96          4
    97          2
    99          7
   100         10
   101          6
   102          3
   103          7
   105          8
   107          0
   111          1
   114          3
   115         13
   116         56
   117         10
   118          3
   119          9
   121         38
   122          2
   125          1
   127          6
   128         16
   129          2
   130          3
   135          0
   139          1
   141          4
   142          5
   143          6
   144         15
   145          1
   149          3
   153         20
   154         11
   155         18
   156          6
   164          0
   165          1
   166          2
   167          8
   168          9
   169          8
   170          6
   171          4
   172         19
   173          4
   175          0
   176          2
   178          2
   179          2
   180          2
   181          4
   182          3
   183          2
   184          0
   194          5
   195         28
   196          7
   197         30
   198          3
   199          1
   207          0
   208          1
   209          1
   211          0
   221          0
   222          3
   223         24
   224          6
   225         21
   226          2
   233          2
   234          0
   235          4
   237          2
   246         25
   248         50
   249          6
   250         26
   251         11
   252          8
   253          8
   254          4
   260          0
   262          0
   273          0
   275          4
   276          6
   277          7
   278          9
   279          4
   280          3
   285          5
   286          1
   287         11
   288          9
   289          6
   290         14
   291          0
   292          5
   300          0
   301          1
   302         24
   303          5
   304         36
   305          5
   306         19
   307          0
   325          0
   328          4
   329         29
   330        103
   331         58
   332        171
   333         42
   334         84
   335          8
   423         22
   425         52
   426          7
   427         21
   428          3