##TITLE=Library Entry 73891
##JCAMP-DX=Revision 4.10 
##DATA TYPE=MASS SPECTRUM
##SAMPLE DESCRIPTION=A.A.Kutin, Moscow, Russia
##NAMES=HP
##CAS NAME=Pyrrolidine-2,5-dione, 1-(3-trifluoromethylphenyl)-3-(4H-1,2,4-tr
iazol-3-ylthio)-
##MOLFORM=C13H9F3N4O2S
##CAS REGISTRY NO=351468-47-8
##MP= -300
##BP= -300
##MW= 342
##$RETENTION INDEX=0
##$CONDENSED SPECTRUM=NO
##NPOINTS= 161
##XYDATA=(XY..XY) 1 
    33         93
    34         12
    36          2
    37         12
    38         44
    39         61
    40         43
    42        260
    43        157
    45        249
    46         30
    47         21
    48          1
    50         32
    51         22
    54        496
    55        476
    57         56
    58         55
    59         82
    60         37
    61         12
    63         99
    64         27
    65          4
    67          4
    68          9
    69         81
    70         75
    71         64
    73         39
    74         88
    75         34
    76          8
    77          5
    78          1
    80         15
    81         10
    82         33
    83         40
    84          5
    85         14
    86         12
    87         14
    88         16
    89         13
    90         33
    91          4
    92          2
    93          3
    94          9
    95         26
    96          4
    97          2
   101        999
   103         35
   104          2
   105          0
   106          1
   107          4
   108         11
   109         33
   110          4
   112         15
   113         15
   114          7
   115          2
   116          9
   117          3
   118          3
   119          9
   120          9
   121         11
   122         21
   123          2
   126        226
   127        336
   128         28
   129         15
   130          1
   132         14
   133          9
   135         15
   137         13
   139         39
   140         10
   141          2
   142          2
   143          6
   145         93
   146          9
   147          3
   148          0
   150          0
   151          2
   152          9
   153         20
   154         56
   155        204
   156         18
   157         16
   159         58
   161         28
   162          1
   164          1
   165          2
   166         12
   168         31
   169          4
   171         73
   172         62
   173          5
   174          0
   176          0
   178          0
   181         18
   182          3
   184          6
   185         70
   187        101
   188         11
   189          0
   193          2
   194          3
   196         33
   197        134
   198         13
   199          4
   200          1
   210          0
   212         15
   213         12
   214         11
   215          3
   222         57
   224          0
   228          1
   238          5
   239         12
   241        308
   242         86
   243         13
   245          2
   246          0
   267          0
   270          0
   281          0
   308          1
   309         24
   310          3
   313          0
   322          0
   323         11
   324          1
   325          0
   338          0
   339          2
   340          3
   342        128
   343         18
   344          6