##TITLE=Library Entry 109279
##JCAMP-DX=Revision 4.10 
##DATA TYPE=MASS SPECTRUM
##SAMPLE DESCRIPTION=A.A.Kutin, Moscow, Russia
##NAMES=HP
##CAS NAME=Benzoic acid, 5-chloro-2-[2-(4-chlorophenyl)-1-oxoethyl]amino-
##MOLFORM=C15H11Cl2NO3
##CAS REGISTRY NO=351424-57-2
##MP= -300
##BP= -300
##MW= 323
##$RETENTION INDEX=0
##$CONDENSED SPECTRUM=NO
##NPOINTS= 180
##XYDATA=(XY..XY) 1 
    35          4
    36          2
    37         10
    38         27
    39         80
    40         25
    41          7
    42          4
    43          8
    44         12
    45         27
    46          0
    47          2
    49         13
    50         40
    51         59
    52         31
    53         16
    54          3
    55          3
    56          0
    57          0
    58          0
    60          2
    61         20
    62         89
    63        271
    64         64
    65         46
    66          7
    67          1
    68          1
    69          1
    70          0
    71          1
    72          9
    73         82
    74         35
    75         76
    76         17
    77         23
    78         17
    79          9
    80          4
    81          1
    84          5
    85          9
    86         14
    87         26
    88         32
    89        416
    90        224
    91         82
    92         11
    93          1
    94          1
    95          0
    96          1
    97         25
    98         28
    99        220
   100         24
   101         69
   102          9
   103          3
   104          4
   105          3
   106          3
   107          4
   108          8
   110         10
   111         10
   112          7
   113          6
   114         12
   115          7
   116         10
   117         14
   118          6
   119         15
   120          8
   121          3
   122          3
   124        366
   125        999
   126        344
   127        316
   128         75
   129          5
   130          0
   131          0
   132          2
   133          0
   134          1
   135          5
   136          7
   137         10
   138          7
   139          6
   140          6
   141          2
   142          2
   143          1
   144          0
   145          6
   146         17
   147          1
   148          0
   150          3
   151          7
   152        106
   153        210
   154         56
   155         64
   156          6
   157          0
   160          0
   161          1
   162          1
   163          1
   164          5
   166          8
   167          1
   168          2
   169          1
   171        393
   172         32
   173        130
   174          8
   175          1
   176          0
   177          1
   178          3
   180        404
   181         35
   182        134
   183         11
   184          0
   186          0
   187          0
   197          5
   198         68
   199          8
   200         23
   201          2
   206          0
   212          0
   213          1
   214          2
   215          1
   216          1
   217          0
   225          0
   235          0
   237          0
   238          0
   241          0
   242          1
   243          0
   244          0
   248          0
   250          0
   270          1
   272          0
   276          0
   278          0
   279          0
   280          0
   288          0
   289          0
   290          0
   305          1
   307          0
   309          0
   323         45
   324          8
   325         30
   326          5
   327          4
   328          0