##TITLE=Library Entry 53868
##JCAMP-DX=Revision 4.10 
##DATA TYPE=MASS SPECTRUM
##SAMPLE DESCRIPTION=V.G.Zaikin, TIPS, Russian Acad. Sci.
##NAMES=HP
##CAS NAME=1-Methyl-1-vinyl-1-silacyclobutane
##MOLFORM=C6H12Si
##CAS REGISTRY NO=3514-67-8
##MP= -300
##BP= -300
##MW= 112
##$RETENTION INDEX=0
##$CONDENSED SPECTRUM=NO
##NPOINTS= 32
##XYDATA=(XY..XY) 1 
    30         19
    31        316
    39         23
    41         19
    42         51
    43        293
    44        442
    45        205
    46         70
    52         51
    53         16
    55        112
    56         23
    57         33
    58        465
    59         60
    60         23
    66         23
    67         35
    69        144
    70         35
    71        120
    83         84
    84        999
    85         97
    86         36
    87          2
    97        102
    98         14
   112        110
   113         12
   114          4