##TITLE=Library Entry 7364
##JCAMP-DX=Revision 4.10 
##DATA TYPE=MASS SPECTRUM
##SAMPLE DESCRIPTION=NIST Mass Spectrometry Data Center, 1998.
##NAMES=HP
##CAS NAME=11-Dodecen-1-yl acetate
##MOLFORM=C14H26O2
##CAS REGISTRY NO=35153-10-7
##MP= -300
##BP= -300
##MW= 226
##$RETENTION INDEX=1604
##$CONDENSED SPECTRUM=NO
##NPOINTS= 101
##XYDATA=(XY..XY) 1 
    14          1
    15         10
    26          3
    27         56
    28         20
    29        105
    30          3
    31          7
    37          1
    38          3
    39        148
    40         28
    41        546
    42        131
    43        999
    44         30
    45          7
    50          3
    51          9
    52          6
    53         86
    54        480
    55        854
    56        138
    57         88
    58         16
    59          4
    60          2
    61        159
    62          4
    63          2
    65         18
    66         56
    67        601
    68        639
    69        449
    70         66
    71         30
    72         17
    73         43
    74          2
    77         12
    78          3
    79         49
    80         37
    81        582
    82        779
    83        265
    84         34
    85         12
    86          6
    87          5
    88          1
    91          5
    92          1
    93         15
    94         23
    95        420
    96        449
    97        103
    98         21
    99          4
   100          4
   101          5
   102          1
   105          1
   107          5
   108          9
   109        209
   110        203
   111         32
   112          5
   113          2
   114          3
   115          2
   116          6
   117          1
   121          3
   122          5
   123         93
   124        102
   125         14
   126          1
   127          1
   128          1
   129          1
   135          1
   136          2
   137         50
   138         54
   139          6
   140          1
   141          1
   143          1
   151          4
   152          1
   153          1
   165          2
   166         34
   167          5
   183          1