##TITLE=Library Entry 31870
##JCAMP-DX=Revision 4.10 
##DATA TYPE=MASS SPECTRUM
##SAMPLE DESCRIPTION=K.G.TAYLOR DEPT. OF CHEM., UNIV., LOUISVILLE, KY., USA
##NAMES=HP
##CAS NAME=Diazene, 1-ethyl-2-phenyl-, 1-oxide, (Z)-
##MOLFORM=C8H10N2O
##CAS REGISTRY NO=35150-77-7
##MP= -300
##BP= -300
##MW= 150
##$RETENTION INDEX=0
##$CONDENSED SPECTRUM=NO
##NPOINTS= 9
##XYDATA=(XY..XY) 1 
    51        230
    64        160
    65        999
    77        620
    78         80
    91        140
   108         30
   121        170
   150        240