##TITLE=Library Entry 4356
##JCAMP-DX=Revision 4.10 
##DATA TYPE=MASS SPECTRUM
##SAMPLE DESCRIPTION=Div. of Experiment Therapeutics WRAIR, WRAMC, Washingto
n DC 20307
##NAMES=HP
##CAS NAME=6-Bromo-3-chloro-2,4-decamethylene quinoline
##MOLFORM=C19H23BrClN
##CAS REGISTRY NO=35158-97-5
##MP= -300
##BP= -300
##MW= 379
##$RETENTION INDEX=0
##$CONDENSED SPECTRUM=NO
##NPOINTS= 232
##XYDATA=(XY..XY) 1 
    41        999
    42        180
    43        359
    44         11
    49         36
    50         17
    51         72
    52         22
    53        109
    54         34
    55        286
    56         28
    57         26
    62         17
    63         71
    64         12
    65         25
    67         57
    68          8
    69         67
    73          9
    74         16
    75         41
    76         33
    77         64
    78         11
    79         22
    81         20
    82         12
    84         37
    86         26
    87         28
    88         33
    89         48
    90         25
    91         13
    95         23
    97         27
    98          8
    99         31
   100         23
   101         28
   102         31
   103          8
   104          8
   108         13
   111          7
   112          9
   113         67
   114         55
   115         68
   116         19
   117         11
   123          7
   124         11
   125         35
   126        107
   127        103
   128         36
   129         15
   130          8
   134         10
   138         21
   139        103
   140        117
   141         49
   142         12
   143          9
   148         12
   149         16
   150         18
   151         51
   152        143
   153        222
   154        224
   155         49
   156         11
   161         16
   162         13
   163         15
   164         27
   165         33
   166        126
   167        202
   168         76
   169         22
   174         11
   175         15
   176         15
   177         26
   178         72
   179         67
   180        139
   181         55
   182         15
   187         14
   188         50
   189         27
   190         38
   191         43
   192         44
   193         49
   194         46
   195         20
   196         14
   200          7
   201         23
   202         46
   203         54
   204         68
   205         33
   206         47
   207         19
   208         28
   210          7
   214         44
   215         29
   216         50
   217         25
   218         21
   219         10
   220         21
   221         17
   222         26
   223         10
   224          7
   228         30
   229         20
   230         29
   231         20
   232         51
   233         37
   234         59
   235         34
   236         20
   237         12
   242         20
   243          9
   244         16
   245         16
   246         19
   247         28
   248         24
   249         18
   250         12
   255          9
   256         94
   257         30
   258        170
   259         49
   260        105
   261         42
   262         34
   263         11
   264         12
   265         12
   266         22
   268         59
   269        377
   270         96
   271        357
   272         63
   273         94
   274         48
   275         19
   276         45
   277         15
   278         26
   280         10
   281         38
   282        316
   283        119
   284        489
   285        104
   286        155
   287         28
   288         33
   289          9
   290         50
   291         12
   292         61
   293         12
   294         94
   295        132
   296        162
   297        137
   298         81
   299         32
   300        108
   301         32
   302         74
   303         18
   304         18
   308         52
   309         18
   310         88
   311         28
   312         31
   313         10
   314         11
   315          8
   316         27
   317          8
   318         22
   322         38
   324         69
   325         16
   326         32
   327         14
   328         14
   336         25
   338         99
   339         16
   340        101
   341         19
   342         27
   343         20
   344        581
   345        143
   346        616
   347        146
   348         16
   350         23
   352         19
   378         47
   379        174
   380        174
   381        289
   382        230
   383        126
   384         74
   385         14