##TITLE=Library Entry 46753
##JCAMP-DX=Revision 4.10 
##DATA TYPE=MASS SPECTRUM
##SAMPLE DESCRIPTION=K.G.TAYLOR DEPT. OF CHEM., UNIV., LOUISVILLE, KY., USA
##NAMES=HP
##CAS NAME=Diazene, methylphenyl-, 1-oxide, (E)-
##MOLFORM=C7H8N2O
##CAS REGISTRY NO=35150-75-5
##MP= -300
##BP= -300
##MW= 136
##$RETENTION INDEX=0
##$CONDENSED SPECTRUM=NO
##NPOINTS= 8
##XYDATA=(XY..XY) 1 
    51        340
    64        250
    65        790
    77        999
    78        170
    91        390
   121        210
   136        570