##TITLE=Library Entry 20570
##JCAMP-DX=Revision 4.10 
##DATA TYPE=MASS SPECTRUM
##SAMPLE DESCRIPTION=NIST Mass Spectrometry Data Center, 1998.
##NAMES=HP
##CAS NAME=cis-9-Tetradecen-1-ol
##MOLFORM=C14H28O
##CAS REGISTRY NO=35153-15-2
##MP= -300
##BP= -300
##MW= 212
##$RETENTION INDEX=1667
##$CONDENSED SPECTRUM=NO
##NPOINTS= 89
##XYDATA=(XY..XY) 1 
    15          1
    26          3
    27         71
    28         17
    29        109
    30          5
    31        151
    32          2
    38          2
    39        115
    40         22
    41        551
    42        101
    43        207
    44         21
    45         15
    50          2
    51          9
    52          7
    53         90
    54        361
    55        999
    56        181
    57        130
    58          9
    59          3
    63          2
    65         27
    66         50
    67        564
    68        359
    69        349
    70         85
    71         49
    72          7
    73          4
    77         22
    78          6
    79         61
    80         32
    81        551
    82        584
    83        181
    84         33
    85         28
    86          5
    87          1
    91         10
    92          1
    93         17
    94         15
    95        373
    96        369
    97         91
    98         17
    99          7
   100          1
   105          1
   107          5
   108          6
   109        168
   110        136
   111         26
   112          9
   113          2
   121          3
   122          5
   123         67
   124         55
   125          8
   126          4
   127          1
   135          2
   136          2
   137         30
   138         34
   139          4
   140          1
   151         10
   152          9
   153          1
   165          4
   166         15
   167          2
   168          1
   184          1
   194         29
   195          5
   212          1