##TITLE=Library Entry 9597
##JCAMP-DX=Revision 4.10 
##DATA TYPE=MASS SPECTRUM
##SAMPLE DESCRIPTION=NIST Mass Spectrometry Data Center, 1998.
##NAMES=HP
##CAS NAME=5-Tetradecen-1-ol, acetate, (Z)-
##MOLFORM=C16H30O2
##CAS REGISTRY NO=35153-13-0
##MP= -300
##BP= -300
##MW= 254
##$RETENTION INDEX=1790
##$CONDENSED SPECTRUM=NO
##NPOINTS= 112
##XYDATA=(XY..XY) 1 
    14          1
    15         10
    26          3
    27         62
    28         14
    29        136
    30          4
    31          6
    37          1
    38          2
    39        110
    40         22
    41        505
    42         87
    43        999
    44         29
    45          7
    50          2
    51          9
    52          9
    53        106
    54        535
    55        570
    56        107
    57        174
    58         11
    59          2
    60          2
    61         41
    62          1
    63          2
    64          1
    65         43
    66         81
    67        837
    68        589
    69        329
    70         70
    71         53
    72          4
    73         16
    74          1
    77         46
    78         11
    79        189
    80        107
    81        689
    82        947
    83        290
    84         36
    85         18
    86          3
    87          2
    88          1
    91         27
    92          4
    93         50
    94         43
    95        605
    96        602
    97        146
    98         20
    99          4
   100          1
   101          5
   102          1
   103          1
   105          3
   106          1
   107          9
   108         12
   109        219
   110        190
   111         44
   112         16
   113          2
   114          1
   115          1
   116          1
   121          4
   122          9
   123        112
   124        153
   125         21
   126          5
   127          2
   128          1
   135          2
   136          6
   137         92
   138        164
   139         18
   140          1
   141          2
   142          1
   150          1
   151         18
   152         21
   153          3
   155          1
   165          6
   166        105
   167         14
   168          1
   170          1
   179          1
   193          1
   194        143
   195         23
   196          2
   209          1
   211          1