##TITLE=Library Entry 14840
##JCAMP-DX=Revision 4.10 
##DATA TYPE=MASS SPECTRUM
##SAMPLE DESCRIPTION=Div. of Experiment Therapeutics WRAIR, WRAMC, Washingto
n DC 20307
##NAMES=HP
##CAS NAME=6-Acetyl-3-chloro-2,4-decanobenzo[h]quinoline
##MOLFORM=C25H28ClNO
##CAS REGISTRY NO=35158-84-0
##MP= -300
##BP= -300
##MW= 393
##$RETENTION INDEX=0
##$CONDENSED SPECTRUM=NO
##NPOINTS= 201
##XYDATA=(XY..XY) 1 
    41        434
    42         98
    43        999
    44         24
    49         11
    51         17
    53         37
    54          9
    55        180
    56         16
    57         18
    63         15
    65         10
    67         25
    69         38
    70          2
    75         10
    77         18
    79         12
    81         17
    87          5
    88         13
    89         11
    91          6
    94          9
    95         10
    96          7
    99          2
   100          5
   101         16
   102         16
   107          7
   108         10
   109         27
   113          6
   114         19
   115         34
   116          3
   120          9
   121          4
   122          9
   123          6
   125          6
   126         14
   127         20
   128          9
   129          3
   130          2
   135          6
   137          7
   139         10
   140         12
   141          2
   149          6
   150         17
   151         26
   152         19
   153          2
   162          3
   163         32
   164         19
   165         17
   167          3
   172          8
   175         17
   176         43
   177         33
   178         25
   179         11
   180          6
   187          9
   188         20
   189         54
   190         52
   191         21
   192          9
   200          5
   201         23
   202         50
   203        104
   204        130
   205         43
   206         17
   207         10
   213          3
   214         31
   215         33
   216         71
   217         75
   218         45
   219         16
   220         15
   225          9
   226         11
   227         15
   228         34
   229         24
   230         62
   231         38
   232         40
   233         18
   234         10
   238         18
   239         18
   240         34
   241         41
   242         34
   243         26
   244         34
   245         12
   246         20
   247         10
   248         14
   249         20
   250         10
   251         19
   252         44
   253         38
   254         59
   255         30
   256         30
   257         17
   258         21
   259         10
   260         15
   261         12
   262         32
   263          6
   264         18
   265         14
   266         46
   267         44
   268         40
   269         20
   270         59
   271         12
   272         26
   273          8
   274         22
   275         13
   276         11
   278         21
   279         15
   280         33
   281         23
   282         44
   283        198
   284         51
   285         73
   286         30
   287          6
   288         21
   289         10
   290         20
   292          3
   293          5
   294         27
   295         32
   296        315
   297         86
   298        103
   299         18
   300         16
   302         18
   303          2
   304         46
   305         14
   308         38
   309         55
   310         53
   311         30
   312         18
   314         20
   315          9
   316         27
   322         57
   323         18
   324         22
   325          3
   330         24
   336         24
   337          9
   338         35
   339         12
   340         12
   350        105
   351         29
   352         73
   353         15
   354         15
   357         13
   358        461
   359        141
   360         23
   364         14
   378         13
   392         33
   393        294
   394         93
   395        100
   396         30