##TITLE=Library Entry 51276
##JCAMP-DX=Revision 4.10 
##DATA TYPE=MASS SPECTRUM
##SAMPLE DESCRIPTION=Japan AIST/NIMC Database- Spectrum MS-NW-5386
##NAMES=HP
##CAS NAME=cis-3-Hexenyl isovalerate
##MOLFORM=C11H20O2
##CAS REGISTRY NO=35154-45-1
##MP= -300
##BP= -300
##MW= 184
##$RETENTION INDEX=1238
##$CONDENSED SPECTRUM=NO
##NPOINTS= 60
##XYDATA=(XY..XY) 1 
    15         12
    18          2
    26          9
    27        132
    28         31
    29        196
    31         10
    38          8
    39        145
    40         28
    41        436
    42         76
    43        183
    44          9
    45         10
    50          7
    51         16
    52          9
    53         45
    54         75
    55        259
    56         88
    57        672
    58         34
    59         19
    60         32
    61         28
    62          1
    63          6
    65         18
    66         12
    67        787
    68         57
    69         44
    70          6
    71          7
    77          5
    79         12
    80          6
    81         60
    82        999
    83        161
    84         60
    85        582
    86         36
    87         32
    91         59
    92         43
    93          3
    96          5
    97          1
    99          1
   100          2
   101          4
   102          9
   103         82
   104          6
   114          5
   115          4
   129          1