##TITLE=Library Entry 20578
##JCAMP-DX=Revision 4.10 
##DATA TYPE=MASS SPECTRUM
##SAMPLE DESCRIPTION=NIST Mass Spectrometry Data Center, 2011
##NAMES=HP
##CAS NAME=11-Tetradecen-1-ol, (E)-
##MOLFORM=C14H28O
##CAS REGISTRY NO=35153-18-5
##MP= -300
##BP= -300
##MW= 212
##$RETENTION INDEX=1673
##$CONDENSED SPECTRUM=NO
##NPOINTS= 97
##XYDATA=(XY..XY) 1 
    15          2
    19          2
    26          4
    27         68
    28         21
    29        132
    30          5
    31        166
    32          2
    33          1
    38          3
    39        124
    40         27
    41        803
    42        141
    43        195
    44         23
    45         18
    50          3
    51         11
    52          8
    53        103
    54        302
    55        999
    56        182
    57        146
    58         10
    59          4
    63          2
    64          1
    65         29
    66         60
    67        754
    68        947
    69        730
    70        136
    71         66
    72          8
    73          5
    77         21
    78          5
    79         60
    80         37
    81        689
    82        996
    83        303
    84         51
    85         39
    86          6
    87          1
    91          9
    92          1
    93         19
    94         23
    95        518
    96        538
    97        138
    98         24
    99         12
   100          2
   101          1
   103          1
   107          6
   108          8
   109        236
   110        178
   111         38
   112         12
   113          4
   114          1
   115          1
   121          5
   122          7
   123        101
   124         83
   125         13
   126          6
   127          2
   135          2
   136          3
   137         48
   138         53
   139          6
   140          1
   150          1
   151         14
   152         16
   153          2
   165          7
   166         26
   167          4
   168          1
   179          1
   184          1
   194         39
   195          7
   212          1