##TITLE=Library Entry 57043
##JCAMP-DX=Revision 4.10 
##DATA TYPE=MASS SPECTRUM
##SAMPLE DESCRIPTION=A.A.Kutin, Moscow, Russia
##NAMES=HP
##CAS NAME=1,3-Dioxolane-2-acetic acid, 2-methyl-, [(4-hydroxyphenyl)methyle
ne]hydrazide
##MOLFORM=C13H16N2O4
##CAS REGISTRY NO=351516-59-1
##MP= -300
##BP= -300
##MW= 264
##$RETENTION INDEX=0
##$CONDENSED SPECTRUM=NO
##NPOINTS= 159
##XYDATA=(XY..XY) 1 
    33          0
    34          0
    36          1
    37          4
    39        106
    40         23
    41         56
    42         85
    43        460
    44         28
    45         35
    46          4
    48          0
    50         20
    51         44
    52         29
    53         24
    54          4
    55         13
    56          3
    57          7
    58          8
    59         44
    60          3
    61          3
    62          7
    63         22
    64         15
    65         46
    66          7
    67          5
    68         15
    69         17
    70          2
    71          2
    72          2
    73          3
    74          3
    75          3
    77         57
    78         35
    79         11
    80         17
    81         12
    82          1
    83          2
    84          4
    85         17
    87        999
    88         37
    89          8
    90         10
    91         18
    92          5
    93         17
    94         11
    95          1
    97          0
    98          2
    99          5
   100          5
   102         28
   103          4
   105         31
   106         24
   107         12
   108          9
   109          3
   110          0
   111          0
   113         20
   115          3
   117          5
   119         40
   120         37
   121          8
   122          2
   123          0
   125          3
   126          0
   127          1
   128          1
   129          4
   130         12
   131          1
   132          1
   133          3
   134          6
   135         31
   136         46
   137          9
   138          0
   139          0
   140          0
   141          1
   142          0
   143          0
   144          0
   145          1
   146          4
   147          2
   148          1
   149          2
   150          1
   151          0
   152          0
   153          0
   155          0
   158          0
   160          1
   161          3
   162          2
   163          7
   164          0
   165          0
   166          0
   167          0
   169          0
   170          0
   171          0
   172          0
   173          0
   175          6
   176          0
   177          0
   178          0
   179          0
   184          0
   185          0
   186          0
   187          0
   188          0
   189          0
   190          0
   191          0
   192          1
   194          0
   201          0
   203          2
   204          1
   205          0
   206          0
   207          0
   216          0
   217          0
   219          2
   220          0
   221          3
   222          0
   233          0
   234          0
   249         16
   250          2
   251          0
   262          0
   264         39
   265          5
   266          0
   267          0