##TITLE=Library Entry 2493
##JCAMP-DX=Revision 4.10 
##DATA TYPE=MASS SPECTRUM
##SAMPLE DESCRIPTION=TNO Volatile Compounds in Food - Chemical Concepts
##NAMES=HP
##CAS NAME=2-Isopropyl-5-methylhex-2-enal
##MOLFORM=C10H18O
##CAS REGISTRY NO=35158-25-9
##MP= -300
##BP= -300
##MW= 154
##$RETENTION INDEX=1106
##$CONDENSED SPECTRUM=NO
##NPOINTS= 84
##XYDATA=(XY..XY) 1 
    26         18
    27        487
    28          4
    29        245
    30         10
    31         11
    37          4
    38         23
    39        437
    40         78
    41        999
    42         85
    43        920
    44         29
    45         12
    50         20
    51         59
    52         25
    53        144
    54         26
    55        395
    56        250
    57        105
    58         14
    59         20
    60          2
    62          5
    63         18
    64          3
    65         57
    66         28
    67        151
    68         38
    69        521
    70         92
    71         30
    72          9
    75          1
    77         66
    78         14
    79        134
    80         17
    81         99
    82         21
    83        218
    84         35
    85         40
    86          8
    87          1
    91         34
    92          4
    93         80
    94         16
    95         82
    96         14
    97        431
    98         73
    99         84
   100          9
   105         15
   106          1
   107         18
   108          3
   109         14
   110          3
   111        344
   112        126
   113          9
   115          7
   119          2
   121        153
   122         15
   123         27
   124          2
   125         11
   126          2
   135          4
   136         12
   137          2
   139        249
   140         22
   153          2
   154        115
   155         15