##TITLE=Library Entry 31869
##JCAMP-DX=Revision 4.10 
##DATA TYPE=MASS SPECTRUM
##SAMPLE DESCRIPTION=K.G.TAYLOR DEPT. OF CHEM., UNIV., LOUISVILLE, KY., USA
##NAMES=HP
##CAS NAME=Diazene, ethylphenyl-, 1-oxide, (E)-
##MOLFORM=C8H10N2O
##CAS REGISTRY NO=35150-78-8
##MP= -300
##BP= -300
##MW= 150
##$RETENTION INDEX=0
##$CONDENSED SPECTRUM=NO
##NPOINTS= 8
##XYDATA=(XY..XY) 1 
    51        200
    64        160
    65        999
    77        620
    78         60
    91        150
   121        260
   150        250