##TITLE=Library Entry 31867
##JCAMP-DX=Revision 4.10 
##DATA TYPE=MASS SPECTRUM
##SAMPLE DESCRIPTION=K.G.TAYLOR, DEPT. OF CHEM., UNIV. LOUISVILLE, KY., USA
##NAMES=HP
##CAS NAME=Diazene, methylphenyl-, 1-oxide, (Z)-
##MOLFORM=C7H8N2O
##CAS REGISTRY NO=35150-74-4
##MP= -300
##BP= -300
##MW= 136
##$RETENTION INDEX=0
##$CONDENSED SPECTRUM=NO
##NPOINTS= 10
##XYDATA=(XY..XY) 1 
    51        200
    64        290
    65        999
    77        350
    78         80
    91        300
   121        300
   136        280
   137         23
   138          0