##TITLE=Library Entry 78659
##JCAMP-DX=Revision 4.10 
##DATA TYPE=MASS SPECTRUM
##SAMPLE DESCRIPTION=Chemical Concepts
##NAMES=HP
##CAS NAME=4-Phenylazobenzaldehyde
##MOLFORM=C13H10N2O
##CAS REGISTRY NO=3516-76-5
##MP= -300
##BP= -300
##MW= 210
##$RETENTION INDEX=0
##$CONDENSED SPECTRUM=NO
##NPOINTS= 106
##XYDATA=(XY..XY) 1 
    25          1
    26          6
    27         82
    28         37
    29         29
    30          0
    38         38
    39         80
    40         10
    41         33
    42         32
    43         13
    44         26
    50        163
    51        702
    52         50
    53          7
    54          2
    55          9
    56         18
    57         19
    58          1
    59          0
    60          3
    61          8
    62         20
    63         78
    64         56
    65         30
    66          6
    67          3
    68          1
    69         13
    70          3
    71          5
    72          0
    73          5
    74         31
    75         38
    76        123
    77        952
    78        195
    79          8
    80          1
    89         11
    90          6
    91         12
    92         15
    93          9
    94          1
    95          2
    96          0
    97          2
    98          1
    99          1
   100          0
   101          3
   102          5
   103          5
   104         24
   105        999
   106        100
   107         12
   108          1
   109          1
   110          0
   111          1
   112          0
   113          1
   114          0
   115          8
   125          1
   126          4
   127         10
   128          7
   129          2
   130          0
   131          0
   132          1
   133         97
   134          7
   135          3
   136          0
   137          0
   138          0
   139          3
   140          0
   141          0
   142          0
   143          0
   144          0
   149          5
   150          5
   151         21
   152        151
   153         51
   154         10
   155          1
   156          0
   180          0
   181          9
   182          2
   210        433
   211         73
   212         12
   213          1