##TITLE=Library Entry 23285
##JCAMP-DX=Revision 4.10 
##DATA TYPE=MASS SPECTRUM
##SAMPLE DESCRIPTION=Exported from NIST MS Search
##NAMES=HP
##CAS NAME=tert-Butyl Methyl disulfide
##MOLFORM=C5H12S2
##CAS REGISTRY NO=35166-82-6
##MP= -300
##BP= -300
##MW= 136
##$RETENTION INDEX=950
##$CONDENSED SPECTRUM=NO
##NPOINTS= 74
##XYDATA=(XY..XY) 1 
     2          2
    12          1
    13          3
    14          9
    15         51
    16          1
    26          9
    27        110
    28         22
    29        481
    30         10
    32          5
    33          3
    34          2
    35          2
    37          4
    38         10
    39        124
    40         13
    41        513
    42         20
    43         24
    44          3
    45         94
    46         32
    47         39
    48          7
    49         13
    50          5
    51          5
    52          1
    53         12
    54          7
    55         48
    56         14
    57        999
    58         52
    59         43
    60          6
    61          7
    62          1
    64         37
    65          4
    66          4
    67          1
    68          1
    69          3
    70          1
    71          3
    72          1
    73         38
    74          6
    75          3
    76          1
    78          2
    79         36
    80        170
    81         10
    82         15
    83          1
    87          4
    88          8
    89          5
    90          1
    93          1
   107          1
   108          4
   111          1
   113          1
   121          4
   136        155
   137          7
   138         13
   139          1