##TITLE=Library Entry 156
##JCAMP-DX=Revision 4.10 
##DATA TYPE=MASS SPECTRUM
##SAMPLE DESCRIPTION=A.Pleshkova, Nesmeyanov Inst.Org.Elem.Cpds, Moscow
##NAMES=HP
##CAS NAME=2-Propyn-1-amine, N-methyl-
##MOLFORM=C4H7N
##CAS REGISTRY NO=35161-71-8
##MP= -300
##BP= -300
##MW= 69
##$RETENTION INDEX=0
##$CONDENSED SPECTRUM=NO
##NPOINTS= 23
##XYDATA=(XY..XY) 1 
    26         22
    27         82
    28        999
    29         36
    30        235
    31         21
    37         26
    38        101
    39        979
    40        100
    41        770
    42         36
    43         98
    44        103
    45          7
    51         12
    52         74
    53         12
    54         53
    55          4
    68        934
    69        377
    70         17