##TITLE=Library Entry 45872
##JCAMP-DX=Revision 4.10 
##DATA TYPE=MASS SPECTRUM
##SAMPLE DESCRIPTION=BAY 0361
##NAMES=HP
##CAS NAME=3,38-Dioxa-2,39-disilatetracontane, 2,2,39,39-tetramethyl-
##MOLFORM=C40H86O2Si2
##CAS REGISTRY NO=35177-13-0
##MP= -300
##BP= -300
##MW= 654
##$RETENTION INDEX=0
##$CONDENSED SPECTRUM=NO
##NPOINTS= 91
##XYDATA=(XY..XY) 1 
    41        102
    42         20
    43        261
    45         28
    54         26
    55        342
    56         63
    57        551
    58         35
    59         61
    61        114
    67        100
    68         67
    69        506
    70         56
    71        394
    72         33
    73        538
    74         52
    75        999
    76         80
    77         56
    80         18
    81        125
    82        151
    83        570
    84         50
    85        278
    86         18
    87         18
    89        138
    91        312
    92         26
    93         24
    95        127
    96         95
    97        573
    98         48
    99        127
   101         67
   103        489
   104         44
   105         26
   109         74
   110         37
   111        314
   112         28
   113         93
   115         46
   123         41
   125        157
   127         48
   129         97
   131         18
   133         42
   135         39
   137         24
   139         59
   141         33
   143         18
   147        338
   148         59
   149        186
   150         27
   151         15
   153         33
   155         22
   163         35
   165        611
   166        100
   167         63
   169         18
   177         28
   312        310
   313         41
   474         63
   475         26
   521         37
   549        166
   550         74
   551         26
   564        153
   565         65
   623        164
   624         85
   625         29
   639        248
   640        134
   641         41
   654         80
   655         39