##TITLE=Library Entry 50209
##JCAMP-DX=Revision 4.10 
##DATA TYPE=MASS SPECTRUM
##SAMPLE DESCRIPTION=NIST Mass Spectrometry Data Center, 2010
##NAMES=HP
##CAS NAME=Uridine, 2'-deoxy-, 3',5'-bis(trifluoroacetate)
##MOLFORM=C13H10F6N2O7
##CAS REGISTRY NO=35170-15-1
##MP= -300
##BP= -300
##MW= 420
##$RETENTION INDEX=2023
##$CONDENSED SPECTRUM=NO
##NPOINTS= 126
##XYDATA=(XY..XY) 1 
    15          3
    20          1
    26          9
    27         23
    28         26
    29         22
    30          1
    31          4
    33          2
    38          2
    39         22
    40         22
    41         56
    42         31
    43         36
    44         16
    45         11
    46          1
    47          9
    50          7
    51          9
    52         13
    53        131
    54         60
    55         31
    56          7
    57          4
    58          1
    59          9
    60          1
    64          1
    65          3
    66          3
    67         15
    68         49
    69        249
    70         25
    71          9
    72          1
    73          9
    74          1
    75          1
    77          2
    78          7
    79          6
    80         21
    81        999
    82         65
    83          7
    84          5
    85          2
    89          3
    90          1
    91         15
    92          3
    93          3
    94          6
    95         17
    96         40
    97         29
    98          3
    99         20
   100          1
   104          1
   106          1
   107          4
   108         25
   109          6
   110          1
   111          2
   112        116
   113        200
   114         11
   115          4
   117          1
   118          1
   119          1
   120          3
   121          1
   122         13
   123          2
   124          9
   125          5
   126          2
   127          4
   128          1
   132          1
   135          1
   136         21
   137          5
   138          2
   139          7
   140          1
   141          1
   148          5
   149          1
   150         16
   151          8
   152          1
   153          9
   154          2
   157          1
   165          2
   166          3
   167         13
   168          1
   169          1
   179          3
   181          1
   183          1
   192          6
   193          7
   194         20
   195         11
   196          1
   209          1
   221          1
   262          1
   264          2
   265          1
   293          2
   307          3
   308          1
   309          4
   420          4
   421          1