##TITLE=Library Entry 54315
##JCAMP-DX=Revision 4.10 
##DATA TYPE=MASS SPECTRUM
##SAMPLE DESCRIPTION=V.A.Korolev, Moscow, Russia
##NAMES=HP
##CAS NAME=7-Amino-S-triazolo(1,5-a)pyrimidin-5(4H)-one
##MOLFORM=C5H5N5O
##CAS REGISTRY NO=35186-69-7
##MP= -300
##BP= -300
##MW= 151
##$RETENTION INDEX=0
##$CONDENSED SPECTRUM=NO
##NPOINTS= 45
##XYDATA=(XY..XY) 1 
    38         29
    39         67
    40        259
    41        369
    42         80
    43         78
    44         47
    45          2
    51          7
    52         14
    53         77
    54        113
    55        169
    56         13
    57        221
    58          3
    65          3
    66          8
    67         36
    68        443
    69         52
    70          8
    76         10
    77          2
    78          1
    82         13
    84        999
    85         37
    95         18
    96          1
   101          2
   107          3
   110          6
   111         23
   114          0
   122          5
   123         15
   124         18
   132          1
   133          3
   145          1
   151        544
   152         43
   153          1
   154          1