##TITLE=Library Entry 90798
##JCAMP-DX=Revision 4.10 
##DATA TYPE=MASS SPECTRUM
##SAMPLE DESCRIPTION=Japan AIST/NIMC Database- Spectrum MS-NW-7560
##NAMES=HP
##CAS NAME=N-Ethyl-4-hydroxypiperidine
##MOLFORM=C7H15NO
##CAS REGISTRY NO=3518-83-0
##MP= -300
##BP= -300
##MW= 129
##$RETENTION INDEX=0
##$CONDENSED SPECTRUM=NO
##NPOINTS= 74
##XYDATA=(XY..XY) 1 
    14          2
    15         28
    18          1
    26         10
    27         88
    28        118
    29         94
    30         71
    31         20
    32          1
    38          2
    39         22
    40          7
    41         55
    42        306
    43         52
    44        495
    45         21
    46          1
    47          2
    50          2
    51          4
    52          7
    53         30
    54         28
    55         96
    56        137
    57        209
    58        114
    59          6
    60          1
    63          1
    65          2
    67          9
    68         13
    69         12
    70         51
    71         44
    72         26
    73          5
    77          1
    78          2
    79          6
    80          9
    81          5
    82         13
    83          4
    84        178
    85         20
    86          8
    93          1
    94          2
    95          2
    96         34
    97          5
    98          3
    99          1
   100         10
   101          2
   108          6
   109          2
   110         53
   111          8
   112         77
   113          7
   114        999
   115         75
   116          4
   126          2
   127          2
   128        125
   129        233
   130         19
   131          2