##TITLE=Library Entry 97943
##JCAMP-DX=Revision 4.10 
##DATA TYPE=MASS SPECTRUM
##SAMPLE DESCRIPTION=Chuck Anderson, Aldrich Chemical Co.
##NAMES=HP
##CAS NAME=1,4-Epoxynaphthalene, 1,2,3,4-tetrahydro-
##MOLFORM=C10H10O
##CAS REGISTRY NO=35185-96-7
##MP= -300
##BP= -300
##MW= 146
##$RETENTION INDEX=0
##$CONDENSED SPECTRUM=NO
##NPOINTS= 96
##XYDATA=(XY..XY) 1 
    14          0
    15          0
    25          0
    26          4
    27         17
    28          4
    29          7
    30          0
    31          0
    36          0
    37          4
    38         13
    39         74
    40          6
    41          6
    42          1
    43          2
    44          0
    45          1
    46          0
    49          1
    50         25
    51         46
    52          8
    53          3
    54          0
    55          1
    57          6
    58          6
    59          2
    60          0
    61          5
    62         22
    63         63
    64         14
    65         31
    66          3
    67          0
    68          0
    69          0
    71          0
    72          5
    73          2
    74         15
    75         14
    76         14
    77         42
    78         11
    79          1
    84          0
    85          3
    86          7
    87          9
    88          5
    89        139
    90        144
    91         69
    92          5
    93          0
    97          0
    98          2
    99          1
   100          0
   101          4
   102         19
   103         34
   104          5
   105          1
   106          0
   109          0
   110          0
   111          0
   113          3
   114          3
   115        110
   116         23
   117         31
   118        999
   119         76
   120          5
   121          0
   122          0
   126          3
   127         14
   128         30
   129          7
   130          0
   131         23
   132          2
   133          0
   143          0
   144          1
   145          8
   146         62
   147          6
   148          0