##TITLE=Library Entry 34180
##JCAMP-DX=Revision 4.10 
##DATA TYPE=MASS SPECTRUM
##SAMPLE DESCRIPTION=CARL DJERASSI DEPT OF CHEM STANFORD UNIV STANFORD CALIF
 94305
##NAMES=HP
##CAS NAME=7-Octenoic acid, 3,3-dimethyl-, ethyl ester
##MOLFORM=C12H22O2
##CAS REGISTRY NO=35194-19-5
##MP= -300
##BP= -300
##MW= 198
##$RETENTION INDEX=0
##$CONDENSED SPECTRUM=NO
##NPOINTS= 29
##XYDATA=(XY..XY) 1 
    41        830
    43        290
    53        130
    54        100
    55        760
    56        240
    57        230
    59        400
    60        280
    61        290
    67        170
    69        999
    70        190
    82         90
    83        230
    87        530
    88        730
    89        110
    95        290
    96         80
    97         80
   101        140
   109        140
   110        660
   111        370
   129        220
   152         70
   153        160
   183         60