##TITLE=Library Entry 46267
##JCAMP-DX=Revision 4.10 
##DATA TYPE=MASS SPECTRUM
##SAMPLE DESCRIPTION=Chemical Concepts
##NAMES=HP
##CAS NAME=9,10-o-Benzeno-9,10-dihydroanthracene-1,4-dione
##MOLFORM=C20H12O2
##CAS REGISTRY NO=3519-82-2
##MP= -300
##BP= -300
##MW= 284
##$RETENTION INDEX=0
##$CONDENSED SPECTRUM=NO
##NPOINTS= 156
##XYDATA=(XY..XY) 1 
    33          8
    39        368
    40         11
    41         73
    42         66
    43        100
    44         16
    45         12
    47          4
    50        759
    51        215
    52        105
    53        183
    55         74
    56         37
    57         62
    58          8
    59          7
    60         46
    62         78
    63        290
    65         21
    66         18
    67         15
    68         12
    69         25
    70         19
    71         31
    73         47
    74        409
    76        999
    78        480
    79         30
    80         17
    82         54
    83         21
    84         21
    85         32
    86         46
    87        132
    88         76
    89         80
    91         45
    92         12
    93         13
    95         18
    96          6
    98        103
    99        161
   101        171
   102         36
   103         35
   105         35
   106         10
   107         13
   108         14
   110         25
   111         39
   112         32
   113        119
   114         40
   115         16
   117          6
   118         44
   119         69
   120         18
   122         18
   123         26
   124         10
   125         51
   126        142
   127         38
   128         24
   129          7
   133         30
   134         23
   135          8
   137          8
   138          5
   139         11
   140          4
   142         24
   143          7
   145          6
   147          6
   149         29
   150        136
   151        422
   152        633
   153         81
   154          9
   158          7
   162          7
   163         11
   164         13
   165          9
   171          6
   173          4
   174         23
   175         22
   176         50
   177         29
   178         83
   180        720
   181         76
   182          9
   185          4
   186         16
   187          6
   188          7
   189          5
   197          6
   198         17
   199         27
   200        122
   201        135
   202        412
   203         77
   204          8
   205         10
   207        161
   208        604
   209         70
   210         13
   211          5
   213         11
   214         13
   215         22
   216          5
   222          4
   224         28
   225         28
   226        123
   227         89
   228         80
   229         31
   230         10
   231          4
   237         13
   238         14
   239         71
   240         17
   241          8
   255        105
   256         81
   257         23
   258          6
   267         14
   268         53
   269        151
   270         30
   271          9
   284        519
   285        160
   286        168
   287         30