##TITLE=Library Entry 20708
##JCAMP-DX=Revision 4.10 
##DATA TYPE=MASS SPECTRUM
##SAMPLE DESCRIPTION=NIST Mass Spectrometry Data Center, 1990.
##NAMES=HP
##CAS NAME=1-Nonen-4-ol
##MOLFORM=C9H18O
##CAS REGISTRY NO=35192-73-5
##MP= -300
##BP= -300
##MW= 142
##$RETENTION INDEX=1103
##$CONDENSED SPECTRUM=NO
##NPOINTS= 44
##XYDATA=(XY..XY) 1 
    14          1
    15          4
    27         94
    28         19
    29        120
    30          6
    31         39
    32          1
    39        146
    41        376
    42         69
    43        246
    44         82
    45         37
    50          6
    51         13
    52          5
    53         40
    54          5
    55        999
    56         64
    57        122
    58         11
    59         22
    65         13
    66          9
    67         63
    68         25
    69         27
    70         14
    71         78
    72          8
    77          9
    79         19
    80          4
    81         34
    82          4
    83        708
    84         45
    95         12
    99         11
   101        249
   102         15
   124          9