##TITLE=Library Entry 21365
##JCAMP-DX=Revision 4.10 
##DATA TYPE=MASS SPECTRUM
##SAMPLE DESCRIPTION=CARL DJERASSI DEPT OF CHEM STANFORD UNIV STANFORD CALIF
 94305
##NAMES=HP
##CAS NAME=4-Hexenoic acid
##MOLFORM=C6H10O2
##CAS REGISTRY NO=35194-36-6
##MP= -300
##BP= -300
##MW= 114
##$RETENTION INDEX=1907
##$CONDENSED SPECTRUM=NO
##NPOINTS= 40
##XYDATA=(XY..XY) 1 
    41        550
    42        130
    43        110
    44         10
    45         80
    50         20
    51         30
    52         20
    53        130
    54        110
    55        999
    56         50
    57        120
    58         30
    59         10
    60        580
    61         20
    62         10
    63         10
    65         20
    66         10
    67        110
    68        380
    69        280
    70         20
    71         70
    72         30
    73        180
    74         10
    75         10
    81         30
    85         10
    86         10
    95         20
    96         90
    97         30
    99         80
   113         10
   114        630
   115         50