##TITLE=Library Entry 33332
##JCAMP-DX=Revision 4.10 
##DATA TYPE=MASS SPECTRUM
##SAMPLE DESCRIPTION=CARL DJERASSI DEPT OF CHEM STANFORD UNIV STANFORD CALIF
 94305
##NAMES=HP
##CAS NAME=6-Octen-2-one
##MOLFORM=C8H14O
##CAS REGISTRY NO=35194-31-1
##MP= -300
##BP= -300
##MW= 126
##$RETENTION INDEX=985
##$CONDENSED SPECTRUM=NO
##NPOINTS= 31
##XYDATA=(XY..XY) 1 
    41        220
    42         30
    43        910
    44         10
    45         10
    50         10
    51         20
    52         10
    53        100
    54         30
    55        250
    56         20
    57         20
    58        300
    59         50
    65         10
    66         20
    67        310
    68        999
    69        130
    71        100
    77         10
    79         10
    81         10
    83         40
    84         10
    93         10
    97         50
   108         80
   111         20
   126         70