##TITLE=Library Entry 20959
##JCAMP-DX=Revision 4.10 
##DATA TYPE=MASS SPECTRUM
##SAMPLE DESCRIPTION=NIST Mass Spectrometry Data Center
##NAMES=HP
##CAS NAME=7-Octenoic acid, ethyl ester
##MOLFORM=C10H18O2
##CAS REGISTRY NO=35194-38-8
##MP= -300
##BP= -300
##MW= 170
##$RETENTION INDEX=1187
##$CONDENSED SPECTRUM=NO
##NPOINTS= 66
##XYDATA=(XY..XY) 1 
    26         11
    27         90
    28         42
    29        217
    38          8
    39        218
    40         34
    41        374
    42        109
    43        139
    45        103
    46          7
    51         15
    52         11
    53        100
    54        151
    55        999
    56        140
    57         66
    58         23
    59         80
    60        247
    61        214
    65         21
    66         25
    67        243
    68        168
    69        131
    70        319
    71         66
    73        164
    77         20
    79        141
    80         98
    81        261
    82        448
    83        274
    88        726
    89         43
    90          4
    93         22
    95        143
    96        551
    97        107
    99         51
   100         28
   101        251
   102         39
   106         20
   107        157
   108         13
   109         24
   110          7
   113         25
   114         14
   123         35
   124        468
   125        165
   126         15
   127         24
   128         84
   129         30
   141         31
   142         10
   155         11
   170          6