##TITLE=Library Entry 86185
##JCAMP-DX=Revision 4.10 
##DATA TYPE=MASS SPECTRUM
##SAMPLE DESCRIPTION=Japan AIST/NIMC Database- Spectrum MS-NW-3004
##NAMES=HP
##CAS NAME=Benzene, 1-fluoro-4-methyl-
##MOLFORM=C7H7F
##CAS REGISTRY NO=352-32-9
##MP= -300
##BP= -300
##MW= 110
##$RETENTION INDEX=767
##$CONDENSED SPECTRUM=NO
##NPOINTS= 66
##XYDATA=(XY..XY) 1 
    15          1
    26          3
    27          9
    28          3
    31         13
    32          1
    33          3
    36          1
    37          7
    38         10
    39         35
    40          2
    41          1
    43          6
    44          9
    45         10
    49          4
    50         22
    51         24
    52          4
    53          1
    54          9
    55         12
    56          6
    57         55
    58          4
    59         11
    60          2
    61          9
    62         16
    63         40
    64          6
    65          7
    68          4
    69          6
    70          5
    71          1
    73          2
    74          8
    75         13
    76          2
    77          2
    80          3
    81         21
    82          6
    83        114
    84         10
    85          4
    86          4
    87          3
    88          1
    89         17
    90          6
    91         16
    92          4
    93          1
    94          2
    95          3
    96          1
   105          2
   107         35
   108         21
   109        999
   110        637
   111         45
   112          1