##TITLE=Library Entry 3306
##JCAMP-DX=Revision 4.10 
##DATA TYPE=MASS SPECTRUM
##SAMPLE DESCRIPTION=NIST Mass Spectrometry Data Center
##NAMES=HP
##CAS NAME=2,2,2-Trifluoroethyl methacrylate
##MOLFORM=C6H7F3O2
##CAS REGISTRY NO=352-87-4
##MP= -300
##BP= -300
##MW= 168
##$RETENTION INDEX=0
##$CONDENSED SPECTRUM=NO
##NPOINTS= 73
##XYDATA=(XY..XY) 1 
    12          1
    13          3
    14          7
    15         34
    20          2
    24          1
    25          4
    26         25
    27         23
    29         67
    30         11
    31         24
    33        104
    36          2
    37         33
    38         85
    39        557
    40        143
    41        999
    42         57
    43         17
    44         10
    45         18
    47          2
    49          1
    50          6
    51         11
    52          1
    53         20
    54          6
    55         34
    56          7
    57          7
    59          5
    60          3
    61          2
    63         14
    64         27
    65          1
    66          2
    67          3
    68         42
    69        749
    70         38
    71          7
    72         18
    73          2
    77          5
    80          2
    81          1
    83        130
    84          5
    85          1
    95          1
    99         15
   100         10
   101          1
   102          3
   103          9
   104         11
   109          1
   120          1
   123          3
   126          1
   127          1
   139          1
   140          1
   148          3
   149          9
   153         19
   167         26
   168        172
   169         11