##TITLE=Library Entry 53317
##JCAMP-DX=Revision 4.10 
##DATA TYPE=MASS SPECTRUM
##SAMPLE DESCRIPTION=NIST Mass Spectrometry Data Center, 1994
##NAMES=HP
##CAS NAME=p-Fluorophenyl trifluoromethyl ether
##MOLFORM=C7H4F4O
##CAS REGISTRY NO=352-67-0
##MP= -300
##BP= -300
##MW= 180
##$RETENTION INDEX=0
##$CONDENSED SPECTRUM=NO
##NPOINTS= 68
##XYDATA=(XY..XY) 1 
    12          3
    13          2
    16          1
    18          1
    19          1
    25          7
    26         22
    27          1
    28          6
    31        134
    32          5
    33         14
    36          6
    37         48
    38         54
    39         53
    40          4
    44          2
    47         23
    49         20
    50        108
    51         33
    52          4
    53         17
    55         13
    56         67
    57        401
    58         14
    60          7
    61         47
    62         55
    63        113
    64         22
    65          2
    66          6
    67          4
    68         31
    69        420
    70          7
    73         16
    74         30
    75         94
    76          7
    79          3
    81         71
    82         67
    83        999
    84         57
    88          6
    92          9
    93          7
    94         20
    95        233
    96         15
   101          4
   102          3
   111        589
   112         44
   113         22
   114         42
   115          3
   132          5
   152          4
   161         14
   179          3
   180        689
   181         56
   182          4