##TITLE=Library Entry 86187
##JCAMP-DX=Revision 4.10 
##DATA TYPE=MASS SPECTRUM
##SAMPLE DESCRIPTION=Japan AIST/NIMC Database- Spectrum MS-NW-3165
##NAMES=HP
##CAS NAME=Benzene, 1-fluoro-3-methyl-
##MOLFORM=C7H7F
##CAS REGISTRY NO=352-70-5
##MP= -300
##BP= -300
##MW= 110
##$RETENTION INDEX=767
##$CONDENSED SPECTRUM=NO
##NPOINTS= 63
##XYDATA=(XY..XY) 1 
    26          3
    27          7
    28          2
    31          9
    33          3
    37          8
    38         11
    39         38
    40          3
    41          1
    43          6
    44          9
    45          9
    49          4
    50         21
    51         26
    52          4
    53          2
    54          9
    55         13
    56          5
    57         53
    58          3
    59         11
    60          2
    61         10
    62         18
    63         41
    64          8
    65          6
    68          6
    69          9
    70          7
    71          2
    73          2
    74          9
    75         16
    76          3
    77          2
    80          3
    81         22
    82          6
    83        115
    84         11
    85          4
    86          5
    87          4
    88          1
    89         18
    90          6
    91         16
    92          1
    93          1
    94          3
    95          4
   105          3
   106          1
   107         38
   108         20
   109        999
   110        659
   111         47
   112          1