##TITLE=Library Entry 86450
##JCAMP-DX=Revision 4.10 
##DATA TYPE=MASS SPECTRUM
##SAMPLE DESCRIPTION=Japan AIST/NIMC Database- Spectrum MS-NW-7765
##NAMES=HP
##CAS NAME=Benzene, 1-(chloromethyl)-4-fluoro-
##MOLFORM=C7H6ClF
##CAS REGISTRY NO=352-11-4
##MP= -300
##BP= -300
##MW= 144
##$RETENTION INDEX=990
##$CONDENSED SPECTRUM=NO
##NPOINTS= 76
##XYDATA=(XY..XY) 1 
    26          4
    27          4
    28          4
    31         13
    32          1
    33          1
    35          3
    36          2
    37          8
    38         10
    39         26
    40          1
    43          5
    44         12
    45          1
    49          6
    50         24
    51         18
    52          3
    53          1
    54          9
    56          7
    57         53
    58          2
    59         10
    60          2
    61         12
    62         22
    63         37
    64          4
    65          1
    67          1
    68          3
    69          4
    70          4
    72          4
    73          5
    74          7
    75          8
    76          2
    77          1
    78          1
    79          1
    80          4
    81         29
    82          9
    83        118
    84          7
    85          4
    86          6
    87          5
    88          2
    89         16
    90          2
    91          1
    93          1
    94          2
    95          2
    97          1
   105          3
   106          1
   107         64
   108         24
   109        999
   110         78
   111          2
   117          5
   119          1
   123          1
   124          1
   125          1
   143         29
   144        206
   145         24
   146         66
   147          5