##TITLE=Library Entry 10569
##JCAMP-DX=Revision 4.10 
##DATA TYPE=MASS SPECTRUM
##SAMPLE DESCRIPTION=Japan AIST/NIMC Database- Spectrum MS-NW- 618
##NAMES=HP
##CAS NAME=Guanidineacetic acid
##MOLFORM=C3H7N3O2
##CAS REGISTRY NO=352-97-6
##MP= -300
##BP= -300
##MW= 117
##$RETENTION INDEX=0
##$CONDENSED SPECTRUM=NO
##NPOINTS= 69
##XYDATA=(XY..XY) 1 
    12          9
    13         19
    14         16
    15          9
    16         62
    17         90
    18        210
    19          1
    24          2
    25          2
    26         15
    27         95
    28        421
    29        215
    30        382
    31         16
    32          2
    36          6
    37          1
    38          8
    39         14
    40         16
    41         60
    42        265
    43        999
    44         83
    45         10
    46          2
    50          2
    51          3
    52          8
    53         39
    54         38
    55        166
    56        215
    57         34
    58          4
    59         15
    60          3
    67         12
    68         15
    69         48
    70         22
    71        324
    72        116
    73         34
    74          3
    75          4
    76          1
    77          3
    78          3
    79          7
    80          5
    81         18
    82         19
    83         15
    84         15
    85         10
    86          3
    95          9
    96          9
    97         15
    98         12
    99        736
   100         46
   101          5
   116          1
   117          6
   118          1