##TITLE=Library Entry 114825
##JCAMP-DX=Revision 4.10 
##DATA TYPE=MASS SPECTRUM
##SAMPLE DESCRIPTION=Chuck Anderson, Aldrich Chemical Co.
##NAMES=HP
##CAS NAME=Benzene, 1-chloro-4-fluoro-
##MOLFORM=C6H4ClF
##CAS REGISTRY NO=352-33-0
##MP= -300
##BP= -300
##MW= 130
##$RETENTION INDEX=841
##$CONDENSED SPECTRUM=NO
##NPOINTS= 83
##XYDATA=(XY..XY) 1 
    24          0
    25          1
    26          5
    27          3
    31         25
    32          1
    33          2
    35          5
    36         10
    37         53
    38         34
    39         18
    40          0
    43          0
    44          4
    45          5
    47         22
    48          5
    49         31
    50        133
    51         42
    52          2
    54          0
    55          8
    56         10
    57         22
    58          0
    60         11
    61         34
    62         31
    63         36
    64          5
    65         59
    66         20
    67          1
    68         71
    69         66
    70         19
    71          2
    72         10
    73         48
    74        114
    75        281
    76         19
    77          0
    78          0
    79          1
    80          5
    81          5
    82          1
    83          1
    84         11
    85          5
    86          4
    87          1
    91          4
    92         13
    93         28
    94         78
    95        439
    96         28
    97          8
    98          0
    99          3
   102          1
   103          2
   104          7
   105          0
   106          1
   108          0
   109          6
   110          1
   111          3
   112          0
   113          0
   115          0
   128          0
   129         13
   130        999
   131         65
   132        329
   133         20
   134          0