##TITLE=Library Entry 15629
##JCAMP-DX=Revision 4.10 
##DATA TYPE=MASS SPECTRUM
##SAMPLE DESCRIPTION=Japan AIST/NIMC Database- Spectrum MS-NW-5457
##NAMES=HP
##CAS NAME=1-Methyl-2-phenoxyethylamine
##MOLFORM=C9H13NO
##CAS REGISTRY NO=35205-54-0
##MP= -300
##BP= -300
##MW= 151
##$RETENTION INDEX=1226
##$CONDENSED SPECTRUM=NO
##NPOINTS= 62
##XYDATA=(XY..XY) 1 
    15          9
    26          2
    27         10
    28         16
    29          4
    30         24
    31          2
    37          2
    38          7
    39         36
    40          7
    41         43
    42         39
    43         30
    44        999
    45         27
    50          9
    51         34
    52          4
    53          1
    54          1
    55          4
    56         11
    57         27
    58         77
    59          4
    62          2
    63          7
    64          3
    65         21
    66         10
    67          1
    68          2
    70          1
    72          1
    74          3
    75          2
    76          2
    77         50
    78         11
    79          6
    80          1
    84          7
    91          8
    92          1
    93          3
    94         41
    95          4
   105          3
   106          1
   107          7
   108         18
   109          1
   119          5
   120          1
   133          1
   134          1
   135          1
   136          1
   150          3
   151         16
   152          6