##TITLE=Library Entry 23729
##JCAMP-DX=Revision 4.10 
##DATA TYPE=MASS SPECTRUM
##SAMPLE DESCRIPTION=KONINKLIJKE SHELL LABORATORIUM AMSTERDAM
##NAMES=HP
##CAS NAME=Pentanoic acid, 2,2,4,4-tetramethyl-, methyl ester
##MOLFORM=C10H20O2
##CAS REGISTRY NO=35201-72-0
##MP= -300
##BP= -300
##MW= 172
##$RETENTION INDEX=0
##$CONDENSED SPECTRUM=NO
##NPOINTS= 102
##XYDATA=(XY..XY) 1 
    31         30
    32          0
    33          6
    36          0
    37          4
    38         11
    39        222
    40         43
    41        536
    42         52
    43        173
    44          9
    45         15
    46          1
    47          1
    48          1
    49          2
    50          5
    51         13
    52          5
    53         45
    54         10
    55        197
    56        150
    57        999
    58         46
    59        125
    60          4
    61          2
    62          0
    63          2
    64          0
    65          6
    66          2
    67         17
    68          2
    69         59
    70         25
    71         30
    72          2
    73        120
    74         31
    75          3
    76          0
    77          5
    78          1
    79          6
    80          1
    81         11
    82          3
    83         70
    84          5
    85         13
    86          1
    87         31
    88          5
    89          3
    90          1
    91          2
    92          0
    93          0
    94          0
    95          2
    96          3
    97        293
    98         23
    99          3
   100          4
   101        435
   102        115
   103          7
   104          0
   105          0
   106          0
   107          0
   108          0
   109          1
   110          0
   111          3
   112         11
   113        104
   114         10
   115         85
   116        291
   117        132
   118          9
   119          0
   123          0
   124          0
   125         12
   126          1
   127          0
   129          0
   130          0
   139          0
   140          0
   141          7
   142          0
   156          0
   157         98
   158          9
   159          0