##TITLE=Library Entry 49269
##JCAMP-DX=Revision 4.10 
##DATA TYPE=MASS SPECTRUM
##SAMPLE DESCRIPTION=E.SANTORO MONTEDISON SPA, CENTRAL RESEARCH, MILAN, ITAL
Y
##NAMES=HP
##CAS NAME=Cyclobutane, 2-chloro-1,1,2-trifluoro-3-(1,1,2,2-tetrafluorobutyl
)-, cis-
##MOLFORM=C8H8ClF7
##CAS REGISTRY NO=35207-99-9
##MP= -300
##BP= -300
##MW= 272
##$RETENTION INDEX=0
##$CONDENSED SPECTRUM=NO
##NPOINTS= 36
##XYDATA=(XY..XY) 1 
    27         45
    29         31
    31         11
    51        153
    57         31
    59         90
    64        188
    69         44
    75         25
    77        142
    79        999
    80         33
    91         10
    93         17
    95         37
   108         20
   110        129
   113         21
   116         75
   118         24
   129        450
   130         16
   131        137
   173         24
   185         20
   187         24
   193         13
   195          4
   208         22
   210          7
   217          2
   237          2
   253          1
   255          0
   272          0
   274          0