##TITLE=Library Entry 67927
##JCAMP-DX=Revision 4.10 
##DATA TYPE=MASS SPECTRUM
##SAMPLE DESCRIPTION=NIST Mass Spectrometry Data Center, 1994
##NAMES=HP
##CAS NAME=2-Norbornane carbonyl chloride
##MOLFORM=C8H11ClO
##CAS REGISTRY NO=35202-90-5
##MP= -300
##BP= -300
##MW= 158
##$RETENTION INDEX=0
##$CONDENSED SPECTRUM=NO
##NPOINTS= 84
##XYDATA=(XY..XY) 1 
    12          3
    13          4
    14          9
    15         75
    16          3
    17          3
    18          7
    26         84
    27        455
    28        106
    29         79
    30          2
    35          9
    36          9
    37         30
    38         90
    39        646
    40        136
    41        410
    42         37
    43         14
    44          5
    45          9
    47         11
    48          8
    49         14
    50         65
    51        107
    52         56
    53        207
    54        108
    55        232
    56         15
    57          6
    60          2
    61         11
    62         26
    63         91
    64          2
    65        214
    66        231
    67        788
    68        344
    69         36
    70          3
    73          8
    74          6
    75         11
    76          2
    77        119
    78         60
    79        222
    80        405
    81         89
    82         14
    83         18
    88          6
    89         20
    90          5
    91         75
    92          5
    93        121
    94        156
    95        999
    96         77
    97          3
   101          8
   102          8
   103          8
   104         22
   105         13
   106          5
   107          9
   114          8
   115          5
   116          5
   117         17
   119          4
   122         80
   123        161
   124         14
   129          6
   131          3
   158          2