##TITLE=Library Entry 47274
##JCAMP-DX=Revision 4.10 
##DATA TYPE=MASS SPECTRUM
##SAMPLE DESCRIPTION=E.SANTORO MONTEDISON SPA, CENTRAL RESEARCH, MILAN, ITAL
Y
##NAMES=HP
##CAS NAME=Cyclobutane, 2-chloro-1,1,2-trifluoro-3-(1,1,2,2-tetrafluoro-3-bu
tenyl)-, trans-
##MOLFORM=C8H6ClF7
##CAS REGISTRY NO=35207-95-5
##MP= -300
##BP= -300
##MW= 270
##$RETENTION INDEX=0
##$CONDENSED SPECTRUM=NO
##NPOINTS= 37
##XYDATA=(XY..XY) 1 
    27         60
    31         25
    51        220
    57         63
    64        170
    69         70
    75         58
    77        999
    78         33
    93         27
    95         27
   108        300
   109         13
   113         17
   116         80
   118         27
   121         20
   129        810
   130         28
   131        280
   132         10
   145         19
   153         12
   155          4
   171         18
   185         32
   190         11
   193         10
   195         16
   206          6
   208          2
   215         10
   235         10
   251          2
   253          0
   270          0
   272          0