##TITLE=Library Entry 20410
##JCAMP-DX=Revision 4.10 
##DATA TYPE=MASS SPECTRUM
##SAMPLE DESCRIPTION=NIST Mass Spectrometry Data Center, 1990.
##NAMES=HP
##CAS NAME=1-Hepten-4-ol
##MOLFORM=C7H14O
##CAS REGISTRY NO=3521-91-3
##MP= -300
##BP= -300
##MW= 114
##$RETENTION INDEX=1540
##$CONDENSED SPECTRUM=NO
##NPOINTS= 31
##XYDATA=(XY..XY) 1 
    26         20
    27        153
    28         20
    29        116
    31        113
    38         33
    39        269
    40         50
    41        298
    42        102
    43        517
    44         83
    45         57
    50         15
    51         22
    52         12
    53         56
    55        999
    56         42
    57         58
    65         15
    67         37
    68         10
    69         24
    70         19
    71        132
    73        632
    74         30
    79         18
    81         39
    96         17