##TITLE=Library Entry 32469
##JCAMP-DX=Revision 4.10 
##DATA TYPE=MASS SPECTRUM
##SAMPLE DESCRIPTION=S.A. Rang et al., IR & MS of Unsatd. Hydrocarbons, 1977
##NAMES=HP
##CAS NAME=7-Tetradecyne
##MOLFORM=C14H26
##CAS REGISTRY NO=35216-11-6
##MP= -300
##BP= -300
##MW= 194
##$RETENTION INDEX=1400
##$CONDENSED SPECTRUM=NO
##NPOINTS= 125
##XYDATA=(XY..XY) 1 
    15          9
    16          0
    24          0
    25          2
    26         18
    27        293
    28         36
    29        469
    30         10
    31          1
    37          2
    38          6
    39        205
    40         48
    41        808
    42        137
    43        594
    44         16
    45          2
    49          0
    50          8
    51         35
    52         82
    53        205
    54        719
    55        616
    56         69
    57         74
    58          6
    59          2
    60          2
    61          0
    62          0
    63          7
    64          3
    65         76
    66         78
    67        999
    68        337
    69        344
    70         53
    71         23
    72          2
    73          1
    74          0
    75          2
    76          1
    77         94
    78         25
    79        190
    80         59
    81        808
    82        256
    83        146
    84         17
    85          7
    86          0
    87          0
    89          0
    90          0
    91         52
    92          8
    93         55
    94         25
    95        535
    96        264
    97         60
    98          6
   103          1
   104          1
   105          8
   106          2
   107         15
   108          9
   109        352
   110         94
   111         14
   112          2
   113          4
   114          0
   115          1
   116          0
   117          1
   118          0
   119          2
   120          0
   121          5
   122          3
   123         75
   124         32
   125          7
   126          1
   127          1
   128          0
   129          0
   131          0
   133          0
   135          2
   136          0
   137         38
   138         11
   139          7
   140          1
   141          0
   142          0
   147          0
   149          0
   150          0
   151         21
   152          7
   153          3
   154          0
   155          0
   161          0
   163          0
   164          0
   165         48
   166          7
   167          1
   179          5
   180          0
   192          0
   193          1
   194          3
   195          0