##TITLE=Library Entry 76551
##JCAMP-DX=Revision 4.10 
##DATA TYPE=MASS SPECTRUM
##SAMPLE DESCRIPTION=Chuck Anderson, Aldrich Chemical Co.
##NAMES=HP
##CAS NAME=trans,trans-Dibenzylideneacetone
##MOLFORM=C17H14O
##CAS REGISTRY NO=35225-79-7
##MP= -300
##BP= -300
##MW= 234
##$RETENTION INDEX=0
##$CONDENSED SPECTRUM=NO
##NPOINTS= 93
##XYDATA=(XY..XY) 1 
    18          0
    26         10
    27         44
    28         15
    36          6
    38         13
    39         52
    41          1
    44          0
    50         76
    51        288
    52         49
    53         27
    55          8
    62         22
    63         82
    64         12
    65         30
    74         46
    75         65
    76         98
    77        961
    78         97
    79          9
    82          2
    83          4
    86          3
    87         11
    88         13
    89         96
    90          9
    91        412
    92         31
    95         25
    98          6
   101         78
   102        240
   103        999
   104        135
   105         24
   107         12
   108          5
   109         11
   115        109
   116         62
   117         21
   118          6
   126          9
   127         43
   128        318
   129        114
   130          3
   131        686
   132         58
   133          3
   139         10
   141         11
   145          2
   151          2
   152         15
   155          7
   156        111
   157         49
   158          6
   165         49
   166          7
   176          9
   177          3
   178         50
   179         32
   180          7
   189         36
   190         40
   191        122
   192         19
   201          1
   202         50
   203         62
   204         42
   205        134
   206         48
   207         13
   215         41
   216         11
   217         12
   218          9
   219         10
   231          7
   232          3
   233        906
   234        752
   235        130
   236         20