##TITLE=Library Entry 11332
##JCAMP-DX=Revision 4.10 
##DATA TYPE=MASS SPECTRUM
##SAMPLE DESCRIPTION=Exported from NIST MS Search
##NAMES=HP
##CAS NAME=Hexanoic acid, 5-(acetyloxy)-, ethyl ester
##MOLFORM=C10H18O4
##CAS REGISTRY NO=35234-24-3
##MP= -300
##BP= -300
##MW= 202
##$RETENTION INDEX=1293
##$CONDENSED SPECTRUM=NO
##NPOINTS= 18
##XYDATA=(XY..XY) 1 
    43        999
    55        141
    60         53
    61         53
    68        133
    69        147
    87         99
    88        224
    97        111
    99        125
   112         99
   113         89
   115        238
   142        101
   143         45
   145         71
   159         33
   202        119