##TITLE=Library Entry 88133
##JCAMP-DX=Revision 4.10 
##DATA TYPE=MASS SPECTRUM
##SAMPLE DESCRIPTION=M.Lounasmaa, Acta Chem.Scand., 25,3441(1971)
##NAMES=HP
##CAS NAME=6-Isopropyl-2,3-dihydropyran-2,4-dione
##MOLFORM=C8H10O3
##CAS REGISTRY NO=35236-83-0
##MP= -300
##BP= -300
##MW= 154
##$RETENTION INDEX=0
##$CONDENSED SPECTRUM=NO
##NPOINTS= 26
##XYDATA=(XY..XY) 1 
    26         35
    27        171
    28         99
    29         38
    38         28
    39        140
    40         15
    41        171
    42        130
    43        340
    44         17
    53         38
    55        140
    69        918
    70         58
    71        117
    83         17
    84         40
    97         61
   111        999
   112         99
   113         76
   126        130
   127         17
   154        268
   155         56