##TITLE=Library Entry 20448
##JCAMP-DX=Revision 4.10 
##DATA TYPE=MASS SPECTRUM
##SAMPLE DESCRIPTION=Exported from NIST MS Search
##NAMES=HP
##CAS NAME=3-Octenoic acid, methyl ester, (E)-
##MOLFORM=C9H16O2
##CAS REGISTRY NO=35234-16-3
##MP= -300
##BP= -300
##MW= 156
##$RETENTION INDEX=1110
##$CONDENSED SPECTRUM=NO
##NPOINTS= 26
##XYDATA=(XY..XY) 1 
    27        251
    29        143
    39        239
    41        597
    43        340
    53        101
    54        201
    55        999
    56        125
    59        623
    67        239
    71        262
    74        792
    75         51
    82        629
    83        258
    85        183
    87         95
    96        338
    97        223
   101         31
   113         51
   114         59
   124        394
   125         53
   156         35