##TITLE=Library Entry 30645
##JCAMP-DX=Revision 4.10 
##DATA TYPE=MASS SPECTRUM
##SAMPLE DESCRIPTION=Chemical Concepts
##NAMES=HP
##CAS NAME=Fumaric acid, 1,2-dicyano-, dimethyl ester
##MOLFORM=C8H6N2O4
##CAS REGISTRY NO=35234-87-8
##MP= -300
##BP= -300
##MW= 194
##$RETENTION INDEX=0
##$CONDENSED SPECTRUM=NO
##NPOINTS= 107
##XYDATA=(XY..XY) 1 
    26          6
    27         22
    28         69
    29         69
    30         30
    31         34
    32          5
    33          0
    36          1
    37          1
    38          3
    39          3
    40         13
    41          6
    42          4
    43          4
    44         11
    45         43
    46          1
    48          0
    50          3
    51          8
    52          7
    53          3
    54          8
    55          7
    56          1
    57          1
    58          2
    59        999
    60         26
    61          4
    62          1
    63          2
    64         16
    65          8
    66          5
    67          5
    68          2
    69          1
    70          4
    71          0
    72          0
    75          0
    76        117
    77         91
    78         58
    79          6
    80          9
    81          5
    82          1
    83          2
    84          0
    89          1
    90          9
    91        476
    92        139
    93         15
    94          6
    95          1
   104         24
   105         39
   106         92
   107         13
   108          6
   109          1
   110          1
   111          0
   112          0
   113          3
   114          0
   118          0
   119          1
   120          1
   121          2
   122          0
   123          0
   124          2
   132         10
   133          1
   134          1
   135         22
   136         25
   137          4
   138          5
   139          3
   149          8
   150          1
   151          1
   152          0
   159          0
   160          0
   161          1
   162          4
   163        568
   164        287
   165         26
   166          6
   167          0
   177          0
   179          2
   180          1
   181          1
   190          0
   193          1
   194         24
   195          3