##TITLE=Library Entry 48187
##JCAMP-DX=Revision 4.10 
##DATA TYPE=MASS SPECTRUM
##SAMPLE DESCRIPTION=Chemical Concepts
##NAMES=HP
##CAS NAME=Tricyclo[4.2.2.0(2,5)]dec-7-en-3-one
##MOLFORM=C10H12O
##CAS REGISTRY NO=35237-74-2
##MP= -300
##BP= -300
##MW= 148
##$RETENTION INDEX=0
##$CONDENSED SPECTRUM=NO
##NPOINTS= 78
##XYDATA=(XY..XY) 1 
    26          7
    27         71
    28         14
    29          7
    37          3
    38         16
    39        146
    40         26
    41         57
    42         14
    43          9
    45         12
    46         14
    50         30
    51         81
    52         51
    53         50
    54          7
    55         18
    57          7
    58          6
    59          3
    61          2
    62          9
    63         32
    64          7
    65         62
    66         71
    67         18
    68         31
    69          4
    70          6
    74          5
    75          7
    76          8
    77        137
    78        999
    79        387
    80        108
    81         58
    82          8
    83          2
    85          2
    86          2
    89         11
    90          9
    91        392
    92        209
    93         32
    94         63
    95          5
   102          3
   103         22
   104         24
   105        181
   106        160
   107         26
   108          2
   113          3
   114          5
   115          9
   116          2
   117         10
   118          2
   119         30
   120        209
   121         21
   129          2
   130         12
   131          4
   132          2
   133         18
   134          2
   145          5
   147          7
   148        182
   149         24
   150          2