##TITLE=Library Entry 10543
##JCAMP-DX=Revision 4.10 
##DATA TYPE=MASS SPECTRUM
##SAMPLE DESCRIPTION=Exported from NIST MS Search
##NAMES=HP
##CAS NAME=Octanoic acid, 5-(acetyloxy)-, ethyl ester
##MOLFORM=C12H22O4
##CAS REGISTRY NO=35234-25-4
##MP= -300
##BP= -300
##MW= 230
##$RETENTION INDEX=1458
##$CONDENSED SPECTRUM=NO
##NPOINTS= 17
##XYDATA=(XY..XY) 1 
    43        999
    55        113
    71         73
    81         43
    82         39
    88        185
    95         41
    98        211
   111         71
   112         41
   123         35
   141         45
   143        113
   145        183
   158         31
   159         19
   170         27