##TITLE=Library Entry 87911
##JCAMP-DX=Revision 4.10 
##DATA TYPE=MASS SPECTRUM
##SAMPLE DESCRIPTION=NIST Mass Spectrometry Data Center, 1994
##NAMES=HP
##CAS NAME=5-Amino-1,3-dimethylpyrazole
##MOLFORM=C5H9N3
##CAS REGISTRY NO=3524-32-1
##MP= -300
##BP= -300
##MW= 111
##$RETENTION INDEX=0
##$CONDENSED SPECTRUM=NO
##NPOINTS= 62
##XYDATA=(XY..XY) 1 
    12          3
    13          9
    14         47
    15        272
    16          8
    17          3
    18         31
    25          8
    26         29
    27         53
    28        350
    29         16
    30        132
    32          6
    34          3
    36          4
    37         30
    38         90
    39        282
    40        134
    41        354
    42        499
    43        119
    44         22
    45         15
    46          8
    49          2
    50          9
    51         33
    52         87
    53         70
    54         79
    55         62
    56         35
    57         84
    58          6
    62          2
    63          4
    64          9
    65         22
    66        125
    67        110
    68        177
    69         85
    70         14
    71          2
    77          3
    79          9
    80          9
    81         47
    82         28
    83        142
    84          6
    93         26
    94          5
    96        197
    97         11
   108          4
   110        369
   111        999
   112         66
   113          1