##TITLE=Library Entry 31672
##JCAMP-DX=Revision 4.10 
##DATA TYPE=MASS SPECTRUM
##SAMPLE DESCRIPTION=Div. of Experiment Therapeutics WRAIR, WRAMC, Washingto
n DC 20307
##NAMES=HP
##CAS NAME=6-Methoxybenzofuroxan
##MOLFORM=C7H6N2O3
##CAS REGISTRY NO=3524-06-9
##MP= -300
##BP= -300
##MW= 166
##$RETENTION INDEX=0
##$CONDENSED SPECTRUM=NO
##NPOINTS= 53
##XYDATA=(XY..XY) 1 
    41         17
    42         39
    43         11
    46          1
    48          2
    49         29
    50         99
    51        107
    52         88
    53        119
    54         21
    55         13
    56         15
    57          7
    59        194
    61         80
    62        195
    63        999
    65        143
    66         37
    67         26
    69         52
    70          7
    73         10
    74        110
    75        101
    76         58
    77         45
    78         62
    80        138
    82         32
    84          9
    86          8
    87          7
    88          7
    89          2
    91         76
    93        128
    95         42
    96          1
    97          1
   104         21
   106        517
   107         40
   120          3
   121          5
   135          1
   136         26
   150          9
   165         12
   166        733
   167         52
   168          7