##TITLE=Library Entry 3417
##JCAMP-DX=Revision 4.10 
##DATA TYPE=MASS SPECTRUM
##SAMPLE DESCRIPTION=MONSANTO CO., ST. LOUIS, MO, USA
##NAMES=HP
##CAS NAME=Cyclopentane, 2-propenyl-
##MOLFORM=C8H14
##CAS REGISTRY NO=3524-75-2
##MP= -300
##BP= -300
##MW= 110
##$RETENTION INDEX=829
##$CONDENSED SPECTRUM=NO
##NPOINTS= 71
##XYDATA=(XY..XY) 1 
    12          1
    13          2
    14          6
    15         47
    16          1
    24          2
    25          1
    26         37
    27        269
    28         55
    29         76
    30          1
    36          1
    37         18
    38         49
    39        490
    40         90
    41        999
    42         82
    43         18
    44          1
    45          1
    46          0
    49          3
    50         27
    51         51
    52         25
    53        124
    54        110
    55         60
    56          5
    57          0
    61          3
    62          6
    63         15
    64          4
    65         49
    66        125
    67        504
    68        800
    69        947
    70         47
    71          1
    73          0
    74          3
    75          2
    76          1
    77         21
    78          7
    79         26
    80          8
    81         66
    82         76
    83          5
    84          0
    85          0
    86          0
    87          0
    89          0
    91          5
    92          0
    93          2
    94          0
    95         17
    96          1
   103          0
   105          0
   107          0
   109          2
   110         21
   111          1