##TITLE=Library Entry 90191
##JCAMP-DX=Revision 4.10 
##DATA TYPE=MASS SPECTRUM
##SAMPLE DESCRIPTION=B. R. ANDERSON
##NAMES=HP
##CAS NAME=Bicyclo[3.2.1]oct-2-ene, 3-chloro-
##MOLFORM=C8H11Cl
##CAS REGISTRY NO=35242-17-2
##MP= -300
##BP= -300
##MW= 142
##$RETENTION INDEX=0
##$CONDENSED SPECTRUM=NO
##NPOINTS= 105
##XYDATA=(XY..XY) 1 
    14          8
    15         64
    16          1
    17          3
    18         11
    25          2
    26         54
    27        280
    28         51
    29         65
    30          2
    31          3
    35          4
    36          5
    37         20
    38         57
    39        420
    40         52
    41        151
    42          9
    43         12
    44          3
    45          8
    47          4
    48          2
    49         30
    50         83
    51        317
    52        101
    53        123
    54         90
    55         22
    56          5
    57         13
    58          1
    59          2
    60         12
    61         42
    62         46
    63        100
    64         22
    65        248
    66        336
    67        123
    68         12
    69          5
    70          3
    71          7
    72          5
    73         42
    74         30
    75         67
    76         19
    77        596
    78        155
    79        614
    80         67
    81         11
    82          2
    83          5
    84          4
    85         10
    86          7
    87         11
    88         31
    89         17
    90         15
    91        188
    92         28
    93         25
    94          3
    95          8
    96          2
    97          4
    98          2
    99         15
   100        137
   101         62
   102         52
   103         33
   104          6
   105         39
   106         21
   107        206
   108         19
   109          3
   111          6
   112        129
   113        999
   114        177
   115        325
   116         44
   117          3
   123          2
   125          8
   126          2
   127         36
   128          4
   129         12
   130          1
   141          4
   142        280
   143         26
   144         90
   145          8