##TITLE=Library Entry 22022
##JCAMP-DX=Revision 4.10 
##DATA TYPE=MASS SPECTRUM
##SAMPLE DESCRIPTION=Japan AIST/NIMC Database- Spectrum MS-NW-4649
##NAMES=HP
##CAS NAME=1-Hexene, 5-methyl-
##MOLFORM=C7H14
##CAS REGISTRY NO=3524-73-0
##MP= -300
##BP= -300
##MW= 98
##$RETENTION INDEX=651
##$CONDENSED SPECTRUM=NO
##NPOINTS= 46
##XYDATA=(XY..XY) 1 
    14          1
    15         10
    26         11
    27        160
    28         15
    29        287
    30          7
    37          5
    38         10
    39        189
    40         28
    41        662
    42        106
    43        266
    44          9
    49          1
    50         10
    51         16
    52          8
    53         45
    54         36
    55        510
    56        999
    57        418
    58         17
    61          1
    62          2
    63          3
    65          6
    66          3
    67         20
    68          9
    69        178
    70        184
    71          9
    74          1
    77          5
    78          1
    79          5
    81          8
    82          2
    83         62
    84          5
    97          3
    98         13
    99          1