##TITLE=Library Entry 88162
##JCAMP-DX=Revision 4.10 
##DATA TYPE=MASS SPECTRUM
##SAMPLE DESCRIPTION=V.G. Zaikin, TIPS RAS, Moscow, Russia
##NAMES=HP
##CAS NAME=2-Thiophenecarboxylic acid, 3-methylbutyl ester
##MOLFORM=C10H14O2S
##CAS REGISTRY NO=35250-80-7
##MP= -300
##BP= -300
##MW= 198
##$RETENTION INDEX=0
##$CONDENSED SPECTRUM=NO
##NPOINTS= 51
##XYDATA=(XY..XY) 1 
    26         19
    27        109
    28          8
    29         78
    37         17
    38         43
    39        403
    40         27
    41        172
    42         81
    43        172
    44         35
    45         69
    49          9
    50         25
    51         15
    52          6
    53         39
    54          8
    55        268
    56         22
    57         95
    58         27
    59          6
    69         41
    70        683
    71         51
    77          6
    79          4
    80          4
    81         25
    82         39
    83         88
    84         35
    85         37
    86          3
    87          3
   110          6
   111        999
   112         75
   113         55
   128        348
   129        205
   130         29
   131          9
   141          4
   155          6
   156          1
   165          2
   198          8
   199          1