##TITLE=Library Entry 59351
##JCAMP-DX=Revision 4.10 
##DATA TYPE=MASS SPECTRUM
##SAMPLE DESCRIPTION=NIST Mass Spectrometry Data Center, 1995
##NAMES=HP
##CAS NAME=Tebutam
##MOLFORM=C15H23NO
##CAS REGISTRY NO=35256-85-0
##MP= -300
##BP= -300
##MW= 233
##$RETENTION INDEX=1665
##$CONDENSED SPECTRUM=NO
##NPOINTS= 98
##XYDATA=(XY..XY) 1 
    12          0
    15         15
    17          1
    18          6
    20          0
    27         71
    28         31
    29        139
    30         14
    37          1
    39         83
    41        249
    42         32
    43         75
    44          6
    45          0
    50          7
    51         25
    52          7
    53          6
    54          4
    55         16
    56          0
    57        586
    58         48
    59          4
    62          2
    63         14
    64          7
    65         95
    66          6
    67          0
    68          2
    69          8
    70          7
    71          3
    72          3
    74          1
    75          1
    76          3
    77         28
    78         10
    79         22
    80          2
    82          0
    83          1
    84          6
    85         54
    86          4
    87          1
    89         21
    91        999
    92         90
    93          3
    98          0
   100          2
   102          0
   103          2
   104         14
   105         13
   106         83
   107         10
   108          0
   114          0
   115          2
   116          1
   117          2
   118          2
   119          8
   120          0
   128          0
   130          1
   131          2
   132         11
   133          3
   134         50
   135          5
   142         52
   143          5
   146          2
   147          2
   148         19
   149          4
   150          0
   158          0
   160          0
   174          0
   176         15
   177          2
   178          0
   190        215
   191         28
   192          2
   218          3
   219          0
   233         69
   234         12
   235          1