##TITLE=Library Entry 41023
##JCAMP-DX=Revision 4.10 
##DATA TYPE=MASS SPECTRUM
##SAMPLE DESCRIPTION=Dr. Jiri Zamecnik, DCIEM, North York, Canada, GP Librar
y
##NAMES=HP
##CAS NAME=Methoxycarbonyl isothiocyanate
##MOLFORM=C3H3NO2S
##CAS REGISTRY NO=35266-49-0
##MP= -300
##BP= -300
##MW= 117
##$RETENTION INDEX=0
##$CONDENSED SPECTRUM=NO
##NPOINTS= 22
##XYDATA=(XY..XY) 1 
    33         12
    34         19
    42         12
    44        207
    45        240
    46         94
    47         17
    48         10
    54         40
    58        684
    59        481
    60         36
    70         28
    71         33
    72        655
    73        999
    74         48
    75         33
    86        678
    87         27
    88         27
   117         68