##TITLE=Library Entry 66072
##JCAMP-DX=Revision 4.10 
##DATA TYPE=MASS SPECTRUM
##SAMPLE DESCRIPTION=Leung Pu, NIH, Bethesda, Maryland, U.S.
##NAMES=HP
##CAS NAME=N-(o-Hydroxybenzyl)aniline
##MOLFORM=C13H13NO
##CAS REGISTRY NO=3526-45-2
##MP= -300
##BP= -300
##MW= 199
##$RETENTION INDEX=0
##$CONDENSED SPECTRUM=NO
##NPOINTS= 98
##XYDATA=(XY..XY) 1 
    41         12
    42          5
    43          6
    44          3
    45          0
    47         10
    48          4
    49         51
    50         26
    51        120
    52         38
    53         32
    54          6
    55          9
    56          2
    57          4
    59          1
    60          0
    61          1
    62          7
    63         29
    64         17
    65         79
    66         53
    67          8
    68          1
    69          3
    70          2
    71          5
    73          1
    74          5
    75          6
    76         13
    77        281
    78         39
    79         62
    80          3
    81          2
    82          0
    88          5
    89          8
    91         51
    93        999
    94         68
    95          4
    97          1
    98          5
    99          8
   101          0
   102          4
   104         36
   105          9
   106         25
   107        146
   108         10
   109          1
   113          0
   115          5
   116          0
   117          1
   119          0
   120          4
   121          1
   122          1
   124          2
   126          0
   127          2
   128          2
   129          1
   130          1
   131          0
   139          2
   140          0
   141          2
   142          0
   143          0
   149          2
   150          1
   151          2
   152          6
   153          2
   154          3
   155          0
   166          1
   167          4
   168          3
   169          1
   170          1
   180          4
   181          6
   182          2
   183          0
   196          9
   197          5
   198         10
   199        189
   200         26
   201          2