##TITLE=Library Entry 96624
##JCAMP-DX=Revision 4.10 
##DATA TYPE=MASS SPECTRUM
##SAMPLE DESCRIPTION=Exported from NIST MS Search
##NAMES=HP
##CAS NAME=1H-Indene, 1-chloro-2,3-dihydro-
##MOLFORM=C9H9Cl
##CAS REGISTRY NO=35275-62-8
##MP= -300
##BP= -300
##MW= 152
##$RETENTION INDEX=0
##$CONDENSED SPECTRUM=NO
##NPOINTS= 71
##XYDATA=(XY..XY) 1 
    26          1
    27          5
    28          1
    29          2
    35          8
    36         79
    37          7
    38         32
    39         45
    40          4
    41          4
    42          2
    43         13
    49          3
    50         24
    51         27
    52          5
    53          2
    55          9
    56          4
    57         48
    58         93
    60          3
    61         12
    62         36
    63         84
    64         14
    65         34
    66          3
    70          1
    73          4
    74         17
    75         16
    76          5
    77          5
    78          2
    79          1
    81          1
    82          1
    83          1
    84          2
    85          7
    86         14
    87         18
    88         18
    89         90
    90         10
    91          7
    92          1
    98          2
    99          1
   101          2
   104          2
   105          2
   108          2
   109          3
   110          4
   111          2
   113         25
   114         29
   115        916
   116        999
   117        159
   118         12
   122          1
   128          1
   137          2
   150          2
   151          2
   152          4
   154          1