##TITLE=Library Entry 41796
##JCAMP-DX=Revision 4.10 
##DATA TYPE=MASS SPECTRUM
##SAMPLE DESCRIPTION=Chemical Concepts
##NAMES=HP
##CAS NAME=Silane, 2-butene-1,4-diylbis[trimethyl-
##MOLFORM=C10H24Si2
##CAS REGISTRY NO=3528-12-9
##MP= -300
##BP= -300
##MW= 200
##$RETENTION INDEX=0
##$CONDENSED SPECTRUM=NO
##NPOINTS= 94
##XYDATA=(XY..XY) 1 
    27          1
    28          2
    29         12
    30          0
    31          8
    33          0
    37          0
    38          0
    39          2
    40          0
    41          1
    42          3
    43         54
    44         20
    45        137
    46          9
    47          5
    50          0
    51          0
    52          0
    53          5
    54          2
    55         11
    56          2
    57          9
    58         22
    59         40
    60          3
    61          1
    63          0
    65          1
    66          1
    67          3
    68          1
    69          7
    70          3
    71         10
    72         14
    73        999
    74        114
    75         49
    76          1
    77          0
    79          0
    80          0
    81          2
    82          0
    83          6
    84          6
    85          8
    86          1
    87          0
    88          0
    89          0
    91          0
    93          1
    94          0
    95         10
    96          5
    97        225
    98         25
    99         10
   100          0
   101          1
   105          0
   107          0
   109          2
   110          1
   111          7
   112        215
   113         27
   114          8
   115          3
   116          0
   117          0
   119          0
   127          1
   129          1
   130          0
   131          1
   133          0
   134          0
   141          0
   145          0
   161          0
   169          0
   177          0
   185          4
   186          1
   187          0
   200         84
   201         17
   202          7
   203          1