##TITLE=Library Entry 88527
##JCAMP-DX=Revision 4.10 
##DATA TYPE=MASS SPECTRUM
##SAMPLE DESCRIPTION=V.A.KOPTYUG, ATLAS OF MASS SPECTRA OF ORGANIC COMPOUNDS
##NAMES=HP
##CAS NAME=1,1,3-Trimethyl-1-silacyclo-3-pentene
##MOLFORM=C7H14Si
##CAS REGISTRY NO=3528-14-1
##MP= -300
##BP= -300
##MW= 126
##$RETENTION INDEX=0
##$CONDENSED SPECTRUM=NO
##NPOINTS= 30
##XYDATA=(XY..XY) 1 
    39         20
    41         30
    43        140
    44         30
    45         70
    55         20
    58        140
    59        220
    60         20
    67         20
    69         40
    71         70
    72         30
    73         80
    75         30
    83        230
    84         40
    85        150
    86         20
    95         80
    97         30
   109        230
   110         20
   111        999
   112        120
   113         40
   125         20
   126        330
   127         40
   128         20