##TITLE=Library Entry 53050
##JCAMP-DX=Revision 4.10 
##DATA TYPE=MASS SPECTRUM
##SAMPLE DESCRIPTION=Chuck Anderson, Aldrich Chemical Co.
##NAMES=HP
##CAS NAME=5-Amino-1-ethylpyrazole
##MOLFORM=C5H9N3
##CAS REGISTRY NO=3528-58-3
##MP= -300
##BP= -300
##MW= 111
##$RETENTION INDEX=0
##$CONDENSED SPECTRUM=NO
##NPOINTS= 54
##XYDATA=(XY..XY) 1 
    14          5
    15         21
    17          2
    18         16
    25          2
    26         26
    27         99
    28        210
    29        100
    30         35
    31          1
    32         12
    33          0
    34          0
    35          2
    36          4
    37          3
    38         17
    39         35
    40        106
    41        115
    42        151
    43         82
    44         15
    45          0
    48          0
    51         10
    52         98
    53         63
    54        212
    55         41
    56         32
    57          5
    65          2
    66         19
    67         55
    68         21
    69         98
    70          4
    79         28
    80          3
    81          4
    82          5
    83        999
    84         44
    93          4
    94          5
    95          2
    96         82
    97          4
   109          3
   110          9
   111        429
   112         28