##TITLE=Library Entry 65335
##JCAMP-DX=Revision 4.10 
##DATA TYPE=MASS SPECTRUM
##SAMPLE DESCRIPTION=Exported from NIST MS Search
##NAMES=HP
##CAS NAME=Acetonitrile, dichlorofluoro-
##MOLFORM=C2Cl2FN
##CAS REGISTRY NO=353-82-2
##MP= -300
##BP= -300
##MW= 127
##$RETENTION INDEX=0
##$CONDENSED SPECTRUM=NO
##NPOINTS= 49
##XYDATA=(XY..XY) 1 
    12         12
    14          1
    24          2
    26          8
    28          1
    31         59
    32          1
    35         31
    36          1
    37         10
    38         14
    41          2
    42          1
    43          1
    46          1
    47         45
    49         15
    50          1
    51          1
    57         35
    58          1
    59          1
    61          8
    63          2
    66         90
    67          1
    68         29
    69          2
    70          1
    72          1
    73         44
    74          1
    75         14
    78          1
    82         15
    84         10
    86          2
    92        999
    93         26
    94        321
    95          8
   101         17
   103          9
   105          2
   108         18
   110         12
   112          2
   127          3
   129          2