##TITLE=Library Entry 17966
##JCAMP-DX=Revision 4.10 
##DATA TYPE=MASS SPECTRUM
##SAMPLE DESCRIPTION=Exported from NIST MS Search
##NAMES=HP
##CAS NAME=Ethane, fluoro-
##MOLFORM=C2H5F
##CAS REGISTRY NO=353-36-6
##MP= -300
##BP= -300
##MW= 48
##$RETENTION INDEX=0
##$CONDENSED SPECTRUM=NO
##NPOINTS= 19
##XYDATA=(XY..XY) 1 
    14          6
    15          6
    19          1
    25         13
    26         48
    27        177
    28         68
    29         22
    31         13
    32         19
    33        269
    34          5
    43          1
    44         43
    45         70
    46        102
    47        999
    48        115
    49          3