##TITLE=Library Entry 74713
##JCAMP-DX=Revision 4.10 
##DATA TYPE=MASS SPECTRUM
##SAMPLE DESCRIPTION=Exported from NIST MS Search
##NAMES=HP
##CAS NAME=Methane, bromodichlorofluoro-
##MOLFORM=CBrCl2F
##CAS REGISTRY NO=353-58-2
##MP= -300
##BP= -300
##MW= 180
##$RETENTION INDEX=0
##$CONDENSED SPECTRUM=NO
##NPOINTS= 29
##XYDATA=(XY..XY) 1 
    31         90
    35         31
    37         10
    47         48
    49         16
    63         10
    66         84
    68         28
    79         83
    81         83
    82         40
    84         26
    91         19
    93         18
   101        999
   102         11
   103        653
   105        106
   110         19
   112         19
   116          9
   126         14
   128         19
   145        267
   147        349
   149         86
   161         24
   163         40
   165         18