##TITLE=Library Entry 17990
##JCAMP-DX=Revision 4.10 
##DATA TYPE=MASS SPECTRUM
##SAMPLE DESCRIPTION=Exported from NIST MS Search
##NAMES=HP
##CAS NAME=Carbonic chloride fluoride
##MOLFORM=CClFO
##CAS REGISTRY NO=353-49-1
##MP= -300
##BP= -300
##MW= 82
##$RETENTION INDEX=290
##$CONDENSED SPECTRUM=NO
##NPOINTS= 19
##XYDATA=(XY..XY) 1 
    12          7
    16         11
    28         16
    31         15
    35        146
    37         48
    47        999
    48         13
    49          5
    54          4
    60          4
    63        130
    65         43
    66         15
    68          5
    82        392
    83          4
    84        127
    85          5