##TITLE=Library Entry 31132
##JCAMP-DX=Revision 4.10 
##DATA TYPE=MASS SPECTRUM
##SAMPLE DESCRIPTION=Exported from NIST MS Search
##NAMES=HP
##CAS NAME=Propane, 2-fluoro-2-methyl-
##MOLFORM=C4H9F
##CAS REGISTRY NO=353-61-7
##MP= -300
##BP= -300
##MW= 76
##$RETENTION INDEX=432
##$CONDENSED SPECTRUM=NO
##NPOINTS= 32
##XYDATA=(XY..XY) 1 
    15         10
    26          9
    27         57
    28         82
    29         43
    31         10
    32         19
    33         35
    37          6
    38         12
    39         64
    40         10
    41        223
    42         13
    43          9
    44          6
    45         17
    46          8
    47         23
    49          3
    50          9
    51         10
    53          7
    55         16
    56         24
    57         29
    58          4
    59         85
    60         82
    61        999
    62         34
    75          2