##TITLE=Library Entry 17982
##JCAMP-DX=Revision 4.10 
##DATA TYPE=MASS SPECTRUM
##SAMPLE DESCRIPTION=GOODYEAR ATOMIC CORPORATION, PORTSMOUTH, OHIO
##NAMES=HP
##CAS NAME=Carbonic difluoride
##MOLFORM=CF2O
##CAS REGISTRY NO=353-50-4
##MP= -300
##BP= -300
##MW= 66
##$RETENTION INDEX=0
##$CONDENSED SPECTRUM=NO
##NPOINTS= 10
##XYDATA=(XY..XY) 1 
    16         10
    19          9
    28        136
    29          1
    31         44
    47        999
    48          9
    50         24
    66        548
    67          6