##TITLE=Library Entry 35346
##JCAMP-DX=Revision 4.10 
##DATA TYPE=MASS SPECTRUM
##SAMPLE DESCRIPTION=Exported from NIST MS Search
##NAMES=HP
##CAS NAME=Acetonitrile, trifluoro-
##MOLFORM=C2F3N
##CAS REGISTRY NO=353-85-5
##MP= -300
##BP= -300
##MW= 95
##$RETENTION INDEX=246
##$CONDENSED SPECTRUM=NO
##NPOINTS= 34
##XYDATA=(XY..XY) 1 
    12        122
    13          1
    14         21
    15          1
    19         21
    24         13
    25          1
    26        110
    27          3
    31        208
    32          2
    35          1
    36          1
    37          1
    38         53
    39          1
    41          1
    42          1
    43          6
    44          1
    45          2
    47          1
    50        248
    51          3
    57         12
    58          1
    62          1
    69        999
    70         11
    76        466
    77         12
    78          1
    95         17
    96          1