##TITLE=Library Entry 89932
##JCAMP-DX=Revision 4.10 
##DATA TYPE=MASS SPECTRUM
##SAMPLE DESCRIPTION=Japan AIST/NIMC Database- Spectrum MS-IW-6935
##NAMES=HP
##CAS NAME=.beta.-Guanidinopropionic acid
##MOLFORM=C4H9N3O2
##CAS REGISTRY NO=353-09-3
##MP= -300
##BP= -300
##MW= 131
##$RETENTION INDEX=0
##$CONDENSED SPECTRUM=NO
##NPOINTS= 69
##XYDATA=(XY..XY) 1 
    13          4
    14          9
    15         23
    16          7
    17         35
    18        184
    25          3
    26         37
    27         75
    28        168
    29         25
    30        221
    31          4
    32          1
    34          3
    35          7
    37          1
    38          7
    39         10
    40         34
    41         53
    42        248
    43        993
    44         66
    45          4
    49          4
    50          3
    51         12
    52         25
    53         45
    54         11
    55        103
    56         70
    57         10
    58         14
    59         21
    60          2
    65          1
    66          5
    67          6
    68         11
    69         65
    70        125
    71         42
    72         61
    73          3
    78          2
    79          1
    80          1
    81          3
    82          2
    83          8
    84        217
    85         46
    86         17
    87          1
    94          1
    95         37
    96          6
    97          5
    98          6
    99          2
   109          1
   110          3
   111         14
   112        478
   113        999
   114         63
   115          4