##TITLE=Library Entry 1586
##JCAMP-DX=Revision 4.10 
##DATA TYPE=MASS SPECTRUM
##SAMPLE DESCRIPTION=Exported from NIST MS Search
##NAMES=HP
##CAS NAME=Hydrazine, butyl-
##MOLFORM=C4H12N2
##CAS REGISTRY NO=3530-11-8
##MP= -300
##BP= -300
##MW= 88
##$RETENTION INDEX=822
##$CONDENSED SPECTRUM=NO
##NPOINTS= 15
##XYDATA=(XY..XY) 1 
    29        275
    30         98
    31        127
    32        999
    39        255
    40         78
    41        618
    42        196
    56        480
    57        373
    58        284
    59         10
    73        343
    74         10
    88        147