##TITLE=Library Entry 1234
##JCAMP-DX=Revision 4.10 
##DATA TYPE=MASS SPECTRUM
##SAMPLE DESCRIPTION=NIST Mass Spectrometry Data Center
##NAMES=HP
##CAS NAME=4-(2-Aminoethyl)benzenesulfonamide
##MOLFORM=C8H12N2O2S
##CAS REGISTRY NO=35303-76-5
##MP= -300
##BP= -300
##MW= 200
##$RETENTION INDEX=0
##$CONDENSED SPECTRUM=NO
##NPOINTS= 94
##XYDATA=(XY..XY) 1 
    27          5
    29          4
    30        999
    31         16
    37          1
    38          6
    39         40
    40          6
    41         10
    42         16
    43          9
    44          1
    45          3
    46          3
    47          2
    48          5
    49          1
    50         31
    51         56
    52         21
    53         14
    54          5
    55          2
    56          3
    58         14
    59          6
    61          4
    62         24
    63         92
    64         74
    65         67
    66         10
    67          5
    68          1
    69          4
    70          1
    71          1
    73          1
    74         11
    75         13
    76         11
    77         67
    78         27
    79         10
    80         13
    81          1
    82          1
    85          1
    86          4
    87          5
    88          2
    89        211
    90        453
    91        140
    92         16
    93          4
    94          1
    95          1
   101          1
   102          7
   103         12
   104         12
   105          3
   106         51
   107         87
   108          8
   109          1
   116          4
   117         24
   118         29
   119         18
   120          6
   121          7
   122          6
   123          1
   124          1
   134          3
   138         10
   139         11
   140          1
   154         24
   155          8
   156          1
   167          1
   170          4
   171         13
   172          1
   182          3
   183          2
   198          4
   199          1
   200         19
   201          2
   202          1