##TITLE=Library Entry 90680
##JCAMP-DX=Revision 4.10 
##DATA TYPE=MASS SPECTRUM
##SAMPLE DESCRIPTION=Div. of Experiment Therapeutics WRAIR, WRAMC, Washingto
n DC 20307
##NAMES=HP
##CAS NAME=.alpha.-[4-Chloro-2-nitrophenyl]-4-trifluoromethylcinnamic acid
##MOLFORM=C16H9ClF3NO4
##CAS REGISTRY NO=35318-51-5
##MP= -300
##BP= -300
##MW= 371
##$RETENTION INDEX=0
##$CONDENSED SPECTRUM=NO
##NPOINTS= 190
##XYDATA=(XY..XY) 1 
    41         11
    43         33
    45        269
    49         13
    50        103
    51        167
    53         11
    57         56
    61         13
    62        100
    63        213
    69        151
    71         10
    73        117
    74        112
    75        302
    76         63
    77         41
    78        305
    79         23
    81         86
    82         88
    83         37
    84         76
    85         42
    86         99
    87        112
    88         95
    89        138
    90        114
    91         58
    94         43
    95         55
    96         10
    97        114
    98        139
    99        179
   100         87
   101         74
   102         42
   103         24
   105         11
   106         52
   107        114
   108         54
   109         28
   110        139
   111        246
   112         93
   113        999
   115        307
   116         12
   119         48
   120         25
   121         11
   122         63
   123         79
   124        245
   125        122
   126        263
   127        193
   128         82
   129         11
   131         23
   132         25
   133         25
   136         11
   137         15
   138        481
   139        142
   140        175
   141        365
   143        165
   144         27
   145        383
   146         25
   147         46
   149         67
   150         84
   151        114
   152         90
   153         57
   154         40
   155         53
   156         37
   157         51
   158         82
   159         11
   162         42
   163        175
   164        117
   165        225
   166         50
   168        388
   169        621
   170        196
   171        209
   172         74
   173        442
   174        104
   175        210
   176        179
   177         97
   178         51
   180         94
   181         58
   182         93
   183        166
   184         10
   186         63
   188         39
   192         22
   193         66
   194         86
   195         24
   197        718
   198         90
   199        357
   200         67
   201        153
   203        206
   206         24
   207         42
   208         11
   210         43
   211         11
   212        104
   213         66
   214         89
   215         23
   217         48
   219        132
   220        205
   221         42
   223         52
   224         36
   225        126
   226         93
   227         31
   228         50
   230         47
   231         36
   232        117
   233        228
   234         57
   235         99
   237         28
   241         36
   242         52
   243        115
   244        135
   245         64
   246        134
   247        130
   248         51
   250         10
   259         29
   261         58
   262         90
   263         97
   264         23
   267         59
   269         43
   271         52
   279         63
   280         48
   281        235
   282        273
   283        111
   284         98
   294         47
   296         24
   298        363
   299         63
   300        126
   305         21
   310        183
   311         64
   312         69
   325         38
   326        540
   327         88
   328        179
   329         12
   352        218
   353         44
   354         76
   371        130
   372         10
   373         44