##TITLE=Library Entry 49331
##JCAMP-DX=Revision 4.10 
##DATA TYPE=MASS SPECTRUM
##SAMPLE DESCRIPTION=Div. of Experiment Therapeutics WRAIR, WRAMC, Washingto
n DC 20307
##NAMES=HP
##CAS NAME=.alpha.-[O-Nitrophenyl]-p-fluorocinnamic acid
##MOLFORM=C15H10FNO4
##CAS REGISTRY NO=35318-41-3
##MP= -300
##BP= -300
##MW= 287
##$RETENTION INDEX=0
##$CONDENSED SPECTRUM=NO
##NPOINTS= 147
##XYDATA=(XY..XY) 1 
    41         26
    43          5
    44         15
    45        114
    50         91
    51        182
    52        153
    53         29
    55         11
    56          5
    57         72
    61         10
    62         53
    63        196
    64        134
    65         75
    66          4
    67         21
    68         14
    69         37
    70         30
    71          2
    72         17
    73          5
    74         76
    75        156
    76        117
    77        349
    78         71
    79        999
    80         66
    81         73
    82         79
    83         58
    84         28
    85         84
    86         34
    87         59
    88         38
    89         59
    90        219
    91        195
    92        198
    93         40
    94         34
    95        253
    96         42
    97        193
    98         58
    99         45
   100         12
   101         19
   102         18
   103          5
   104        325
   105         80
   106         42
   107        383
   108        118
   109         42
   110         12
   111         16
   113         32
   115          8
   117         13
   118         22
   119         72
   120         62
   121         45
   122         47
   123        254
   124         23
   125        267
   126         29
   127          2
   129          8
   130         18
   131         20
   132         12
   133         61
   134        190
   135        280
   136         45
   137          9
   139         17
   144         31
   145         23
   146         60
   147         14
   149         22
   150         27
   151         73
   152         31
   153        172
   154         15
   155         12
   156         11
   157         57
   158         12
   159         13
   163        791
   164         86
   165         52
   166         15
   167         10
   168         50
   169         81
   170        314
   171        129
   172         17
   174         23
   175         57
   176         43
   177         23
   178         10
   181         35
   182         42
   183        276
   184         53
   185         53
   186         14
   192         12
   193         16
   194        131
   195         71
   196        101
   197         78
   198        204
   199         31
   210         16
   211          8
   212          9
   213         11
   214         52
   215          5
   223          8
   224          2
   226        103
   227         20
   242        541
   243         79
   244          5
   255          2
   270         32
   271         11
   287         61
   288         11