##TITLE=Library Entry 15091
##JCAMP-DX=Revision 4.10 
##DATA TYPE=MASS SPECTRUM
##SAMPLE DESCRIPTION=Chuck Anderson, Aldrich Chemical Co.
##NAMES=HP
##CAS NAME=(R)-(-)-2-Amino-1-propanol
##MOLFORM=C3H9NO
##CAS REGISTRY NO=35320-23-1
##MP= -300
##BP= -300
##MW= 75
##$RETENTION INDEX=0
##$CONDENSED SPECTRUM=NO
##NPOINTS= 36
##XYDATA=(XY..XY) 1 
    14          2
    15         32
    16          1
    17          4
    18        187
    19          1
    25          0
    26          8
    27         46
    28         75
    29         55
    30         42
    31         50
    32          1
    37          1
    38          3
    39         12
    40         13
    41         37
    42        132
    43         33
    44        999
    45         34
    46          0
    52          1
    54          1
    55          2
    56         13
    57         10
    58          3
    59          2
    60         19
    72          0
    74          3
    75          2
    76          2