##TITLE=Library Entry 58855
##JCAMP-DX=Revision 4.10 
##DATA TYPE=MASS SPECTRUM
##SAMPLE DESCRIPTION=NIST Mass Spectrometry Data Center, 1994
##NAMES=HP
##CAS NAME=m-Nitrobenzoyl azide
##MOLFORM=C7H4N4O3
##CAS REGISTRY NO=3532-31-8
##MP= -300
##BP= -300
##MW= 192
##$RETENTION INDEX=0
##$CONDENSED SPECTRUM=NO
##NPOINTS= 64
##XYDATA=(XY..XY) 1 
    10          2
    12          5
    14          2
    16          9
    17          3
    18          1
    24          2
    25          7
    26         31
    27         20
    28         54
    29          1
    30        260
    32          2
    37        154
    38        161
    39        330
    40         39
    41          2
    42          5
    44         10
    45          6
    46         46
    48          5
    49         28
    50        128
    51        124
    52         50
    53         10
    54          5
    60         12
    61         78
    62        144
    63        502
    64        237
    65         21
    66          9
    67          6
    68          4
    73         13
    74         40
    75         40
    76         24
    77         20
    78         77
    79          9
    80          6
    86          8
    87         20
    88         35
    89          6
    90        999
    91         69
    92          4
   104          4
   106        225
   107         18
   118        298
   119         29
   134         30
   148         11
   164        738
   165         64
   166          6