##TITLE=Library Entry 60929
##JCAMP-DX=Revision 4.10 
##DATA TYPE=MASS SPECTRUM
##SAMPLE DESCRIPTION=Exported from NIST MS Search
##NAMES=HP
##CAS NAME=Benzamide, N-(phenylmethoxy)-
##MOLFORM=C14H13NO2
##CAS REGISTRY NO=3532-25-0
##MP= -300
##BP= -300
##MW= 227
##$RETENTION INDEX=0
##$CONDENSED SPECTRUM=NO
##NPOINTS= 36
##XYDATA=(XY..XY) 1 
    39         51
    41          9
    42          7
    43          9
    50         72
    51        165
    52         36
    62         19
    63         29
    64         17
    65         89
    66         29
    73          7
    74         29
    75         21
    76         38
    77        516
    78         68
    79         29
    89          7
    90          4
    91        999
    92         99
   103         31
   104         19
   105        599
   106        128
   107         31
   108         24
   121        126
   122         77
   123          7
   210        104
   211          7
   227        101
   228         19