##TITLE=Library Entry 77689
##JCAMP-DX=Revision 4.10 
##DATA TYPE=MASS SPECTRUM
##SAMPLE DESCRIPTION=Chemical Concepts
##NAMES=HP
##CAS NAME=Benzo[c]thiophene, 1,3-dihydro-, 2-oxide
##MOLFORM=C8H8OS
##CAS REGISTRY NO=3533-72-0
##MP= -300
##BP= -300
##MW= 152
##$RETENTION INDEX=0
##$CONDENSED SPECTRUM=NO
##NPOINTS= 90
##XYDATA=(XY..XY) 1 
    26          5
    27         13
    29          1
    33          0
    37          6
    38         11
    39         42
    40          2
    41          2
    44          1
    45         12
    46          1
    47          0
    48         17
    49          3
    50         38
    51         59
    52         24
    53          6
    54          1
    57          0
    58          2
    59          0
    60          0
    61          6
    62         16
    63         39
    64          6
    65         18
    66          1
    67          5
    68          0
    69         10
    70          1
    71          1
    73          2
    74         18
    75         12
    76         18
    77         90
    78        243
    79         17
    80          1
    81          2
    82          4
    83          1
    84          2
    85          2
    86          3
    87          3
    88          1
    89         36
    90         19
    91         35
    92          2
    93          4
    94          0
    95          2
    96          0
    97          1
    98          2
    99          0
   101          2
   102         29
   103        244
   104        999
   105         76
   106          3
   107          0
   108         11
   109          2
   110          0
   118          1
   119          0
   121          6
   122          2
   123          0
   132          1
   133          6
   134        151
   135         99
   136         36
   137          7
   138          1
   150          1
   151          0
   152        532
   153         57
   154         28
   155          2