##TITLE=Library Entry 82339
##JCAMP-DX=Revision 4.10 
##DATA TYPE=MASS SPECTRUM
##SAMPLE DESCRIPTION=Chemical Concepts
##NAMES=HP
##CAS NAME=[1,3]Dithian-2-one
##MOLFORM=C4H6OS2
##CAS REGISTRY NO=35345-24-5
##MP= -300
##BP= -300
##MW= 134
##$RETENTION INDEX=0
##$CONDENSED SPECTRUM=NO
##NPOINTS= 75
##XYDATA=(XY..XY) 1 
    25          3
    26         23
    27         85
    29         17
    33         14
    34          9
    35          5
    36          2
    37         16
    38         29
    39        186
    40         29
    41        667
    42         46
    43         13
    44         27
    45        488
    46        637
    47        121
    48         35
    49          6
    50          3
    51          5
    52          3
    53          2
    54          2
    55          5
    56          4
    57         24
    58         75
    59        169
    60        100
    61         29
    62          6
    63          2
    64        120
    65          4
    66         14
    67          3
    68          7
    69         29
    70          4
    71         51
    72         41
    73        124
    74         39
    75          9
    76         16
    77         10
    78         74
    79          6
    80          7
    81          3
    82          3
    83          3
    84          2
    90          3
    91          6
    95          2
   103          4
   104          3
   105         14
   106        999
   107         56
   108         97
   109          4
   110          3
   122          2
   131          3
   132          3
   133          2
   134        376
   135         27
   136         37
   137          3