##TITLE=Library Entry 79593
##JCAMP-DX=Revision 4.10 
##DATA TYPE=MASS SPECTRUM
##SAMPLE DESCRIPTION=Japan AIST/NIMC Database- Spectrum MS-IW-6426
##NAMES=HP
##CAS NAME=5-(O-Benzamido-N-benzoylanilino)-3,7-dibromotropolone
##MOLFORM=C27H18Br2N2O4
##CAS REGISTRY NO=3534-38-1
##MP= -300
##BP= -300
##MW= 592
##$RETENTION INDEX=0
##$CONDENSED SPECTRUM=NO
##NPOINTS= 208
##XYDATA=(XY..XY) 1 
    16          1
    17         30
    18         41
    26          4
    27         10
    28         85
    29          2
    36          4
    37          2
    38          5
    39          8
    40          1
    41          3
    43          2
    44         17
    45          1
    49          2
    50         15
    51         44
    52          9
    53          5
    54          1
    55          2
    56          1
    57          2
    61          2
    62          3
    63          9
    64          5
    65          5
    66          2
    67          1
    69          2
    71          2
    73          2
    74          5
    75          7
    76         15
    77        352
    78         35
    79         24
    80         82
    81         24
    82         78
    83          3
    84          1
    85          2
    86          2
    88          1
    89          2
    90          6
    91          5
    92          3
    93          1
    94          2
    95          1
    96          2
    97          3
   101          1
   102          4
   103         12
   104          6
   105        999
   106         75
   107          5
   108          1
   110          1
   111          1
   113          1
   115          2
   118          2
   121          2
   122         56
   123          5
   124          1
   125          1
   126          2
   127          3
   128          3
   129          1
   138          1
   139          2
   140          2
   141          2
   142          3
   143          2
   145          1
   149          1
   151          1
   152          3
   153          2
   154          1
   164          1
   165          1
   166          3
   167          4
   168          3
   169          1
   170          1
   177          1
   178          2
   179          4
   180          1
   181          2
   182          1
   192          2
   193          9
   194        144
   195         48
   196          7
   199          1
   205          3
   206          1
   209          8
   210          3
   211          3
   212          1
   213          1
   221          3
   222          9
   223          8
   224         30
   225         12
   226          3
   228          4
   229          1
   230          2
   231          1
   241          9
   242          2
   243          1
   250          2
   252          4
   253          1
   254          2
   255          4
   256          4
   257          1
   266          1
   268          2
   270          1
   272          1
   274          2
   275          1
   278          2
   280          5
   282          2
   283          2
   284          3
   285          4
   286          1
   297          1
   298         16
   299          4
   300          1
   302          1
   311          1
   312          1
   313          2
   314          3
   315          2
   316         67
   317         14
   318          1
   328          6
   329          3
   330          2
   332          2
   346         31
   347          7
   348          1
   350          1
   358          1
   360          1
   363          7
   364          3
   365          7
   366          2
   391          7
   392         18
   393         12
   394         20
   395          7
   396          1
   407          1
   408          2
   409          1
   410          1
   434          1
   441          2
   442          2
   443          5
   444          4
   445          4
   446          2
   470         51
   471         20
   472        101
   473         42
   474         53
   475         19
   476          3
   486          1
   512          8
   513          4
   514          9
   515          3
   516          1