##TITLE=Library Entry 11738
##JCAMP-DX=Revision 4.10 
##DATA TYPE=MASS SPECTRUM
##SAMPLE DESCRIPTION=A. Brossi, LC, NIDDK, NIH, Bethesda, MD 20892
##NAMES=HP
##CAS NAME=Benzyl alcohol, 3,5-diacetoxy-, acetate(ester)
##MOLFORM=C13H14O6
##CAS REGISTRY NO=35354-31-5
##MP= -300
##BP= -300
##MW= 266
##$RETENTION INDEX=0
##$CONDENSED SPECTRUM=NO
##NPOINTS= 152
##XYDATA=(XY..XY) 1 
    42        108
    43        999
    44         28
    45         17
    46          1
    47          2
    49          1
    50         16
    51         39
    52         15
    53         42
    54         10
    55         77
    56         13
    57         50
    58          3
    59          0
    60          6
    61          3
    62          7
    63         17
    64          6
    65         70
    66         43
    67         32
    68          7
    69          8
    70         10
    71         27
    72          2
    73          2
    74          2
    75          2
    76          2
    77         20
    78          5
    79          9
    80          2
    81         25
    82         12
    83         16
    84          6
    85         12
    86          1
    87          1
    89          1
    90          1
    91          8
    92          3
    93         20
    94         51
    95         19
    96          5
    97         11
    98          3
    99          2
   100          0
   101          0
   102          0
   103          1
   104          1
   105          7
   106          2
   107          6
   108          3
   109         12
   110          9
   111         66
   112          6
   113          2
   115          7
   116          4
   117         13
   118          2
   119          5
   120          1
   121         14
   122         13
   123         83
   124        211
   125         20
   126          2
   127          1
   128          2
   129          2
   130          1
   131          2
   132          1
   133          2
   134          0
   135          3
   136          1
   137         24
   138         11
   139         22
   140        185
   141         15
   142          1
   143          1
   144          0
   145          1
   147          1
   149          2
   151          2
   152          1
   153          1
   154          1
   155          1
   157          1
   159          0
   161          1
   163          1
   165          9
   166         39
   167          4
   168          1
   169          0
   171          0
   173          1
   174          1
   176          0
   178          0
   179          7
   180          1
   181          1
   182         40
   183          4
   184          0
   185          1
   195          0
   197          0
   203          0
   207          3
   208          5
   209          0
   211          0
   213          1
   215          0
   216          1
   221          3
   224         11
   225          1
   227          0
   228          0
   229          0
   230          0
   231          1
   232          0
   233          0
   242          0
   266          2
   269          0