##TITLE=Library Entry 57127
##JCAMP-DX=Revision 4.10 
##DATA TYPE=MASS SPECTRUM
##SAMPLE DESCRIPTION=Chemical Concepts
##NAMES=HP
##CAS NAME=1,3-Dioxolane-2-propanoic acid, 2-methyl-, methyl ester
##MOLFORM=C8H14O4
##CAS REGISTRY NO=35351-33-8
##MP= -300
##BP= -300
##MW= 174
##$RETENTION INDEX=0
##$CONDENSED SPECTRUM=NO
##NPOINTS= 120
##XYDATA=(XY..XY) 1 
    26         12
    27         75
    28         57
    29         48
    30          3
    31         13
    33          1
    37          0
    38          2
    39         41
    40          7
    41         38
    42         38
    43        855
    44         23
    45         54
    46          0
    50          2
    51          5
    52          3
    53         28
    54         12
    55        139
    56         21
    57         12
    58          2
    59         62
    60          2
    61          1
    64          3
    65          1
    66          0
    67          2
    68          0
    69          8
    70          5
    71         88
    72          9
    73          5
    74         14
    75          1
    76          0
    77          1
    78          0
    79          1
    80          0
    81         16
    82          2
    83          9
    84          5
    85        104
    86         12
    87        999
    88         57
    89          8
    90          0
    91          1
    93          0
    94          0
    95          4
    96          0
    97         33
    98         12
    99        622
   100         39
   101          6
   102          0
   103          0
   104          1
   105          0
   106          0
   107          0
   108          0
   109          0
   110          0
   111          1
   112          4
   113         10
   114          8
   115         39
   116          2
   117          0
   118          0
   119          0
   120          0
   121          0
   122          0
   123          1
   124          0
   125          0
   126          0
   127          2
   128          0
   129         42
   130          3
   131          2
   132          0
   133          0
   134          0
   135          0
   136          0
   137          0
   138          0
   139          0
   141          0
   142          0
   143        184
   144         27
   145          3
   146          0
   147          0
   148          0
   155          0
   156          0
   157          0
   159        266
   160         21
   161          3
   173          1
   175          1