##TITLE=Library Entry 6044
##JCAMP-DX=Revision 4.10 
##DATA TYPE=MASS SPECTRUM
##SAMPLE DESCRIPTION=NIST Mass Spectrometry Data Center
##NAMES=HP
##CAS NAME=cis-2-Methyl-7-octadecene
##MOLFORM=C19H38
##CAS REGISTRY NO=35354-39-3
##MP= -300
##BP= -300
##MW= 266
##$RETENTION INDEX=1884
##$CONDENSED SPECTRUM=NO
##NPOINTS= 84
##XYDATA=(XY..XY) 1 
    15          3
    17          3
    18          9
    24          1
    27        181
    29        366
    30          8
    37          2
    39        140
    41        896
    42        145
    43        999
    44         31
    51          5
    53         67
    54        189
    55        715
    56        857
    57        781
    58         30
    65         20
    66         19
    67        202
    68        112
    69        668
    70        307
    71        187
    72         10
    77         17
    78          3
    79         34
    80         12
    81         88
    82        108
    83        407
    84        159
    85        113
    86          6
    91          5
    93          5
    95         44
    96         68
    97        290
    98         70
    99         25
   107          1
   109         15
   110         29
   111        155
   112         42
   113         11
   123          7
   124         14
   125         57
   126         22
   127          5
   137          3
   138          7
   139         21
   140         10
   141          3
   152          3
   153         10
   154          6
   155          2
   166          3
   167          5
   168          4
   169          1
   180          1
   181          3
   182          6
   195          2
   208          1
   210         10
   211          1
   222          1
   223          2
   224          1
   238         11
   239          2
   251          3
   266         39
   267          8