##TITLE=Library Entry 12647
##JCAMP-DX=Revision 4.10 
##DATA TYPE=MASS SPECTRUM
##SAMPLE DESCRIPTION=A.A.Kutin, Moscow, Russia
##NAMES=HP
##CAS NAME=3,5-Diacetoxybenzoic acid
##MOLFORM=C11H10O6
##CAS REGISTRY NO=35354-29-1
##MP= -300
##BP= -300
##MW= 238
##$RETENTION INDEX=0
##$CONDENSED SPECTRUM=NO
##NPOINTS= 79
##XYDATA=(XY..XY) 1 
    37          8
    38         21
    39         21
    40         12
    41         20
    42         25
    43        999
    44         25
    45          2
    49          3
    50         23
    51         51
    52         19
    53         27
    54          2
    55          8
    56          0
    61          9
    62         21
    63         36
    64         11
    65          4
    66         17
    67          1
    68          5
    69         71
    70          8
    71          6
    74          1
    76          3
    77          9
    78          1
    79         18
    80         10
    81         19
    82          1
    83          0
    84          0
    91          5
    92          7
    96          7
    97         23
   104          2
   105         11
   107          2
   108         17
   109         30
   110          4
   111          2
   116          0
   120          1
   121          1
   123         10
   125         12
   126          9
   127          1
   134          0
   136         22
   137        100
   138          6
   139          1
   151          9
   152          9
   154        756
   155         55
   156          9
   165          2
   166          0
   167          8
   179         14
   181          0
   191          0
   196        134
   197         18
   207         10
   221          1
   225          1
   238         31
   239          0