##TITLE=Library Entry 83137
##JCAMP-DX=Revision 4.10 
##DATA TYPE=MASS SPECTRUM
##SAMPLE DESCRIPTION=Chemical Concepts
##NAMES=HP
##CAS NAME=Diselenide, bis(2-nitrophenyl)
##MOLFORM=C12H8N2O4Se2
##CAS REGISTRY NO=35350-43-7
##MP= -300
##BP= -300
##MW= 404
##$RETENTION INDEX=0
##$CONDENSED SPECTRUM=NO
##NPOINTS= 255
##XYDATA=(XY..XY) 1 
    25          3
    26         17
    27         54
    28        100
    29         60
    30         51
    31         12
    36          7
    37         36
    38         55
    39        270
    40         22
    41        110
    42         33
    43        112
    44         68
    45         24
    46          5
    47          4
    48          6
    49         15
    50        231
    51        145
    52         49
    53         34
    54         20
    55         97
    56         40
    57        100
    58         12
    59         43
    60         25
    61         28
    62         44
    63        432
    64        129
    65         59
    66         23
    67         37
    68         20
    69         59
    70         35
    71         49
    72         27
    73         33
    74        134
    75        193
    76        140
    77         75
    78        683
    79         66
    80         48
    81         39
    82         35
    83         47
    84         26
    85         30
    86         11
    87         16
    88         13
    89         17
    90         36
    91         67
    92         85
    93        116
    94         25
    95         32
    96         16
    97         31
    98         19
    99         15
   100          8
   101         10
   102         18
   103         24
   104         37
   105         25
   106        999
   107         97
   108         22
   109         20
   110         12
   111         20
   112         16
   113         43
   114         55
   115        109
   116         41
   117        212
   118         79
   119         44
   120         16
   121         11
   122         13
   123         21
   124          8
   125         14
   126         28
   127         32
   128         53
   129         43
   130        111
   131         21
   132         20
   133          9
   134          6
   135          8
   136          6
   137         10
   138         11
   139         38
   140         46
   141         73
   142        112
   143         68
   144        174
   145         42
   146         37
   147         10
   148          5
   149         29
   150         18
   151         27
   152        139
   153        124
   154        323
   155         46
   156        629
   157         54
   158        126
   159         12
   160         20
   161          7
   162          6
   163          5
   164          4
   165          7
   166         14
   167         26
   168         24
   169         16
   170         35
   171         16
   172         47
   173         19
   174         10
   175          5
   176          4
   177          4
   178          5
   179          6
   180         23
   181         15
   182        176
   183        180
   184        419
   185         37
   186        782
   187         72
   188        168
   189         16
   190          4
   191          4
   192          3
   193          4
   194          4
   195          6
   196         18
   197         11
   198        125
   199        114
   200        315
   201         47
   202        600
   203         75
   204        136
   205         19
   206          5
   207          4
   208          4
   209          4
   210          5
   211          4
   212          3
   213          5
   214          3
   215          6
   216          6
   217         12
   218          5
   219         21
   220          8
   221          8
   222          4
   223          6
   224          4
   225          3
   226          3
   227          3
   228         11
   229         11
   230         23
   231         12
   232         43
   233         11
   234         19
   235          5
   236         14
   237          3
   238          5
   239          4
   240          4
   241          4
   242          3
   243          4
   244          8
   245          6
   246         15
   247         11
   248         24
   249          8
   250         24
   251          6
   252         10
   253          3
   259          4
   260          8
   261          3
   336          5
   337          4
   338          7
   339          4
   340          9
   341          3
   342          4
   370          6
   371          4
   372          7
   373          3
   374          8
   375          3
   376          4
   396         10
   397         13
   398         42
   399         31
   400        102
   401         65
   402        173
   403         36
   404        192
   405         29
   406         62
   407         11
   408         10