##TITLE=Library Entry 50124
##JCAMP-DX=Revision 4.10 
##DATA TYPE=MASS SPECTRUM
##SAMPLE DESCRIPTION=NIST Mass Spectrometry Data Center, 1990.
##NAMES=HP
##CAS NAME=7-Octadecyne, 2-methyl-
##MOLFORM=C19H36
##CAS REGISTRY NO=35354-38-2
##MP= -300
##BP= -300
##MW= 264
##$RETENTION INDEX=0
##$CONDENSED SPECTRUM=NO
##NPOINTS= 58
##XYDATA=(XY..XY) 1 
    27         94
    28        133
    29        155
    32         38
    39        119
    41        644
    42         91
    43        607
    44         22
    51         23
    52         48
    53        139
    54        303
    55        580
    56        123
    57        216
    65         87
    66         97
    67        871
    68        266
    69        548
    70         69
    71         49
    77        124
    78         38
    79        319
    80        144
    81        999
    82        843
    83        445
    84         39
    85         24
    91         88
    92         20
    93        117
    95        811
    96        443
    97        222
    98         17
   105         13
   107         41
   109        514
   110        181
   111         62
   121         25
   123        450
   124        106
   125         21
   137         58
   138         25
   151         31
   152         39
   165         27
   166         14
   179         15
   180         17
   221         18
   249         15