##TITLE=Library Entry 44498
##JCAMP-DX=Revision 4.10 
##DATA TYPE=MASS SPECTRUM
##SAMPLE DESCRIPTION=NIST Mass Spectrometry Data Center
##NAMES=HP
##CAS NAME=2-(4-Chlorophenoxy)thioacetamide
##MOLFORM=C8H8ClNOS
##CAS REGISTRY NO=35368-44-6
##MP= -300
##BP= -300
##MW= 201
##$RETENTION INDEX=0
##$CONDENSED SPECTRUM=NO
##NPOINTS= 116
##XYDATA=(XY..XY) 1 
    12          2
    13          3
    14          5
    15          9
    16          2
    17          2
    18         10
    25          3
    26          8
    27          7
    28         58
    29         20
    30        273
    31          8
    32         20
    33         13
    34         18
    35          4
    36          5
    37         22
    38         52
    39         50
    40         35
    41         36
    42         32
    43          2
    44          5
    45         37
    46         37
    47         26
    48          7
    49         18
    50         56
    51         29
    52          3
    53         11
    54          1
    55          1
    56          1
    57          8
    58         22
    59         10
    60         89
    61         28
    62         49
    63        101
    64         32
    65         38
    66          4
    69          7
    70          2
    71          3
    72         13
    73        121
    74        999
    75        139
    76         61
    77         22
    78          3
    79          2
    83          9
    84          4
    85          9
    86          1
    87          3
    89          2
    90          2
    91          1
    92          7
    93          6
    94          2
    96          1
    97          3
    99        160
   100         26
   101         53
   102          9
   104          1
   106          1
   107          1
   108          2
   109          2
   111         55
   112          7
   113         24
   114          3
   115          3
   123          2
   125          1
   127        176
   128        119
   129         64
   130         44
   131          4
   132          5
   133          2
   137          1
   138          2
   139          1
   141          7
   142          2
   143          3
   144          1
   145          1
   155          2
   165          1
   167         63
   168          7
   169         22
   170          2
   185          1
   201        151
   202         17
   203         55
   204          6
   205          2