##TITLE=Library Entry 50092
##JCAMP-DX=Revision 4.10 
##DATA TYPE=MASS SPECTRUM
##SAMPLE DESCRIPTION=NIST Mass Spectrometry Data Center, 1990.
##NAMES=HP
##CAS NAME=9-Octadecyne
##MOLFORM=C18H34
##CAS REGISTRY NO=35365-59-4
##MP= -300
##BP= -300
##MW= 250
##$RETENTION INDEX=0
##$CONDENSED SPECTRUM=NO
##NPOINTS= 60
##XYDATA=(XY..XY) 1 
    27        147
    28         86
    29        316
    32         14
    39        149
    41        738
    42         95
    43        447
    44         23
    50          6
    51         26
    52         61
    53        151
    54        387
    55        665
    56        111
    57        214
    58          9
    65         85
    66         91
    67        931
    68        257
    69        361
    70         58
    71         30
    77        121
    78         32
    79        258
    80        107
    81        999
    82        587
    83        230
    84         22
    85          9
    91         72
    92         11
    93         80
    94          9
    95        691
    96        360
    97        160
    98         17
   105          9
   107         22
   109        244
   110         88
   111         47
   121         12
   123        140
   124        126
   125         21
   135          5
   137        116
   138         53
   151         21
   152         13
   165          7
   179          8
   193         29
   194         22