##TITLE=Library Entry 84700
##JCAMP-DX=Revision 4.10 
##DATA TYPE=MASS SPECTRUM
##SAMPLE DESCRIPTION=Exported from NIST MS Search
##NAMES=HP
##CAS NAME=Imidazo[4,5-d]imidazole, 1,6-dihydro-
##MOLFORM=C4H4N4
##CAS REGISTRY NO=35369-36-9
##MP= -300
##BP= -300
##MW= 108
##$RETENTION INDEX=0
##$CONDENSED SPECTRUM=NO
##NPOINTS= 17
##XYDATA=(XY..XY) 1 
    27         50
    28         30
    29         60
    38         40
    39         40
    41         40
    42         20
    43         50
    52         20
    53         50
    54        160
    55         40
    57         20
    80         30
    81        160
   108        999
   109         60