##TITLE=Library Entry 65171
##JCAMP-DX=Revision 4.10 
##DATA TYPE=MASS SPECTRUM
##SAMPLE DESCRIPTION=Exported from NIST MS Search
##NAMES=HP
##CAS NAME=Bicyclo[3.1.0]hexan-3-ol, 4-methylene-1-(1-methylethyl)-, acetate
##MOLFORM=C12H18O2
##CAS REGISTRY NO=3536-54-7
##MP= -300
##BP= -300
##MW= 194
##$RETENTION INDEX=1292
##$CONDENSED SPECTRUM=NO
##NPOINTS= 135
##XYDATA=(XY..XY) 1 
    14          1
    15         10
    18          3
    19          2
    20          1
    23          1
    24          1
    25          1
    26          6
    27        167
    28         27
    29         89
    30          2
    31         18
    33          1
    36          1
    37          4
    38         12
    39        192
    40         33
    41        320
    42         35
    43        230
    44         15
    45         13
    46          2
    47          1
    48          1
    49          1
    50         21
    51         60
    52         30
    53        194
    54         28
    55        242
    56          2
    57          5
    58          1
    59         16
    60          7
    61          3
    62          8
    63         23
    64         10
    65         98
    66         34
    67        115
    68         22
    69        116
    70        163
    71         14
    72          3
    73          2
    74          3
    75          6
    76          3
    77        131
    78         41
    79        234
    80         29
    81        362
    82         53
    83        136
    84         18
    85          5
    86          1
    89          8
    90         17
    91        707
    92        999
    93        122
    94         26
    95        173
    96         43
    97         10
    98          2
    99          2
   100          1
   101          2
   102          1
   103         19
   104          8
   105         70
   106         24
   107         43
   108         20
   109        237
   110         39
   111          4
   112          1
   113          2
   114          2
   115          9
   116          5
   117         20
   118          8
   119        146
   120         13
   121         10
   122          3
   123          5
   124          2
   125          1
   126          1
   127          1
   128          1
   129          1
   130          1
   131          4
   132          1
   133          7
   134        258
   135         30
   136          7
   137          9
   138          1
   139          1
   140          1
   143          1
   144          1
   145          1
   146          1
   147          1
   149          1
   150          1
   151          1
   152          1
   153          1
   154          1
   158          1
   159          1
   161          1
   163          1
   175          1
   176          1