##TITLE=Library Entry 44497
##JCAMP-DX=Revision 4.10 
##DATA TYPE=MASS SPECTRUM
##SAMPLE DESCRIPTION=NIST Mass Spectrometry Data Center, 1994
##NAMES=HP
##CAS NAME=2-(3-Chlorophenoxy)thioacetamide
##MOLFORM=C8H8ClNOS
##CAS REGISTRY NO=35370-95-7
##MP= -300
##BP= -300
##MW= 201
##$RETENTION INDEX=0
##$CONDENSED SPECTRUM=NO
##NPOINTS= 108
##XYDATA=(XY..XY) 1 
    12          4
    13          7
    14          2
    15          7
    17          7
    18         12
    25          4
    26          7
    30        344
    32         19
    33         34
    34         66
    35          9
    36         14
    37         40
    38         93
    39         89
    40         50
    41         31
    42         37
    44          2
    45          2
    46         49
    47         23
    48         13
    49         24
    50         79
    51         40
    52          5
    53         15
    54          2
    55          2
    56          2
    57          6
    58         26
    59          2
    60        128
    61         38
    62         66
    63        164
    64         77
    65         51
    66         12
    69          5
    70          2
    71          2
    72         15
    73        137
    74        999
    75        162
    76         70
    77         38
    78          5
    79          3
    82          9
    84          6
    85         13
    86          3
    87          6
    89          5
    90          5
    91          4
    92         23
    93          9
    94          3
    97          5
    99        293
   100         36
   101         98
   102         15
   103          1
   104         13
   105          4
   107          3
   108          3
   111         57
   112         21
   113         25
   114          7
   115          2
   123          3
   125          2
   127        127
   128         85
   129         47
   130         24
   131          6
   132         99
   133         12
   134          2
   137          4
   138          7
   139          8
   140          3
   141          6
   142          4
   143          2
   145          2
   160          3
   162          4
   167        110
   168         13
   169         34
   170          4
   201         84
   202          7
   203         33
   204          3