##TITLE=Library Entry 44892
##JCAMP-DX=Revision 4.10 
##DATA TYPE=MASS SPECTRUM
##SAMPLE DESCRIPTION=NIST Mass Spectrometry Data Center, 1994
##NAMES=HP
##CAS NAME=2-(2-Chlorophenoxy)thioacetamide
##MOLFORM=C8H8ClNOS
##CAS REGISTRY NO=35370-94-6
##MP= -300
##BP= -300
##MW= 201
##$RETENTION INDEX=0
##$CONDENSED SPECTRUM=NO
##NPOINTS= 102
##XYDATA=(XY..XY) 1 
    12          3
    13          5
    14          8
    15         22
    16          1
    17          2
    18          4
    26          9
    27         11
    28         69
    29         19
    30        443
    31         13
    32         19
    33         14
    34         20
    35          4
    36          9
    37         24
    38         51
    39         68
    40         31
    41         49
    42         42
    43          2
    44          6
    45         51
    46         61
    47         29
    48         13
    49         16
    50         51
    51         36
    52          5
    53         13
    56          2
    57          7
    58         30
    59          9
    60        106
    61         23
    62         40
    63        103
    64         68
    65         27
    66          4
    67          1
    69          8
    70          3
    71          2
    72         15
    73        117
    74        999
    75        129
    76         58
    77         38
    78          5
    79          2
    83         10
    84          5
    85         10
    86          2
    87          3
    89          2
    90          3
    92         20
    93          6
    94          4
    96          3
    97          7
    99        141
   100         14
   101         48
   102          7
   105          2
   108          2
   109          3
   111         43
   112          7
   113         21
   114          2
   115          3
   125          3
   127         92
   128         94
   129         40
   130         31
   131          4
   132          5
   133          4
   136          2
   137         30
   138          5
   139          4
   141          6
   142          3
   143          3
   166        450
   167         77
   168         27
   169         14
   201          2