##TITLE=Library Entry 19293
##JCAMP-DX=Revision 4.10 
##DATA TYPE=MASS SPECTRUM
##SAMPLE DESCRIPTION=NIST Mass Spectrometry Data Center
##NAMES=HP
##CAS NAME=Oxacyclopentadecan-2-one
##MOLFORM=C14H26O2
##CAS REGISTRY NO=3537-83-5
##MP= -300
##BP= -300
##MW= 226
##$RETENTION INDEX=1736
##$CONDENSED SPECTRUM=NO
##NPOINTS= 89
##XYDATA=(XY..XY) 1 
    27         40
    28         39
    29        124
    39        140
    40         41
    41        652
    42        220
    43        247
    44         23
    45         21
    50         14
    53        100
    54        114
    55        999
    56        286
    57        202
    58         63
    59         13
    60         65
    61         15
    65         20
    66         20
    67        230
    68        193
    69        503
    70        189
    71        122
    73        158
    79         41
    80         38
    81        311
    82        391
    83        475
    84        319
    85         70
    87         99
    93         18
    94         70
    95        194
    96        450
    97        432
    98        345
    99         47
   100         47
   101         92
   102         21
   108         79
   109        147
   110        182
   111        162
   112         79
   113         67
   114         99
   115         78
   116         52
   123         86
   124        119
   125        100
   126         38
   127         82
   128         18
   129         44
   130         17
   133         16
   134         25
   135         15
   136         22
   137         87
   138        116
   139         29
   144         14
   147         29
   151         43
   152         29
   157         18
   158         17
   159         28
   164         45
   165         38
   166         88
   167         21
   173         19
   174         21
   180         19
   185         30
   189         17
   190         30
   208         22
   226         26