##TITLE=Library Entry 34311
##JCAMP-DX=Revision 4.10 
##DATA TYPE=MASS SPECTRUM
##SAMPLE DESCRIPTION=D.HENNEBERG, MAX-PLANCK INSTITUTE, MULHEIM, WEST GERMAN
Y
##NAMES=HP
##CAS NAME=1,5-Heptadiene, 3,3,6-trimethyl-
##MOLFORM=C10H18
##CAS REGISTRY NO=35387-63-4
##MP= -300
##BP= -300
##MW= 138
##$RETENTION INDEX=0
##$CONDENSED SPECTRUM=NO
##NPOINTS= 57
##XYDATA=(XY..XY) 1 
    22          0
    25          0
    26          0
    27         45
    29         19
    34          0
    35          0
    37          2
    38          1
    39         55
    40          7
    41        584
    42         32
    43         16
    44         10
    49          1
    50          2
    51         14
    52          9
    53         39
    54          6
    55         37
    57          1
    58          0
    62          1
    63          2
    65         11
    66          5
    67         56
    68         29
    69        999
    70        200
    71         11
    74          0
    77         12
    78          4
    79          9
    80          1
    81         30
    82         40
    83          7
    91         12
    93          6
    94         12
    95         60
    96         12
   105          5
   107          2
   108          0
   109          6
   110          2
   111          4
   121          2
   123         45
   124          5
   138         11
   139          1