##TITLE=Library Entry 47258
##JCAMP-DX=Revision 4.10 
##DATA TYPE=MASS SPECTRUM
##SAMPLE DESCRIPTION=Chemical Concepts
##NAMES=HP
##CAS NAME=Ethene, 1,2-bis(phenylsulfonyl)-
##MOLFORM=C14H12O4S2
##CAS REGISTRY NO=35387-59-8
##MP= -300
##BP= -300
##MW= 308
##$RETENTION INDEX=0
##$CONDENSED SPECTRUM=NO
##NPOINTS= 200
##XYDATA=(XY..XY) 1 
    25          1
    26          5
    27         24
    28         10
    29         13
    30          3
    31          5
    32          2
    34          1
    35          2
    36          8
    37          2
    38          9
    39         43
    40          5
    41         18
    42         12
    43         53
    44         17
    45         21
    46          5
    47          3
    48          4
    49         17
    50         48
    51        258
    52         19
    53         14
    54          4
    55         12
    56         10
    57         14
    58          4
    59         11
    60          5
    61          7
    62          9
    63         24
    64          9
    65         51
    66          6
    67          3
    68          2
    69          8
    70          6
    71          6
    72          6
    73          5
    74         11
    75         13
    76         21
    77        999
    78         88
    79          7
    80          1
    81         11
    82          5
    83          4
    84         13
    85          3
    86          9
    87          2
    88          3
    89         11
    90          9
    91        196
    92        133
    93         18
    94          6
    95          4
    96          2
    97         42
    98          4
    99          3
   100          1
   101          2
   102         20
   103         23
   104          3
   105          6
   106          2
   107          4
   108          4
   109         13
   110         16
   111          4
   112          2
   113          1
   114          1
   115          4
   116          2
   117          2
   118          4
   119         29
   120          3
   121          3
   122          1
   123          3
   124          2
   125        628
   126         74
   127         34
   128          5
   129          1
   130          1
   131          1
   132          0
   133          1
   134          4
   135          4
   136          1
   137          4
   138          3
   139         11
   140          2
   141        386
   142         30
   143         21
   144          1
   145          0
   147          0
   148          1
   149          2
   150          1
   151          4
   152          8
   153          6
   154          4
   155          1
   156          0
   157          0
   163          1
   164          0
   165          1
   166          1
   167         68
   168          8
   169          7
   170          1
   171          1
   172          0
   175          0
   176          1
   177          0
   178          2
   179          4
   180          2
   181          1
   182          0
   183         10
   184          1
   185          3
   186          1
   187          0
   191          0
   194          0
   195          0
   196          1
   197          1
   198          0
   199          0
   206          0
   207          0
   209          0
   211          0
   212          0
   213          0
   214          0
   215          0
   217          1
   218         24
   219          4
   220          1
   221          0
   227          3
   228          0
   232          0
   234          2
   235          0
   236          0
   237          0
   238          0
   239          0
   244          5
   245          1
   246          1
   247          0
   249          1
   251          0
   254          0
   256          0
   261          0
   272          0
   276          0
   280          0
   281          1
   308        111
   309         19
   310         12
   311          2