##TITLE=Library Entry 71499
##JCAMP-DX=Revision 4.10 
##DATA TYPE=MASS SPECTRUM
##SAMPLE DESCRIPTION=Japan AIST/NIMC Database- Spectrum MS-IW-2275
##NAMES=HP
##CAS NAME=Fumaric dihydrazide
##MOLFORM=C4H8N4O2
##CAS REGISTRY NO=3538-81-6
##MP= -300
##BP= -300
##MW= 144
##$RETENTION INDEX=0
##$CONDENSED SPECTRUM=NO
##NPOINTS= 83
##XYDATA=(XY..XY) 1 
    14          2
    15          6
    16          7
    17         17
    18         40
    24          1
    25          7
    26        102
    27         63
    28         49
    29         79
    30         65
    31        420
    32        211
    33         13
    36          1
    37          3
    38          6
    39         25
    40         52
    41         43
    42         56
    43         45
    44         29
    45          6
    50          1
    51          6
    52         18
    53         76
    54        185
    55        266
    56         17
    57         79
    58          9
    59         50
    60          3
    61          1
    66          1
    67         28
    68         30
    69         17
    70         18
    71          7
    73          4
    77          1
    78          3
    79          1
    80         15
    81          6
    82        150
    83          9
    84         38
    85        184
    86         12
    87          2
    91          1
    93          1
    94          1
    95         30
    96          6
    97          5
    98        999
    99         57
   100          6
   101          1
   102          1
   107          1
   109          1
   110          1
   111          3
   112         18
   113        524
   114        883
   115         49
   116          9
   123          1
   125          1
   126          2
   127          1
   129          2
   143          1
   144         20
   145          4