##TITLE=Library Entry 55238
##JCAMP-DX=Revision 4.10 
##DATA TYPE=MASS SPECTRUM
##SAMPLE DESCRIPTION=A.A.Kutin, Moscow, Russia
##NAMES=HP
##CAS NAME=Propan-1-ol, 2-(tetrahydro-2H-pyran-2-yloxy)-
##MOLFORM=C8H16O3
##CAS REGISTRY NO=3539-39-7
##MP= -300
##BP= -300
##MW= 160
##$RETENTION INDEX=0
##$CONDENSED SPECTRUM=NO
##NPOINTS= 74
##XYDATA=(XY..XY) 1 
    33         25
    39         29
    40         42
    41        186
    42         35
    43        119
    44         23
    45         83
    46          1
    47          1
    53          5
    54          9
    55         90
    56         64
    57        104
    59        197
    60          8
    61          1
    63          1
    65          3
    66          4
    67         75
    69         26
    71         16
    72          4
    73         12
    74          3
    75          0
    77          0
    81          1
    83         39
    85        999
    87        536
    88         13
    89          4
    91         26
    92          2
    95          0
    97          7
    98         15
    99          8
   101        122
   102          8
   103          2
   104          1
   105          0
   107          0
   111          1
   112          4
   113         21
   114          8
   115          7
   116          1
   117          2
   119          1
   128          2
   129         10
   130          1
   131         15
   132          2
   135          0
   136          1
   140          4
   141          0
   142         10
   143         47
   144          4
   145          3
   155          0
   156          1
   157         15
   159         77
   160          7
   161          4