##TITLE=Library Entry 54555
##JCAMP-DX=Revision 4.10 
##DATA TYPE=MASS SPECTRUM
##SAMPLE DESCRIPTION=Chemical Concepts
##NAMES=HP
##CAS NAME=Propanoic acid, 2-[(tetrahydro-2H-pyran-2-yl)oxy]-, ethyl ester
##MOLFORM=C10H18O4
##CAS REGISTRY NO=3539-40-0
##MP= -300
##BP= -300
##MW= 202
##$RETENTION INDEX=0
##$CONDENSED SPECTRUM=NO
##NPOINTS= 90
##XYDATA=(XY..XY) 1 
    26         20
    27        164
    28        101
    29        366
    30         11
    31         42
    37          0
    38          1
    39         48
    40          5
    41        248
    42         15
    43        209
    44         19
    45        194
    46          6
    47         17
    48          0
    50          0
    51          2
    52          1
    53         11
    54          6
    55         87
    56         89
    57        141
    58          6
    59          6
    60          0
    63          4
    64          0
    65          3
    66          0
    67         49
    68          8
    70          1
    71         77
    72          4
    73        115
    74         67
    75          9
    76          0
    81          0
    82          0
    83         29
    84         47
    85        999
    86         59
    87          4
    88          0
    89          1
    90          0
    91          6
    98          0
    99          0
   100          0
   101        186
   102         80
   103          6
   104          0
   114          0
   115          0
   116          2
   117          5
   118          1
   119          7
   120          0
   121          0
   127          0
   128          0
   129         69
   130         46
   131          4
   132          0
   136          0
   140          0
   144         14
   145          3
   146          1
   147          4
   148          0
   157          3
   158         18
   159          1
   172          0
   184          5
   185          0
   201          1
   202          0
   203          0