##TITLE=Library Entry 75783
##JCAMP-DX=Revision 4.10 
##DATA TYPE=MASS SPECTRUM
##SAMPLE DESCRIPTION=E.SANTORO MONTEDISON S.P.A., RESEARCH CENTRE, MILAN, IT
ALY
##NAMES=HP
##CAS NAME=Ethane, 1,1,2,2-tetrafluoro-1-iodo-
##MOLFORM=C2HF4I
##CAS REGISTRY NO=354-41-6
##MP= -300
##BP= -300
##MW= 228
##$RETENTION INDEX=0
##$CONDENSED SPECTRUM=NO
##NPOINTS= 18
##XYDATA=(XY..XY) 1 
    31        102
    43         68
    50         20
    51        483
    63         15
    69         10
    82        381
   100         20
   101        999
   102         22
   127        241
   128         17
   158         20
   159         41
   177         62
   208         44
   228        550
   229         11