##TITLE=Library Entry 97476
##JCAMP-DX=Revision 4.10 
##DATA TYPE=MASS SPECTRUM
##SAMPLE DESCRIPTION=NIST Mass Spectrometry Data Center, 1998.
##NAMES=HP
##CAS NAME=1-Bromo-2-chloro-1,1,2-trifluoroethane
##MOLFORM=C2HBrClF3
##CAS REGISTRY NO=354-06-3
##MP= -300
##BP= -300
##MW= 196
##$RETENTION INDEX=0
##$CONDENSED SPECTRUM=NO
##NPOINTS= 94
##XYDATA=(XY..XY) 1 
    13          1
    24          2
    25          3
    31         77
    32         19
    35         11
    36          1
    37          4
    43          6
    44         31
    45          1
    47         18
    48         19
    49          6
    50         35
    51         90
    52          1
    59          2
    60          3
    61          1
    62          8
    63         34
    64          1
    66         14
    67        331
    68          8
    69        105
    70          1
    78          5
    79         40
    80          4
    81         41
    82         90
    83          2
    85          8
    87          3
    91          7
    92          4
    93          7
    94          4
    97          7
    98         91
    99          4
   100         29
   101          1
   103          1
   104          2
   105          1
   106          2
   110          9
   111         62
   112         10
   113         60
   114          2
   116         15
   117        999
   118         30
   119        370
   120          8
   122          2
   123          1
   124          2
   125          1
   126          2
   127         15
   128          3
   129        111
   130          2
   131         94
   132          1
   141          2
   142          6
   143          2
   144          6
   145          4
   147          5
   149          1
   157          1
   159          1
   160          2
   161         50
   162          3
   163         50
   164          1
   176          1
   177          7
   178          1
   179          9
   181          2
   196         15
   197          1
   198         20
   199          1
   200          5