##TITLE=Library Entry 33129
##JCAMP-DX=Revision 4.10 
##DATA TYPE=MASS SPECTRUM
##SAMPLE DESCRIPTION=THE M.W. KELLOGG CO., JERSEY CITY, N.J., USA
##NAMES=HP
##CAS NAME=Ethane, 1,2-dichloro-1,1,2-trifluoro-
##MOLFORM=C2HCl2F3
##CAS REGISTRY NO=354-23-4
##MP= -300
##BP= -300
##MW= 152
##$RETENTION INDEX=0
##$CONDENSED SPECTRUM=NO
##NPOINTS= 76
##XYDATA=(XY..XY) 1 
    19         11
    20          1
    24         12
    25         19
    26          0
    31        277
    32         60
    33          0
    35        109
    36          9
    37         33
    38          3
    43         10
    44         44
    45          1
    47         59
    48         40
    49         23
    50         50
    51        104
    52          1
    54          0
    57          1
    58          1
    59          4
    60          8
    61          1
    62          8
    63         16
    64          0
    66         32
    67        999
    68         20
    69        327
    70          4
    72          0
    76          0
    78          6
    79          4
    80          2
    81          5
    82         52
    83         71
    84          3
    85        360
    86          3
    87        111
    88          0
    94          0
    95          0
    96          0
    97          7
    98         26
    99          2
   100          8
   101          6
   103          4
   105          0
   113          1
   114          0
   115          1
   116         10
   117        532
   118         11
   119        172
   120          2
   132          1
   133         19
   134          1
   135         12
   136          0
   137          2
   151          0
   152         35
   154         22
   156          3