##TITLE=Library Entry 74710
##JCAMP-DX=Revision 4.10 
##DATA TYPE=MASS SPECTRUM
##SAMPLE DESCRIPTION=RADIAN CORP
##NAMES=HP
##CAS NAME=Ethane, 1,1,2,2-tetrachloro-1-fluoro-
##MOLFORM=C2HCl4F
##CAS REGISTRY NO=354-14-3
##MP= -300
##BP= -300
##MW= 184
##$RETENTION INDEX=760
##$CONDENSED SPECTRUM=NO
##NPOINTS= 70
##XYDATA=(XY..XY) 1 
    12          1
    13          1
    24          8
    25         20
    31         54
    35        118
    36          7
    37         35
    43          6
    44         91
    47        101
    48         43
    49         30
    50         13
    59         29
    60         59
    61         10
    62         19
    66         31
    67         16
    68          8
    69          1
    70          5
    78         55
    79        105
    80         19
    81         34
    82         35
    83        633
    84         29
    85        401
    86          7
    87         64
    94         59
    95         17
    96         36
    97         11
    98          3
   101        999
   102         13
   103        653
   104          6
   105        104
   113         78
   114        195
   115         53
   116        125
   117         13
   118         18
   129         90
   130         25
   131         88
   132         25
   133         28
   134          6
   148          8
   149        357
   150         20
   151        352
   152         10
   153        109
   155         10
   164         41
   166         52
   167          3
   168         24
   170          1
   184         14
   186         19
   188          7