##TITLE=Library Entry 73881
##JCAMP-DX=Revision 4.10 
##DATA TYPE=MASS SPECTRUM
##SAMPLE DESCRIPTION=Exported from NIST MS Search
##NAMES=HP
##CAS NAME=Ethane, 1-chloro-1,1,2,2-tetrafluoro-
##MOLFORM=C2HClF4
##CAS REGISTRY NO=354-25-6
##MP= -300
##BP= -300
##MW= 136
##$RETENTION INDEX=0
##$CONDENSED SPECTRUM=NO
##NPOINTS= 66
##XYDATA=(XY..XY) 1 
    12          5
    13          3
    24          3
    25          4
    31        225
    32          3
    35         23
    36          4
    37          8
    38          2
    39          5
    40          6
    41         11
    42          3
    43          8
    44         18
    45          7
    47         33
    48         16
    49         18
    50         81
    51        966
    52         12
    55          1
    56          2
    58          3
    59          3
    62          6
    63         17
    64          8
    65         12
    66         53
    67        878
    68         29
    69        463
    70          6
    77          3
    78          4
    81         26
    82         41
    83         66
    84          5
    85        918
    86         13
    87        301
    88          3
    95          3
    97          9
    98          9
    99          4
   100         54
   101        999
   102         28
   103         15
   105          2
   114          2
   116         40
   117        235
   118         21
   119         80
   120          3
   131          4
   135        155
   136         48
   137         41
   138         15