##TITLE=Library Entry 52875
##JCAMP-DX=Revision 4.10 
##DATA TYPE=MASS SPECTRUM
##SAMPLE DESCRIPTION=Exported from NIST MS Search
##NAMES=HP
##CAS NAME=Ethane, 1,2,2-trichloro-1,1-difluoro-
##MOLFORM=C2HCl3F2
##CAS REGISTRY NO=354-21-2
##MP= -300
##BP= -300
##MW= 168
##$RETENTION INDEX=0
##$CONDENSED SPECTRUM=NO
##NPOINTS= 94
##XYDATA=(XY..XY) 1 
    24          2
    25          5
    27          1
    28         21
    31         45
    32          8
    35         21
    36          4
    37          7
    38          1
    39          1
    40          1
    41          2
    43          5
    44         30
    45          2
    47         58
    48         50
    49         25
    50         26
    51          8
    55          1
    57          5
    58          3
    59          4
    60          8
    61          2
    62          5
    63          9
    64          2
    65          1
    66          7
    67         53
    68          3
    69         18
    70          1
    74          1
    75          1
    77          2
    78         13
    79         15
    80          5
    81          6
    82         25
    83        999
    84         28
    85        813
    86         12
    87        150
    88          2
    95          1
    96          1
    97         11
    98         58
    99         18
   100         20
   101         11
   103          5
   104          5
   105          1
   113         12
   114         26
   115         14
   116         17
   117         32
   118          3
   119         29
   121          9
   123          1
   127          2
   129          5
   131          5
   132          9
   133        215
   134         11
   135        136
   136          4
   137         22
   143          1
   148          2
   149         13
   150          3
   151         12
   152          1
   153          4
   163          1
   167         28
   168         46
   169         28
   170         45
   171          9
   172         14
   173          1
   174          2