##TITLE=Library Entry 100862
##JCAMP-DX=Revision 4.10 
##DATA TYPE=MASS SPECTRUM
##SAMPLE DESCRIPTION=Chemical Concepts
##NAMES=HP
##CAS NAME=Pentafluoroethyliodide
##MOLFORM=C2F5I
##CAS REGISTRY NO=354-64-3
##MP= -300
##BP= -300
##MW= 246
##$RETENTION INDEX=0
##$CONDENSED SPECTRUM=NO
##NPOINTS= 29
##XYDATA=(XY..XY) 1 
    20          1
    31        244
    50         82
    51         39
    62          1
    63          2
    69        603
    70          4
    77          9
    78          1
    79          1
    91          1
   100        279
   101          4
   104          1
   119        999
   120         17
   127        495
   128          8
   130          2
   139         11
   146          3
   158         41
   159          6
   177        335
   178         29
   227        127
   246        802
   247         12