##TITLE=Library Entry 18202
##JCAMP-DX=Revision 4.10 
##DATA TYPE=MASS SPECTRUM
##SAMPLE DESCRIPTION=T.J. Bruno, Cent. Chem. Technol., NIST, Boulder, CO 803
03, USA
##NAMES=HP
##CAS NAME=Ethane, pentafluoro-
##MOLFORM=C2HF5
##CAS REGISTRY NO=354-33-6
##MP= -300
##BP= -300
##MW= 120
##$RETENTION INDEX=234
##$CONDENSED SPECTRUM=NO
##NPOINTS= 20
##XYDATA=(XY..XY) 1 
    19          8
    20          3
    24          3
    25          2
    31        189
    41         10
    43          4
    50         69
    51        999
    52         10
    62          1
    63          1
    69        222
    70          2
    81          1
    82          3
   101        534
   102         11
   119         10
   120          0