##TITLE=Library Entry 49720
##JCAMP-DX=Revision 4.10 
##DATA TYPE=MASS SPECTRUM
##SAMPLE DESCRIPTION=Susan Richardson
##NAMES=HP
##CAS NAME=Cyclohexene, 4-bromo-
##MOLFORM=C6H9Br
##CAS REGISTRY NO=3540-84-9
##MP= -300
##BP= -300
##MW= 160
##$RETENTION INDEX=974
##$CONDENSED SPECTRUM=NO
##NPOINTS= 17
##XYDATA=(XY..XY) 1 
    39        180
    40         42
    41         94
    50         17
    51         30
    52          8
    53         98
    54         15
    55         20
    65         30
    66         19
    77         97
    79        138
    81        999
    82         64
    91         56
    93         58