##TITLE=Library Entry 34385
##JCAMP-DX=Revision 4.10 
##DATA TYPE=MASS SPECTRUM
##SAMPLE DESCRIPTION=CARL DJERASSI DEPT OF CHEM STANFORD UNIV STANFORD CALIF
 94305
##NAMES=HP
##CAS NAME=3,7-Nonadien-2-one, 8-methyl-, (E)-
##MOLFORM=C10H16O
##CAS REGISTRY NO=35408-14-1
##MP= -300
##BP= -300
##MW= 152
##$RETENTION INDEX=0
##$CONDENSED SPECTRUM=NO
##NPOINTS= 18
##XYDATA=(XY..XY) 1 
    41        670
    42         30
    43        220
    53         50
    54         30
    67         50
    68         10
    69        999
    70         50
    77         10
    79         10
    84        450
    85         30
    94        250
    95         20
   109         70
   137         10
   152         20