##TITLE=Library Entry 2985
##JCAMP-DX=Revision 4.10 
##DATA TYPE=MASS SPECTRUM
##SAMPLE DESCRIPTION=V.Zaikin,Topchiev Inst.Petrochem.Synth.,Moscow
##NAMES=HP
##CAS NAME=4-Bromobutanoic acid, butyl ester
##MOLFORM=C8H15BrO2
##CAS REGISTRY NO=3540-75-8
##MP= -300
##BP= -300
##MW= 222
##$RETENTION INDEX=0
##$CONDENSED SPECTRUM=NO
##NPOINTS= 98
##XYDATA=(XY..XY) 1 
    27        188
    28        141
    29        290
    30         18
    31         39
    34          2
    35         13
    36         53
    37         37
    38         66
    39        403
    40         91
    41        999
    42        428
    43        283
    44         43
    45        264
    46          5
    49          3
    50         10
    51         10
    52          3
    53         22
    54         22
    55        182
    56        724
    57        267
    58         16
    59          5
    60        710
    61         41
    62          5
    63          2
    65         10
    66          3
    67         11
    68         21
    69         66
    70         33
    71         37
    72          3
    73         31
    74          5
    75          6
    76          4
    77          4
    78          2
    79         20
    80         18
    81         20
    82         18
    83         23
    84         15
    85         27
    86         25
    87        293
    88         15
    91         13
    92          3
    93         38
    94          4
    95         30
    96          5
    97         14
    98          8
    99          4
   101         18
   104          3
   105          8
   106         10
   107         16
   108          8
   109         16
   111          4
   112          4
   116         81
   117          5
   119          5
   120          3
   121         82
   122          8
   123         79
   124          6
   125          4
   137          3
   141          3
   143          5
   145          2
   148         12
   149        288
   150         24
   151        293
   152         13
   166         15
   167        107
   168         16
   169         93
   170          5