##TITLE=Library Entry 24385
##JCAMP-DX=Revision 4.10 
##DATA TYPE=MASS SPECTRUM
##SAMPLE DESCRIPTION=EP-1260
##NAMES=HP
##CAS NAME=Octadecanoic acid, 3-[(1-oxododecyl)oxy]-1,2-propanediyl ester
##MOLFORM=C51H98O6
##CAS REGISTRY NO=35405-55-1
##MP= -300
##BP= -300
##MW= 806
##$RETENTION INDEX=0
##$CONDENSED SPECTRUM=NO
##NPOINTS= 541
##XYDATA=(XY..XY) 1 
    26          4
    27         49
    28         15
    29        130
    30          4
    31          6
    38          1
    39         25
    40          6
    41        273
    42         62
    43        729
    44         25
    45         14
    46          1
    47          1
    50          1
    51          1
    52          1
    53         11
    54         35
    55        378
    56        100
    57        999
    58         51
    59         19
    60        170
    61         46
    62          2
    63          1
    65          3
    66          4
    67        103
    68         51
    69        308
    70         73
    71        648
    72         41
    73        132
    74         28
    75          6
    76          1
    77          2
    78          2
    79         19
    80         14
    81        149
    82         59
    83        305
    84        246
    85        432
    86         34
    87         41
    88          6
    89          2
    90          1
    91          4
    92          2
    93         23
    94         14
    95        238
    96         57
    97        249
    98        386
    99        111
   100         35
   101         28
   102          9
   103          3
   104          1
   105          3
   106          1
   107         20
   108          9
   109        149
   110         32
   111        122
   112        141
   113         76
   114         12
   115         32
   116         46
   117         36
   118          3
   119          3
   120          2
   121         30
   122          8
   123         68
   124         18
   125         46
   126         39
   127         30
   128          8
   129        103
   130         11
   131          3
   132          1
   133          2
   134          4
   135         23
   136          7
   137         30
   138         17
   139         22
   140         19
   141         20
   142          7
   143         16
   144          3
   145          2
   146          1
   147          2
   148          2
   149         11
   150          4
   151         13
   152          8
   153         14
   154         19
   155         22
   156          6
   157         17
   158        111
   159         17
   160          2
   161          1
   162          1
   163         11
   164          4
   165         12
   166          6
   167          9
   168         11
   169         16
   170          7
   171        168
   172         25
   173          5
   174          1
   175          1
   176          2
   177          3
   178          2
   179          5
   180          8
   181         14
   182         31
   183        594
   184         78
   185         59
   186         11
   187          4
   188          1
   189          1
   190          1
   191          2
   192          2
   193          4
   194          2
   195          5
   196          9
   197          9
   198          7
   199         22
   200          8
   201          6
   202          1
   203          1
   204          1
   205          2
   206          2
   207          2
   208          2
   209          6
   210          9
   211         15
   212          4
   213         38
   214          9
   215          3
   216          1
   217          1
   218          1
   219          2
   220          2
   221          2
   222          6
   223          6
   224         15
   225         14
   226          4
   227         73
   228         13
   229          5
   230          1
   231          1
   232          1
   233          2
   234          1
   235          2
   236          2
   237          5
   238          6
   239         18
   240          6
   241         39
   242          9
   243          7
   244          1
   245          1
   246          1
   247          5
   248          3
   249          7
   250          2
   251          2
   252          5
   253          8
   254          4
   255         41
   256         18
   257        273
   258         46
   259          7
   260          1
   261          1
   262          2
   263          2
   264          8
   265         15
   266         51
   267        621
   268        122
   269         32
   270          7
   271          2
   272          1
   273          1
   274          1
   275         11
   276          3
   277          1
   278          1
   279          2
   280          4
   281          7
   282          6
   283         27
   284         18
   285         12
   286          2
   287          1
   288          1
   289          1
   290          2
   291          1
   292          1
   293          2
   294          2
   295          6
   296          3
   297         18
   298         62
   299         51
   300         10
   301          2
   302          1
   303          1
   304          1
   305          1
   306          1
   307          2
   308         16
   309         12
   310          5
   311        224
   312         49
   313         12
   314          2
   315          1
   316          1
   317          2
   318          1
   319          1
   320          1
   321          2
   322          4
   323          5
   324          6
   325         36
   326         11
   327          8
   328          2
   329          1
   330          1
   331          1
   332          1
   333          1
   334          1
   335          1
   336          5
   337          6
   338          6
   339         49
   340         27
   341        305
   342         73
   343         13
   344          2
   345          1
   346          1
   347          1
   348          1
   349          1
   350          1
   351          3
   352          2
   353         34
   354         12
   355          3
   356          1
   357          1
   358          1
   359          9
   360          3
   361          1
   362          1
   363          1
   364          2
   365          3
   366          2
   367         76
   368         26
   369          7
   370          2
   371          1
   372          1
   373          1
   374          1
   375          1
   376          1
   377          1
   378          1
   379          2
   380          2
   381         16
   382         89
   383         57
   384         13
   385          4
   386          1
   387          1
   388          1
   392          1
   393          4
   394         19
   395        295
   396         86
   397         15
   398          2
   399          1
   400          1
   401          1
   402          1
   403          1
   404          1
   405          1
   406          1
   407          2
   408          2
   409         37
   410         13
   411          4
   412          1
   413          1
   414          1
   419          1
   420          1
   421          3
   422          2
   423         30
   424         14
   425          5
   426          1
   427          1
   428          1
   429          1
   430          1
   431          1
   432          1
   433          1
   434          1
   435          2
   436          2
   437         51
   438         24
   439         46
   440         14
   441          3
   442          2
   443          1
   444          1
   447          1
   448          3
   449          7
   450          2
   451         95
   452         39
   453          9
   454          2
   455          1
   456          1
   457          1
   463          1
   464          1
   465         25
   466         12
   467          5
   468          1
   469          1
   470          1
   471          1
   478          1
   479          1
   480         65
   481         25
   482          6
   483          1
   484          1
   485          1
   491          1
   492          1
   493         34
   495         16
   496          5
   497          1
   498          1
   504          1
   505          1
   506          1
   507         21
   508         10
   509         12
   510          4
   511          1
   512          1
   513          1
   514          1
   519          1
   520          4
   521         38
   522        103
   523        513
   524        176
   525         37
   526          7
   527          1
   531          1
   532          1
   533          1
   534          1
   535          7
   536          4
   537          2
   538          1
   539          1
   540          1
   541          1
   542          1
   547          1
   548          1
   550          5
   551          6
   552          2
   553          1
   554          1
   561          1
   563         30
   564         24
   565          8
   566          2
   567          8
   568          3
   569          1
   577         11
   578          7
   579          6
   580          2
   581          1
   582          2
   583          1
   591          2
   592          5
   593          5
   594          2
   595          1
   596          1
   603          1
   604          2
   605         14
   606         51
   607        122
   608         51
   609         13
   610          2
   611          1
   619          1
   620          1
   621          1
   622          1
   633          1
   634          1
   635          1
   648          6
   649          3
   650          1
   651          4
   652          2
   653          1
   661          1
   662          1
   663          1
   666          1
   667          1
   676          2
   677          1
   678          1
   689          1
   690          1
   691          1
   704          1
   705          1
   718          1
   719          1
   732          1
   733          1
   788          1
   789          1
   790          1
   806          1