##TITLE=Library Entry 78790
##JCAMP-DX=Revision 4.10 
##DATA TYPE=MASS SPECTRUM
##SAMPLE DESCRIPTION=Chemical Concepts
##NAMES=HP
##CAS NAME=N-(4-Methoxy-2-benzothiazolyl)benzamide
##MOLFORM=C15H12N2O2S
##CAS REGISTRY NO=35412-20-5
##MP= -300
##BP= -300
##MW= 284
##$RETENTION INDEX=0
##$CONDENSED SPECTRUM=NO
##NPOINTS= 102
##XYDATA=(XY..XY) 1 
    33          1
    34          2
    36          2
    37          6
    38         12
    39         32
    40         22
    41         14
    43         21
    44         31
    47          2
    49         52
    51        228
    53         16
    55         15
    56          5
    57         29
    59          2
    60          2
    62         22
    64          8
    65         15
    69         29
    70          9
    71          9
    72          4
    74         14
    75         12
    77        626
    79          8
    80         21
    81         18
    83         12
    84          9
    85         13
    87          1
    88          2
    89          1
    90          2
    91          2
    92          6
    93         10
    94          7
    95         11
    97          5
    98          1
    99          1
   100          2
   105        999
   108         25
   110          4
   111          2
   112          4
   113          1
   114          1
   115          1
   118          2
   120          9
   121          4
   122          4
   123          6
   124          2
   125          1
   126          2
   127          1
   129          1
   130          1
   133          3
   135         32
   136          9
   138          7
   139          1
   143          1
   144          1
   147          1
   148          1
   149          2
   152          3
   153          1
   154          1
   163          1
   164          2
   165          2
   169          1
   171          5
   179         23
   181          4
   182          1
   207          3
   211          1
   213          1
   241          1
   256         27
   257          4
   258          1
   279          1
   281          7
   284        222
   285         37
   286         13
   287          1
   290          1