##TITLE=Library Entry 172
##JCAMP-DX=Revision 4.10 
##DATA TYPE=MASS SPECTRUM
##SAMPLE DESCRIPTION=D.HENNEBERG, MAX-PLANCK INSTITUTE, MULHEIM, WEST GERMAN
Y
##NAMES=HP
##CAS NAME=Tungsten, pentacarbonyl(1,4-diazabicyclo[2.2.2]octane-N1)-, (OC-6
-22)-
##MOLFORM=C11H12N2O5W
##CAS REGISTRY NO=35419-59-1
##MP= -300
##BP= -300
##MW= 436
##$RETENTION INDEX=0
##$CONDENSED SPECTRUM=NO
##NPOINTS= 228
##XYDATA=(XY..XY) 1 
    27         42
    28        999
    29         72
    30         34
    38          1
    39          8
    40         42
    41         55
    42        340
    43         36
    44         29
    45          1
    50          1
    51          2
    52          1
    53          1
    54         32
    55        276
    56        131
    57        212
    58         85
    59          4
    67          6
    68         10
    69         32
    70         57
    71         18
    72          4
    77          2
    78          2
    79          2
    80          2
    81          8
    82         22
    83         35
    84         44
    85         13
    86          1
    91          2
    92          2
    93          2
    94          2
    95          6
    96          3
    97         15
    98          1
    99          1
   105          2
   106          0
   107          1
   108          2
   109          3
   110          1
   111         17
   112        194
   113         18
   115          0
   117          1
   118          0
   119          1
   121          1
   122          1
   123          3
   124          1
   125          2
   126          1
   127          1
   131          0
   132          1
   134          1
   137          2
   138          2
   141          0
   145          0
   146          1
   147          1
   148          1
   149         11
   150          1
   151          1
   159          2
   160          2
   161          1
   162          1
   163          1
   165          1
   167          2
   173          1
   174          3
   175          2
   176          2
   177          0
   179          1
   183          2
   184          5
   186          5
   188          1
   189          1
   191          1
   196          1
   198          1
   199          1
   202          1
   203          2
   204          1
   206          0
   208          3
   209          2
   210         12
   211         10
   212         16
   213          8
   214          8
   215          4
   221          1
   222          4
   223          5
   224          6
   225          5
   226          3
   227          3
   228          1
   234          4
   235         15
   236         20
   237         27
   238         28
   239         35
   240         20
   241         10
   242         11
   243          1
   244          1
   245          1
   246          1
   247          2
   248          2
   249          6
   250          5
   251          6
   252          4
   253          4
   254          2
   255          1
   256          1
   260          2
   261         12
   262         17
   263         31
   264         30
   265         41
   266         41
   267         35
   268         29
   269         13
   270         18
   271          2
   273          0
   275          1
   276          1
   277          2
   278          2
   280          3
   281          1
   282          2
   286          0
   288         10
   289          6
   290         23
   291         11
   292         56
   293         26
   294         69
   295         16
   296         54
   297          5
   298         18
   299          1
   306          2
   308          1
   310          2
   316          1
   317          1
   318         10
   319          7
   320         23
   321         11
   322         35
   323         11
   324         27
   325          5
   326         12
   327          1
   344          1
   346          4
   347          3
   348         58
   349         37
   350         75
   351         13
   352         66
   353          8
   354          8
   355          1
   366          1
   374          1
   375          1
   376          2
   377          1
   378         34
   379         20
   380         37
   381          5
   382         37
   383          4
   384          1
   406         17
   407         11
   408         23
   409          3
   410         21
   411          3
   434         29
   435         19
   436         37
   437          4
   438         30
   439          4