##TITLE=Library Entry 76291
##JCAMP-DX=Revision 4.10 
##DATA TYPE=MASS SPECTRUM
##SAMPLE DESCRIPTION=J.W.LLEWELLYN UNIV. COLLEGE OF SWANSEA, SWANSEA, UK
##NAMES=HP
##CAS NAME=D-Mannose, 2,5-anhydro-, diethyl acetal, triacetate
##MOLFORM=C16H26O9
##CAS REGISTRY NO=35439-63-5
##MP= -300
##BP= -300
##MW= 362
##$RETENTION INDEX=0
##$CONDENSED SPECTRUM=NO
##NPOINTS= 30
##XYDATA=(XY..XY) 1 
    43        457
    47        319
    75        341
    81         21
    85         15
    97         32
    98         31
   101         32
   103        999
   104         61
   109         30
   115         14
   139         18
   155         53
   156         14
   157         10
   169          9
   173          7
   183         10
   187         13
   197         34
   198         10
   200          3
   215         13
   229          5
   257         15
   258          4
   259          3
   303          2
   317          7