##TITLE=Library Entry 74706
##JCAMP-DX=Revision 4.10 
##DATA TYPE=MASS SPECTRUM
##SAMPLE DESCRIPTION=Exported from NIST MS Search
##NAMES=HP
##CAS NAME=2,4-Dioxabicyclo[3.2.0]hept-6-en-3-one, 1,5-dichloro-6,7-dimethyl
-
##MOLFORM=C7H6Cl2O3
##CAS REGISTRY NO=35436-20-5
##MP= -300
##BP= -300
##MW= 208
##$RETENTION INDEX=0
##$CONDENSED SPECTRUM=NO
##NPOINTS= 23
##XYDATA=(XY..XY) 1 
    49         21
    50         35
    51         63
    52         26
    53         35
    54         25
    55         21
    56         13
    57         28
    61         13
    62         25
    63         28
    85         28
    87         26
   101        999
   103        373
   129         46
   131         30
   136         28
   138         26
   164         63
   166         35
   208          2