##TITLE=Library Entry 50847
##JCAMP-DX=Revision 4.10 
##DATA TYPE=MASS SPECTRUM
##SAMPLE DESCRIPTION=Chemical Concepts
##NAMES=HP
##CAS NAME=Naphthalene, decahydro-1,1-dimethyl-
##MOLFORM=C12H22
##CAS REGISTRY NO=35431-04-0
##MP= -300
##BP= -300
##MW= 166
##$RETENTION INDEX=0
##$CONDENSED SPECTRUM=NO
##NPOINTS= 79
##XYDATA=(XY..XY) 1 
    25          4
    26         23
    27        152
    28         23
    29        183
    30          4
    37          1
    38          3
    39        163
    40         30
    41        640
    42         57
    43        113
    44          3
    49          1
    50          6
    51         21
    52         12
    53        110
    54        100
    55        524
    56        198
    57         81
    58          2
    59          2
    63          4
    64          1
    65         40
    66         40
    67        701
    68        171
    69        379
    70        132
    71         16
    77         57
    78         13
    79        105
    80         60
    81        999
    82        426
    83        172
    84         35
    85         11
    91         35
    92          4
    93         44
    94         27
    95        755
    96        744
    97        154
    98         12
    99          1
   101          1
   103          2
   105          7
   107         11
   108         14
   109        277
   110        115
   111         14
   115          1
   121          4
   122         32
   123        144
   124         28
   125          5
   135          2
   137          3
   138         23
   139          1
   149          1
   150         12
   151        833
   152         97
   153          5
   165          1
   166        165
   167         22
   168          1