##TITLE=Library Entry 61650
##JCAMP-DX=Revision 4.10 
##DATA TYPE=MASS SPECTRUM
##SAMPLE DESCRIPTION=Chemical Concepts
##NAMES=HP
##CAS NAME=Bicyclo[4.2.0]octa-1,3,5-trien-7-ol
##MOLFORM=C8H8O
##CAS REGISTRY NO=35447-99-5
##MP= -300
##BP= -300
##MW= 120
##$RETENTION INDEX=0
##$CONDENSED SPECTRUM=NO
##NPOINTS= 67
##XYDATA=(XY..XY) 1 
    27         24
    28         10
    29         20
    30          0
    31          1
    37          6
    38         18
    39         77
    40         10
    41         10
    42          1
    43          4
    44          0
    45          3
    46          2
    47          0
    49          3
    50         40
    51         55
    52         11
    53          6
    54          0
    55          2
    59          3
    60          1
    61         10
    62         31
    63         77
    64         19
    65        223
    66         18
    67          1
    68          0
    73          4
    74         25
    75         20
    76         15
    77         30
    78          5
    79          1
    81          0
    84          0
    85          4
    86          8
    87          6
    88          1
    89         71
    90         44
    91        999
    92        105
    93          5
    94          0
    95          0
    97          0
    98          3
    99          0
   101          2
   102          9
   103          7
   104          0
   105          2
   117          0
   118          8
   119        864
   120        504
   121         44
   122          2