##TITLE=Library Entry 21371
##JCAMP-DX=Revision 4.10 
##DATA TYPE=MASS SPECTRUM
##SAMPLE DESCRIPTION=Japan AIST/NIMC Database- Spectrum MS-NW-7848
##NAMES=HP
##CAS NAME=Hexanedioic acid monochloride monomethyl ester
##MOLFORM=C7H11ClO3
##CAS REGISTRY NO=35444-44-1
##MP= -300
##BP= -300
##MW= 178
##$RETENTION INDEX=0
##$CONDENSED SPECTRUM=NO
##NPOINTS= 128
##XYDATA=(XY..XY) 1 
    12          2
    13          3
    14         12
    15        216
    16          3
    17          3
    18          8
    25          3
    26         59
    27        301
    28        168
    29        165
    30          9
    31         41
    32          5
    35         15
    36         66
    37          9
    38         22
    39        198
    40         30
    41        321
    42        155
    43        225
    44         17
    45         45
    46          2
    47          2
    48          9
    49         10
    50         17
    51         24
    52         11
    53         69
    54        122
    55        999
    56         94
    57         30
    58         17
    59        442
    60         16
    61          7
    62          5
    63         44
    64         21
    65         16
    66          4
    67         12
    68         78
    69        108
    70          7
    71         36
    72         86
    73        187
    74        414
    75         19
    76          4
    77          9
    78         10
    79          5
    80          5
    81         16
    82        119
    83        326
    84         40
    85          9
    86          9
    87         77
    88          9
    89          5
    90         13
    91         18
    92          8
    93          9
    94          2
    95          2
    96          2
    97         26
    98          5
    99         27
   100         27
   101         64
   102          5
   103          3
   104          3
   105          9
   106          2
   107          4
   108          2
   109          3
   110         34
   111        514
   112         38
   113         18
   114        776
   115        264
   116         21
   117          3
   118         24
   119         49
   120          9
   121         17
   122          2
   125          2
   127          2
   128          4
   129         14
   130          2
   131          5
   133          2
   134          1
   135          2
   141          2
   142         10
   143        172
   144         15
   145          2
   146         18
   147        292
   148         28
   149         98
   150          9
   151          3
   152          2
   162          1
   163          2
   165          1
   178          2