##TITLE=Library Entry 57129
##JCAMP-DX=Revision 4.10 
##DATA TYPE=MASS SPECTRUM
##SAMPLE DESCRIPTION=Chemical Concepts
##NAMES=HP
##CAS NAME=8,11-Cyclopregn-14-en-11-ol-3,20-dione, bis(ethylene acetal)-, ac
etate
##MOLFORM=C27H38O6
##CAS REGISTRY NO=35458-52-7
##MP= -300
##BP= -300
##MW= 458
##$RETENTION INDEX=0
##$CONDENSED SPECTRUM=NO
##NPOINTS= 389
##XYDATA=(XY..XY) 1 
    25          0
    26          1
    27          7
    28         21
    29         12
    30          1
    31          2
    36          0
    37          0
    38          0
    39          6
    40          2
    41         28
    42         10
    43        222
    44         13
    45         24
    46          0
    50          0
    51          0
    52          0
    53          5
    54          2
    55         36
    56          7
    57         22
    58          1
    59          2
    60          8
    61          1
    63          0
    64          0
    65          3
    66          2
    67         10
    68          4
    69         12
    70          3
    71         12
    72          1
    73         14
    74          1
    75         10
    76          0
    77          8
    78          2
    79         14
    80          2
    81         15
    82          4
    83          9
    84          2
    85          8
    86         15
    87        999
    88         50
    89         13
    90          1
    91         17
    92          3
    93          9
    94          2
    95          7
    96          3
    97          6
    98          3
    99         83
   100          8
   101          3
   102          1
   103          3
   104          2
   105         12
   106          3
   107          7
   108          1
   109         12
   110          3
   111          4
   112         10
   113          5
   114          1
   115         24
   116          4
   117          7
   118          2
   119          7
   120          2
   121          5
   122          3
   123          4
   124          3
   125         15
   126          3
   127         52
   128          9
   129         10
   130          4
   131          9
   132          2
   133          5
   134          2
   135          5
   136          2
   137          3
   138          1
   139          1
   140          1
   141          6
   142          3
   143          7
   144          2
   145          6
   146          4
   147          8
   148          2
   149          6
   150          2
   151          6
   152          4
   153         11
   154          4
   155         11
   156          3
   157          4
   158          3
   159          8
   160          3
   161          4
   162          1
   163          2
   164          1
   165          4
   166         20
   167         11
   168         50
   169         15
   170          3
   171          5
   172          2
   173         14
   174          2
   175          3
   176          1
   177          3
   178          2
   179          4
   180          4
   181          5
   182          3
   183          4
   184          6
   185          4
   186          7
   187          3
   188         10
   189          5
   190          1
   191          4
   192          7
   193          4
   194          2
   195          3
   196          2
   197          3
   198          2
   199          4
   200          3
   201          2
   202          1
   203          2
   204          1
   205          3
   206          1
   207          2
   208          1
   209          3
   210          7
   211          3
   212          1
   213          1
   214          0
   215          1
   216          0
   217          2
   218          1
   219          2
   220          1
   221          2
   222          2
   223          2
   224          2
   225          2
   226          1
   227          1
   228          1
   229          1
   230          3
   231          1
   232          1
   233          2
   234          1
   235         31
   236          6
   237          2
   238          1
   239          3
   240          2
   241          2
   242          0
   243          0
   244          1
   245          1
   246          0
   247          1
   248         80
   249         19
   250          6
   251          3
   252          1
   253          1
   254          0
   255          0
   256          1
   257          1
   258          0
   259          1
   260          0
   261          9
   262          2
   263          1
   264          1
   265          1
   266          1
   267          2
   268          1
   269          1
   270          0
   271          1
   272          0
   273          0
   274          1
   275          1
   276          0
   277          2
   278          0
   279          1
   280          0
   281          2
   282          0
   283          1
   284          1
   285          1
   286          1
   287          1
   288          0
   289          0
   290         15
   291          4
   292          2
   293          1
   294          0
   295          2
   296          1
   297          1
   298          1
   299          1
   300          0
   301          4
   302          2
   303          1
   304          0
   305          0
   306          0
   307          0
   308          0
   309          2
   310          2
   311          1
   312          4
   313          2
   314          3
   315          1
   316          0
   317          0
   318          0
   319          0
   320          0
   321          1
   322          0
   323          0
   324          0
   325          0
   326          1
   327          1
   328          1
   329          0
   330          0
   331          0
   332          0
   333          0
   334          0
   335          0
   336          2
   337          1
   338          0
   339          3
   340          1
   341          1
   342          0
   343          4
   344          3
   345          0
   346          0
   349          0
   350          0
   351          0
   352          0
   353          3
   354         10
   355          4
   356          2
   357          1
   358          0
   359          3
   360          0
   361          0
   362          0
   363          0
   364          0
   367          0
   368          1
   369          0
   370          0
   371          2
   372          1
   373          0
   374          0
   377          0
   378          3
   379          0
   380          0
   381          1
   382          1
   383          6
   384          1
   385          0
   386          0
   387          0
   388          0
   389          0
   394          0
   395          0
   396          1
   397          0
   398         19
   399          6
   400         10
   401          4
   402          1
   403          0
   412          0
   413          0
   414          0
   415          1
   416         30
   417          9
   418          1
   419          0
   420          0
   421          0
   422          1
   423          0
   424          0
   425          0
   426          0
   428          0
   429          0
   440          3
   441          1
   442          0
   443          3
   444          1
   445          0
   446          0
   458         19
   459          6
   460          1
   461          0