##TITLE=Library Entry 79138
##JCAMP-DX=Revision 4.10 
##DATA TYPE=MASS SPECTRUM
##SAMPLE DESCRIPTION=A.A.Kutin, Moscow, Russia
##NAMES=HP
##CAS NAME=Ethanedione, 1-phenyl-2-phenylsulfonyl-, 2-(4-methylphenylhydrazo
ne)
##MOLFORM=C21H18N2O3S
##CAS REGISTRY NO=35458-23-2
##MP= -300
##BP= -300
##MW= 378
##$RETENTION INDEX=0
##$CONDENSED SPECTRUM=NO
##NPOINTS= 83
##XYDATA=(XY..XY) 1 
    33         12
    34          0
    37          0
    38          3
    39         16
    40         13
    41          3
    43          1
    44          1
    45          2
    48          1
    50         13
    51         78
    52         12
    53          9
    54          2
    55          0
    57          0
    62          1
    63          6
    64          5
    65         14
    66          3
    69          1
    73          0
    74          3
    75          6
    77        349
    78         60
    79         53
    80          2
    89          3
    90          1
    91         14
    92          2
    93          0
    94          4
    97          5
   102          2
   105        999
   106        314
   107         28
   109          3
   110          0
   115          0
   119          2
   120          0
   121          9
   122          0
   125         26
   126          5
   127          1
   128          0
   131         13
   132          5
   141          1
   142          6
   143          0
   156          0
   159          2
   165          0
   166          0
   181          0
   182          2
   183          2
   194          0
   196          0
   208          2
   221          0
   225          1
   226          1
   235          0
   236        113
   237         20
   238          2
   254         18
   255          2
   315          0
   376          1
   378        136
   379         31
   380          9
   381          1