##TITLE=Library Entry 45587
##JCAMP-DX=Revision 4.10 
##DATA TYPE=MASS SPECTRUM
##SAMPLE DESCRIPTION=A.A.Kutin, Moscow, Russia
##NAMES=HP
##CAS NAME=Ethanone, 1-(2-chlorophenyl)-, 2,4-dinitrophenylhydrazone
##MOLFORM=C14H11ClN4O4
##CAS REGISTRY NO=35468-02-1
##MP= -300
##BP= -300
##MW= 334
##$RETENTION INDEX=0
##$CONDENSED SPECTRUM=NO
##NPOINTS= 230
##XYDATA=(XY..XY) 1 
    33          2
    34          3
    35         16
    36         75
    37         50
    38        162
    39        261
    40         85
    41         49
    42        158
    43        316
    44         48
    45         12
    46         26
    47          1
    48          5
    50        324
    51        546
    52        176
    53         58
    54         17
    55         22
    56          8
    57         13
    58          2
    59          3
    60          6
    61         58
    62        198
    63        403
    64        146
    65         48
    66         23
    67         14
    68         18
    69         16
    70          7
    71          7
    72          5
    73         43
    74        227
    75        999
    76        323
    77        530
    78        234
    79        202
    80         33
    81          9
    82         13
    83         11
    84         18
    85         53
    86         18
    87         42
    88         57
    89        131
    90         82
    91         48
    92         55
    93         22
    94         15
    95          8
    96          6
    97         13
    98         11
    99         25
   100         28
   101        288
   102        457
   103        551
   104         91
   105         50
   106         32
   107         14
   108          7
   109         11
   111        885
   112        102
   113        288
   114         40
   115         17
   116         49
   117         45
   118         39
   119         12
   120         12
   121         19
   122         49
   123         13
   124          6
   125         80
   126         27
   127         50
   128         20
   129          9
   130          4
   131          9
   132          5
   133          4
   134          5
   135         47
   136         45
   137        731
   138        217
   139        403
   140         90
   141         51
   142          7
   143          5
   144          6
   145          4
   147          2
   148          2
   149         12
   150         26
   151         68
   152        653
   153        115
   154        210
   155        151
   156         21
   157         39
   158          4
   159          5
   160          1
   161          1
   162         13
   163         20
   164         43
   165         54
   166         71
   167         24
   168         12
   169          2
   171          1
   173          8
   174          6
   175         10
   176         77
   177         75
   178        160
   179         49
   180         49
   181         69
   182         25
   183          5
   186          6
   187          3
   188          6
   189          3
   190         11
   191         23
   192         24
   193         12
   194          7
   195         22
   196         10
   197          2
   198         12
   199          7
   200         34
   201         11
   202         14
   203          5
   204          5
   205         26
   206         38
   207         58
   208         12
   209          2
   211          3
   212         28
   213          9
   214         13
   215          7
   216         10
   217          3
   218          4
   219          4
   220          5
   221          3
   222          2
   223         19
   224          5
   225          3
   226         10
   227          6
   228          6
   229          6
   230          2
   231          1
   235         12
   236          4
   237          5
   238          3
   239          8
   240         10
   241         18
   242         11
   243         12
   244          4
   245          4
   246          4
   252         10
   253         73
   254         14
   255          5
   256          1
   257          3
   259          2
   265          4
   266          7
   267          2
   269          1
   281         26
   282          6
   287          5
   288          1
   289          3
   299        449
   300         84
   301         12
   302          2
   304          2
   318          2
   333         12
   334        149
   335         35
   336         53
   337          9