##TITLE=Library Entry 30024
##JCAMP-DX=Revision 4.10 
##DATA TYPE=MASS SPECTRUM
##SAMPLE DESCRIPTION=R.L.FOLTZ BATTELLE MEMORIAL INST., COLUMBUS LAB., OHIO,
 USA
##NAMES=HP
##CAS NAME=Hydrazinium, 2-cyano-1,1,1-trimethyl-, hydroxide, inner salt
##MOLFORM=C4H9N3
##CAS REGISTRY NO=35468-56-5
##MP= -300
##BP= -300
##MW= 99
##$RETENTION INDEX=0
##$CONDENSED SPECTRUM=NO
##NPOINTS= 41
##XYDATA=(XY..XY) 1 
    14         32
    15        122
    16         22
    17         43
    18        245
    25          5
    26         14
    27         32
    28         96
    29         22
    30         65
    32          2
    38          2
    39          6
    40         20
    41         18
    42        268
    43         98
    44        196
    45        153
    46          8
    52          2
    53         61
    54         42
    55         12
    56          5
    57         30
    58        773
    59        999
    60         42
    61          5
    62          2
    69          6
    71          2
    78          2
    84          3
    94          5
    97          8
    99        269
   100         46
   101          2