##TITLE=Library Entry 85645
##JCAMP-DX=Revision 4.10 
##DATA TYPE=MASS SPECTRUM
##SAMPLE DESCRIPTION=Philip Morris R&D
##NAMES=HP
##CAS NAME=Davana ether
##MOLFORM=C15H22O2
##CAS REGISTRY NO=35470-57-6
##MP= -300
##BP= -300
##MW= 234
##$RETENTION INDEX=1490
##$CONDENSED SPECTRUM=NO
##NPOINTS= 153
##XYDATA=(XY..XY) 1 
    36          8
    37          1
    38          5
    39        100
    40         28
    41        214
    42         22
    43        624
    44         16
    45         11
    46          0
    47          0
    50          4
    51         24
    52         14
    53        103
    54         24
    55        188
    56         16
    57         38
    58          3
    59          5
    60          2
    61          1
    62          0
    63         10
    64          2
    65         54
    66         17
    67        235
    68        314
    69         85
    70         12
    71         17
    73          4
    74          2
    75          2
    77         72
    78         16
    79         95
    80         22
    81        179
    82        171
    83         68
    84          9
    85         21
    86          3
    87          2
    89          4
    90          2
    91        124
    92         20
    93        119
    94         28
    95        128
    96        317
    97         51
    98         10
    99          3
   102         12
   103         17
   104          4
   105         64
   106         12
   107         90
   108         70
   109        999
   110        174
   111         87
   112         15
   113          2
   115          8
   116          5
   117         14
   118          3
   119         25
   120         30
   121         83
   122         31
   123        265
   124        600
   125        133
   126         23
   127          3
   128          5
   129          8
   130          6
   131         35
   132          3
   133         15
   134          3
   135         59
   136         41
   137        187
   138        185
   139         21
   140          0
   141          2
   142          5
   143          7
   144          3
   145         21
   146          4
   147         12
   148          4
   149        202
   150         39
   151        422
   152        165
   153         67
   154          7
   155          1
   157          5
   158          1
   159         17
   160          5
   161         11
   162          4
   163         99
   164         49
   165         23
   166        477
   167         45
   168          6
   172          1
   173          5
   174          3
   175          5
   176          0
   177         16
   178         13
   179         18
   183          0
   185          1
   186          0
   187          1
   188          0
   189          1
   190          0
   191         16
   192         13
   193          4
   201         14
   202          2
   205          4
   207         27
   208          1
   216         33
   218          9
   219         65
   233         16
   234        336
   235         57