##TITLE=Library Entry 31374
##JCAMP-DX=Revision 4.10 
##DATA TYPE=MASS SPECTRUM
##SAMPLE DESCRIPTION=NIST Mass Spectrometry Data Center, 1998.
##NAMES=HP
##CAS NAME=Ethanol, 2-(octylthio)-
##MOLFORM=C10H22OS
##CAS REGISTRY NO=3547-33-9
##MP= -300
##BP= -300
##MW= 190
##$RETENTION INDEX=1562
##$CONDENSED SPECTRUM=NO
##NPOINTS= 123
##XYDATA=(XY..XY) 1 
    14          1
    15         11
    16          1
    17          1
    18          1
    25          1
    26         12
    27        217
    28         42
    29        299
    30          9
    31         85
    32          1
    33          1
    34          2
    35         15
    37          2
    39        179
    40         32
    41        723
    42        171
    43        479
    44         53
    45        318
    46         93
    47        164
    48         41
    49         20
    50          5
    51         11
    52          6
    53         71
    54         52
    55        707
    56        308
    57        264
    58         28
    59         89
    60        331
    61        999
    62         53
    63         49
    64          2
    65         13
    66          6
    67         94
    68         70
    69        966
    70        261
    71        125
    72          9
    73         36
    74         14
    75         55
    76          9
    77         26
    78        106
    79         43
    80          8
    81         29
    82         62
    83        198
    84        151
    85         24
    86          3
    87         84
    88         13
    89         40
    90          3
    91        145
    92         13
    93          8
    94          1
    95          7
    96          2
    97         25
    98          2
    99          2
   100          1
   101         47
   102          6
   103         14
   104          2
   105         33
   106          2
   107          2
   109          2
   110          7
   111         33
   112        108
   113         10
   114          1
   115         14
   116          3
   117          5
   118          1
   119          9
   120          1
   129          4
   131          2
   133         36
   134          3
   135          2
   143          9
   144         35
   145        975
   146        102
   147         77
   148          7
   149          2
   157          2
   159        287
   160         31
   161         21
   162          2
   171          1
   173          2
   175          2
   189         12
   190        372
   191         45
   192         20
   193          2