##TITLE=Library Entry 80377
##JCAMP-DX=Revision 4.10 
##DATA TYPE=MASS SPECTRUM
##SAMPLE DESCRIPTION=D.HENNEBERG, MAX-PLANCK INSTITUTE, MULHEIM, WEST GERMAN
Y
##NAMES=HP
##CAS NAME=Benzene, 1,1'-(1,4-dimethyl-1,4-butanediyl)bis-
##MOLFORM=C18H22
##CAS REGISTRY NO=3548-85-4
##MP= -300
##BP= -300
##MW= 238
##$RETENTION INDEX=0
##$CONDENSED SPECTRUM=NO
##NPOINTS= 127
##XYDATA=(XY..XY) 1 
    20          0
    25          1
    26          1
    27         35
    29          8
    30          0
    31          0
    37          0
    38          0
    39         31
    40          1
    41         24
    42          0
    43          1
    45          1
    46          0
    47          1
    48          0
    49          1
    50          8
    51         33
    52          8
    53          9
    54          1
    55         10
    56          4
    57          1
    58          0
    59          4
    60          3
    61          1
    62          1
    63          8
    64          2
    65         28
    66          2
    67          1
    68          0
    69          1
    70          0
    71          1
    72          0
    74          2
    75          6
    76          3
    77        107
    78         38
    79        104
    80          7
    81          0
    82          1
    83          0
    86          0
    87          1
    88          0
    89          7
    90          2
    91        178
    92         13
    93          1
    94          0
    95          0
    96          0
    99          0
   100          1
   101          7
   102          8
   103         62
   104         52
   105        999
   106        109
   107         20
   108          1
   110          0
   113          1
   115         21
   116          7
   117         31
   118         55
   119         16
   120         35
   121          5
   125          0
   127          1
   128          3
   129          2
   130          1
   131         18
   132          7
   133          8
   134          1
   135         22
   136          3
   137          0
   141          0
   143          0
   144          0
   145         21
   146          3
   149          1
   151          0
   155          0
   158          0
   159          1
   160          2
   176          0
   178          1
   179          0
   180          0
   181          3
   182          0
   190          0
   197          0
   198          0
   202          0
   208          0
   211          0
   222          0
   223          2
   224          0
   229          0
   231          0
   235          0
   236          0
   238         97
   239         21
   240          2