##TITLE=Library Entry 87905
##JCAMP-DX=Revision 4.10 
##DATA TYPE=MASS SPECTRUM
##SAMPLE DESCRIPTION=DR. C. C. VAN DE SANDE, STATE UNIVERSITY OF GENT, BELGI
UM
##NAMES=HP
##CAS NAME=4(1H)-Pyridinone, 2,3-dihydro-1-methyl-
##MOLFORM=C6H9NO
##CAS REGISTRY NO=35488-00-7
##MP= -300
##BP= -300
##MW= 111
##$RETENTION INDEX=0
##$CONDENSED SPECTRUM=NO
##NPOINTS= 20
##XYDATA=(XY..XY) 1 
    39        125
    40         85
    41        190
    42        960
    43        235
    44         30
    45         90
    51         55
    52         95
    53         95
    54        120
    55        490
    56         75
    68        105
    82        525
    83        320
    96         50
   111        999
   112         90
   113         10