##TITLE=Library Entry 34124
##JCAMP-DX=Revision 4.10 
##DATA TYPE=MASS SPECTRUM
##SAMPLE DESCRIPTION=STC 0005
##NAMES=HP
##CAS NAME=3,5,9-Undecatrien-2-one, 6,10-dimethyl-, (E,E)-
##MOLFORM=C13H20O
##CAS REGISTRY NO=3548-78-5
##MP= -300
##BP= -300
##MW= 192
##$RETENTION INDEX=1589
##$CONDENSED SPECTRUM=NO
##NPOINTS= 79
##XYDATA=(XY..XY) 1 
    16          1
    27        112
    29         60
    38         12
    39        131
    41        757
    42         42
    43        494
    44         16
    45         19
    50         14
    51         37
    52         23
    53        110
    54         18
    55         44
    57          5
    58          5
    62          6
    63         13
    64          7
    65         54
    66         16
    67         72
    68         19
    69        999
    70         66
    71          7
    75          4
    77         66
    78         20
    79         95
    80        116
    81        471
    82         45
    83         10
    89          3
    91         54
    92         14
    93         36
    94          9
    95         20
    96          4
   103          7
   105         23
   106         16
   107         29
   108         13
   109        341
   110         32
   111          5
   115          8
   116          4
   117          5
   119         17
   120          3
   121         17
   122          8
   123         14
   124        224
   125         24
   128          5
   129          4
   131          8
   132          5
   133          5
   134         15
   135         11
   136          5
   141          3
   147          6
   149         31
   150          3
   157          5
   159          9
   174          4
   177         16
   192         36
   193          5