##TITLE=Library Entry 19537
##JCAMP-DX=Revision 4.10 
##DATA TYPE=MASS SPECTRUM
##SAMPLE DESCRIPTION=LAC, NIDDK, NIH, Bethesda, MD 20892
##NAMES=HP
##CAS NAME=Androstane-17-carboxylic acid, 3-oxo-
##MOLFORM=C20H30O3
##CAS REGISTRY NO=35498-66-9
##MP= -300
##BP= -300
##MW= 318
##$RETENTION INDEX=0
##$CONDENSED SPECTRUM=NO
##NPOINTS= 161
##XYDATA=(XY..XY) 1 
    41        940
    42        174
    43        520
    44         30
    45        195
    47         45
    48         19
    49         20
    50         22
    51         11
    52          8
    53        372
    54        115
    55        999
    56         61
    57         97
    58          6
    59          5
    60         32
    63         27
    65         93
    66         50
    67        524
    68        240
    69        208
    70         16
    71         51
    72         14
    73        197
    74         13
    75         11
    77        291
    78         50
    79        631
    80        120
    81        560
    82         85
    83         75
    84          9
    85          7
    86         67
    87         24
    88         15
    91        374
    92         36
    93        348
    94        123
    95        329
    96         58
    97         72
    99         16
   101         15
   103         33
   104         23
   105        281
   106        107
   107        385
   108        161
   109        178
   110         56
   111         73
   115         49
   116         22
   117         73
   118         39
   119        129
   120         99
   121        195
   122        158
   123        113
   124         77
   125         30
   126          6
   127         65
   128         15
   129         42
   130         25
   131         90
   132         43
   133        135
   134         56
   135         98
   136         33
   137         37
   139         30
   141          7
   143         39
   144         22
   145         83
   146         35
   147         99
   148         23
   149         61
   150         19
   151         23
   155         37
   157         40
   158         26
   159        108
   160         34
   161        142
   162         45
   163         31
   165         37
   167          6
   171         34
   172         75
   173         57
   174         52
   175         77
   176        214
   177         43
   179         27
   185         32
   187         42
   188         26
   189         43
   191         20
   192         13
   195          6
   199         28
   200         21
   201         63
   202         32
   203         33
   204          6
   206         13
   211         35
   212         12
   213        139
   214         28
   215         47
   216          8
   217         51
   218         22
   228         58
   229         60
   230        178
   231        127
   232         24
   233         25
   239         23
   243         12
   245         20
   246        648
   247        232
   248        102
   249         27
   257         26
   259          6
   264          5
   267         19
   271          7
   285         60
   286         12
   300         47
   301         25
   303         40
   317          6
   318         80
   319         16