##TITLE=Library Entry 1566
##JCAMP-DX=Revision 4.10 
##DATA TYPE=MASS SPECTRUM
##SAMPLE DESCRIPTION=A. Musjce, AT&T Bell Labs., Murray Hill, N.J., USA
##NAMES=HP
##CAS NAME=2,2,3,3,4,4,5,5-Octafluoro-1,6-hexanediol
##MOLFORM=C6H6F8O2
##CAS REGISTRY NO=355-74-8
##MP= -300
##BP= -300
##MW= 262
##$RETENTION INDEX=0
##$CONDENSED SPECTRUM=NO
##NPOINTS= 117
##XYDATA=(XY..XY) 1 
    26          0
    27          0
    29         81
    31        999
    32         11
    33         32
    34          0
    38          0
    39          0
    41          0
    42          8
    43          1
    44          1
    45          4
    47          2
    49         27
    50          2
    51         42
    52          0
    53          0
    55          0
    56          0
    57          3
    60          3
    61         65
    62         16
    63          4
    64         55
    65          2
    67          2
    69         29
    70          0
    71          1
    73          1
    74          1
    75          8
    76          1
    77          6
    78          0
    79          1
    80         11
    81         42
    82          3
    83          3
    88          0
    89          0
    91          6
    92          1
    93          9
    94          1
    95         18
    96          0
    97          0
    98          0
   100         15
   101          1
   105          0
   106          0
   107          6
   108          0
   109          1
   110          0
   111         16
   112          2
   113         37
   114          1
   119         10
   122          0
   123          2
   124          0
   125          5
   126          1
   127          2
   128          6
   129          1
   131         64
   132          2
   133          0
   135          2
   137          7
   138          0
   141          1
   142          0
   143          0
   144          5
   145          6
   148         12
   149          0
   153          2
   155          5
   156          0
   157          2
   161          1
   162         47
   163          3
   164          0
   172          1
   173         11
   174          0
   175          1
   183          7
   184          0
   192        150
   193          8
   194          0
   203         16
   204          1
   205          0
   212         31
   213          1
   221          0
   222          0
   223          0
   225          0
   232          0
   243          0
   245          0