##TITLE=Library Entry 18133
##JCAMP-DX=Revision 4.10 
##DATA TYPE=MASS SPECTRUM
##SAMPLE DESCRIPTION=H.MARTIN KIEL UNIVERSITY, KIEL, GERMANY F.R.G.
##NAMES=HP
##CAS NAME=Hexane, 1,1,1,2,2,3,3,4,4,5,5,6,6-tridecafluoro-
##MOLFORM=C6HF13
##CAS REGISTRY NO=355-37-3
##MP= -300
##BP= -300
##MW= 320
##$RETENTION INDEX=300
##$CONDENSED SPECTRUM=NO
##NPOINTS= 23
##XYDATA=(XY..XY) 1 
    31         40
    50          7
    51        999
    69        584
    82         21
    93         15
    94          1
   100         49
   101        198
   112          2
   113         38
   119        128
   131        146
   132          1
   150          4
   151         70
   163         10
   169         81
   181         14
   213         11
   219          4
   231         39
   251         32