##TITLE=Library Entry 36897
##JCAMP-DX=Revision 4.10 
##DATA TYPE=MASS SPECTRUM
##SAMPLE DESCRIPTION=Japan AIST/NIMC Database- Spectrum MS-NW-9964
##NAMES=HP
##CAS NAME=Perfluorohexyl iodide
##MOLFORM=C6F13I
##CAS REGISTRY NO=355-43-1
##MP= -300
##BP= -300
##MW= 446
##$RETENTION INDEX=0
##$CONDENSED SPECTRUM=NO
##NPOINTS= 57
##XYDATA=(XY..XY) 1 
    31         50
    50         11
    51          4
    55          1
    62          3
    69        999
    70         10
    74          5
    81          9
    85          6
    93         36
    94          1
   100        152
   101          4
   105          1
   112         12
   119        433
   120          9
   124          2
   127        293
   128          4
   131        253
   132          8
   139          1
   143          3
   146          1
   150         19
   158         11
   162          5
   169        189
   170          6
   177        289
   178          3
   181         55
   182          2
   189          2
   208         25
   212          1
   213          1
   219          4
   227         37
   228          1
   231         79
   232          4
   239         20
   258          1
   277          3
   281         38
   282          2
   289          2
   319        549
   320         34
   321          1
   339          1
   427         11
   446        142
   447          9