##TITLE=Library Entry 36287
##JCAMP-DX=Revision 4.10 
##DATA TYPE=MASS SPECTRUM
##SAMPLE DESCRIPTION=Exported from NIST MS Search
##NAMES=HP
##CAS NAME=Perfluoro(methylcyclohexane)
##MOLFORM=C7F14
##CAS REGISTRY NO=355-02-2
##MP= -300
##BP= -300
##MW= 350
##$RETENTION INDEX=297
##$CONDENSED SPECTRUM=NO
##NPOINTS= 78
##XYDATA=(XY..XY) 1 
    31         35
    50          7
    51          3
    55          2
    62          2
    69        999
    70         11
    74          9
    75          1
    79          1
    81          7
    85          5
    86          2
    87          2
    93         78
    94          3
    98          1
   100        128
   101          3
   105          4
   112         16
   113          7
   115          2
   116          5
   117          1
   118         61
   119          1
   123         14
   124          1
   131        553
   132         18
   134          1
   135          1
   136          1
   143         24
   144          3
   147         15
   148          1
   149          5
   150         22
   151          1
   155          8
   156          1
   159          1
   162         62
   163          7
   169          5
   174          1
   175          1
   181        358
   182         16
   186          1
   187          1
   193         20
   194          2
   197          3
   199          1
   200          1
   205          1
   208          1
   212          9
   213          1
   215          1
   217          1
   219          1
   224          2
   231         64
   232          4
   243         51
   244          4
   246          1
   262         44
   263          4
   281         49
   282          3
   293          2
   331         42
   332          4