##TITLE=Library Entry 34061
##JCAMP-DX=Revision 4.10 
##DATA TYPE=MASS SPECTRUM
##SAMPLE DESCRIPTION=NIST Mass Spectrometry Data Center, 1994
##NAMES=HP
##CAS NAME=1H,1H,5H-Octafluoropentyl methacrylate
##MOLFORM=C9H8F8O2
##CAS REGISTRY NO=355-93-1
##MP= -300
##BP= -300
##MW= 300
##$RETENTION INDEX=0
##$CONDENSED SPECTRUM=NO
##NPOINTS= 76
##XYDATA=(XY..XY) 1 
    14          1
    15         17
    16          0
    18          3
    20          2
    25          1
    26         11
    27         10
    28         11
    29         46
    30         12
    31         16
    32          2
    33         12
    37         13
    38         47
    39        460
    40        107
    41        848
    42         40
    43         17
    44          5
    45          8
    47          2
    49          1
    51        223
    52          3
    53         13
    54          3
    55         27
    56          5
    57         11
    58          1
    60          1
    61          1
    63          3
    64         35
    65          5
    66          1
    67          4
    68          1
    69        999
    70         45
    71          8
    72          5
    73          4
    75          7
    77          7
    81          5
    82         15
    83         17
    85          4
    93          3
    95         34
    99         18
   100         23
   101         33
   103          1
   104          1
   105          4
   109          1
   113         17
   115          1
   119          3
   129          5
   131         13
   133          3
   135          4
   145         11
   149          7
   151          4
   281          8
   285          4
   300        166
   301         17
   302          1