##TITLE=Library Entry 63148
##JCAMP-DX=Revision 4.10 
##DATA TYPE=MASS SPECTRUM
##SAMPLE DESCRIPTION=Chemical Concepts
##NAMES=HP
##CAS NAME=Ethanediamide, N,N'-bis(phenylmethyl)-
##MOLFORM=C16H16N2O2
##CAS REGISTRY NO=3551-78-8
##MP= -300
##BP= -300
##MW= 268
##$RETENTION INDEX=2467
##$CONDENSED SPECTRUM=NO
##NPOINTS= 115
##XYDATA=(XY..XY) 1 
    26          2
    27         11
    28         51
    29          4
    30         18
    31          0
    34          0
    35          0
    36          2
    37          1
    38          4
    39         46
    40          3
    41         17
    42          1
    43          2
    44         16
    45          1
    46          0
    47          0
    49          0
    50         13
    51         40
    52         13
    53          3
    54          1
    55          1
    56          4
    57          0
    58          0
    59          0
    61          0
    62          3
    63         19
    64          6
    65        112
    66          6
    67          0
    68          0
    69          0
    73          0
    74          2
    75          2
    76          5
    77         44
    78         22
    79         29
    80          2
    81          0
    86          0
    87          0
    88          0
    89         18
    90         11
    91        999
    92        120
    93          7
    94          0
    95          0
    97          0
    99          0
   102          0
   103          3
   104         29
   105         16
   106        178
   107         27
   108          3
   115          0
   116          2
   117          5
   118          2
   119          0
   120          1
   121          0
   128          0
   130          0
   132         22
   133          7
   134         11
   135         11
   136          2
   137          0
   142          0
   145          0
   147          0
   149          0
   152          0
   159          0
   161          0
   164          0
   165          0
   166          0
   167          2
   168          0
   170          0
   173          0
   174          0
   175          0
   177        236
   178         26
   179          3
   180          1
   181          0
   182          0
   193          0
   194          0
   196          0
   201          0
   212          0
   225          0
   236          0
   268         75
   269         13
   270          1