##TITLE=Library Entry 83333
##JCAMP-DX=Revision 4.10 
##DATA TYPE=MASS SPECTRUM
##SAMPLE DESCRIPTION=Chemical Concepts
##NAMES=HP
##CAS NAME=Tetracyclo[4.4.1.1(2,5).0(7,10)]dodeca-3,8-dien-11-one, (1.alpha.
,2.beta.,5.beta.,6.alpha.,7.alpha.,10.alpha.)-
##MOLFORM=C12H12O
##CAS REGISTRY NO=35522-50-0
##MP= -300
##BP= -300
##MW= 172
##$RETENTION INDEX=0
##$CONDENSED SPECTRUM=NO
##NPOINTS= 102
##XYDATA=(XY..XY) 1 
    25          2
    26         80
    27        281
    28         14
    29         13
    37         34
    38        134
    39        884
    40        176
    41         86
    42          6
    43          8
    49         12
    50        245
    51        541
    52        283
    53        149
    54         11
    55         30
    56          2
    57          6
    58          8
    61         22
    62         90
    63        281
    64         70
    65        367
    66        875
    67         60
    68          9
    69          3
    70          3
    71          3
    73         13
    74         53
    75         57
    76         54
    77        552
    78        475
    79        476
    80         33
    81         37
    82          3
    85          5
    86         15
    87         25
    88         11
    89        103
    90         38
    91        301
    92         44
    93          5
    94         47
    95          5
    98          5
    99          3
   100          2
   101         10
   102         67
   103        107
   104         33
   105         20
   106         25
   107        999
   108         76
   109          6
   113          8
   114         10
   115        386
   116        155
   117        185
   118         54
   119          6
   126          7
   127         98
   128        355
   129        346
   130         41
   131         57
   132          6
   139         11
   140          3
   141         52
   142         18
   143         86
   144         61
   145         30
   146         30
   147          6
   151          1
   152          6
   153         26
   154         19
   155         18
   156          2
   157         36
   158          4
   170          4
   171         35
   172         61
   173          8
   174          1