##TITLE=Library Entry 27324
##JCAMP-DX=Revision 4.10 
##DATA TYPE=MASS SPECTRUM
##SAMPLE DESCRIPTION=GAZ DE FRANCE D.E.T.N., B.P. 33, LA PLAINE ST. DENIS, F
RANCE
##NAMES=HP
##CAS NAME=Diazene, bis[2,4-bis(1,1-dimethylethyl)-6-methylphenyl]-
##MOLFORM=C30H46N2
##CAS REGISTRY NO=35532-72-0
##MP= -300
##BP= -300
##MW= 434
##$RETENTION INDEX=0
##$CONDENSED SPECTRUM=NO
##NPOINTS= 69
##XYDATA=(XY..XY) 1 
    41        158
    53          6
    55         64
    56          4
    57        999
    58         44
    65          4
    67          7
    69         15
    91         19
    92          2
    93          8
   105         76
   106          8
   107          4
   115          8
   116          5
   117         11
   118          4
   119         22
   120          5
   128          5
   129          8
   130          9
   131         32
   132          9
   133         17
   141          3
   142          4
   143          9
   144         14
   145         31
   146         32
   147         51
   148          8
   156          3
   157          5
   158         12
   159          9
   160         31
   161        161
   162         31
   170          4
   171          5
   172         14
   173         17
   174          3
   175         17
   186          9
   187         18
   188         11
   200          6
   201          2
   202        107
   203         99
   204         38
   205          4
   216         51
   217        500
   218         90
   219         20
   231          5
   377         15
   378          5
   419         14
   420          4
   434        141
   435         50
   436          7