##TITLE=Library Entry 62352
##JCAMP-DX=Revision 4.10 
##DATA TYPE=MASS SPECTRUM
##SAMPLE DESCRIPTION=R.A.FRIEDEL BUREAU OF MINES U.S.DEPT.OF INT. BRUCETON P
A USA
##NAMES=HP
##CAS NAME=1-Butanethiol, TMS derivative
##MOLFORM=C7H18SSi
##CAS REGISTRY NO=3553-78-4
##MP= -300
##BP= -300
##MW= 162
##$RETENTION INDEX=0
##$CONDENSED SPECTRUM=NO
##NPOINTS= 28
##XYDATA=(XY..XY) 1 
    29        297
    31         23
    43        188
    45        200
    47         46
    59         96
    61         51
    66          4
    73        742
    75        226
    77         66
    87          3
    89          7
    91        999
   101          3
   103          5
   104          4
   105         64
   115          1
   117          3
   119         30
   121          2
   131          5
   133          9
   145          1
   147        764
   151          1
   162        232