##TITLE=Library Entry 18150
##JCAMP-DX=Revision 4.10 
##DATA TYPE=MASS SPECTRUM
##SAMPLE DESCRIPTION=A.A.Kutin, Moscow, Russia
##NAMES=HP
##CAS NAME=4H-1,2,4-Triazole-4-amine, N-[(2-nitrophenyl)methylene]-
##MOLFORM=C9H7N5O2
##CAS REGISTRY NO=35548-91-5
##MP= -300
##BP= -300
##MW= 217
##$RETENTION INDEX=0
##$CONDENSED SPECTRUM=NO
##NPOINTS= 168
##XYDATA=(XY..XY) 1 
    33          3
    34          1
    36         16
    37         64
    38        182
    39        436
    40        314
    41        156
    42         62
    43         59
    44         32
    45         21
    46         52
    47          1
    48          4
    50        620
    51        999
    52        329
    53         94
    54         47
    55         14
    56          7
    57         11
    58          4
    59          2
    60          5
    61         78
    62        301
    63        636
    64        287
    65        149
    66         22
    67         10
    68         12
    69         45
    70          8
    71          4
    73         35
    74        175
    75        255
    76        500
    77        689
    78        140
    79        414
    80         30
    81          5
    82          1
    83          5
    84         25
    85         21
    86         56
    87         69
    88         72
    89        689
    90        287
    91        316
    92        183
    93         60
    94          6
    95          3
    96          2
    97          1
    98          3
    99         11
   100          9
   102        198
   103        189
   104        239
   105         80
   106         16
   107         31
   108          6
   109          0
   110          1
   111          1
   112          2
   113          2
   114         12
   115         24
   116        101
   117         57
   118         35
   119         97
   120         64
   121         22
   122          2
   123          0
   124          0
   125          0
   126          1
   127          0
   129         23
   130         18
   131         11
   132         24
   133         62
   134        237
   135        113
   136          9
   137          2
   138          1
   139          0
   140          1
   141          1
   142          3
   143          6
   144         10
   145         24
   146          5
   147          1
   148          7
   149         12
   150          5
   152          3
   153          1
   154          1
   155          0
   156          0
   157          0
   158          1
   159          0
   160          1
   161          2
   162          0
   163          1
   165          0
   166          0
   167          1
   169          3
   171        142
   172         16
   173          2
   174          0
   176          0
   177          0
   179          0
   180          1
   181          0
   182          0
   183          0
   185          4
   187         16
   188          3
   189          0
   190          0
   192          0
   193          1
   195          0
   197          0
   198          1
   200        227
   201         32
   202          3
   203          0
   205          0
   207          0
   208          0
   210          0
   214          0
   216          6
   217        365
   218         47
   219          4
   220          0
   221          0
   222          0
   223          0
   224          0