##TITLE=Library Entry 27933
##JCAMP-DX=Revision 4.10 
##DATA TYPE=MASS SPECTRUM
##SAMPLE DESCRIPTION=Japan AIST/NIMC Database- Spectrum MS-NW-5482
##NAMES=HP
##CAS NAME=3-Piperidinol, 1-methyl-
##MOLFORM=C6H13NO
##CAS REGISTRY NO=3554-74-3
##MP= -300
##BP= -300
##MW= 115
##$RETENTION INDEX=948
##$CONDENSED SPECTRUM=NO
##NPOINTS= 72
##XYDATA=(XY..XY) 1 
    14          5
    15         74
    16          2
    17          2
    18         10
    19          1
    26          9
    27         66
    28         57
    29         25
    30         41
    31         15
    32          4
    37          2
    38          6
    39         53
    40         12
    41         89
    42        385
    43        814
    44        411
    45         17
    46          2
    47          1
    50          4
    51          6
    52          7
    53         13
    54         14
    55         24
    56         28
    57         78
    58        999
    59         41
    60          2
    65          2
    66          2
    67          9
    68         24
    69         11
    70         65
    71        205
    72         32
    73          6
    74          3
    77          1
    78          2
    79          6
    80          8
    81         14
    82         20
    83          5
    84         84
    85          9
    86         62
    87         11
    93          1
    94         17
    95          4
    96         60
    97         26
    98         34
    99          3
   100         12
   101          1
   110          1
   112          3
   113          5
   114        200
   115        398
   116         31
   117          2