##TITLE=Library Entry 37567
##JCAMP-DX=Revision 4.10 
##DATA TYPE=MASS SPECTRUM
##SAMPLE DESCRIPTION=A.A.Kutin, Moscow, Russia
##NAMES=HP
##CAS NAME=Phenol, 6-nitro-2-(1,2,4-triazol-4-yliminomethyl)-
##MOLFORM=C9H7N5O3
##CAS REGISTRY NO=35546-56-6
##MP= -300
##BP= -300
##MW= 233
##$RETENTION INDEX=0
##$CONDENSED SPECTRUM=NO
##NPOINTS= 173
##XYDATA=(XY..XY) 1 
    33          2
    34          3
    35          0
    36          8
    37         74
    38        210
    39        286
    40        215
    41         86
    42         88
    43        119
    44         48
    45         75
    46         30
    47          1
    48          2
    50        697
    51        712
    52        206
    53        210
    54         31
    55         23
    56          5
    57          5
    58          0
    59          3
    60         12
    61         46
    62        162
    63        465
    64        192
    65        180
    66         54
    67         15
    68         23
    69        166
    70        999
    71         37
    72          2
    73         16
    74        108
    75        159
    76        905
    77        234
    78        119
    79         54
    80         19
    81          9
    82          2
    83          2
    84          4
    85          4
    86          7
    87         10
    88         17
    89         43
    90        284
    91        146
    92         72
    93         21
    94          7
    95          6
    96          1
    97          1
    98          1
    99          2
   100          2
   101         10
   102         22
   103         39
   104         57
   105        447
   106        385
   107         73
   108         21
   109          2
   111          1
   112          0
   113          0
   114          0
   115          2
   116          8
   117         39
   118        273
   119        119
   120         32
   121          9
   122          2
   123          1
   125          0
   126          0
   127          1
   128          1
   129          4
   130         14
   131        229
   132         25
   133          6
   134         47
   135          9
   136          3
   137          0
   139          0
   142          0
   143          1
   144          4
   145          6
   146          4
   147         54
   148         61
   149         27
   150         10
   151         24
   152          3
   153          0
   155          0
   156          0
   157          3
   158          7
   159          5
   160          4
   161         27
   162          5
   164        389
   165         54
   166          9
   167          4
   168          0
   169          0
   170          3
   171          2
   172          1
   173          1
   174          0
   175          8
   176          1
   177          1
   178          0
   179          0
   180          0
   183          3
   184          1
   185          3
   186         10
   187         44
   188          6
   189          0
   190          0
   191          0
   192          3
   193          1
   194          0
   199          3
   200          0
   202          0
   203          6
   204          1
   207          0
   209          2
   213          0
   215          0
   216          0
   217          2
   218          0
   227          0
   228          0
   229          1
   230          5
   231          7
   233        899
   234        103
   235         11
   236          0