##TITLE=Library Entry 53614
##JCAMP-DX=Revision 4.10 
##DATA TYPE=MASS SPECTRUM
##SAMPLE DESCRIPTION=Chemical Concepts
##NAMES=HP
##CAS NAME=2-Pyrrolidinemethanol, 1-methyl-
##MOLFORM=C6H13NO
##CAS REGISTRY NO=3554-65-2
##MP= -300
##BP= -300
##MW= 115
##$RETENTION INDEX=0
##$CONDENSED SPECTRUM=NO
##NPOINTS= 75
##XYDATA=(XY..XY) 1 
    26          6
    27         48
    28         41
    29         33
    30         42
    31         26
    36          1
    37          0
    38          2
    39         33
    40          6
    41         67
    42        459
    43         26
    44         60
    45         10
    46          0
    47          2
    50          1
    51          2
    52          2
    53          8
    54         16
    55         40
    56         22
    57         56
    58         15
    59          6
    60          0
    61          1
    63          0
    64          0
    65          3
    66          1
    67         18
    68         12
    69         15
    70         47
    71          4
    72          8
    73          1
    74          2
    75          1
    76          0
    77          0
    78          0
    79          0
    80          5
    81          5
    82        119
    83         15
    84        999
    85         79
    86          7
    87          3
    89          0
    91          0
    92          0
    93          0
    94          2
    95          0
    96         10
    97          5
    98         27
    99          2
   100          0
   106          0
   107          0
   110          0
   111          0
   112          2
   113          0
   114         11
   115         10
   116          1