##TITLE=Library Entry 42730
##JCAMP-DX=Revision 4.10 
##DATA TYPE=MASS SPECTRUM
##SAMPLE DESCRIPTION=D.HENNEBERG, MAX-PLANCK INSTITUTE, MULHEIM, WEST GERMAN
Y
##NAMES=HP
##CAS NAME=Trisiloxane, 1,1,1,5,5,5-hexamethyl-3,3-bis[(trimethylsilyl)oxy]-
##MOLFORM=C12H36O4Si5
##CAS REGISTRY NO=3555-47-3
##MP= -300
##BP= -300
##MW= 384
##$RETENTION INDEX=1125
##$CONDENSED SPECTRUM=NO
##NPOINTS= 152
##XYDATA=(XY..XY) 1 
    27         36
    29          3
    30          3
    31          8
    36          7
    37          5
    39          9
    42          4
    43         12
    44         10
    45         88
    46          5
    47          1
    49          0
    50          1
    51          3
    52          2
    53          6
    54          2
    55          3
    56          6
    58          4
    59         48
    60          7
    63          3
    65          3
    66          0
    67          2
    68          3
    69          5
    71          1
    72          6
    73        999
    74         82
    75         61
    76          1
    77          6
    78          1
    79         10
    82          3
    84          5
    85          2
    86          3
    87          3
    92          3
    95          4
    96          4
   100         10
   101          6
   108          3
   113          3
   114          2
   115          8
   117         11
   118          1
   119         10
   121          0
   128          3
   129          3
   130          3
   131         15
   132          4
   133         22
   134         10
   136          3
   137          3
   143          0
   145          7
   146         10
   147        952
   148        139
   149         70
   150         10
   151          3
   152          3
   153          5
   155          4
   160          1
   161          7
   162          3
   163          7
   164          3
   165          2
   169          4
   170          2
   177          7
   179          4
   183          2
   185          3
   189          5
   190          6
   191         18
   192          2
   193         14
   194          4
   200          3
   201          1
   202          5
   203          5
   205         14
   206          2
   207         85
   208         11
   209         11
   210          3
   211          2
   215          9
   216          9
   219          7
   220          6
   221          5
   222          4
   224          7
   226          4
   233          2
   234          7
   235          5
   238          3
   242          2
   244          3
   245          2
   246          3
   249         41
   250         12
   251         20
   252          9
   253          7
   255          2
   260          2
   264          7
   265         64
   267         19
   269          4
   270          3
   277          3
   279         15
   281        636
   282        157
   283         98
   284         18
   285         10
   295          3
   310          1
   313          1
   338          2
   341          2
   355          2
   369        147
   370         59
   371         34
   373          7
   383          2