##TITLE=Library Entry 44226
##JCAMP-DX=Revision 4.10 
##DATA TYPE=MASS SPECTRUM
##SAMPLE DESCRIPTION=STER PREG MOTM L SE30 01 3196 E M.HORN
##NAMES=HP
##CAS NAME=Pregn-4-en-3-one, 17,20,21-tris[(trimethylsilyl)oxy]-, O-methylox
ime, (20R)-
##MOLFORM=C31H59NO4Si3
##CAS REGISTRY NO=35554-02-0
##MP= -300
##BP= -300
##MW= 593
##$RETENTION INDEX=0
##$CONDENSED SPECTRUM=NO
##NPOINTS= 340
##XYDATA=(XY..XY) 1 
    40          5
    41         50
    42         10
    43         25
    44         15
    45         70
    46          5
    47         10
    48          5
    50          5
    51          5
    52          5
    53         15
    54         10
    55         70
    56         10
    57          5
    58         10
    59         45
    60          5
    61         10
    65         10
    66         10
    67         50
    68         15
    69         25
    70         10
    71         10
    72         20
    73        999
    74        150
    75        180
    76         15
    77         40
    78         10
    79         80
    80         20
    81         85
    82         25
    83         10
    84          5
    85         10
    86          5
    87          5
    88          5
    89         25
    90          5
    91         85
    92         25
    93        105
    94         30
    95         50
    96         15
    97         10
    98          5
    99          5
   100          5
   101         35
   102          5
   103        135
   104         30
   105         95
   106         25
   107         55
   108         20
   109         20
   110         10
   111          5
   112          5
   113         10
   114          5
   115         30
   116         20
   117        130
   118         30
   119         55
   120         40
   121         35
   122         25
   123         25
   124         10
   125         60
   126         15
   127         10
   128         10
   129        210
   130         50
   131        120
   132         35
   133         95
   134         25
   135         20
   136         15
   137         40
   138         15
   139         10
   140          5
   141         20
   142         15
   143        115
   144         40
   145        125
   146         40
   147        410
   148         65
   149         55
   150         15
   151         40
   152         30
   153         40
   154         35
   155         45
   156         25
   157         55
   158         25
   159         35
   160         20
   161         20
   162         10
   163         10
   164         10
   165         10
   166         10
   167         15
   168         15
   169         45
   170         25
   171         35
   172         35
   173         20
   174         15
   175         10
   176         10
   177         10
   178         15
   179         10
   180          5
   181         25
   182         20
   183         30
   184         25
   185         25
   186         20
   187         15
   188          5
   189         85
   190         35
   191        370
   192         60
   193         40
   194         25
   195         25
   196         15
   197         20
   198         20
   199         20
   200         10
   201         10
   202          5
   203          5
   204         20
   205         75
   206         25
   207         70
   208         20
   209         15
   210         20
   211         30
   212         20
   213         15
   214         10
   215         15
   216          5
   217         90
   218         30
   219         20
   220          5
   221         20
   222         10
   223         15
   224         35
   225         20
   226         25
   227         15
   228         20
   229         15
   230         25
   231         65
   232         15
   233         10
   234          5
   235         10
   236         10
   237         20
   238         20
   239         30
   240         25
   241         10
   242         20
   243        380
   244        115
   245         55
   246         10
   247          5
   248          5
   249         20
   250         10
   251         50
   252         30
   253         10
   254          5
   255          5
   256         10
   257          5
   258         20
   259         10
   260         35
   261         15
   262          5
   263         20
   264         10
   265         10
   266        150
   267        290
   268         85
   269         20
   270          5
   271          5
   272         15
   273         15
   274          5
   275          5
   276          5
   277          5
   278         15
   279         15
   280          5
   281          5
   282          5
   283          5
   284         10
   285          5
   286          5
   291          5
   292         10
   293         10
   294          5
   295          5
   296          5
   297         10
   298        380
   299        120
   300         30
   301          5
   302          5
   303          5
   305         10
   306          5
   308          5
   310         50
   311         15
   312          5
   314          5
   315         15
   316          5
   317          5
   319          5
   320          5
   322          5
   323         25
   324         65
   325         15
   326          5
   327          5
   328          5
   329          5
   330          5
   333         15
   334          5
   340          5
   341          5
   342          5
   343          5
   355          5
   356         15
   357         15
   358         30
   359         10
   360          5
   368          5
   369          5
   370         10
   371          5
   372          5
   373          5
   382          5
   383          5
   384          5
   385          5
   386         15
   387         45
   388        999
   389        350
   390         90
   391         15
   392          5
   398          5
   399          5
   400         25
   401         10
   402          5
   413         25
   414         20
   415          5
   416          5
   430          5
   431          5
   432          5
   459          5
   460         10
   461          5
   490        250
   491        105
   492         35
   493         10
   494          5
   503         25
   504         10
   505          5
   562          0
   563          4
   564          2
   565          0
   578          1
   579          0
   593         32
   594         17
   595          8
   596          2
   597          0