##TITLE=Library Entry 4248
##JCAMP-DX=Revision 4.10 
##DATA TYPE=MASS SPECTRUM
##SAMPLE DESCRIPTION=NIST Mass Spectrometry Data Center, 1995
##NAMES=HP
##CAS NAME=Imazalil
##MOLFORM=C14H14Cl2N2O
##CAS REGISTRY NO=35554-44-0
##MP= -300
##BP= -300
##MW= 296
##$RETENTION INDEX=2161
##$CONDENSED SPECTRUM=NO
##NPOINTS= 161
##XYDATA=(XY..XY) 1 
    12          1
    13          1
    14          3
    15          8
    16          1
    18          3
    26         33
    27         95
    28        140
    29         34
    30          4
    31          5
    36          3
    37          2
    39        120
    41        999
    42         43
    43          5
    44          2
    49          1
    50         16
    51         23
    52         28
    53         25
    54        109
    55         11
    56          3
    57          4
    61          4
    62          7
    63         15
    64          1
    65          2
    66          3
    67          3
    68          6
    69          5
    70          4
    72          2
    73         10
    74         24
    75         50
    76         11
    77          5
    79          3
    81        117
    82          8
    83          1
    84         16
    85          9
    86          4
    87          7
    88          3
    89         16
    90          2
    91          2
    93          1
    94          3
    95          3
    96          1
    97          4
    98          2
    99         19
   100          6
   101         33
   102         37
   103          7
   107          1
   109         14
   110          7
   111         28
   112          6
   113         12
   114          8
   115         16
   116          6
   117          4
   121          9
   122          8
   123         20
   124          5
   125          9
   126          4
   127          4
   128          2
   133          3
   135          9
   136         18
   137         43
   138         15
   139         15
   140          8
   141          4
   142          2
   145         20
   146          6
   147         14
   148          3
   149         14
   150          7
   151          8
   152          3
   153          2
   156          1
   157          1
   159         78
   160          7
   161         50
   162          7
   163         10
   164          5
   165          2
   166          1
   167          2
   168          8
   169          3
   170          2
   171          1
   172         53
   173        244
   174         52
   175        166
   176         28
   177         33
   178          6
   179          4
   180          2
   181          1
   185          1
   187          7
   189          4
   190          1
   191          2
   202          2
   203         25
   204          4
   205          9
   212          2
   213          3
   215        303
   216         34
   217        197
   218         21
   219         32
   220          4
   239          8
   240         33
   241         10
   242         23
   243          3
   244          3
   253          1
   255          2
   261         12
   262          2
   263          3
   296         21
   297          5
   298         17
   299          2
   300          2