##TITLE=Library Entry 57760
##JCAMP-DX=Revision 4.10 
##DATA TYPE=MASS SPECTRUM
##SAMPLE DESCRIPTION=K.JANKOWSKI UNIV. OF MONCTON, NEW BRUNSWICK, CANADA
##NAMES=HP
##CAS NAME=1,4-Oxathian-2-one, 3-methyl-
##MOLFORM=C5H8O2S
##CAS REGISTRY NO=35562-74-4
##MP= -300
##BP= -300
##MW= 132
##$RETENTION INDEX=0
##$CONDENSED SPECTRUM=NO
##NPOINTS= 33
##XYDATA=(XY..XY) 1 
    36         30
    39         30
    43         40
    44        110
    45         40
    46         30
    57         30
    58        170
    59        210
    60        440
    61        140
    62        200
    63         30
    73        210
    74        130
    75        270
    76         40
    77         30
    81         30
    87        420
    88        999
    89        250
    90        170
    91         40
    95         30
    97         30
   116         40
   117        110
   118         40
   119         30
   132        220
   133         15
   134         13