##TITLE=Library Entry 27148
##JCAMP-DX=Revision 4.10 
##DATA TYPE=MASS SPECTRUM
##SAMPLE DESCRIPTION=M.GEILEN, UNIVERSITE LIBRE DE BRUXELLES, BELGIUM
##NAMES=HP
##CAS NAME=Stannane, (1,1-dimethylethyl)triethyl-
##MOLFORM=C10H24Sn
##CAS REGISTRY NO=35569-21-2
##MP= -300
##BP= -300
##MW= 264
##$RETENTION INDEX=0
##$CONDENSED SPECTRUM=NO
##NPOINTS= 146
##XYDATA=(XY..XY) 1 
    15          9
    17          9
    25          2
    26         14
    27         72
    28         48
    29        166
    30          4
    31          4
    32          2
    36          2
    37          2
    38          4
    39         58
    40          9
    41        246
    42         14
    43         66
    44          4
    45          4
    50          2
    51          4
    53          9
    55         38
    56        101
    57        999
    58         48
    59         19
    67          4
    69          9
    71         14
    73          4
    81          2
    82          2
    83          9
    84          4
    85          4
    97         14
    98          2
    99         33
   100          4
   112          4
   113          4
   115          4
   116         48
   117        126
   118        126
   119        198
   120        164
   121        232
   122         19
   123         53
   124         19
   125         38
   130          4
   131         19
   132         14
   133         28
   134         14
   135         38
   137          7
   139          4
   141          9
   143         24
   144          7
   145        130
   146         72
   147        343
   148        154
   149        506
   150        106
   151        386
   152          9
   153         96
   154          2
   155         72
   157          2
   159          2
   161          9
   162          4
   163         14
   164          4
   165         19
   166         38
   167         82
   168          9
   171         24
   172          2
   173         24
   174         24
   175        313
   176        193
   177        516
   178        218
   179        666
   180         34
   181        102
   182          9
   183        120
   184          4
   189          4
   190          4
   191         11
   192          4
   193          9
   195          7
   196          4
   197         19
   198          7
   199         28
   200          4
   201         19
   202          9
   203        260
   204        150
   205        430
   206        178
   207        580
   208         38
   209         82
   210          9
   211        106
   212          9
   213          9
   225          2
   226          2
   227          9
   228          4
   229          9
   230          4
   231         62
   232         38
   233        106
   234         48
   235        135
   236         14
   237         19
   239         24
   260         14
   261          9
   262         19
   263          9
   264         24
   265          4
   266          4
   268          4