##TITLE=Library Entry 38437
##JCAMP-DX=Revision 4.10 
##DATA TYPE=MASS SPECTRUM
##SAMPLE DESCRIPTION=Chemical Concepts
##NAMES=HP
##CAS NAME=9-Oxabicyclo[3.3.1]nonan-2-one, 6-hydroxy-
##MOLFORM=C8H12O3
##CAS REGISTRY NO=35570-54-8
##MP= -300
##BP= -300
##MW= 156
##$RETENTION INDEX=0
##$CONDENSED SPECTRUM=NO
##NPOINTS= 86
##XYDATA=(XY..XY) 1 
    25          3
    26         48
    27        276
    29        172
    30          9
    31        111
    37          5
    38         15
    39        261
    41        400
    42         83
    43        429
    44        277
    45         44
    46          0
    47          3
    49          2
    50         14
    51         27
    52         11
    53         87
    54        100
    55        262
    56         74
    57        407
    58        109
    59         17
    60         24
    61          4
    62          3
    63          0
    64          1
    65         29
    66         74
    67        270
    68         74
    69        257
    70        109
    71        999
    72        179
    73         16
    74         13
    77         22
    78          6
    79         42
    80          7
    81        168
    82        115
    83        106
    84        165
    85        275
    86         25
    87         20
    88          1
    91         10
    92         10
    93          9
    94         45
    95         48
    96         17
    97         24
    98          3
    99         23
   100         75
   101          8
   102          2
   107          2
   109         12
   110         66
   111         12
   112         21
   113         18
   114          3
   120          5
   121          1
   122          1
   127          3
   128         99
   129          7
   137          1
   138         27
   139          7
   155          1
   156        101
   157         11
   158          1