##TITLE=Library Entry 85910
##JCAMP-DX=Revision 4.10 
##DATA TYPE=MASS SPECTRUM
##SAMPLE DESCRIPTION=Chemical Concepts
##NAMES=HP
##CAS NAME=3-Cyclohexene-1-carboxylic acid, 4-methyl-2-oxo-, methyl ester
##MOLFORM=C9H12O3
##CAS REGISTRY NO=35573-99-0
##MP= -300
##BP= -300
##MW= 168
##$RETENTION INDEX=0
##$CONDENSED SPECTRUM=NO
##NPOINTS= 115
##XYDATA=(XY..XY) 1 
    26          8
    27         62
    29         25
    30          3
    31         35
    32         16
    33          1
    35          0
    37          3
    38         10
    39        119
    40         21
    41         95
    42         14
    43         35
    44         56
    45          6
    49          1
    50         14
    51         31
    52         20
    53         81
    54        157
    55         63
    56          5
    57          4
    58          3
    59         22
    60          2
    61          3
    62          3
    63          9
    64          2
    65         22
    66         18
    67         30
    68         10
    69         17
    70          2
    71          9
    72          3
    73          1
    74          5
    75          2
    76          2
    77         42
    78         14
    79         94
    80         50
    81        187
    82        625
    83         45
    84          7
    85          9
    86          2
    87         14
    88          1
    89          1
    90          3
    91         26
    92          3
    93         13
    94         18
    95         18
    96          5
    97         13
    98          5
    99          4
   100          2
   101          2
   104          0
   105          5
   106          3
   107         29
   108        102
   109        999
   110        141
   111         37
   112          7
   113         14
   114          5
   115          1
   118          1
   119          3
   120          0
   121          4
   122          1
   123          4
   124          2
   125         11
   126          2
   127          2
   128          1
   129          1
   130          0
   131          0
   132          0
   133          0
   134          6
   135          8
   136         35
   137         83
   138         11
   139          4
   140          3
   141          1
   142          0
   151          1
   152          2
   153          8
   154          3
   167          5
   168        160
   169         20
   170          4