##TITLE=Library Entry 48375
##JCAMP-DX=Revision 4.10 
##DATA TYPE=MASS SPECTRUM
##SAMPLE DESCRIPTION=NIST Mass Spectrometry Data Center, 1998.
##NAMES=HP
##CAS NAME=Benzenamine, 2-methyl-3,5-dinitro-
##MOLFORM=C7H7N3O4
##CAS REGISTRY NO=35572-78-2
##MP= -300
##BP= -300
##MW= 197
##$RETENTION INDEX=0
##$CONDENSED SPECTRUM=NO
##NPOINTS= 124
##XYDATA=(XY..XY) 1 
    14          1
    15          2
    16          1
    25          1
    26          9
    27         42
    28        101
    29         14
    30        150
    31          2
    36          1
    37         19
    38         56
    39        206
    40         41
    41        122
    42         71
    43         20
    44          5
    45          3
    46         43
    48          2
    49         11
    50        194
    51        511
    52        628
    53        145
    54        154
    55         35
    56          3
    57          1
    58          2
    59          1
    60          3
    61         24
    62         83
    63        180
    64         63
    65        188
    66        216
    67        123
    68         39
    69         14
    70          4
    71          2
    72          1
    73         12
    74         76
    75        100
    76        174
    77        633
    78        999
    79        155
    80         65
    81         26
    82          8
    83          6
    84          3
    85          4
    86         13
    87         18
    88         20
    89         28
    90         31
    91         32
    92         87
    93        183
    94         56
    95        221
    96         17
    97          2
    98          1
    99          6
   100         11
   101          4
   102         38
   103         20
   104        702
   105        381
   106        161
   107         75
   108         18
   109         24
   110          4
   111          1
   116          3
   117          2
   118          4
   119         10
   120         71
   121         88
   122         35
   123         16
   124          2
   125         40
   126          3
   131          1
   133        243
   134        221
   135         31
   136          4
   137          3
   138          4
   139          1
   149          4
   150         33
   151         17
   152         90
   153          7
   154          1
   163          4
   164         10
   165          1
   166          2
   167         16
   168          1
   169          2
   180        784
   181         77
   182          8
   183          1
   197        634
   198         56
   199          8