##TITLE=Library Entry 17960
##JCAMP-DX=Revision 4.10 
##DATA TYPE=MASS SPECTRUM
##SAMPLE DESCRIPTION=Chuck Anderson, Aldrich Chemical Co.
##NAMES=HP
##CAS NAME=.beta.-Chloropropionaldehyde diethyl acetal
##MOLFORM=C7H15ClO2
##CAS REGISTRY NO=35573-93-4
##MP= -300
##BP= -300
##MW= 166
##$RETENTION INDEX=0
##$CONDENSED SPECTRUM=NO
##NPOINTS= 79
##XYDATA=(XY..XY) 1 
    14          2
    15         16
    16          1
    19         18
    25          1
    26         22
    27        207
    28         95
    29        787
    30         31
    31         94
    32          1
    33          0
    35          0
    36          3
    37          3
    38          4
    39         31
    40          7
    41         26
    42         11
    43         61
    44         18
    45        107
    47        999
    48         12
    49         25
    50          1
    51          7
    53          1
    54          0
    55         19
    56          4
    57        265
    58         19
    59          7
    60          2
    61          7
    62          5
    63         60
    64          4
    65         38
    66          1
    67          6
    69          0
    71         15
    72          1
    73         11
    74          0
    75        458
    76         15
    77          3
    79          0
    85         45
    86          3
    87          0
    89          1
    91         24
    93        767
    94         17
    95        251
    96          7
    97          0
   101          0
   103        746
   104         37
   105          4
   109         22
   110          0
   111          7
   121        650
   122         25
   123        219
   124         10
   125          0
   137          4
   139          1
   165          4
   167          1