##TITLE=Library Entry 86350
##JCAMP-DX=Revision 4.10 
##DATA TYPE=MASS SPECTRUM
##SAMPLE DESCRIPTION=NIST Mass Spectrometry Data Center, 1998.
##NAMES=HP
##CAS NAME=Azamethiphos
##MOLFORM=C9H10ClN2O5PS
##CAS REGISTRY NO=35575-96-3
##MP= -300
##BP= -300
##MW= 324
##$RETENTION INDEX=2287
##$CONDENSED SPECTRUM=NO
##NPOINTS= 175
##XYDATA=(XY..XY) 1 
    15         27
    16          1
    26          2
    27          3
    29         13
    30          3
    31         14
    32          1
    33          2
    34          1
    35          2
    36          1
    37         16
    38         44
    39          9
    40         10
    41          4
    42          2
    43          1
    44          3
    45         72
    46         71
    47         92
    48         13
    49         22
    50         26
    51         22
    52         24
    53         34
    54          7
    55          3
    56         14
    57          2
    58          1
    59          2
    60         18
    61         54
    62         22
    63         45
    64         71
    65         38
    66         27
    67          3
    68          1
    69          4
    70          2
    71          2
    72          8
    73         94
    74          8
    75         40
    76        136
    77         52
    78         25
    79        181
    80         39
    81          5
    82          3
    83          2
    84          2
    85         30
    86         18
    87         22
    88         11
    89          8
    90          3
    91          4
    92         51
    93         46
    94          2
    95         15
    96          3
    97          2
    98          7
    99          4
   100         33
   101          6
   102         11
   103          9
   104          6
   105          4
   106          5
   107          2
   108          2
   109        999
   110        115
   111         40
   112        234
   113         20
   114         86
   115          8
   116          7
   117          3
   118          1
   119          3
   120          1
   121          1
   123          1
   125        782
   126         31
   127         70
   128         23
   129         13
   130          7
   131          2
   132          1
   133          1
   135          1
   136          2
   137          1
   139        250
   140         19
   141        177
   142         27
   143         29
   144          7
   145          2
   146          1
   147          1
   148          3
   149          2
   150          1
   152          1
   154         34
   155        354
   156         20
   157         26
   158          2
   159          1
   167          1
   168          6
   169          7
   170         63
   171        130
   172         29
   173         41
   174          3
   175          1
   180          3
   181          1
   183        267
   184        166
   185         98
   186         55
   187          6
   188          1
   189          1
   196         10
   197          1
   198          3
   199          2
   201          1
   204          1
   215        439
   216         43
   217        163
   218         15
   219          8
   220          1
   230          1
   234          3
   235          1
   236          1
   245          1
   278          2
   279          1
   280          1
   293          2
   294          1
   295          1
   324         90
   325         10
   326         35
   327          4
   328          2