##TITLE=Library Entry 42246
##JCAMP-DX=Revision 4.10 
##DATA TYPE=MASS SPECTRUM
##SAMPLE DESCRIPTION=A.A.Kutin, Moscow, Russia
##NAMES=HP
##CAS NAME=2,4-Cyclopentadien-1-yltrimethylsilane
##MOLFORM=C8H14Si
##CAS REGISTRY NO=3559-74-8
##MP= -300
##BP= -300
##MW= 138
##$RETENTION INDEX=0
##$CONDENSED SPECTRUM=NO
##NPOINTS= 67
##XYDATA=(XY..XY) 1 
    33          0
    34          0
    38          5
    39         36
    40         21
    41          5
    42         10
    43        109
    44         33
    45        123
    46          8
    47          4
    50          2
    51          4
    53         37
    54         13
    55         30
    56          4
    57         12
    58         14
    59         43
    60          3
    61          3
    62          5
    63          4
    65         16
    66         14
    67         27
    68          5
    69         28
    70          6
    71         11
    73        999
    74         76
    75         34
    76          1
    77          8
    78          6
    79          3
    80          2
    81         18
    82          3
    83         20
    84          1
    85          0
    90          0
    91          2
    92          2
    93         31
    95        129
    96         16
    97         20
    98          1
   105          7
   106          2
   107          9
   108          6
   109          3
   110          0
   121          4
   123        195
   124         23
   125          7
   137          0
   138        127
   139         17
   140          4