##TITLE=Library Entry 1056
##JCAMP-DX=Revision 4.10 
##DATA TYPE=MASS SPECTRUM
##SAMPLE DESCRIPTION=Exported from NIST MS Search
##NAMES=HP
##CAS NAME=Ethane, 1,1,2,2-tetrafluoro-1,2-dinitro-
##MOLFORM=C2F4N2O4
##CAS REGISTRY NO=356-16-1
##MP= -300
##BP= -300
##MW= 192
##$RETENTION INDEX=0
##$CONDENSED SPECTRUM=NO
##NPOINTS= 54
##XYDATA=(XY..XY) 1 
     2          1
    12          8
    13          1
    14          3
    15          1
    16         18
    17          1
    18          2
    19          2
    20          1
    24          1
    26          3
    27          1
    28         21
    29          1
    30        999
    31        164
    32          4
    33          1
    36          1
    38          1
    39          1
    40          1
    41          1
    42          1
    43          2
    44          1
    45          4
    46        447
    47         13
    48          2
    49          1
    50         72
    51          1
    52          1
    57          1
    58          1
    61          1
    62          3
    64          2
    66          1
    69         49
    70          1
    76          2
    81          7
    82          1
    85          1
    92          1
    95          1
    96          2
    97          1
   100        185
   101          4
   111          1