##TITLE=Library Entry 96666
##JCAMP-DX=Revision 4.10 
##DATA TYPE=MASS SPECTRUM
##SAMPLE DESCRIPTION=Exported from NIST MS Search
##NAMES=HP
##CAS NAME=Cyclobutane, 1,2-dichloro-1,2,3,3,4,4-hexafluoro-
##MOLFORM=C4Cl2F6
##CAS REGISTRY NO=356-18-3
##MP= -300
##BP= -300
##MW= 232
##$RETENTION INDEX=0
##$CONDENSED SPECTRUM=NO
##NPOINTS= 99
##XYDATA=(XY..XY) 1 
    12          1
    24          1
    31        114
    32          1
    35          5
    36          3
    37          2
    38          1
    43          2
    44          1
    47         22
    48          1
    49          7
    50         10
    55         10
    56          1
    59          1
    61          1
    62          8
    66         31
    67          1
    68         10
    69        102
    70          2
    71          1
    72          1
    73          1
    74         22
    75          1
    78          7
    79          1
    80          2
    81          6
    82         20
    83          1
    84         13
    85         40
    86          3
    87         13
    88          1
    89          1
    90          4
    91          1
    92          1
    93        100
    94          4
    96          1
    97          8
    98          1
    99          3
   100         37
   101          5
   102          1
   103          3
   105          1
   109         21
   110          1
   111          7
   112         19
   113          3
   116        999
   117         26
   118        329
   119          8
   124          2
   125          1
   127          1
   128          1
   129          1
   130          1
   131         12
   132        199
   133          6
   134        131
   135          4
   136         22
   137          1
   140          1
   143          5
   144          1
   147        135
   148          5
   149         44
   150          2
   159          1
   162          4
   163         86
   164          3
   165         56
   166          2
   167          9
   168          1
   178          2
   179          1
   180          1
   197          1
   199          1
   232          1
   234          1