##TITLE=Library Entry 96197
##JCAMP-DX=Revision 4.10 
##DATA TYPE=MASS SPECTRUM
##SAMPLE DESCRIPTION=THE M.W. KELLOGG CO., JERSEY CITY, N.J., USA
##NAMES=HP
##CAS NAME=Cyclobutane, 1,3-dichloro-1,2,2,3,4,4-hexafluoro-
##MOLFORM=C4Cl2F6
##CAS REGISTRY NO=356-19-4
##MP= -300
##BP= -300
##MW= 232
##$RETENTION INDEX=0
##$CONDENSED SPECTRUM=NO
##NPOINTS= 57
##XYDATA=(XY..XY) 1 
    19          6
    20          0
    31        393
    32          7
    35         51
    36          8
    37         15
    43         10
    47         57
    48          1
    49         18
    50         41
    51          1
    55         29
    62         19
    66         72
    68         24
    69        159
    74         50
    78         14
    80          4
    81         14
    82         23
    84         14
    85         77
    87         25
    90          8
    93        179
    97         14
   100         46
   101         17
   103         10
   105          3
   109         48
   111         11
   112         30
   116        999
   117         21
   118        328
   119          8
   124          4
   128          2
   131         59
   132        198
   134        126
   136         20
   140          1
   143          6
   147        147
   149         47
   151          4
   153          3
   155          2
   159          0
   163         91
   165         59
   167          9