##TITLE=Library Entry 30075
##JCAMP-DX=Revision 4.10 
##DATA TYPE=MASS SPECTRUM
##SAMPLE DESCRIPTION=J.Little, Eastman Chem.Co., Kingsport.
##NAMES=HP
##CAS NAME=Butanoic acid, heptafluoro-, methyl ester
##MOLFORM=C5H3F7O2
##CAS REGISTRY NO=356-24-1
##MP= -300
##BP= -300
##MW= 228
##$RETENTION INDEX=483
##$CONDENSED SPECTRUM=NO
##NPOINTS= 56
##XYDATA=(XY..XY) 1 
    15        450
    16         10
    28         10
    29        160
    30         25
    31        215
    32          5
    33         15
    43         10
    44         13
    45         17
    47         10
    50         55
    51          5
    59        999
    60         20
    61          5
    62         10
    65         15
    66          2
    69        828
    70          5
    71          3
    74          3
    75          1
    78          7
    81         70
    82          1
    93         17
    98          2
    99          2
   100        278
   101          5
   109         55
   110          1
   119        357
   120          5
   131         35
   132          1
   147         67
   148          2
   150         59
   151          2
   159          1
   169        375
   170         18
   178          1
   179          1
   180          1
   181         97
   182          2
   197         31
   198          1
   199          3
   209         23
   227          3