##TITLE=Library Entry 18863
##JCAMP-DX=Revision 4.10 
##DATA TYPE=MASS SPECTRUM
##SAMPLE DESCRIPTION=NIST Mass Spectrometry Data Center, 1994
##NAMES=HP
##CAS NAME=1H,1H-Pentafluoropropyl acrylate
##MOLFORM=C6H5F5O2
##CAS REGISTRY NO=356-86-5
##MP= -300
##BP= -300
##MW= 204
##$RETENTION INDEX=0
##$CONDENSED SPECTRUM=NO
##NPOINTS= 76
##XYDATA=(XY..XY) 1 
     4          3
    12          1
    13          3
    14          6
    15          1
    16          0
    17          0
    19          0
    20          1
    24          1
    25         14
    26        107
    27        452
    28         22
    29         52
    30         11
    31         36
    32          3
    33         11
    36          0
    37          1
    38          1
    39          1
    40          0
    41          2
    42          7
    43          2
    44          7
    45         17
    46          1
    47          0
    49          1
    50          9
    51         57
    52          1
    53         18
    54          0
    55        999
    56         37
    57          5
    60          0
    62          0
    63          3
    64         41
    65          1
    69        128
    70          1
    71          1
    75          2
    80          0
    81          1
    82          2
    83          7
    84          0
    85         37
    86          1
    87          1
    90          1
    91         12
    93          1
    95          1
   100         17
   101          0
   109          0
   113          7
   114          0
   115          1
   119         10
   133          5
   135          1
   140          8
   176          0
   185          1
   203          3
   204          8
   205          0