##TITLE=Library Entry 14941
##JCAMP-DX=Revision 4.10 
##DATA TYPE=MASS SPECTRUM
##SAMPLE DESCRIPTION=NIST Mass Spectrometry Data Center, 1998.
##NAMES=HP
##CAS NAME=Fluocinonide
##MOLFORM=C26H32F2O7
##CAS REGISTRY NO=356-12-7
##MP= -300
##BP= -300
##MW= 494
##$RETENTION INDEX=0
##$CONDENSED SPECTRUM=NO
##NPOINTS= 204
##XYDATA=(XY..XY) 1 
    31         28
    41        114
    43        999
    51         20
    52         18
    53         80
    54         18
    55        366
    57         28
    59        292
    66         17
    67         33
    68         24
    69         39
    70         15
    71         27
    77         72
    79        124
    80         39
    82         22
    85         39
    87         22
    90         11
    91        106
    92         46
    93         35
    94         11
    95         66
    96         50
    97         67
    98         19
    99         57
   100         11
   101        130
   102         16
   103         31
   104         18
   105         77
   106         13
   107         91
   108         44
   109        220
   110         42
   111         64
   112         19
   115         43
   116         16
   117         34
   119         23
   120         27
   121        240
   122         52
   123         49
   124         12
   125         59
   126         17
   127         48
   128         41
   129        114
   130         34
   131         24
   132         12
   133         73
   134        105
   135         87
   136         21
   137         37
   138         28
   139        544
   140        120
   141         96
   142         43
   143         34
   144         25
   145        125
   146         50
   147         89
   148         27
   149         50
   150         49
   151         34
   152         21
   153        101
   154         21
   155         32
   156         21
   157         54
   158         46
   159        109
   160         23
   161         41
   162         23
   163         39
   164         25
   165        117
   166         34
   167         72
   168         30
   169         56
   170         44
   171         90
   172         23
   173         30
   175         27
   177         38
   178         49
   179         54
   180         18
   183         58
   185         87
   186         27
   189         57
   191         53
   192         35
   193         46
   194         19
   195         33
   196         39
   197         52
   199         22
   203         17
   204         16
   206         29
   209         91
   210         47
   211         57
   212         29
   213         21
   215         20
   216         31
   217         31
   219         23
   220         37
   221         60
   222         44
   223        109
   224         44
   225         71
   226         36
   227         41
   228         20
   229         46
   233         25
   235         93
   237         46
   238         21
   239         91
   240         18
   241         18
   242         50
   243         26
   244         14
   245         35
   246         19
   247         28
   248         14
   249         87
   250         32
   251         63
   252         48
   253         57
   254         14
   255         47
   256         23
   257         34
   258         23
   259         27
   260         33
   261         21
   265         22
   267         55
   268         80
   269         62
   270         18
   271         16
   272         10
   273         35
   274         18
   275         18
   276         10
   277         54
   279         17
   280         59
   282         24
   289         21
   295         15
   297         37
   298         13
   305         19
   315         24
   317         16
   320         13
   335         56
   336         17
   338         10
   377         12
   391         14
   393        583
   394        160
   395         19
   436         10
   456          8
   479          9
   494          9