##TITLE=Library Entry 36496
##JCAMP-DX=Revision 4.10 
##DATA TYPE=MASS SPECTRUM
##SAMPLE DESCRIPTION=RADIAN CORP
##NAMES=HP
##CAS NAME=Butanoic acid, heptafluoro-, ethyl ester
##MOLFORM=C6H5F7O2
##CAS REGISTRY NO=356-27-4
##MP= -300
##BP= -300
##MW= 242
##$RETENTION INDEX=559
##$CONDENSED SPECTRUM=NO
##NPOINTS= 56
##XYDATA=(XY..XY) 1 
    15         14
    16          1
    25          2
    26         43
    27        257
    28         40
    29        670
    30         31
    31         58
    33         10
    41          3
    42         16
    43         56
    44         10
    45         40
    47         22
    50         64
    51         13
    59          3
    62         10
    65          1
    67          8
    69        999
    70         11
    71          8
    73         12
    74          4
    75          2
    78         21
    79          3
    80          5
    81         33
    82          1
    90          4
    93         21
    97          1
   100        366
   101          9
   109         58
   112          2
   119        213
   120          4
   131         19
   147         24
   150         16
   169        696
   170         24
   178          2
   195         27
   197        149
   198          7
   199         35
   213         23
   215         22
   227         25
   242         15