##TITLE=Library Entry 7003
##JCAMP-DX=Revision 4.10 
##DATA TYPE=MASS SPECTRUM
##SAMPLE DESCRIPTION=FOOD RESEARCH REPORT 118, K.E. MURRAY & COLLEAGUES, DIV
. OF FOOD RESEARCH, CSIRO, AUSTRALIA
##NAMES=HP
##CAS NAME=3-Octen-1-ol, acetate, (E)-
##MOLFORM=C10H18O2
##CAS REGISTRY NO=35602-33-6
##MP= -300
##BP= -300
##MW= 170
##$RETENTION INDEX=0
##$CONDENSED SPECTRUM=NO
##NPOINTS= 69
##XYDATA=(XY..XY) 1 
    25          1
    26          8
    27        131
    28         78
    29         80
    30          5
    31          8
    32          1
    37          1
    38          7
    39        131
    40         26
    41        243
    42         54
    43        999
    44        260
    45         11
    46          1
    50          8
    51         19
    52         12
    53         70
    54        662
    55        216
    56         38
    57         11
    58          1
    60          3
    61          7
    62          1
    63          5
    64          1
    65         24
    66         24
    67        331
    68        297
    69         85
    70          8
    71          3
    73         69
    74          3
    75          1
    77         20
    78          8
    79         41
    80         16
    81        345
    82        131
    83         11
    84          3
    85          1
    86          1
    91         12
    92          1
    93          5
    94          1
    95         78
    96          7
    97          4
    98          1
   103          1
   104          1
   105          1
   106          3
   108          1
   109          5
   110        236
   111         22
   112          1