##TITLE=Library Entry 107766
##JCAMP-DX=Revision 4.10 
##DATA TYPE=MASS SPECTRUM
##SAMPLE DESCRIPTION=DENNIS H SMITH DEPT OF CHEM STANFORD UNIV STANFORD CALI
F 9430
##NAMES=HP
##CAS NAME=Pregn-4-ene-3,20-dione, (10.alpha.)-
##MOLFORM=C21H30O2
##CAS REGISTRY NO=3562-13-8
##MP= -300
##BP= -300
##MW= 314
##$RETENTION INDEX=0
##$CONDENSED SPECTRUM=NO
##NPOINTS= 89
##XYDATA=(XY..XY) 1 
    43        639
    53         52
    55        161
    65         38
    66         12
    67         68
    69         21
    71         77
    77        104
    78         11
    79        146
    81        109
    83         10
    84         29
    85         60
    91        176
    92         19
    93        130
    94         38
    95        123
    96         23
    97         27
   103         16
   105        139
   106         34
   107        148
   108         34
   109        126
   110         41
   111         30
   115         31
   117         38
   118         17
   119         61
   120         46
   121         97
   122         70
   123        134
   124        999
   125        107
   129         22
   131         56
   132         39
   133        112
   134         56
   135         90
   136         35
   137         54
   138         18
   143         22
   145         45
   146         23
   147        128
   148         35
   149         77
   157         28
   159         39
   161         23
   162         13
   163         14
   171         19
   172         11
   173         50
   174         15
   175         10
   177         19
   185         35
   187         53
   188         13
   190         63
   191         82
   201         21
   202         12
   211         31
   226         12
   227         16
   229        170
   230         32
   232         14
   239         18
   243         15
   244         26
   253         23
   257         15
   271         27
   272        120
   296         27
   299         28
   314        271