##TITLE=Library Entry 54581
##JCAMP-DX=Revision 4.10 
##DATA TYPE=MASS SPECTRUM
##SAMPLE DESCRIPTION=NIST Mass Spectrometry Data Center, 1998.
##NAMES=HP
##CAS NAME=2,7-Octadien-4-ol, 2-methyl-6-methylene-, (S)-
##MOLFORM=C10H16O
##CAS REGISTRY NO=35628-00-3
##MP= -300
##BP= -300
##MW= 152
##$RETENTION INDEX=1147
##$CONDENSED SPECTRUM=NO
##NPOINTS= 90
##XYDATA=(XY..XY) 1 
    15          2
    26          3
    27         52
    28          8
    29         82
    30          2
    31         10
    37          2
    38          8
    39        141
    40         25
    41        305
    42         18
    43         70
    44          5
    45          5
    49          1
    50         14
    51         35
    52         18
    53         69
    54          8
    55        106
    56         16
    57         81
    58          4
    59          3
    60          1
    61          1
    62          4
    63         10
    64          2
    65         69
    66         17
    67        136
    68         59
    69         38
    70          4
    71          1
    72          1
    74          1
    75          1
    76          1
    77         30
    78         10
    79         43
    80          6
    81         21
    82          8
    83         75
    84         17
    85        999
    86         57
    87          4
    89          2
    90          1
    91         50
    92         16
    93         19
    94          6
    95         13
    96         12
    97          2
   102          1
   103          5
   104          3
   105         13
   106          6
   107          6
   108         22
   109         43
   110         10
   111          1
   115          4
   116          1
   117          6
   118          1
   119         32
   120          3
   121         11
   122          2
   123         10
   124          2
   133          1
   134         17
   135          3
   137          8
   138          1
   152          5
   153          1