##TITLE=Library Entry 50529
##JCAMP-DX=Revision 4.10 
##DATA TYPE=MASS SPECTRUM
##SAMPLE DESCRIPTION=Japan AIST/NIMC Database- Spectrum MS-IW-6150
##NAMES=HP
##CAS NAME=(1Alpha,3beta,4beta)-p-menthane-3,8-diol
##MOLFORM=C10H20O2
##CAS REGISTRY NO=3564-95-2
##MP= -300
##BP= -300
##MW= 172
##$RETENTION INDEX=0
##$CONDENSED SPECTRUM=NO
##NPOINTS= 90
##XYDATA=(XY..XY) 1 
    15          4
    17          2
    18          6
    27         28
    28          7
    29         41
    30          1
    31         36
    38          1
    39         39
    40          7
    41        128
    42         14
    43        316
    44         11
    45          9
    47          1
    50          1
    51          5
    52          2
    53         27
    54        234
    55        181
    56         44
    57         42
    58         11
    59        823
    60         29
    61         38
    62          3
    63          1
    65          7
    66         13
    67        171
    68        193
    69        133
    70         31
    71         57
    72         13
    73          1
    77        110
    78          6
    79         28
    80         16
    81        999
    82         83
    83         35
    84         49
    85         16
    86          2
    87          2
    91          8
    92          4
    93         33
    94         15
    95        158
    96        873
    97         99
    98         37
    99          6
   105          2
   107         10
   108          3
   109         36
   110         62
   111         77
   112         41
   113          5
   114          1
   119          1
   121         79
   122          8
   123         10
   124          1
   125          3
   126          1
   135          3
   136         46
   137         20
   138          3
   139        114
   140         10
   153          7
   154        118
   155         40
   156          4
   157         47
   158          5
   172          1
   173          5