##TITLE=Library Entry 28237
##JCAMP-DX=Revision 4.10 
##DATA TYPE=MASS SPECTRUM
##SAMPLE DESCRIPTION=R.E.Ardrey ET AL.Pharmaceutical Mass Spectra,L.,1985
##NAMES=HP
##CAS NAME=Ethylamine, 2-((p-bromo-.alpha.-methyl-.alpha.-phenylbenzyl)oxy)-
N,N-dimethyl-
##MOLFORM=C18H22BrNO
##CAS REGISTRY NO=3565-72-8
##MP= -300
##BP= -300
##MW= 347
##$RETENTION INDEX=2185
##$CONDENSED SPECTRUM=NO
##NPOINTS= 7
##XYDATA=(XY..XY) 1 
    30         10
    42         20
    58        999
    59         30
    72         10
   103         10
   165         10