##TITLE=Library Entry 5887
##JCAMP-DX=Revision 4.10 
##DATA TYPE=MASS SPECTRUM
##SAMPLE DESCRIPTION=A.Holm ET AL,Acta Chem. Scand.26,205(1972)
##NAMES=HP
##CAS NAME=S-(Isopropoxythiocarbonyl)thiohydroxylamine
##MOLFORM=C4H9NOS2
##CAS REGISTRY NO=35659-80-4
##MP= -300
##BP= -300
##MW= 151
##$RETENTION INDEX=0
##$CONDENSED SPECTRUM=NO
##NPOINTS= 28
##XYDATA=(XY..XY) 1 
    32         49
    33          8
    34         20
    37         10
    38         20
    39        140
    40         37
    41        420
    42        101
    43        999
    44         28
    45         41
    46         10
    47         20
    48         82
    49        325
    51         14
    59         16
    60         84
    61          6
    62          8
    64         10
    76         45
    91         63
    92         30
   103         12
   109          8
   151         20