##TITLE=Library Entry 61343
##JCAMP-DX=Revision 4.10 
##DATA TYPE=MASS SPECTRUM
##SAMPLE DESCRIPTION=NIST Mass Spectrometry Data Center
##NAMES=HP
##CAS NAME=N-Z-L-Homoserine lactone
##MOLFORM=C12H13NO4
##CAS REGISTRY NO=35677-89-5
##MP= -300
##BP= -300
##MW= 235
##$RETENTION INDEX=2100
##$CONDENSED SPECTRUM=NO
##NPOINTS= 88
##XYDATA=(XY..XY) 1 
    15          2
    25          1
    26          8
    27         26
    28         67
    29         25
    30          4
    31          4
    37          4
    38         10
    39         62
    40         14
    41         40
    42         30
    43         14
    44         13
    45          4
    49          2
    50         34
    51         85
    52         28
    53         21
    54         50
    55         72
    56        108
    57         30
    58         10
    61          4
    62         12
    63         42
    64         13
    65        152
    66          9
    67          1
    68          4
    69          7
    70          4
    71          1
    72          3
    73          2
    74          8
    75          5
    76          5
    77        123
    78         27
    79        187
    80         19
    81          1
    82          9
    83         28
    84          3
    85         10
    86         79
    87          5
    88          1
    89         53
    90         55
    91        999
    92         85
    93          3
   100         10
   101          5
   102          1
   104          2
   105         15
   106          8
   107        195
   108        653
   109         51
   110          3
   116          2
   117          1
   118          3
   126          1
   128          4
   129          1
   130          1
   132         11
   133          3
   144          2
   146          3
   164          1
   174          1
   177          1
   192          2
   235         45
   236          6
   237          1