##TITLE=Library Entry 109756
##JCAMP-DX=Revision 4.10 
##DATA TYPE=MASS SPECTRUM
##SAMPLE DESCRIPTION=TNO Volatile Compounds in Food - Chemical Concepts
##NAMES=HP
##CAS NAME=Thiophene, 3,4-diethyl-
##MOLFORM=C8H12S
##CAS REGISTRY NO=35686-14-7
##MP= -300
##BP= -300
##MW= 140
##$RETENTION INDEX=1084
##$CONDENSED SPECTRUM=NO
##NPOINTS= 84
##XYDATA=(XY..XY) 1 
    26          6
    27         65
    28         17
    29          7
    33          0
    34          1
    37          3
    38         12
    39         80
    41         73
    42          3
    43          1
    44          1
    45        139
    46          6
    47         16
    49          1
    50         15
    51         36
    52          9
    53         34
    54          2
    55         10
    57          5
    58         16
    59         36
    60          8
    61         16
    62          8
    63         14
    64          1
    65         30
    66         15
    67         22
    68          3
    69         26
    70          9
    71         20
    72          1
    73          4
    74          2
    75          1
    77         51
    78         16
    79         38
    80          2
    81         18
    82          6
    83          3
    84         12
    85         34
    86          2
    87          2
    89          2
    91         83
    92         27
    93          5
    95          4
    96          1
    97         92
    98          6
    99         11
   103          3
   105          2
   107          1
   108          1
   109         15
   110         61
   111        118
   112         14
   113          6
   121          7
   122          2
   123         30
   124         10
   125        999
   126         88
   127         45
   128          3
   139         29
   140        382
   141         38
   142         18
   143          0