##TITLE=Library Entry 28707
##JCAMP-DX=Revision 4.10 
##DATA TYPE=MASS SPECTRUM
##SAMPLE DESCRIPTION=Tox21 Consortium/NIST Mass Spectrometry Data Center, 20
12
##NAMES=HP
##CAS NAME=Propionylpromazone
##MOLFORM=C20H24N2OS
##CAS REGISTRY NO=3568-24-9
##MP= -300
##BP= -300
##MW= 340
##$RETENTION INDEX=2802
##$CONDENSED SPECTRUM=NO
##NPOINTS= 215
##XYDATA=(XY..XY) 1 
    15          2
    18          1
    26          1
    27          5
    28          5
    29         20
    30         24
    31          1
    32          1
    38          1
    39          5
    40          1
    41          9
    42         51
    43         18
    44         33
    45          8
    46          1
    47          1
    50          2
    51          4
    52          1
    53          1
    54          1
    55          4
    56         15
    57         45
    58        999
    59         43
    60          1
    62          1
    63         10
    64          2
    65          4
    66          1
    68          2
    69          9
    70         28
    71         12
    72         20
    73          1
    74          1
    75          4
    76          3
    77          6
    78          2
    79          1
    81          1
    82          4
    83          2
    84         30
    85         95
    86        198
    87         12
    88          1
    89          4
    90          1
    91          3
    92          1
    93          2
    94          2
    95          9
    96          2
    97          1
    98          3
   100          1
   101          2
   102          3
   103          2
   104          2
   105          2
   107          1
   108          5
   109          5
   110          1
   111          1
   113          2
   114          1
   115          3
   116          1
   117          2
   118          1
   120          3
   121          2
   122          1
   123          1
   124          1
   125          2
   126          5
   127          5
   128          3
   129          1
   130          2
   131          1
   132          1
   133          1
   134          2
   135          1
   136          2
   137          1
   138          2
   139         12
   140          5
   141          2
   144          1
   145          2
   146          4
   147          1
   148          1
   149          1
   150          2
   151          5
   152          9
   153         16
   154          7
   155          1
   158          1
   159          1
   160          1
   163          1
   164          4
   165          3
   166          4
   167          7
   168          1
   169          4
   170          9
   171          8
   172          3
   173          1
   175          1
   176          1
   177          4
   178          8
   179         18
   180         11
   181          2
   182          2
   183          3
   184          4
   185          2
   186          2
   190          2
   191          5
   192          4
   193          5
   194          2
   195          1
   196         56
   197         96
   198         30
   199          9
   200          2
   203          1
   204          4
   205          2
   206          4
   207          1
   208          3
   209          4
   210         14
   211         10
   212         11
   213          3
   214          1
   217          1
   220          1
   221          1
   222          5
   223         14
   224         16
   225         15
   226          9
   227          2
   228          1
   234          2
   235          2
   236         24
   237          6
   238         12
   239          5
   240          4
   241          1
   248          1
   250          3
   251          1
   252          2
   253          1
   254         33
   255         51
   256         10
   257          3
   258          1
   262          2
   266         17
   267          4
   268         19
   269         41
   270          8
   271          2
   278          1
   279          1
   280         16
   281         13
   282          9
   283          2
   284          1
   294         66
   295         27
   296          7
   297          2
   340        145
   341         32
   342         10
   343          2