##TITLE=Library Entry 86405
##JCAMP-DX=Revision 4.10 
##DATA TYPE=MASS SPECTRUM
##SAMPLE DESCRIPTION=NIST Mass Spectrometry Data Center
##NAMES=HP
##CAS NAME=4-Hydroxy-2,6,6-trimethyl-3-oxocyclohexa-1,4-dienecarbaldehyde
##MOLFORM=C10H12O3
##CAS REGISTRY NO=35692-95-6
##MP= -300
##BP= -300
##MW= 180
##$RETENTION INDEX=1347
##$CONDENSED SPECTRUM=NO
##NPOINTS= 106
##XYDATA=(XY..XY) 1 
    26          3
    27         34
    28          5
    29         42
    37          6
    38         24
    39        228
    40         35
    41        130
    42         13
    43        123
    44          4
    45          5
    46          2
    49          4
    50         49
    51        127
    52         58
    53        202
    54         26
    55        160
    57         18
    59          4
    60          2
    61         11
    62         37
    63        106
    64         29
    65        229
    66         81
    67        226
    68         42
    69        108
    70          6
    73          3
    74         23
    75         24
    76         10
    77        326
    78         71
    79        381
    80         78
    81        264
    82         29
    88          1
    89         32
    90         25
    91        370
    92         43
    93         73
    94         82
    95        189
    96         34
   101          2
   102          4
   103         28
   104          8
   105        131
   106         76
   107        206
   108        107
   109        999
   110        116
   111         10
   115          7
   116          3
   117          8
   118          9
   119         78
   120         17
   121         47
   122         15
   123        580
   124        364
   125         33
   131          3
   132          1
   133         60
   134         82
   135         83
   136         36
   137        790
   138        416
   139         35
   140          6
   145          3
   147         15
   148          2
   149          5
   150          6
   151        301
   152        541
   153         53
   154          4
   161          8
   162         13
   163         19
   164          6
   165        173
   166         17
   167          2
   179        112
   180        528
   181         59
   182          7
   183          1