##TITLE=Library Entry 107141
##JCAMP-DX=Revision 4.10 
##DATA TYPE=MASS SPECTRUM
##SAMPLE DESCRIPTION=A.A.Kutin, Moscow, Russia
##NAMES=HP
##CAS NAME=4-Pyrazolecarboxylic acid, 3,5-dimethyl-, ethyl ester
##MOLFORM=C8H12N2O2
##CAS REGISTRY NO=35691-93-1
##MP= -300
##BP= -300
##MW= 168
##$RETENTION INDEX=0
##$CONDENSED SPECTRUM=NO
##NPOINTS= 61
##XYDATA=(XY..XY) 1 
    37          6
    38         21
    39        163
    40         58
    41        100
    42        117
    43         27
    45          7
    46          0
    47          0
    49          0
    52         23
    53         24
    54         27
    55         12
    56          5
    57          2
    61          5
    62         14
    63         32
    64         12
    65        119
    66         51
    67         44
    68         12
    69          1
    70          2
    72          0
    79          0
    80          6
    81          6
    82         29
    83         11
    84          2
    94         32
    95         45
    96         42
    97          3
    98          0
   108          0
   109          4
   110          0
   111          1
   112          0
   121         32
   122        224
   123        999
   124        125
   125         11
   126          0
   137          4
   139         90
   140        211
   141         16
   142          1
   153          6
   154          0
   165          0
   168        253
   169         27
   170          2