##TITLE=Library Entry 73488
##JCAMP-DX=Revision 4.10 
##DATA TYPE=MASS SPECTRUM
##SAMPLE DESCRIPTION=AAFS Toxicology Section MS DB Committee, U. Alberta, Ca
nada
##NAMES=HP
##CAS NAME=Dextromoramide
##MOLFORM=C25H32N2O2
##CAS REGISTRY NO=357-56-2
##MP= -300
##BP= -300
##MW= 392
##$RETENTION INDEX=2940
##$CONDENSED SPECTRUM=NO
##NPOINTS= 53
##XYDATA=(XY..XY) 1 
    39          5
    40          1
    41         32
    42         45
    43         10
    44         11
    45          7
    54          5
    55         87
    56        118
    57          6
    65          5
    68         11
    69         15
    70         43
    71          6
    72          8
    77          8
    82          6
    86          6
    91         45
    98         61
    99          8
   100        999
   101         64
   103          5
   105          5
   115         30
   116         11
   117          8
   118          6
   127          8
   128        366
   129         36
   130          6
   152         13
   164          8
   165         61
   166         24
   167         20
   174          8
   178         17
   179         11
   191          5
   193         17
   194         24
   195         11
   236         22
   264         10
   265        292
   266         67
   267          5
   306          8