##TITLE=Library Entry 31303
##JCAMP-DX=Revision 4.10 
##DATA TYPE=MASS SPECTRUM
##SAMPLE DESCRIPTION=Japan AIST/NIMC Database- Spectrum MS-IW-6260
##NAMES=HP
##CAS NAME=Ethanethiol, 2,2'-thiobis-
##MOLFORM=C4H10S3
##CAS REGISTRY NO=3570-55-6
##MP= -300
##BP= -300
##MW= 154
##$RETENTION INDEX=0
##$CONDENSED SPECTRUM=NO
##NPOINTS= 80
##XYDATA=(XY..XY) 1 
    14          1
    15          1
    25          1
    26         11
    27         88
    28         16
    29          5
    32         13
    33         14
    34         39
    35         79
    36          2
    37          3
    39          1
    41          2
    44         12
    45        141
    46         43
    47        101
    48          8
    49          5
    53          1
    55          1
    56          2
    57         15
    58         60
    59        194
    60        316
    61        999
    62         52
    63         59
    64         25
    65         15
    66          4
    67          2
    72          1
    73         10
    74          1
    75          2
    76          9
    77          1
    78         12
    79         14
    80          2
    81          1
    85          1
    87         16
    88          1
    89          1
    90          1
    91          9
    92         22
    93         23
    94        550
    95         36
    96         49
    97         10
    98          2
    99          1
   104          1
   105         19
   106         15
   107        111
   108          7
   109          9
   119          2
   120        215
   121         18
   122         19
   123          1
   124          3
   125          2
   138          4
   152         19
   153          1
   154        240
   155         17
   156         31
   157          2
   158          1