##TITLE=Library Entry 40314
##JCAMP-DX=Revision 4.10 
##DATA TYPE=MASS SPECTRUM
##SAMPLE DESCRIPTION=NIST Mass Spectrometry Data Center, 1994
##NAMES=HP
##CAS NAME=N,N'-Di-sec-butylthiourea
##MOLFORM=C9H20N2S
##CAS REGISTRY NO=35700-30-2
##MP= -300
##BP= -300
##MW= 188
##$RETENTION INDEX=0
##$CONDENSED SPECTRUM=NO
##NPOINTS= 72
##XYDATA=(XY..XY) 1 
     4          0
    14          0
    15         11
    18         38
    26         10
    27         85
    28         94
    29        204
    30         41
    32          4
    39         62
    41        206
    42         90
    43        188
    44        377
    45         26
    46          4
    51          4
    53         17
    54         22
    55        199
    56         72
    57        179
    58        167
    59         30
    60        129
    61         12
    62         27
    69         73
    70         21
    72        999
    73         52
    74         12
    75         16
    76         26
    77        161
    78          7
    79         10
    82          9
    83         11
    84         42
    85         10
    86         19
    88          9
    89         19
    90         11
    97          5
    99         83
   100          9
   101         11
   102          5
   103         82
   104         43
   105          9
   113          5
   114          5
   116         14
   117         19
   125         13
   127         12
   128          5
   131        127
   132         14
   133         22
   155         12
   156          4
   159         21
   160          5
   187        220
   188        689
   189         92
   190         35