##TITLE=Library Entry 66398
##JCAMP-DX=Revision 4.10 
##DATA TYPE=MASS SPECTRUM
##SAMPLE DESCRIPTION=Mark Whitten, Florida Museum of Natural History, U. of
 Florida
##NAMES=HP
##CAS NAME=Camphenol, 6-
##MOLFORM=C10H16O
##CAS REGISTRY NO=3570-04-5
##MP= -300
##BP= -300
##MW= 152
##$RETENTION INDEX=1110
##$CONDENSED SPECTRUM=NO
##NPOINTS= 44
##XYDATA=(XY..XY) 1 
    41        336
    42         38
    43        224
    44         61
    45         23
    50         33
    51         96
    52         52
    53        129
    54         32
    55        109
    56         24
    57         40
    59        118
    60         12
    63         29
    65        103
    66         32
    67        127
    68         20
    69         33
    70         20
    77        226
    78         55
    79        164
    80         32
    81         98
    82         25
    83         20
    91        361
    92         64
    93        999
    94        181
    95        157
    96         26
   103         16
   105         45
   106         16
   107        113
   108        809
   109        207
   110         20
   119         47
   137         24