##TITLE=Library Entry 56493
##JCAMP-DX=Revision 4.10 
##DATA TYPE=MASS SPECTRUM
##SAMPLE DESCRIPTION=Tox21 Consortium/NIST Mass Spectrometry Data Center, 20
12
##NAMES=HP
##CAS NAME=2-(Diethylamino)ethyl cyclohexyl(hydroxy)phenylacetate
##MOLFORM=C20H31NO3
##CAS REGISTRY NO=3570-96-5
##MP= -300
##BP= -300
##MW= 333
##$RETENTION INDEX=0
##$CONDENSED SPECTRUM=NO
##NPOINTS= 106
##XYDATA=(XY..XY) 1 
    15          1
    18          2
    26          1
    27          9
    28         13
    29         21
    30         23
    31          1
    39          7
    40          1
    41         33
    42         26
    43         10
    44         51
    45          6
    50          2
    51          9
    52          2
    53          5
    54          5
    55         56
    56         32
    57         15
    58         41
    59          2
    63          1
    65          2
    66          1
    67          6
    68          2
    69          4
    70         12
    71         15
    72         22
    73         18
    74          1
    75          1
    76          1
    77         44
    78          6
    79         28
    80          2
    81          2
    82          1
    83          9
    84         14
    85          5
    86        999
    87         59
    88          3
    89          2
    90          1
    91         26
    92          2
    93          1
    97          1
    98          2
    99         98
   100         54
   101          5
   102         25
   103          6
   104          2
   105         75
   106          8
   107         34
   108          3
   111          1
   114          1
   115          7
   116         23
   117          7
   118          8
   119          1
   120          2
   121          2
   127          1
   128          4
   129          8
   130          1
   131          2
   132          1
   133          6
   134          1
   141          2
   142          1
   143          2
   144          1
   145          2
   146          1
   147          1
   149          2
   170          1
   171          2
   172          1
   187          1
   188          6
   189         20
   190          3
   249          1
   250          4
   251          3
   318          6
   319          1
   332          1
   333          1