##TITLE=Library Entry 97833
##JCAMP-DX=Revision 4.10 
##DATA TYPE=MASS SPECTRUM
##SAMPLE DESCRIPTION=Japan AIST/NIMC Database- Spectrum MS-IW-1705
##NAMES=HP
##CAS NAME=4-Cyano-N-acetylaniline
##MOLFORM=C9H8N2O
##CAS REGISTRY NO=35704-19-9
##MP= -300
##BP= -300
##MW= 160
##$RETENTION INDEX=0
##$CONDENSED SPECTRUM=NO
##NPOINTS= 60
##XYDATA=(XY..XY) 1 
    14          1
    15         19
    26          1
    27          3
    28         10
    30          1
    37          8
    38         11
    39         17
    40          6
    41          9
    42          9
    43        320
    44          8
    49          1
    50          9
    51         10
    52         12
    53          1
    54          2
    61          4
    62         14
    63         32
    64         39
    65         11
    66          3
    67          2
    73          1
    74          3
    75         12
    76          9
    77          3
    78          4
    79          1
    87          1
    88          4
    89          8
    90         43
    91        101
    92          9
    99          1
   100          1
   101          1
   102         12
   103          3
   104          2
   116          7
   117         19
   118        999
   119         83
   120          4
   127          4
   129          2
   131          4
   144          2
   145          3
   159          2
   160        226
   161         27
   162          2