##TITLE=Library Entry 23810
##JCAMP-DX=Revision 4.10 
##DATA TYPE=MASS SPECTRUM
##SAMPLE DESCRIPTION=Chemical Concepts
##NAMES=HP
##CAS NAME=Cyclohexylidenemalononitrile, 4'-t-butyl-
##MOLFORM=C13H18N2
##CAS REGISTRY NO=35704-28-0
##MP= -300
##BP= -300
##MW= 202
##$RETENTION INDEX=0
##$CONDENSED SPECTRUM=NO
##NPOINTS= 107
##XYDATA=(XY..XY) 1 
    26          0
    27         21
    28          4
    29         59
    30          1
    37          0
    38          0
    39         23
    40         16
    41        122
    42          7
    43         32
    44          1
    50          0
    51          4
    52          2
    53          9
    54          2
    55         20
    56         35
    57        999
    58         43
    59          0
    62          0
    63          2
    64          2
    65          5
    66          4
    67          8
    68          0
    69          5
    70          1
    71          0
    72          0
    75          0
    76          2
    77          8
    78          6
    79          9
    80          4
    81          2
    82          0
    83          2
    84          0
    85          0
    86          0
    88          0
    89          3
    90          3
    91          8
    92          2
    93          4
    94          1
    95          0
   101          0
   102          2
   103          2
   104          5
   105          3
   106          3
   107          1
   108          0
   114          0
   115          2
   116          6
   117          3
   118          9
   119          5
   120          1
   121          1
   127          0
   128          2
   129          2
   130          2
   131         21
   132          3
   133          2
   134          0
   140          0
   141          0
   142          1
   143          3
   144          3
   145         68
   146         36
   147          8
   148          0
   153          0
   155          0
   156          0
   157          1
   158          1
   159          3
   160          3
   161          0
   170          2
   171          1
   172          1
   173          0
   185          0
   186          0
   187         60
   188          9
   189          0
   202         51
   203          8
   204          0