##TITLE=Library Entry 34432
##JCAMP-DX=Revision 4.10 
##DATA TYPE=MASS SPECTRUM
##SAMPLE DESCRIPTION=Chemical Concepts
##NAMES=HP
##CAS NAME=1-Bromo-3,7-dimethyl-2,6-octadiene
##MOLFORM=C10H17Br
##CAS REGISTRY NO=35719-26-7
##MP= -300
##BP= -300
##MW= 216
##$RETENTION INDEX=0
##$CONDENSED SPECTRUM=NO
##NPOINTS= 82
##XYDATA=(XY..XY) 1 
    25          8
    27        107
    28          8
    29         60
    36          7
    37          2
    38          8
    39        147
    40         31
    41        815
    42         33
    43         73
    44          2
    45          2
    50         13
    51         42
    52         24
    53        127
    54         18
    55         83
    56         10
    57         18
    58          4
    59          4
    60          2
    62          4
    63         14
    64          4
    65         44
    66         23
    67        153
    68        213
    69        999
    70         57
    71         15
    74          2
    75          3
    76          2
    77        117
    78         24
    79        143
    80         85
    81        204
    82         27
    83          7
    84          2
    85          2
    89          3
    90          3
    91        120
    92         88
    93        612
    94         78
    95         57
    96          7
    97          2
   103          7
   104          4
   105         47
   106         13
   107         52
   108         12
   109          7
   111          2
   115          4
   117          4
   119         13
   120          4
   121        105
   122         12
   123          8
   135          3
   136         85
   137        132
   138         17
   139          2
   172          2
   173          9
   174          2
   175          9
   216          1
   218          2