##TITLE=Library Entry 63184
##JCAMP-DX=Revision 4.10 
##DATA TYPE=MASS SPECTRUM
##SAMPLE DESCRIPTION=NIST Mass Spectrometry Data Center, 1994
##NAMES=HP
##CAS NAME=N-Benzylisatoic anhydride
##MOLFORM=C15H11NO3
##CAS REGISTRY NO=35710-05-5
##MP= -300
##BP= -300
##MW= 253
##$RETENTION INDEX=0
##$CONDENSED SPECTRUM=NO
##NPOINTS= 68
##XYDATA=(XY..XY) 1 
    18          2
    26          7
    27         29
    28         20
    37         13
    38         47
    39        177
    40         17
    41         30
    44         14
    45          8
    50        123
    51        217
    52         43
    53         15
    61         14
    62         43
    63        149
    64         68
    65        267
    66         15
    74         37
    75         47
    76        120
    77        285
    78        128
    79         20
    87          8
    89         88
    90        135
    91        999
    92         79
   101          8
   102         31
   103         37
   104        209
   105         63
   106          5
   107          6
   115          6
   119          8
   126         13
   127         16
   130         25
   131         10
   132         36
   146         28
   150         11
   151         35
   152         98
   153         31
   154          7
   177          6
   178         16
   180        749
   181        192
   182         18
   207          5
   208         36
   209        106
   210         18
   224         22
   225         37
   226          7
   235         14
   253        431
   254         73
   255          5