##TITLE=Library Entry 37742
##JCAMP-DX=Revision 4.10 
##DATA TYPE=MASS SPECTRUM
##SAMPLE DESCRIPTION=Tox21 Consortium/NIST Mass Spectrometry Data Center, 20
12
##NAMES=HP
##CAS NAME=Benzenemethanamine, 2-amino-3,5-dibromo-N-cyclohexyl-N-methyl-
##MOLFORM=C14H20Br2N2
##CAS REGISTRY NO=3572-43-8
##MP= -300
##BP= -300
##MW= 374
##$RETENTION INDEX=2370
##$CONDENSED SPECTRUM=NO
##NPOINTS= 251
##XYDATA=(XY..XY) 1 
    15          4
    26          2
    27         19
    28         20
    29         25
    30         28
    31          1
    32          3
    37          1
    38          3
    39         40
    40          6
    41        122
    42        193
    43         26
    44        134
    45          5
    49          1
    50         13
    51         38
    52         33
    53         32
    54         30
    55        168
    56         38
    57         75
    58         17
    61          2
    62         10
    63         21
    64          6
    65         17
    66          9
    67         15
    68         53
    70        999
    71         58
    72          4
    73          3
    74          9
    75         32
    76         48
    77        106
    78         35
    79         25
    80         30
    81         19
    82         21
    83         35
    84         58
    85          5
    86         12
    88          6
    89         14
    90         25
    91         13
    92          6
    93          3
    94          3
    95          2
    96          7
    97          3
    98          6
    99          1
   100          5
   101          3
   102         33
   103         63
   104        217
   105         28
   106          7
   107          2
   108          2
   109          1
   110          7
   112        662
   113        185
   114         17
   115          7
   116         13
   117         20
   118         15
   119         21
   120         16
   124          2
   126        245
   127         25
   128          5
   129          5
   130         10
   131         13
   132         19
   133         13
   134          2
   140          1
   141          4
   142          4
   143          9
   144          7
   145         10
   146          4
   147          1
   148          1
   152          1
   153          2
   154          3
   155         14
   156         26
   157         17
   158         26
   159          7
   160          6
   161          1
   165         18
   166         33
   167         18
   169          8
   170          9
   171          9
   172          4
   173          4
   174          1
   180          1
   181          3
   182         67
   183         98
   184         78
   185         87
   186         19
   187          2
   188          2
   189          1
   194          2
   195         11
   196          9
   197         18
   198         10
   199          8
   200          2
   207          1
   208          3
   209          6
   210          6
   211         10
   212         10
   213          8
   214          7
   215          3
   216          1
   221          2
   222          2
   223          5
   224          6
   225          4
   226          5
   227          2
   234          1
   235          2
   236          2
   237          6
   238          5
   239          6
   240          3
   241          2
   247          1
   248          1
   249          4
   250          2
   251          6
   252          3
   253          3
   254          2
   255          1
   260          2
   262        228
   263         26
   264        479
   265         44
   266        229
   267         21
   268          1
   273          1
   274          3
   275          6
   276          8
   277         13
   278          6
   279         11
   280          2
   281          3
   286          7
   287          3
   288         21
   289          9
   290         26
   291        304
   292         41
   293        570
   294         58
   295        277
   296         28
   297          4
   298          1
   300          2
   301          1
   302          6
   303        190
   304         25
   305        359
   306         44
   307        196
   308         21
   309          2
   314          1
   315          1
   316          1
   317          4
   318          1
   319          6
   320          1
   321          3
   329          2
   330          1
   331         25
   332          5
   333         44
   334          7
   335         21
   336          3
   342          1
   344          2
   345          1
   346          2
   347          1
   348          1
   358          2
   359          4
   360          4
   361          7
   362          3
   363          3
   371          1
   372          1
   373          3
   374         78
   375         17
   376        150
   377         25
   378         74
   379         12
   380          1