##TITLE=Library Entry 10979
##JCAMP-DX=Revision 4.10 
##DATA TYPE=MASS SPECTRUM
##SAMPLE DESCRIPTION=Exported from NIST MS Search
##NAMES=HP
##CAS NAME=Evonine, O6-deacetyl-, (all-.xi.)-
##MOLFORM=C34H41NO16
##CAS REGISTRY NO=35721-65-4
##MP= -300
##BP= -300
##MW= 719
##$RETENTION INDEX=0
##$CONDENSED SPECTRUM=NO
##NPOINTS= 137
##XYDATA=(XY..XY) 1 
    41         47
    42         20
    43        999
    44         44
    45         23
    51         17
    52          5
    53         23
    55        105
    56         20
    57         35
    60          5
    61          5
    65          8
    67         23
    69         32
    71         11
    73         11
    77         32
    78         47
    79         70
    80         14
    81         23
    82         11
    83         47
    84         11
    85         23
    87         23
    91         23
    92         11
    93         94
    94         11
    95         47
    97         23
    99         11
   103         11
   104         61
   105         94
   106        288
   107        788
   108         73
   109         17
   111         17
   116          8
   117         97
   118        123
   119         20
   120         20
   121         20
   123         20
   124         20
   125         20
   127         11
   130         47
   131         32
   132        194
   133        194
   134        173
   135         44
   136         20
   147         23
   148         23
   149         35
   150        226
   151        135
   152        108
   153         23
   158         11
   159         47
   160        211
   161        235
   162         91
   163         35
   164         35
   165         35
   173          8
   174         11
   175          5
   176         32
   177         23
   178        397
   179         52
   180         23
   188         11
   189         38
   190         52
   191          8
   192         20
   193          8
   204         44
   205         20
   206        564
   207         82
   208         23
   218         20
   219         20
   220         41
   221          5
   222          5
   224         20
   234          8
   236         26
   238          8
   260          8
   262         52
   263          8
   308         20
   486         17
   518         17
   528         47
   529         23
   530         17
   546        138
   547         47
   548         17
   586         11
   588         11
   600         23
   601          8
   602          8
   616         38
   617          8
   618          8
   632         11
   646         17
   658         11
   659         20
   660         52
   661         23
   662         11
   676         23
   677         11
   691         26
   692         11
   719         85
   720         29
   721         17