##TITLE=Library Entry 53986
##JCAMP-DX=Revision 4.10 
##DATA TYPE=MASS SPECTRUM
##SAMPLE DESCRIPTION=NIST Mass Spectrometry Data Center
##NAMES=HP
##CAS NAME=Cyclohexanol, 3-ethenyl-3-methyl-2-(1-methylethenyl)-6-(1-methyle
thyl)-, [1R-(1.alpha.,2.alpha.,3.beta.,6.alpha.)]-
##MOLFORM=C15H26O
##CAS REGISTRY NO=35727-45-8
##MP= -300
##BP= -300
##MW= 222
##$RETENTION INDEX=1701
##$CONDENSED SPECTRUM=NO
##NPOINTS= 145
##XYDATA=(XY..XY) 1 
    26          1
    27         66
    28         10
    29         96
    30          2
    31         10
    37          1
    38          3
    39        157
    40         39
    41        491
    42         55
    43        226
    44         14
    45          8
    50          5
    51         31
    52         16
    53        188
    54         29
    55        458
    56        115
    57        113
    58          7
    59         11
    60          1
    62          2
    63          8
    64          3
    65         70
    66         27
    67        375
    68        286
    69        397
    70         51
    71         86
    72          5
    73          3
    74          1
    75          1
    76          3
    77        130
    78         25
    79        213
    80         76
    81        644
    82        145
    83        424
    84        999
    85         87
    86          6
    87          1
    89          3
    90          1
    91        143
    92         30
    93        239
    94         65
    95        236
    96         48
    97        146
    98         25
    99         15
   100          1
   102          1
   103         11
   104          5
   105        216
   106         40
   107        228
   108        109
   109        416
   110         80
   111        148
   112         35
   113          7
   115         14
   116          5
   117         17
   118          6
   119        143
   120         52
   121        348
   122         81
   123        191
   124         38
   125         16
   126          9
   127          6
   128          6
   129          6
   130          2
   131         12
   132          4
   133         75
   134         36
   135         50
   136        142
   137        174
   138        102
   139         44
   140         84
   141         18
   142          2
   143          1
   145          7
   146          3
   147         40
   148         21
   149         19
   150          4
   151         43
   152         12
   153          7
   154          1
   160          6
   161        184
   162         30
   163          5
   164          9
   165         12
   166         11
   167         10
   168          1
   175          7
   176          3
   178          1
   179         30
   180         13
   181          2
   189         38
   190          6
   191          3
   193          2
   194          1
   203          1
   204         51
   205          8
   206          1
   207         41
   208          6
   209          1
   222         55
   223          9
   224          1