##TITLE=Library Entry 30131
##JCAMP-DX=Revision 4.10 
##DATA TYPE=MASS SPECTRUM
##SAMPLE DESCRIPTION=Japan AIST/NIMC Database- Spectrum MS-IW-4254
##NAMES=HP
##CAS NAME=9-Octadecenamide, 12-hydroxy-, [R-(Z)]-
##MOLFORM=C18H35NO2
##CAS REGISTRY NO=35732-94-6
##MP= -300
##BP= -300
##MW= 297
##$RETENTION INDEX=0
##$CONDENSED SPECTRUM=NO
##NPOINTS= 249
##XYDATA=(XY..XY) 1 
    15          2
    16          1
    17         15
    18         92
    19          1
    26          7
    27         77
    28         31
    29        154
    30         13
    31         16
    32          1
    36          1
    37          1
    38          3
    39         88
    40         17
    41        459
    42         76
    43        419
    44        189
    45         21
    46          3
    50          4
    51          9
    52          9
    53         72
    54        185
    55        814
    56         99
    57        151
    58         20
    59        999
    60        173
    61          7
    62          1
    63          3
    64          1
    65         35
    66         32
    67        498
    68        194
    69        331
    70         68
    71         56
    72        919
    73        143
    74          8
    75          1
    76          1
    77         56
    78         23
    79        177
    80        108
    81        457
    82        247
    83        192
    84        108
    85         63
    86        179
    87         41
    88          3
    89          2
    90          1
    91         70
    92         19
    93        101
    94         87
    95        305
    96        205
    97        283
    98        223
    99         65
   100        127
   101         60
   102          5
   103          4
   104          6
   105         44
   106         35
   107         72
   108         71
   109        150
   110        127
   111         66
   112        202
   113        137
   114        118
   115         70
   116          7
   117         16
   118          8
   119         39
   120         57
   121         71
   122        185
   123        131
   124        139
   125         62
   126        239
   127         60
   128        109
   129         20
   130          6
   131         20
   132          9
   133         29
   134        104
   135         79
   136        125
   137        101
   138         49
   139         29
   140        180
   141         40
   142         40
   143         11
   144          4
   145         16
   146          9
   147         21
   148        131
   149         73
   150         58
   151         39
   152         30
   153         20
   154        127
   155         33
   156         22
   157          8
   158          4
   159         17
   160          9
   161          9
   162         54
   163         38
   164         64
   165         48
   166        163
   167         38
   168         25
   169          6
   170         21
   171          5
   172         14
   173         11
   174          8
   175          7
   176         40
   177         30
   178         36
   179         14
   180         13
   181         26
   182         14
   183        657
   184         98
   185         10
   186          4
   187          6
   188          6
   189          5
   190         32
   191         20
   192         13
   193         10
   194         11
   195         37
   196          8
   197          4
   198          8
   199          2
   200          2
   201          3
   202          6
   203          4
   204         25
   205         13
   206          9
   207          7
   208         11
   209          6
   210          8
   211          4
   212         44
   213          6
   214          2
   215          2
   216          4
   217          2
   218         28
   219         10
   220         25
   221          9
   222          6
   223          4
   224          2
   225          2
   226          2
   227          1
   228          2
   229          1
   230          3
   231          1
   232         19
   233          9
   234         11
   235          4
   236          5
   237          3
   238          2
   243          1
   244          3
   245          2
   246          4
   247          2
   248          2
   249          1
   250          3
   251          1
   252          1
   253          1
   255          2
   257          6
   258          2
   259         13
   260          7
   261        126
   262        115
   263         25
   264          4
   265          1
   273          1
   275          2
   276          1
   277          4
   278          5
   279        103
   280         69
   281         12
   282          1
   293          2
   294          1
   295          5
   296          4
   297          1
   298          6
   299          1