##TITLE=Library Entry 88698
##JCAMP-DX=Revision 4.10 
##DATA TYPE=MASS SPECTRUM
##SAMPLE DESCRIPTION=V.G.Zaikin, TIPS, Russian Acad. Sci.
##NAMES=HP
##CAS NAME=cis-1-Hydroxybicyclo[4.4.0]decane
##MOLFORM=C10H18O
##CAS REGISTRY NO=3574-58-1
##MP= -300
##BP= -300
##MW= 154
##$RETENTION INDEX=0
##$CONDENSED SPECTRUM=NO
##NPOINTS= 46
##XYDATA=(XY..XY) 1 
    51         35
    52         20
    53        113
    54         48
    55        412
    56         41
    57         48
    58         28
    65         46
    66         19
    67        146
    68         43
    69         96
    70        115
    71         34
    77         89
    78         16
    79        102
    80         28
    81         73
    82         28
    83        181
    84         50
    85          9
    91         70
    92         13
    93        103
    94         34
    95         58
    96         21
    97        238
    98        413
    99         29
   107         29
   108         10
   109         20
   110         10
   111        999
   112        102
   121         11
   125         19
   136         21
   137          7
   154        498
   155         55
   156          3