##TITLE=Library Entry 76247
##JCAMP-DX=Revision 4.10 
##DATA TYPE=MASS SPECTRUM
##SAMPLE DESCRIPTION=Chemical Concepts
##NAMES=HP
##CAS NAME=Dicycloocta[1,4]diselenine
##MOLFORM=C16H12Se2
##CAS REGISTRY NO=35760-73-7
##MP= -300
##BP= -300
##MW= 364
##$RETENTION INDEX=0
##$CONDENSED SPECTRUM=NO
##NPOINTS= 197
##XYDATA=(XY..XY) 1 
    26          8
    27         27
    28          2
    29          2
    31          1
    37          9
    38         19
    39        106
    40          5
    41          3
    43          3
    49          5
    50        170
    51        149
    52         82
    53          7
    55          2
    57          3
    61         13
    62         45
    63        131
    64         13
    65          8
    69          2
    71          2
    73          9
    74        120
    75        144
    76        212
    77         49
    78          9
    80          6
    83          1
    85          2
    86          7
    87         17
    88          4
    89        120
    90         45
    91          7
    93         13
    95          2
    97          1
    98         19
    99         10
   100          7
   101         33
   102        999
   103         95
   104          4
   105          5
   106          6
   107          2
   113          9
   114          7
   115         21
   116          2
   117         44
   118          4
   119          9
   125          2
   126         25
   127          8
   128          7
   129         11
   130         13
   131          5
   132          3
   137          2
   138          2
   139         11
   140          3
   141         14
   142          3
   143          6
   150          6
   151          7
   152         14
   153          6
   154         11
   155          4
   156         16
   157          3
   158          5
   160          6
   162          1
   163          5
   164          2
   165         17
   166          4
   167          5
   168          1
   169          9
   170          2
   171          2
   174          1
   175          3
   176         19
   177         10
   178         49
   179         46
   180         84
   181         37
   182        165
   183         25
   184         33
   185          3
   187          2
   188          1
   189         45
   190         14
   191         27
   192         10
   193          3
   194          3
   195          1
   200         14
   201         19
   202        220
   203        234
   204        101
   205         16
   206         20
   207          3
   208          4
   217          2
   219          3
   230          3
   232          5
   233          2
   234          3
   236          4
   243          3
   245          4
   252          5
   253         10
   254         21
   255         20
   256         40
   257         34
   258         34
   259         14
   260         10
   261          3
   262          7
   263          1
   264          2
   265          4
   266          3
   267         15
   268         10
   269         36
   270          8
   271         38
   272          7
   273          7
   277          3
   278         12
   279         34
   280         58
   281         86
   282        101
   283        138
   284        120
   285         46
   286         30
   287          5
   288          4
   295          1
   297          2
   299          2
   332          2
   333          2
   334          4
   335          4
   336          6
   337          3
   338          4
   339          1
   345          2
   346          1
   347          2
   349          2
   355          1
   356         11
   357         16
   358         53
   359         46
   360        128
   361         90
   362        203
   363         63
   364        245
   365         45
   366         75
   367         13
   368          6