##TITLE=Library Entry 48622
##JCAMP-DX=Revision 4.10 
##DATA TYPE=MASS SPECTRUM
##SAMPLE DESCRIPTION=Chemical Concepts
##NAMES=HP
##CAS NAME=1,3-Cyclohexadiene, 5-(1,1-dimethylethyl)-
##MOLFORM=C10H16
##CAS REGISTRY NO=35776-65-9
##MP= -300
##BP= -300
##MW= 136
##$RETENTION INDEX=0
##$CONDENSED SPECTRUM=NO
##NPOINTS= 80
##XYDATA=(XY..XY) 1 
    26          4
    27         92
    28          1
    29        193
    30          4
    37          1
    38          6
    39        113
    40         13
    41        341
    42         15
    43        147
    44          4
    45          1
    46          0
    47          0
    49          0
    50         19
    51         71
    52         37
    53         36
    54          4
    55         30
    56         13
    57        854
    58         39
    59          5
    60          0
    61          0
    62          3
    63         14
    64          3
    65         26
    66         16
    67         13
    68          1
    69          2
    70          6
    71          0
    73          0
    74          4
    75         11
    76          7
    77        234
    78        699
    79        999
    80        295
    81         19
    82          1
    83          0
    86          0
    87          0
    89          3
    90          1
    91         63
    92          9
    93         54
    94          5
    95          1
   101          0
   102          2
   103         10
   104          3
   105         23
   106          5
   107          3
   108          0
   115          4
   116          1
   117          2
   118          0
   119         31
   120          4
   121         26
   122          2
   123          0
   135          1
   136        185
   137         20
   138          1