##TITLE=Library Entry 7966
##JCAMP-DX=Revision 4.10 
##DATA TYPE=MASS SPECTRUM
##SAMPLE DESCRIPTION=NIST Mass Spectrometry Data Center, 1990.
##NAMES=HP
##CAS NAME=3-Methyl-4-nonanone
##MOLFORM=C10H20O
##CAS REGISTRY NO=35778-39-3
##MP= -300
##BP= -300
##MW= 156
##$RETENTION INDEX=0
##$CONDENSED SPECTRUM=NO
##NPOINTS= 49
##XYDATA=(XY..XY) 1 
    14          1
    15         13
    18          7
    26         22
    27        279
    28        115
    29        475
    30         12
    31          8
    32          6
    39        193
    40         49
    41        572
    42        187
    43        999
    44         38
    45          6
    50          6
    51         11
    52          5
    53         43
    54         16
    55        188
    56        101
    57        949
    58         45
    65          6
    67         12
    68          5
    69         32
    70          5
    71        682
    72        375
    73         17
    77          5
    79          4
    80         10
    81         13
    83         15
    85        214
    86         15
    99        779
   100         60
   101          9
   113         10
   128          5
   141          6
   156        129
   157         17