##TITLE=Library Entry 24539
##JCAMP-DX=Revision 4.10 
##DATA TYPE=MASS SPECTRUM
##SAMPLE DESCRIPTION=J. Klune, Insect Chem. Ecol. Lab., USDA, Beltsville, MD
 20705
##NAMES=HP
##CAS NAME=11-Methylhentriacontane
##MOLFORM=C32H66
##CAS REGISTRY NO=35799-05-4
##MP= -300
##BP= -300
##MW= 450
##$RETENTION INDEX=3132
##$CONDENSED SPECTRUM=NO
##NPOINTS= 143
##XYDATA=(XY..XY) 1 
    41        253
    42         93
    43        782
    44         22
    53         10
    54         26
    55        267
    56        175
    57        999
    58         41
    60          0
    65          1
    66          2
    67         30
    68         37
    69        183
    70        113
    71        627
    72         32
    77          0
    79          3
    80          1
    81         18
    82         47
    83        151
    84         66
    85        458
    86         28
    91          1
    93          0
    95          9
    96         32
    97        146
    98         40
    99        156
   100         10
   105          1
   109          4
   110         17
   111         82
   112         28
   113         94
   114          7
   123          1
   124         10
   125         41
   126         18
   127         50
   128          4
   137          1
   138          7
   139         17
   140         85
   141         36
   142          3
   147          2
   152          4
   153          6
   154          8
   155         16
   156          1
   166          4
   167          5
   168        740
   169        274
   170         27
   171          1
   180          2
   181          3
   182         19
   183         17
   184          2
   194          2
   195          2
   196         11
   197         11
   198          1
   208          2
   209          2
   210          9
   211         10
   212          1
   222          2
   223          1
   224          8
   225         10
   226          1
   236          0
   237          0
   238          5
   239          7
   240          0
   252          4
   253          5
   266          3
   267          3
   280         67
   281         28
   282          4
   294          5
   295          3
   296          1
   308        223
   309        205
   310         41
   311          5
   322         11
   323         11
   324          2
   336          5
   337          6
   338          0
   350          6
   351          7
   352          1
   353          0
   364          7
   365         10
   366          2
   378          7
   379         11
   380          3
   392          6
   393         11
   394          3
   406          6
   407         12
   408          3
   414          2
   420          9
   421         22
   422          6
   423          1
   434          3
   435         26
   436          9
   437          1
   438          0
   448          1
   449          3
   450         15
   451          5
   452          0