##TITLE=Library Entry 29844
##JCAMP-DX=Revision 4.10 
##DATA TYPE=MASS SPECTRUM
##SAMPLE DESCRIPTION=Japan AIST/NIMC Database- Spectrum MS-IW-5192
##NAMES=HP
##CAS NAME=6,8-Dichlorooctanamide
##MOLFORM=C8H15Cl2NO
##CAS REGISTRY NO=3579-00-8
##MP= -300
##BP= -300
##MW= 211
##$RETENTION INDEX=0
##$CONDENSED SPECTRUM=NO
##NPOINTS= 109
##XYDATA=(XY..XY) 1 
    26          1
    27         28
    28          9
    29         15
    30          2
    31          1
    35          1
    36         18
    38          6
    39         30
    40          5
    41         75
    42         21
    43         51
    44        121
    45          4
    46          1
    49          8
    50          1
    51          6
    52          2
    53         23
    54         12
    55         83
    56          8
    57         16
    58          2
    59        999
    60         38
    61          3
    62          3
    63          8
    64          1
    65          7
    66          2
    67         28
    68          7
    69         14
    70          3
    71          1
    72         72
    73          5
    75         13
    76          2
    77          9
    78          1
    79         13
    80          9
    81         42
    82          4
    83          4
    84          2
    85          2
    86         44
    87          4
    88          1
    89         10
    90          2
    91          6
    92          1
    93          5
    94          6
    95         29
    96          6
    97          6
    98          8
   100         16
   101          1
   103          1
   104          2
   105          1
   106          1
   110          1
   111          1
   112          2
   113          1
   114          2
   115          1
   116          1
   117          3
   118          1
   119          1
   120          3
   121          7
   122          9
   123         13
   124          2
   126          2
   131          5
   132          1
   133          1
   134          1
   138          1
   139         13
   140         55
   141          5
   158          2
   159          1
   160          1
   162          1
   174          5
   175          3
   176         32
   177          3
   178          9
   210          1
   211          1
   212          1
   213          1