##TITLE=Library Entry 15153
##JCAMP-DX=Revision 4.10 
##DATA TYPE=MASS SPECTRUM
##SAMPLE DESCRIPTION=Japan AIST/NIMC Database- Spectrum MS-NW- 953
##NAMES=HP
##CAS NAME=Piperidine, 3,5-dimethyl-
##MOLFORM=C7H15N
##CAS REGISTRY NO=35794-11-7
##MP= -300
##BP= -300
##MW= 113
##$RETENTION INDEX=889
##$CONDENSED SPECTRUM=NO
##NPOINTS= 69
##XYDATA=(XY..XY) 1 
    15         21
    26          8
    27        106
    28        130
    29         81
    30        735
    31          9
    32          2
    33          1
    37          3
    38         10
    39        174
    40         30
    41        281
    42        402
    43        241
    44        999
    45         26
    46          3
    47          1
    50          6
    51         11
    52          9
    53         35
    54         24
    55        140
    56        273
    57         73
    58         39
    59          1
    62          1
    63          4
    65          9
    66          4
    67         31
    68         41
    69         38
    70        322
    71        296
    72         14
    77          6
    78          2
    79          7
    80         11
    81         10
    82         20
    83         21
    84         79
    85          8
    91          1
    92          2
    93          3
    94          8
    95          6
    96         19
    97          4
    98        495
    99         34
   100          1
   106          4
   107          7
   108          3
   109          1
   110          4
   111          5
   112        290
   113        379
   114         32
   115          1