##TITLE=Library Entry 35182
##JCAMP-DX=Revision 4.10 
##DATA TYPE=MASS SPECTRUM
##SAMPLE DESCRIPTION=Japan AIST/NIMC Database- Spectrum MS-NW-6798
##NAMES=HP
##CAS NAME=Trifluoromethanesulfonic anhydride
##MOLFORM=C2F6O5S2
##CAS REGISTRY NO=358-23-6
##MP= -300
##BP= -300
##MW= 282
##$RETENTION INDEX=0
##$CONDENSED SPECTRUM=NO
##NPOINTS= 43
##XYDATA=(XY..XY) 1 
    16          1
    31          7
    32          4
    39          3
    44          8
    45          1
    47          8
    48         47
    49          1
    50         14
    51          2
    63          2
    64         77
    65          1
    66          8
    67          3
    69        999
    70         10
    73         12
    74          1
    76          1
    77          2
    79          3
    80          1
    81          2
    82          2
    85          2
    96          1
   117          1
   119          2
   133          8
   135          1
   137          1
   147          2
   149          3
   151          2
   153          2
   155          5
   191          1
   193          1
   282          7
   283          2
   284          2