##TITLE=Library Entry 78291
##JCAMP-DX=Revision 4.10 
##DATA TYPE=MASS SPECTRUM
##SAMPLE DESCRIPTION=RADIAN CORP
##NAMES=HP
##CAS NAME=Silane, dimethoxymethyl(3,3,3-trifluoropropyl)-
##MOLFORM=C6H13F3O2Si
##CAS REGISTRY NO=358-67-8
##MP= -300
##BP= -300
##MW= 202
##$RETENTION INDEX=0
##$CONDENSED SPECTRUM=NO
##NPOINTS= 88
##XYDATA=(XY..XY) 1 
    15          5
    27          6
    28          2
    29         10
    31          8
    33          8
    39         54
    40          3
    41         11
    42          3
    43         15
    44          2
    45         70
    46          6
    47         39
    48          1
    49          5
    51         35
    53          7
    55         12
    56          8
    57         17
    58         16
    59        344
    60         36
    61         44
    62         13
    63         96
    64         12
    65         21
    67          7
    69         83
    71         31
    72          2
    73          4
    74         33
    75        480
    76         44
    77        186
    78        100
    79        123
    80         10
    81         50
    82          3
    83          7
    85         10
    87          4
    89         54
    90         84
    91         17
    92          7
    93        198
    94         15
    95         16
    97         62
    98          4
    99          3
   103          2
   104          8
   105        999
   106         87
   107         44
   108          4
   109        114
   110          8
   111         21
   112          5
   113          8
   115         13
   117          2
   119          3
   121         21
   122          2
   123         14
   124          5
   125        436
   126         37
   127         22
   136          3
   137          6
   139          3
   140         22
   141          3
   151         15
   152          3
   155         26
   156          2
   171          1