##TITLE=Library Entry 74766
##JCAMP-DX=Revision 4.10 
##DATA TYPE=MASS SPECTRUM
##SAMPLE DESCRIPTION=Chemical Concepts
##NAMES=HP
##CAS NAME=Diethyl fluorophosphate
##MOLFORM=C4H10FO3P
##CAS REGISTRY NO=358-74-7
##MP= -300
##BP= -300
##MW= 156
##$RETENTION INDEX=0
##$CONDENSED SPECTRUM=NO
##NPOINTS= 20
##XYDATA=(XY..XY) 1 
    29        218
    31        179
    36        120
    45        278
    64         19
    73         38
    81         40
    83         40
    84         79
    85         39
   101        999
   113        439
   117         99
   119         98
   121         39
   127        100
   128         79
   129        319
   141         19
   156         19