##TITLE=Library Entry 81700
##JCAMP-DX=Revision 4.10 
##DATA TYPE=MASS SPECTRUM
##SAMPLE DESCRIPTION=A.A.Kutin, Moscow, Russia
##NAMES=HP
##CAS NAME=Cyclohexanone, 2-benzoyl-
##MOLFORM=C13H14O2
##CAS REGISTRY NO=3580-38-9
##MP= -300
##BP= -300
##MW= 202
##$RETENTION INDEX=0
##$CONDENSED SPECTRUM=NO
##NPOINTS= 129
##XYDATA=(XY..XY) 1 
    37          2
    39         55
    40         15
    41         59
    42         19
    43         17
    48          0
    50         33
    51        122
    52         18
    53         44
    55         85
    56          4
    57          6
    58          3
    59          0
    61          0
    62          7
    63         15
    64          9
    65         20
    66         11
    67         25
    68         31
    69         34
    70          4
    71          3
    72          5
    73          5
    74         12
    75         16
    77        498
    78         72
    79         37
    80          5
    81          8
    82          3
    83         13
    84          1
    85          1
    86          4
    87          8
    88          3
    89         20
    90          7
    91         49
    92          6
    93          2
    94          1
    95         28
    96         43
    97         57
    98          5
    99          1
   100          1
   101          6
   102         16
   103         41
   105        999
   106         92
   107         14
   108          1
   109          5
   110          1
   111          0
   113          3
   115         79
   116         26
   117         49
   118         27
   119          5
   120          7
   121          3
   123         33
   124         18
   125         90
   126         11
   127         27
   128         88
   129         56
   130         13
   131         90
   132         20
   133         46
   134          4
   139          2
   141         42
   142         16
   143          7
   145        148
   146        107
   147         25
   148          2
   151          1
   152          4
   153          8
   155         53
   156         61
   157         19
   158          3
   159         11
   160          3
   161          4
   162          0
   165          7
   166          5
   167          4
   168          1
   169          5
   170          1
   171          1
   173        128
   174         95
   175         12
   176          1
   181          1
   183         29
   184         28
   185         10
   186          2
   187          6
   188          1
   197          0
   199          7
   201        820
   202        813
   203        156
   204         15
   205          1