##TITLE=Library Entry 78846
##JCAMP-DX=Revision 4.10 
##DATA TYPE=MASS SPECTRUM
##SAMPLE DESCRIPTION=V.G. Zaikin, R.S.Borisov, TIPS RAS, Moscow, Russia
##NAMES=HP
##CAS NAME=1-Propanol, 2,2-dimethyl-, benzoate
##MOLFORM=C12H16O2
##CAS REGISTRY NO=3581-70-2
##MP= -300
##BP= -300
##MW= 192
##$RETENTION INDEX=0
##$CONDENSED SPECTRUM=NO
##NPOINTS= 56
##XYDATA=(XY..XY) 1 
    27         23
    28          6
    29         16
    38          2
    39         25
    40          4
    41         68
    42          9
    43         31
    44          2
    45          3
    49          2
    50         28
    51         93
    52          8
    53          8
    54          3
    55         44
    56         35
    57        133
    58          5
    65          2
    67          2
    68          3
    69         16
    70        275
    71         17
    74          8
    75          8
    76         31
    77        324
    78         26
    79         10
    85          3
    87         11
    91         38
    92         79
    93         10
   103          8
   105        999
   106         73
   107          8
   118          7
   121          2
   122         13
   123         48
   124          3
   134          2
   135         47
   136         49
   137         91
   138          7
   162          2
   177         11
   192          9
   193          2