##TITLE=Library Entry 72242
##JCAMP-DX=Revision 4.10 
##DATA TYPE=MASS SPECTRUM
##SAMPLE DESCRIPTION=P.M.SCOTT DEPT. OF N. H. & WELFARE, OTTAWA, ONT., CANAD
A
##NAMES=HP
##CAS NAME=1H-2-Benzopyran-1-one, 3,4-dihydro-6,8-dihydroxy-3-[(tetrahydro-6
-methyl-2H-pyran-2-yl)methyl]-, [2R-[2.alpha.(R*),6.beta.]]-
##MOLFORM=C16H20O5
##CAS REGISTRY NO=35818-31-6
##MP= -300
##BP= -300
##MW= 292
##$RETENTION INDEX=0
##$CONDENSED SPECTRUM=NO
##NPOINTS= 103
##XYDATA=(XY..XY) 1 
    39         40
    40         10
    41         90
    42         40
    43        130
    44         60
    45         10
    50         10
    51         20
    52         10
    53         20
    54         10
    55        150
    56         10
    57         50
    63         10
    65         50
    66         20
    67         30
    69         90
    70         10
    71         20
    77         30
    78         40
    79         30
    80         10
    81        390
    82         40
    83         10
    91         30
    92         10
    93         10
    94         10
    95         20
    97         10
    98         10
    99        999
   100         70
   101         10
   103         10
   105         10
   107         10
   109         10
   112         10
   115         20
   119         10
   121         30
   122         30
   123         30
   124         20
   125         50
   137         10
   138         20
   139         10
   141         20
   147         20
   148         20
   149         20
   150         90
   151        120
   152         30
   153         10
   161         20
   162         20
   163         20
   164         10
   165         10
   166         10
   167         10
   168         10
   173         10
   175         20
   176         70
   177         30
   178         50
   179        100
   180         40
   181         10
   185         10
   187         10
   188         10
   189         30
   190         10
   193         10
   194         50
   195         20
   201         10
   203         20
   207         20
   208         10
   213         10
   215         10
   216         10
   217         10
   221         10
   222         10
   223         10
   231         10
   235         10
   256         10
   274         10
   292        110
   293         30