##TITLE=Library Entry 90162
##JCAMP-DX=Revision 4.10 
##DATA TYPE=MASS SPECTRUM
##SAMPLE DESCRIPTION=V.A. KOPTYUG, VOL.4, ATLAS OF MASS SPECTRA OF ORGANIC C
OMPOUNDS
##NAMES=HP
##CAS NAME=Thiazole, 4,5-dimethyl-
##MOLFORM=C5H7NS
##CAS REGISTRY NO=3581-91-7
##MP= -300
##BP= -300
##MW= 113
##$RETENTION INDEX=935
##$CONDENSED SPECTRUM=NO
##NPOINTS= 43
##XYDATA=(XY..XY) 1 
    26         38
    27        100
    29         28
    30         13
    31         25
    37         13
    38         20
    39         83
    40         19
    41         61
    42         40
    43         33
    45        232
    46         28
    47         16
    50         39
    51         55
    52         33
    53         88
    54         32
    55         28
    57         24
    58         80
    59        125
    60         23
    68         16
    69         62
    70         22
    71        709
    72         71
    73         37
    80         16
    84         13
    85        234
    86        238
    87         25
    88         13
    98         93
    99         10
   112        125
   113        999
   114         73
   115         44