##TITLE=Library Entry 28825
##JCAMP-DX=Revision 4.10 
##DATA TYPE=MASS SPECTRUM
##SAMPLE DESCRIPTION=TNO Volatile Compounds in Food - Chemical Concepts
##NAMES=HP
##CAS NAME=Thiazole, 2-methyl-
##MOLFORM=C4H5NS
##CAS REGISTRY NO=3581-87-1
##MP= -300
##BP= -300
##MW= 99
##$RETENTION INDEX=815
##$CONDENSED SPECTRUM=NO
##NPOINTS= 41
##XYDATA=(XY..XY) 1 
    24          2
    25          8
    26         50
    27         40
    28         52
    29          2
    33          5
    34          4
    36          2
    37          8
    38         15
    39          6
    40         15
    41         22
    42         53
    43          5
    44          8
    45         63
    46         12
    47          9
    49          4
    51          4
    52         13
    54         26
    55          1
    56          2
    57        124
    58        999
    59         64
    60         45
    61          3
    64          3
    68          3
    70          8
    73          3
    83          2
    84          5
    95          1
    98         10
    99        786
   101         25