##TITLE=Library Entry 97482
##JCAMP-DX=Revision 4.10 
##DATA TYPE=MASS SPECTRUM
##SAMPLE DESCRIPTION=CBDCOM/ERDEC, Edgewood, MD
##NAMES=HP
##CAS NAME=Phosphonous dichloride, (trichloromethyl)-
##MOLFORM=CCl5P
##CAS REGISTRY NO=3582-11-4
##MP= -300
##BP= -300
##MW= 218
##$RETENTION INDEX=0
##$CONDENSED SPECTRUM=NO
##NPOINTS= 46
##XYDATA=(XY..XY) 1 
    31        119
    35        199
    37         49
    43         99
    47        299
    49         89
    62          9
    63         79
    65          6
    68         79
    70          1
    78        249
    80         99
    82        199
    84        129
    85         24
    86         14
    87          6
   101        649
   103        399
   105         79
   113         79
   115         79
   117        999
   119        899
   121        349
   123         39
   136         14
   138         14
   140          6
   148         79
   150         69
   152         29
   154          2
   166          2
   183        359
   185        499
   187        219
   189         49
   199          2
   201          6
   203          2
   218         39
   220         59
   222         38
   224         12