##TITLE=Library Entry 62942
##JCAMP-DX=Revision 4.10 
##DATA TYPE=MASS SPECTRUM
##SAMPLE DESCRIPTION=A.A.Kutin, Moscow, Russia
##NAMES=HP
##CAS NAME=Benzoic acid, 5-chloro-2-(1-oxo-2-phenylethylamino)-
##MOLFORM=C15H12ClNO3
##CAS REGISTRY NO=35834-16-3
##MP= -300
##BP= -300
##MW= 289
##$RETENTION INDEX=0
##$CONDENSED SPECTRUM=NO
##NPOINTS= 196
##XYDATA=(XY..XY) 1 
    33          0
    34          0
    35          2
    36         13
    37          9
    38         31
    39        130
    40         25
    41         39
    42          7
    43         12
    44         23
    45         16
    46          2
    47          1
    48          0
    49          8
    50         26
    51         65
    52         30
    53         16
    54          8
    55          7
    56          2
    57          3
    58          0
    59          0
    60          2
    61         10
    62         38
    63        119
    64         40
    65        263
    66         15
    67          3
    68          1
    69          4
    70          2
    71          3
    72          3
    73         27
    74         13
    75         25
    76         10
    77         14
    78         11
    79          6
    80          4
    81          3
    82          1
    83          5
    84          3
    85          3
    86          3
    87          6
    88         11
    89         83
    90        174
    91        999
    92        194
    93         12
    94          1
    95          1
    97          7
    98         11
    99         37
   100          6
   101         12
   102          3
   103          2
   104          3
   105          3
   106         13
   107          3
   108          4
   109          5
   110          3
   111          4
   112          2
   113          2
   114          2
   115          2
   116          3
   118        316
   119         31
   120          4
   121          5
   122          3
   124        119
   125         29
   126         71
   127         17
   128         13
   129          3
   130          0
   131          0
   132          0
   133          0
   134          2
   135          4
   136          6
   137         12
   138          2
   139          1
   140          1
   141          0
   142          0
   143          0
   145          6
   146         14
   147          1
   148          1
   149          2
   150          1
   151          5
   153        229
   154         23
   155         71
   156          6
   157          0
   159          0
   160          0
   161          0
   162          0
   163          2
   164          5
   165          2
   166          7
   167          2
   168          3
   169          6
   171        639
   173        243
   174         12
   175          2
   176          0
   177          1
   178          5
   180        264
   181         23
   182         77
   183          7
   184          0
   185          0
   187          0
   189          0
   191          0
   193          0
   194          0
   195          0
   197         17
   198         49
   199         10
   200         15
   201          2
   202          0
   203          0
   206          0
   207          0
   208          1
   209          0
   210          1
   211          0
   213          0
   214          2
   215          0
   216          1
   217          0
   221          0
   225          0
   229          0
   236          1
   237          0
   242          2
   243          0
   244          1
   245          0
   246          0
   254          1
   255          6
   256          0
   260          0
   268          0
   270          1
   271          4
   272          2
   273          1
   274          0
   285          0
   286          2
   289        201
   290         31
   291         64
   292         10
   293          1
   297          0