##TITLE=Library Entry 17300
##JCAMP-DX=Revision 4.10 
##DATA TYPE=MASS SPECTRUM
##SAMPLE DESCRIPTION=Chemical Concepts
##NAMES=HP
##CAS NAME=Bicyclo[3.1.1]hept-2-ene-2-ethanol, 6,6-dimethyl-, (1R)-
##MOLFORM=C11H18O
##CAS REGISTRY NO=35836-73-8
##MP= -300
##BP= -300
##MW= 166
##$RETENTION INDEX=0
##$CONDENSED SPECTRUM=NO
##NPOINTS= 95
##XYDATA=(XY..XY) 1 
    26          4
    27        148
    28         11
    29         88
    30          1
    31          9
    38          5
    39        175
    40         26
    41        275
    42         17
    43        349
    44         10
    45        999
    46         21
    47          1
    50         12
    51         51
    52         24
    53         91
    54         16
    55         78
    56          8
    57          8
    58          3
    59         32
    60          2
    62          3
    63         16
    64          5
    65         57
    66         31
    67        124
    68         22
    69         58
    70         10
    71         10
    73          2
    75          3
    76          3
    77        136
    78         77
    79        396
    80         51
    81         71
    82         21
    83         18
    84         19
    85         76
    86          5
    89          3
    90          1
    91        167
    92         28
    93        115
    94         22
    95         45
    96          7
    97         22
    98          3
   102          2
   103         20
   104         11
   105        228
   106         40
   107        283
   108         49
   109         22
   110         10
   111          2
   112          3
   115          8
   116          4
   117         14
   118          3
   119         24
   120          7
   121         24
   122         57
   123         54
   124          7
   125          4
   128          1
   131          3
   133         57
   134          9
   135          3
   137          2
   138          1
   148         10
   149          6
   151          7
   152          1
   166         76
   167         10