##TITLE=Library Entry 9508
##JCAMP-DX=Revision 4.10 
##DATA TYPE=MASS SPECTRUM
##SAMPLE DESCRIPTION=NIST Mass Spectrometry Data Center, 1998.
##NAMES=HP
##CAS NAME=Z-8-Tetradecen-1-yl acetate
##MOLFORM=C16H30O2
##CAS REGISTRY NO=35835-80-4
##MP= -300
##BP= -300
##MW= 254
##$RETENTION INDEX=1796
##$CONDENSED SPECTRUM=NO
##NPOINTS= 117
##XYDATA=(XY..XY) 1 
    14          1
    15         11
    26          3
    27         60
    28         16
    29        145
    30          4
    31          7
    37          1
    38          2
    39        120
    40         23
    41        595
    42        122
    43        999
    44         29
    45          8
    50          2
    51          9
    52          8
    53        102
    54        551
    55        928
    56        168
    57        115
    58          9
    59          3
    60          2
    61        102
    62          3
    63          2
    64          1
    65         35
    66         81
    67        914
    68        505
    69        492
    70         82
    71         36
    72          4
    73         33
    74          1
    77         32
    78          8
    79        113
    80         71
    81        954
    82        944
    83        277
    84         33
    85         12
    86          3
    87          3
    91         18
    92          3
    93         31
    94         30
    95        658
    96        752
    97        164
    98         19
    99          4
   100          2
   101          3
   102          1
   103          1
   105          3
   106          1
   107         10
   108         14
   109        333
   110        359
   111         60
   112         15
   113          3
   114          2
   115          1
   116          1
   121          6
   122         10
   123        149
   124        148
   125         21
   126          5
   127          2
   128          3
   129          1
   135          2
   136          6
   137         83
   138         86
   139         11
   140          1
   141          1
   142          4
   143          1
   149          1
   150          1
   151         27
   152         24
   153          5
   154          1
   155          1
   156          1
   164          1
   165         12
   166         36
   167          6
   168          1
   169          1
   179          2
   181          1
   183          1
   194        172
   195         26
   196          2
   211          2