##TITLE=Library Entry 84051
##JCAMP-DX=Revision 4.10 
##DATA TYPE=MASS SPECTRUM
##SAMPLE DESCRIPTION=Chemical Concepts
##NAMES=HP
##CAS NAME=Tetrafluorovinylphosphorane
##MOLFORM=C2H3F4P
##CAS REGISTRY NO=3583-99-1
##MP= -300
##BP= -300
##MW= 134
##$RETENTION INDEX=0
##$CONDENSED SPECTRUM=NO
##NPOINTS= 9
##XYDATA=(XY..XY) 1 
    50         21
    69        156
    88         50
   107        999
   113         37
   114         14
   115        163
   133          3
   134          7