##TITLE=Library Entry 58487
##JCAMP-DX=Revision 4.10 
##DATA TYPE=MASS SPECTRUM
##SAMPLE DESCRIPTION=Exported from NIST MS Search
##NAMES=HP
##CAS NAME=1,2-Digermacyclopentane, 1,1,2,2-tetramethyl-
##MOLFORM=C7H18Ge2
##CAS REGISTRY NO=35839-71-5
##MP= -300
##BP= -300
##MW= 250
##$RETENTION INDEX=0
##$CONDENSED SPECTRUM=NO
##NPOINTS= 113
##XYDATA=(XY..XY) 1 
    15         31
    39         59
    41         41
    44        174
    70         11
    71         65
    72         41
    73        107
    74         85
    75        123
    76         16
    77         27
    84         19
    85        467
    87        656
    88        222
    89        999
    90         27
    91        200
    97         24
    99         44
   100         54
   101        162
   102         79
   103        201
   104        137
   105        203
   106         17
   107         44
   112        130
   113        126
   114        147
   115         65
   116        541
   117        516
   118        192
   119        638
   120         33
   121        151
   127         16
   129         22
   131         13
   141         38
   142         13
   143         52
   145         71
   146         30
   147         24
   148         22
   149         13
   152         11
   154         35
   156         85
   157         41
   158        109
   159         50
   161        105
   162         27
   163         61
   164         11
   165         16
   168         11
   171         27
   172         17
   173         49
   174         30
   175         52
   176         30
   177         44
   187        189
   188         72
   189        236
   190         85
   191        407
   192        120
   193        302
   194         38
   195        104
   199         13
   200         16
   201         59
   202         52
   203        145
   204        126
   205        217
   206        140
   207        206
   208        107
   209        119
   210         31
   211         35
   216         13
   217         16
   218         38
   219         20
   220         27
   222         23
   229        123
   230         38
   231        256
   232         68
   233        269
   234         85
   235        214
   237         71
   244         79
   245         44
   246        167
   247         68
   248        178
   249         79
   250        134
   252         49