##TITLE=Library Entry 60524
##JCAMP-DX=Revision 4.10 
##DATA TYPE=MASS SPECTRUM
##SAMPLE DESCRIPTION=Japan AIST/NIMC Database- Spectrum MS-IW-6486
##NAMES=HP
##CAS NAME=4-Benzyloxy-3-methoxy-2-nitrobenzoic acid
##MOLFORM=C15H13NO6
##CAS REGISTRY NO=3584-32-5
##MP= -300
##BP= -300
##MW= 303
##$RETENTION INDEX=0
##$CONDENSED SPECTRUM=NO
##NPOINTS= 53
##XYDATA=(XY..XY) 1 
    17          3
    27          1
    28          3
    29          1
    30          2
    38          1
    39         14
    40          1
    41          4
    44          8
    45          1
    50          5
    51         11
    52          3
    53          4
    55          1
    62          3
    63          8
    64          3
    65         51
    66          3
    67          2
    69          2
    75          1
    76          1
    77          5
    78          6
    79          7
    80          1
    81          1
    89          9
    90          6
    91        999
    92         83
    93          3
    95          2
   104          2
   105          1
   106          2
   107          1
   109          1
   115          1
   123          3
   137          1
   139          2
   151          2
   152          1
   165          1
   212          1
   259          1
   273          5
   303         15
   304          2