##TITLE=Library Entry 85089
##JCAMP-DX=Revision 4.10 
##DATA TYPE=MASS SPECTRUM
##SAMPLE DESCRIPTION=R. J. SOOTHILL
##NAMES=HP
##CAS NAME=Ethanol, 2-[(4-methoxyphenyl)sulfonyl]-
##MOLFORM=C9H12O4S
##CAS REGISTRY NO=35848-00-1
##MP= -300
##BP= -300
##MW= 216
##$RETENTION INDEX=0
##$CONDENSED SPECTRUM=NO
##NPOINTS= 18
##XYDATA=(XY..XY) 1 
    63        135
    64        159
    77        353
    78         77
    92        288
    93         35
    95         47
   107        400
   108        999
   109         97
   123        347
   124         41
   155        224
   156         20
   171        330
   172         56
   188        118
   216        153