##TITLE=Library Entry 64341
##JCAMP-DX=Revision 4.10 
##DATA TYPE=MASS SPECTRUM
##SAMPLE DESCRIPTION=Japan AIST/NIMC Database- Spectrum MS-IW-2237
##NAMES=HP
##CAS NAME=3-(4-Benzyloxy-3-methoxy-2-nitrobenzoyl)-perhydro-2-oxofuran
##MOLFORM=C19H17NO7
##CAS REGISTRY NO=3584-51-8
##MP= -300
##BP= -300
##MW= 371
##$RETENTION INDEX=0
##$CONDENSED SPECTRUM=NO
##NPOINTS= 172
##XYDATA=(XY..XY) 1 
    15          2
    16          1
    26          1
    27          4
    28         10
    29          7
    30          4
    31          1
    38          3
    39         18
    40          2
    41          9
    42          2
    43          4
    44         25
    45          1
    50          5
    51         10
    52          6
    53          4
    54          2
    55          5
    57          1
    62          3
    63          9
    64          6
    65         56
    66          8
    67          3
    68          2
    69          3
    75          2
    76          3
    77          8
    78          9
    79          6
    80          5
    81          2
    82          1
    83          2
    89          9
    90          7
    91        999
    92         82
    93         11
    94          4
    95          2
   100          1
   103          1
   104          2
   105          7
   106          9
   107          4
   108          6
   109          2
   111          1
   115          2
   116          1
   117          1
   118          1
   119          3
   120          4
   121          3
   122          4
   123          2
   129          1
   131          1
   133          1
   134          2
   135          3
   136         16
   137          5
   138          1
   139          2
   141          1
   146          1
   147          1
   148          2
   149          2
   150          3
   151          2
   152          2
   153          1
   154          5
   161          1
   162          3
   163          2
   164          8
   165          3
   166          1
   167          1
   168          2
   169          4
   175          1
   176          3
   177          1
   178          2
   179          1
   180          1
   181          1
   182          1
   183          2
   184          1
   189          1
   190          4
   191          2
   192          1
   195          1
   196          2
   197          1
   202          1
   203          1
   204          2
   205          1
   206          3
   207          1
   210          1
   211          1
   212          2
   214          1
   218          4
   219          1
   220          2
   221          1
   222          1
   225          1
   226          1
   227          2
   228          2
   229          3
   233          1
   235          1
   236          2
   237          1
   240          4
   241          1
   249          1
   252          1
   254          1
   255          1
   256          1
   258          3
   259          1
   263          2
   264          1
   266          2
   267          1
   269          1
   270          1
   271          3
   272          1
   273        108
   274         18
   275          2
   278          2
   280          2
   281         15
   282          3
   283          2
   286          1
   293          2
   295          1
   297          4
   298          1
   309          6
   310          2
   311          1
   325          4
   327          1
   339          4
   371          6
   372          1