##TITLE=Library Entry 55125
##JCAMP-DX=Revision 4.10 
##DATA TYPE=MASS SPECTRUM
##SAMPLE DESCRIPTION=V.G.Zaikin, TIPS, Russian Acad. Sci.
##NAMES=HP
##CAS NAME=1-Methyl-1-isopropyl-1-silacyclobutane
##MOLFORM=C7H16Si
##CAS REGISTRY NO=35847-23-5
##MP= -300
##BP= -300
##MW= 128
##$RETENTION INDEX=0
##$CONDENSED SPECTRUM=NO
##NPOINTS= 16
##XYDATA=(XY..XY) 1 
    58        540
    59        640
    60         70
    71         60
    72        920
    73         90
    85        999
    86        140
    87         80
   100        830
   101         90
   102         30
   128        510
   129         65
   130         20
   131          1