##TITLE=Library Entry 29013
##JCAMP-DX=Revision 4.10 
##DATA TYPE=MASS SPECTRUM
##SAMPLE DESCRIPTION=OGDEN BioServices Corp., NCI, Rockville, MD 20852
##NAMES=HP
##CAS NAME=Maytansine
##MOLFORM=C34H46ClN3O10
##CAS REGISTRY NO=35846-53-8
##MP= -300
##BP= -300
##MW= 691
##$RETENTION INDEX=0
##$CONDENSED SPECTRUM=NO
##NPOINTS= 233
##XYDATA=(XY..XY) 1 
    41         79
    42         94
    43        335
    44        261
    45         58
    49         13
    51         11
    53         35
    54         20
    55        107
    56        100
    57         91
    58        999
    59         36
    61         13
    65         11
    66          7
    67         37
    68         14
    69         56
    70         19
    71         70
    72          8
    73         16
    77         19
    78          9
    79         26
    80         10
    81         40
    82         26
    83         46
    84         25
    85         34
    86         18
    91         27
    92         10
    93         20
    94         13
    95         67
    96         18
    97         35
    98         12
    99         35
   100        466
   101         44
   102         14
   104         37
   105         15
   106          8
   107         13
   108          9
   109         41
   110         24
   111         99
   112         14
   113          9
   115         11
   116          6
   117          9
   118          7
   119         14
   120         10
   121         16
   122         10
   123         17
   124         10
   125         13
   126          7
   127         27
   128        619
   129         47
   130         10
   131          9
   132          7
   133          9
   134          8
   135         12
   136         11
   137         13
   138          7
   139         11
   141         13
   142         12
   143         10
   144         14
   145         18
   146         19
   147         12
   148         10
   149         20
   150         12
   151         10
   152          5
   153         13
   154         10
   155         11
   156          7
   157          9
   158         11
   159         11
   160         14
   161         10
   162         11
   163         20
   164          8
   165         14
   166          5
   167         11
   168          9
   169         11
   170         11
   171         14
   172         15
   173         10
   174         22
   175         11
   176         10
   177          9
   178          8
   179          8
   180          8
   181         10
   182         14
   183         13
   184         29
   185         19
   186         17
   187         16
   188         17
   189         13
   190         17
   191         17
   192          8
   193          5
   194          8
   195          5
   196         17
   197         11
   198         15
   199          9
   200         11
   201         21
   202         20
   203         10
   204          8
   205          8
   206          8
   207          8
   208         12
   209          9
   210         13
   211         14
   212         19
   213         16
   214         16
   215          9
   216          7
   217          4
   218          9
   219          9
   220          4
   221         11
   222         14
   223          9
   224         16
   225         11
   226         17
   227         21
   228         16
   229          8
   230          9
   231          8
   232          9
   233          8
   234         11
   235         11
   236         43
   237         12
   238         22
   239          9
   240          9
   241          6
   242         10
   244          6
   245          8
   246         10
   247         10
   248         15
   249          8
   250         13
   251          7
   252         11
   253          9
   254         11
   258          6
   259          7
   260         14
   261          8
   262         28
   263         10
   264         16
   265          9
   266          8
   268          8
   272          6
   274          5
   276          7
   278         12
   280         16
   281          6
   282          9
   288          8
   290          5
   292          5
   294          9
   296          8
   298          4
   306          6
   360         23
   362         10
   365          6
   374          7
   388          4
   469          9
   470         10
   485          7
   531         21
   532          4
   533          6
   546          7
   547          6
   629          6
   691          4