##TITLE=Library Entry 55189
##JCAMP-DX=Revision 4.10 
##DATA TYPE=MASS SPECTRUM
##SAMPLE DESCRIPTION=Japan AIST/NIMC Database- Spectrum MS-IW-3574
##NAMES=HP
##CAS NAME=4-Methylpentyl pentanoate  #
##MOLFORM=C11H22O2
##CAS REGISTRY NO=35852-47-2
##MP= -300
##BP= -300
##MW= 186
##$RETENTION INDEX=0
##$CONDENSED SPECTRUM=NO
##NPOINTS= 62
##XYDATA=(XY..XY) 1 
    15          2
    26          3
    27         72
    28         28
    29        145
    30          4
    31          9
    38          1
    39         47
    40          8
    41        205
    42         74
    43        324
    44         11
    45         12
    50          1
    51          2
    52          1
    53          9
    54          6
    55        113
    56        438
    57        423
    58         19
    59          9
    60         87
    61         13
    67          5
    68          2
    69        123
    70         19
    71         33
    72         18
    73         43
    74         13
    75          6
    82          2
    83         22
    84        476
    85        999
    86         64
    87         24
    88          2
    99          9
   100          2
   101          9
   102         41
   103        116
   104          7
   111          1
   114         51
   115         32
   116          4
   117          2
   126          1
   127          1
   128          1
   129          7
   143          4
   144         10
   145          1
   157          1