##TITLE=Library Entry 60163
##JCAMP-DX=Revision 4.10 
##DATA TYPE=MASS SPECTRUM
##SAMPLE DESCRIPTION=Exported from NIST MS Search
##NAMES=HP
##CAS NAME=Benzenamine, N-[(4-methoxyphenyl)methylene]-, N-oxide
##MOLFORM=C14H13NO2
##CAS REGISTRY NO=3585-93-1
##MP= -300
##BP= -300
##MW= 227
##$RETENTION INDEX=0
##$CONDENSED SPECTRUM=NO
##NPOINTS= 84
##XYDATA=(XY..XY) 1 
    38         30
    39        143
    40         33
    41         67
    50         97
    51        335
    52         64
    53         30
    54          9
    55         27
    62         36
    63         91
    64        283
    65        125
    66         45
    67         12
    74         24
    75         27
    76         54
    77        460
    78        125
    79         30
    80          9
    81         27
    89         27
    90         33
    91        999
    92        143
    93         30
    94         42
    95          9
    96          9
   102         21
   103         27
   104         33
   105         30
   106          9
   107         70
   108         33
   109         15
   115          9
   119         15
   120          6
   121          6
   124         15
   128         15
   129         15
   133          9
   134         30
   135        277
   136         51
   137          6
   139         30
   140          6
   141          6
   150          6
   151          9
   152          9
   153         12
   154         24
   155         12
   156         15
   165         21
   166         30
   167         67
   168         39
   169         21
   180         12
   183         39
   184        121
   185         24
   194         12
   195         15
   196         27
   197          9
   198        149
   199         73
   210        125
   211         91
   212         21
   225          9
   226        182
   227        304
   228         54