##TITLE=Library Entry 10174
##JCAMP-DX=Revision 4.10 
##DATA TYPE=MASS SPECTRUM
##SAMPLE DESCRIPTION=NIST Mass Spectrometry Data Center
##NAMES=HP
##CAS NAME=Propanoic acid, 2-methyl-, 4-methylpentyl ester
##MOLFORM=C10H20O2
##CAS REGISTRY NO=35852-44-9
##MP= -300
##BP= -300
##MW= 172
##$RETENTION INDEX=1110
##$CONDENSED SPECTRUM=NO
##NPOINTS= 61
##XYDATA=(XY..XY) 1 
    26          3
    27         63
    28         13
    29         35
    30          1
    31          4
    37          1
    38          4
    39         86
    40         18
    41        322
    42        115
    43        999
    44         33
    45          7
    50          1
    51          3
    52          1
    53         15
    54          6
    55        109
    56        521
    57        114
    58          6
    59          4
    61          1
    65          2
    66          1
    67         15
    68          9
    69        361
    70         32
    71        663
    72         29
    73         17
    74          2
    81          5
    82          1
    83         71
    84        482
    85         98
    86         12
    87          6
    88         23
    89        758
    90         33
    91          2
    99         10
   100          6
   101         41
   102          2
   111          1
   115          5
   121          1
   129         87
   130          7
   139          9
   142          1
   143          1
   144          1
   154          1