##TITLE=Library Entry 45160
##JCAMP-DX=Revision 4.10 
##DATA TYPE=MASS SPECTRUM
##SAMPLE DESCRIPTION=J. SHAW, BORRISTON RESEARCH, ROCKVILLE, MD, USA
##NAMES=HP
##CAS NAME=Tetrasul sulfoxide
##MOLFORM=C12H6Cl4OS
##CAS REGISTRY NO=35850-29-4
##MP= -300
##BP= -300
##MW= 338
##$RETENTION INDEX=2431
##$CONDENSED SPECTRUM=NO
##NPOINTS= 214
##XYDATA=(XY..XY) 1 
    12          7
    13          1
    14          2
    15          4
    16         10
    17         22
    18         66
    26         30
    27         57
    28         30
    29         12
    30          6
    32         19
    33          1
    35         64
    36         79
    37        126
    38        147
    39        146
    40          5
    41          3
    42          2
    45        242
    47         47
    48        145
    50        984
    51        380
    52         30
    53         16
    54          5
    55          4
    57         30
    58         27
    61        196
    62        172
    63        271
    64         41
    65         14
    66          2
    67          3
    69        255
    70         37
    71         44
    73        444
    74        777
    75        999
    76        219
    77         52
    79        193
    81        103
    82         59
    84        195
    85        176
    86         76
    87        116
    88         10
    89         25
    90          6
    91         14
    92         16
    93         47
    94         21
    95         75
    96         77
    97        101
    99        587
   101        174
   103         37
   105         59
   106         52
   108        646
   109        250
   111        578
   112         62
   113        141
   114         19
   115         47
   116         13
   117         19
   118         19
   119         17
   120         14
   121         14
   122          8
   123         15
   124         21
   125         18
   127        978
   128         88
   129        367
   131        313
   132         27
   133         96
   134          8
   135          7
   136          3
   137         11
   138          6
   139          5
   140         11
   141         34
   143        852
   144        142
   145        311
   146         75
   147         35
   148         12
   149         10
   150         17
   151          2
   153          1
   155          9
   156          2
   157          9
   159        487
   161        197
   162         12
   163         14
   164         14
   165          6
   166         13
   167         36
   169         41
   170          6
   171         14
   172          5
   173         10
   176        147
   178        101
   179         49
   180         27
   181         47
   182         19
   183         17
   184         13
   185         11
   186          4
   187          3
   190          1
   191          1
   192          2
   193          2
   195         27
   197         27
   199         29
   201         22
   203          8
   205         14
   206          3
   207          9
   209          5
   211         97
   213        101
   215         41
   216         17
   217         12
   218          6
   220         46
   222         32
   223          4
   224          6
   225          1
   227         29
   229         27
   231         11
   233          3
   239          5
   240          5
   241          4
   242          3
   243          2
   250          3
   252         43
   254         38
   255          5
   256          9
   257          2
   258          1
   268          8
   269          2
   270          5
   271          1
   272          1
   275          3
   277          3
   279          1
   286         14
   288         16
   290        110
   292        138
   294         71
   295          7
   296         12
   297          1
   298          1
   302          3
   303         10
   304          5
   305         10
   306          2
   307          3
   322         38
   324         53
   326         28
   327          3
   328          5
   338         82
   340        124
   341         23
   342         50
   343         11
   344         12
   345          2
   346          1