##TITLE=Library Entry 11443
##JCAMP-DX=Revision 4.10 
##DATA TYPE=MASS SPECTRUM
##SAMPLE DESCRIPTION=NIST Mass Spectrometry Data Center
##NAMES=HP
##CAS NAME=4-Methylpentyl 4-methylpentanoate
##MOLFORM=C12H24O2
##CAS REGISTRY NO=35852-42-7
##MP= -300
##BP= -300
##MW= 200
##$RETENTION INDEX=1315
##$CONDENSED SPECTRUM=NO
##NPOINTS= 52
##XYDATA=(XY..XY) 1 
    16         10
    27         47
    28        145
    29         75
    35          8
    36         11
    39         71
    40         96
    41        397
    42        122
    43        999
    44         47
    45         16
    52         13
    53         37
    54         10
    55        246
    56        818
    57        149
    58         16
    59         18
    60         24
    65         11
    67         46
    69        480
    70         32
    71        158
    72          8
    73        111
    74         21
    75         17
    81        412
    82         43
    83        186
    84        736
    85        331
    86         41
    87         19
    94          8
    96         25
    97         28
    99        454
   100         41
   101        141
   102         25
   115         61
   116         78
   117        947
   118         49
   129         16
   144         19
   157         48