##TITLE=Library Entry 76369
##JCAMP-DX=Revision 4.10 
##DATA TYPE=MASS SPECTRUM
##SAMPLE DESCRIPTION=NIST Mass Spectrometry Data Center
##NAMES=HP
##CAS NAME=4-Methylpentyl 2-methylbutanoate
##MOLFORM=C11H22O2
##CAS REGISTRY NO=35852-40-5
##MP= -300
##BP= -300
##MW= 186
##$RETENTION INDEX=1201
##$CONDENSED SPECTRUM=NO
##NPOINTS= 65
##XYDATA=(XY..XY) 1 
    26          2
    27         48
    28         20
    29        117
    30          4
    31          5
    37          1
    38          3
    39         88
    40         19
    41        404
    42         97
    43        623
    44         24
    45          9
    47          6
    50          1
    51          6
    52          3
    53         20
    54          7
    55        137
    56        605
    57        912
    58         42
    59          9
    61          4
    65          2
    66          1
    68          8
    69        368
    70         25
    71         10
    72          9
    73         13
    74         72
    75         27
    76          1
    81          6
    83         53
    84        602
    85        687
    86         38
    87         35
    88          2
    91          1
    99          6
   100          7
   101         17
   102         27
   103        999
   104         52
   105          5
   113          1
   114          1
   115          8
   116          1
   129         10
   130         14
   131          1
   132          1
   143         46
   144          3
   158         14
   159          1