##TITLE=Library Entry 17128
##JCAMP-DX=Revision 4.10 
##DATA TYPE=MASS SPECTRUM
##SAMPLE DESCRIPTION=Div. of Experiment Therapeutics WRAIR, WRAMC, Washingto
n DC 20307
##NAMES=HP
##CAS NAME=N,N'-Heptamethylene-bis[s-2-aminoethyl thiosulfuric acid]
##MOLFORM=C11H26N2O6S4
##CAS REGISTRY NO=35873-85-9
##MP= -300
##BP= -300
##MW= 410
##$RETENTION INDEX=0
##$CONDENSED SPECTRUM=NO
##NPOINTS= 100
##XYDATA=(XY..XY) 1 
    41        844
    42        666
    43        465
    44        857
    45        999
    46        279
    47        231
    48        253
    50         18
    51         47
    52         47
    53         84
    54        208
    55        668
    56        866
    57        411
    58        457
    59        868
    60        872
    61        653
    62         62
    63         39
    64        420
    65         57
    66         51
    67        143
    68        150
    69        202
    70        273
    71         79
    72         80
    73         53
    76         49
    77         62
    78         88
    79         55
    80         52
    81         44
    82        151
    83        142
    84        301
    85         63
    86        177
    87        203
    88        241
    89         44
    90        127
    93         46
    94         70
    95        106
    96        203
    97        184
    98        162
    99         35
   100         90
   101        185
   102        141
   103         98
   104         41
   105         28
   108         17
   110        174
   111        147
   112        538
   113        116
   114        340
   115         51
   116        144
   124        248
   125         51
   126        357
   127        106
   128        122
   129         52
   130         19
   131         59
   133         19
   136         20
   138         65
   139         61
   140        104
   141         55
   142        165
   143        298
   144         63
   155         42
   156         51
   157         52
   158         36
   169        115
   170         79
   171         21
   172         66
   183        140
   191         40
   201         19
   203         38
   215         70
   217         83
   243         20