##TITLE=Library Entry 57682
##JCAMP-DX=Revision 4.10 
##DATA TYPE=MASS SPECTRUM
##SAMPLE DESCRIPTION=Div. of Experiment Therapeutics WRAIR, WRAMC, Washingto
n DC 20307
##NAMES=HP
##CAS NAME=3,3'-[trans-1,4-Cyclohexylene]bis-2-oxazolidione
##MOLFORM=C12H18N2O4
##CAS REGISTRY NO=35873-79-1
##MP= -300
##BP= -300
##MW= 254
##$RETENTION INDEX=0
##$CONDENSED SPECTRUM=NO
##NPOINTS= 83
##XYDATA=(XY..XY) 1 
    41        529
    42        367
    44        319
    50          1
    51         21
    53         97
    54        771
    55        209
    56        139
    57         43
    58          4
    60          5
    62         12
    63          1
    65         26
    67         83
    68        230
    69        273
    70         53
    71         16
    72          1
    74          5
    77         59
    79        157
    80        301
    81        157
    82        109
    84        157
    85          6
    86          7
    88        999
    89         25
    90          1
    91         10
    94         52
    95        314
    96         34
    97         17
    98          2
   100         42
   101          6
   105          1
   106         13
   108         65
   109         48
   110         11
   112          2
   113        368
   114         35
   115          4
   120          1
   121         43
   123        253
   124         25
   126         88
   128        166
   129          9
   136          1
   138          6
   139        263
   141          6
   150          1
   152        158
   153          4
   154          5
   164          6
   166          9
   167        259
   168         45
   169          1
   181          1
   195          3
   196          3
   208          1
   209         12
   210         14
   211          1
   224          1
   225          1
   253         10
   254        159
   255         21
   256          4