##TITLE=Library Entry 5524
##JCAMP-DX=Revision 4.10 
##DATA TYPE=MASS SPECTRUM
##SAMPLE DESCRIPTION=Exported from NIST MS Search
##NAMES=HP
##CAS NAME=1,3-Dioxane, 5-bromo-2-methyl-, trans-
##MOLFORM=C5H9BrO2
##CAS REGISTRY NO=35878-05-8
##MP= -300
##BP= -300
##MW= 180
##$RETENTION INDEX=0
##$CONDENSED SPECTRUM=NO
##NPOINTS= 29
##XYDATA=(XY..XY) 1 
    14         26
    26         71
    27        477
    28        116
    29        301
    31        114
    39         80
    41         42
    42         37
    43        999
    44         50
    45        169
    55         27
    57        169
    71        145
   106        241
   107         39
   108        241
   109         38
   119         21
   121         22
   136         48
   138         38
   150         34
   152         32
   165        410
   167        396
   179         65
   181         67