##TITLE=Library Entry 15668
##JCAMP-DX=Revision 4.10 
##DATA TYPE=MASS SPECTRUM
##SAMPLE DESCRIPTION=Div. of Experiment Therapeutics WRAIR, WRAMC, Washingto
n DC 20307
##NAMES=HP
##CAS NAME=N,N'-Octamethylenebis[s-3-aminopropyl thiosulfuric acid
##MOLFORM=C14H32N2O6S4
##CAS REGISTRY NO=35871-57-9
##MP= -300
##BP= -300
##MW= 452
##$RETENTION INDEX=0
##$CONDENSED SPECTRUM=NO
##NPOINTS= 229
##XYDATA=(XY..XY) 1 
    41        619
    42        343
    43        445
    44        999
    45        179
    46         67
    47        113
    48        414
    49          3
    50         31
    51         14
    52         23
    53         33
    54         13
    55        303
    56        458
    57        154
    58        175
    59         36
    60         53
    61        128
    62         24
    64        958
    65         59
    66         53
    67         61
    68         32
    69         94
    70        361
    71         58
    72        119
    73        128
    74         64
    75        113
    76         19
    77         17
    78         22
    79         39
    80         23
    81         31
    82         48
    83         24
    84        149
    85         32
    86         49
    87         20
    88          5
    89         76
    90        101
    91        134
    92         51
    93         42
    94         18
    95          8
    96         59
    97         15
    98         76
   100         38
   101         12
   102        370
   104        627
   106        182
   107         24
   108         14
   109          7
   110         45
   111         20
   112         52
   114         36
   115         19
   116        286
   117         17
   118        130
   119         10
   120         10
   121          9
   122         12
   124         73
   126        133
   128        110
   130        113
   132         47
   133         16
   134         11
   135         11
   136         14
   137          2
   138         70
   140         89
   142         75
   144         70
   145         14
   146         19
   147          1
   148         11
   149          8
   150         13
   151          2
   152         39
   153         11
   154         60
   155         22
   157        118
   158         28
   159          4
   160         34
   161         11
   162         15
   163          4
   164         17
   166         50
   167          4
   168         38
   169         29
   170         18
   171         33
   172         19
   174         60
   175         24
   176         10
   177          8
   178          6
   179          9
   180          9
   181         18
   182          5
   183         52
   184         17
   185         13
   186         38
   188         43
   189         15
   191         22
   192          5
   193          5
   194          3
   195         49
   197         92
   198         47
   200         93
   201          5
   202         50
   203         15
   205         52
   206         11
   207          6
   208          2
   209         27
   211         31
   212          9
   213          9
   214         12
   215         87
   216          6
   217         63
   218          6
   219         55
   220          7
   221         28
   223        120
   224         13
   225         27
   227         21
   229         64
   231         63
   232         11
   233         10
   234          6
   235          5
   236          1
   237         20
   239          9
   240          1
   241         14
   242          6
   243         53
   244          2
   245         36
   246          6
   247          5
   248          1
   249          4
   250          0
   251         11
   252          1
   253         13
   255         45
   256          5
   257        204
   258         10
   259         70
   261         31
   262          6
   263          8
   264          3
   265          5
   266          0
   267          6
   268          1
   269         17
   270          2
   271         89
   272         15
   273         11
   274          2
   275          3
   276          4
   277          3
   278          0
   279          2
   281          5
   282          0
   283         17
   284          3
   285         14
   286          1
   287          7
   288         10
   289         27
   290         49
   291         83
   292         20
   293         35
   340          6
   341          2
   372          3
   373          0
   452          2
   453          0