##TITLE=Library Entry 15616
##JCAMP-DX=Revision 4.10 
##DATA TYPE=MASS SPECTRUM
##SAMPLE DESCRIPTION=Div. of Experiment Therapeutics WRAIR, WRAMC, Washingto
n DC 20307
##NAMES=HP
##CAS NAME=Phosphorothioic acid, S-ester with trimethylenediiminodipropaneth
iol (2:1)
##MOLFORM=C9H24N2O6P2S2
##CAS REGISTRY NO=35871-70-6
##MP= -300
##BP= -300
##MW= 382
##$RETENTION INDEX=0
##$CONDENSED SPECTRUM=NO
##NPOINTS= 130
##XYDATA=(XY..XY) 1 
    41        342
    42        322
    43        235
    44        999
    45        219
    46         61
    47        175
    48         30
    49         13
    50         22
    51         14
    52         14
    53         22
    54         34
    55         73
    56        300
    57        162
    58        568
    59         64
    60         15
    61         69
    62         16
    63         40
    64         53
    65         25
    66         15
    67         20
    68         32
    69         33
    70        270
    71        112
    72        128
    73         53
    74         30
    75         67
    76          7
    77         22
    78         11
    79         17
    80         13
    81         36
    82         38
    83         14
    84        143
    85         58
    86         33
    87         32
    88         11
    89         30
    90         47
    91         37
    92         31
    93         13
    94          8
    96         11
    97         73
    98         76
    99         48
   100          8
   101         19
   102        179
   103         11
   104        102
   105         31
   106         43
   107         10
   108          7
   110          8
   111         20
   112         16
   113         13
   114         13
   115         14
   116         50
   117         23
   118         84
   119         12
   120         17
   123          2
   124          5
   125          8
   126         19
   127         12
   128          8
   129         12
   130         39
   131         20
   132         29
   133         10
   134          5
   135          6
   138          5
   139          2
   140          2
   141          2
   142          2
   143         10
   144         10
   145          6
   146          7
   147          7
   148          6
   149         16
   150          2
   153          2
   156          5
   157          6
   158          2
   159         13
   161         13
   162         12
   163         14
   165          2
   166          3
   168         15
   169          2
   173          2
   176          2
   177          7
   187          4
   189         18
   192          2
   197         57
   198          5
   199          3
   213          2
   221          6
   223         11
   233          2
   245          5