##TITLE=Library Entry 71360
##JCAMP-DX=Revision 4.10 
##DATA TYPE=MASS SPECTRUM
##SAMPLE DESCRIPTION=Div. of Experiment Therapeutics WRAIR, WRAMC, Washingto
n DC 20307
##NAMES=HP
##CAS NAME=8-Chloro-6-[2-piperidino-1-hydroxyethyl]-2-phenylquinoline
##MOLFORM=C22H23ClN2O
##CAS REGISTRY NO=35871-85-3
##MP= -300
##BP= -300
##MW= 366
##$RETENTION INDEX=0
##$CONDENSED SPECTRUM=NO
##NPOINTS= 41
##XYDATA=(XY..XY) 1 
    41         31
    42         26
    43          6
    44         13
    55         34
    56          6
    57          1
    68          0
    69         18
    70         17
    75          1
    77          4
    83          1
    96          9
    97          1
    98        999
    99         63
   100          1
   101          6
   102          4
   126          0
   127          1
   128          0
   151          1
   162         10
   164          5
   176          5
   177          0
   201          2
   202          5
   203         12
   204          9
   205          0
   218          0
   237          0
   238          4
   240         10
   242          1
   266          5
   268          0
   269          0