##TITLE=Library Entry 31739
##JCAMP-DX=Revision 4.10 
##DATA TYPE=MASS SPECTRUM
##SAMPLE DESCRIPTION=Div. of Experiment Therapeutics WRAIR, WRAMC, Washingto
n DC 20307
##NAMES=HP
##CAS NAME=N,N'-Nonamethylenebis[-S-3-aminopropyl thiosulfuric acid]
##MOLFORM=C15H34N2O6S4
##CAS REGISTRY NO=35871-58-0
##MP= -300
##BP= -300
##MW= 466
##$RETENTION INDEX=0
##$CONDENSED SPECTRUM=NO
##NPOINTS= 149
##XYDATA=(XY..XY) 1 
    41        177
    42         93
    43        138
    44        288
    45         64
    46         22
    47         25
    48        489
    49          5
    50         33
    51          2
    52          5
    53         11
    54          8
    55         81
    56        129
    57         47
    58         60
    59         18
    60         18
    61         42
    62         12
    64        999
    65        211
    66         43
    67         27
    68         18
    69         33
    70         90
    71         15
    72         42
    73         37
    74         20
    75         29
    76          3
    77          2
    78          5
    79         12
    80          3
    81         15
    82         15
    83         14
    84         36
    86         36
    87          2
    88         14
    89         19
    90         31
    91         32
    92         11
    93         11
    94          2
    95          5
    96         13
    97          4
    98         20
   100          9
   101          8
   102        109
   104        136
   105          3
   106         35
   107          4
   110          8
   112         10
   113          4
   114          6
   115          2
   116         45
   117         20
   118         28
   120          4
   124          4
   126         12
   128         13
   129          4
   130         29
   132          6
   134          2
   135          2
   136          2
   138         15
   140         18
   142         27
   143          6
   144          2
   145          2
   146          4
   150          2
   152         13
   154         19
   155          3
   156          7
   157          9
   158          2
   160          3
   166          5
   168         12
   169          2
   170          3
   171         28
   173          2
   176          2
   180          9
   182          8
   183          7
   185          6
   188          9
   191          2
   195          2
   197         22
   199          2
   200          3
   201          2
   202          6
   203          3
   209          6
   210          2
   211         21
   212          8
   214          8
   215         10
   216          6
   217          2
   223          9
   225          9
   229         17
   231         15
   232          2
   233         10
   235          8
   237         23
   239          6
   241          2
   243         14
   244          4
   245         11
   257         11
   259          5
   269         10
   270          2
   271         42
   273         15
   275          2
   285         12
   303          5
   304          9
   305         13
   336          4