##TITLE=Library Entry 29763
##JCAMP-DX=Revision 4.10 
##DATA TYPE=MASS SPECTRUM
##SAMPLE DESCRIPTION=Exported from NIST MS Search
##NAMES=HP
##CAS NAME=2-Propanol, 1-isopropoxy-2-methyl-
##MOLFORM=C7H16O2
##CAS REGISTRY NO=3587-75-5
##MP= -300
##BP= -300
##MW= 132
##$RETENTION INDEX=0
##$CONDENSED SPECTRUM=NO
##NPOINTS= 57
##XYDATA=(XY..XY) 1 
    14          1
    15         13
    17          2
    18         10
    19          5
    26          3
    27         43
    28         14
    29         32
    30          2
    31         76
    32          2
    33          8
    37          1
    38          2
    39         27
    40          5
    41         79
    42         23
    43        197
    44          8
    45         29
    46          1
    47          1
    49          2
    50          1
    51         22
    52          1
    53          3
    54          1
    55         55
    56          6
    57         72
    58         25
    59        999
    60         34
    61          3
    69          1
    71          4
    72          6
    73        174
    74         10
    75        188
    76          7
    77          1
    89         90
    90          4
    91          1
    94          1
    96          1
   103          1
   104          1
   115          3
   117         31
   118          2
   132          1
   133          1