##TITLE=Library Entry 3142
##JCAMP-DX=Revision 4.10 
##DATA TYPE=MASS SPECTRUM
##SAMPLE DESCRIPTION=Div. of Experiment Therapeutics WRAIR, WRAMC, Washingto
n DC 20307
##NAMES=HP
##CAS NAME=N,N'-Pentamethylenebis[s-3-aminopropyl thiosulfuric acid]
##MOLFORM=C11H26N2O6S4
##CAS REGISTRY NO=35871-54-6
##MP= -300
##BP= -300
##MW= 410
##$RETENTION INDEX=0
##$CONDENSED SPECTRUM=NO
##NPOINTS= 231
##XYDATA=(XY..XY) 1 
    41        999
    42        466
    43        358
    44        706
    45        418
    46        182
    47        236
    48        326
    50         85
    51        125
    52        142
    53         91
    54        110
    55        234
    56        437
    57        172
    58        181
    59        171
    60         75
    61        134
    62         30
    64        937
    65        199
    66        108
    67        130
    68         50
    69        241
    70        247
    71        106
    72        153
    73        213
    74        148
    75        130
    76        149
    77         47
    78        134
    79        166
    80         84
    82        188
    83         65
    84        483
    85         94
    86        148
    87         50
    88         15
    89         60
    90         56
    91        116
    92        173
    93        237
    94         88
    96        205
    97         73
    98        720
   100         59
   101         95
   102        192
   104        308
   106        355
   107        104
   108         51
   110        198
   111        184
   112        108
   113         37
   114         33
   115         88
   116        123
   117         62
   118         99
   119         64
   120         53
   121         45
   122         65
   124        227
   125         91
   126         74
   127         45
   128         48
   129         23
   130        113
   131         14
   132         77
   133         74
   134         53
   135         42
   136         54
   138         94
   139         27
   140         27
   141         25
   142         47
   143         43
   144         94
   145         39
   146         49
   147         30
   148         53
   149         46
   150         37
   151         26
   152         59
   153         39
   154         50
   155         41
   156         78
   157        182
   158        207
   159         59
   160         88
   161         36
   162         33
   163         30
   164         14
   165         32
   166         42
   167         42
   168         37
   169         39
   170         55
   171         42
   172         23
   173         53
   174         34
   175         48
   176         33
   177         37
   178         20
   179         29
   180         30
   181         37
   182         23
   183         53
   184         53
   185         54
   186         37
   187         48
   188         18
   189         55
   190         28
   191         23
   192         30
   193         21
   194         25
   195         27
   196         24
   197         27
   198         21
   199         25
   200         17
   201         42
   202         31
   203         29
   204         28
   205         33
   206         24
   207         25
   208         21
   209         23
   210         19
   211         22
   212         17
   213         30
   214         13
   215         55
   216         20
   217         52
   218         19
   219         28
   221         27
   222         19
   223         20
   224         21
   225         23
   226         19
   227         25
   228         15
   229         26
   230         14
   231         13
   232         22
   233         17
   234         20
   235         22
   236         20
   237         22
   238         14
   239         15
   240         14
   241         16
   242         12
   243         23
   244         18
   245         18
   246         16
   247         26
   248         19
   249         24
   250         14
   251         19
   252         13
   253         14
   254         16
   255         14
   256         13
   257         18
   258         16
   259         16
   260         13
   261         20
   262         15
   263         16
   264         14
   265         12
   266         15
   268         13
   269         12
   271         14
   273         13
   274         16
   275         14
   276         14
   277         12
   279         14
   280         13
   281         13
   283         12
   286         12
   287         12
   410         14
   411          5