##TITLE=Library Entry 12353
##JCAMP-DX=Revision 4.10 
##DATA TYPE=MASS SPECTRUM
##SAMPLE DESCRIPTION=Div. of Experiment Therapeutics WRAIR, WRAMC, Washingto
n DC 20307
##NAMES=HP
##CAS NAME=Bis[4-acetamido-3-chlorophenyl]sulfone
##MOLFORM=C16H14Cl2N2O4S
##CAS REGISTRY NO=35880-99-0
##MP= -300
##BP= -300
##MW= 400
##$RETENTION INDEX=0
##$CONDENSED SPECTRUM=NO
##NPOINTS= 157
##XYDATA=(XY..XY) 1 
    41          8
    42         19
    43        999
    44         20
    45          5
    47          1
    49          8
    50          2
    51          9
    52         17
    53          2
    54          0
    55          1
    56          0
    57          1
    61          2
    62         15
    63         69
    64         18
    65         10
    66          2
    69          3
    70          1
    72          2
    73         13
    74          4
    75         13
    76          5
    77          5
    78          6
    79          3
    80          3
    83          2
    84          6
    85          2
    86          8
    87          2
    88          5
    89          9
    90        107
    91         24
    92          4
    93          0
    95          3
    96          2
    97          9
    98         10
    99         36
   100          7
   101         11
   102          3
   103          1
   104          7
   105          3
   106          3
   108          1
   109          1
   110          5
   111          3
   112          3
   113          1
   114         17
   115          2
   116          4
   117          1
   120          0
   122          1
   123          1
   124          7
   125         10
   126         42
   127         67
   128         15
   129         20
   130          2
   132          8
   133         27
   134          4
   138          6
   139          5
   140          5
   141          1
   142        182
   143         24
   144         57
   145          7
   146          2
   148          3
   151          2
   152          3
   153          2
   154          9
   155          1
   156          1
   157          3
   158          8
   159          2
   160          3
   164          1
   166          1
   167          2
   168          5
   169          2
   170          1
   173          1
   174        170
   175         39
   176         62
   177         13
   178          2
   179          2
   180          1
   181          5
   182          3
   185          1
   188          2
   190         12
   191          0
   192          4
   196          3
   198          0
   215          3
   216          8
   217          5
   218          3
   224          2
   226          2
   232          2
   234          1
   251          7
   252          9
   253          5
   254          5
   256          1
   316         85
   317         12
   318         55
   319          7
   320          9
   323         35
   324          5
   325         12
   326          1
   358         19
   359          3
   360         12
   361          1
   362          2
   365         31
   366          5
   367         11
   368          1
   400         21
   401          4
   402         14
   403          2
   404          2