##TITLE=Library Entry 67952
##JCAMP-DX=Revision 4.10 
##DATA TYPE=MASS SPECTRUM
##SAMPLE DESCRIPTION=NIST Mass Spectrometry Data Center, 2010
##NAMES=HP
##CAS NAME=5,7-Octadien-4-one, 2,6-dimethyl-, (Z)-
##MOLFORM=C10H16O
##CAS REGISTRY NO=3588-18-9
##MP= -300
##BP= -300
##MW= 152
##$RETENTION INDEX=1155
##$CONDENSED SPECTRUM=NO
##NPOINTS= 66
##XYDATA=(XY..XY) 1 
    26          3
    27         52
    28          7
    29         33
    30          1
    37          3
    38         14
    39        213
    40         41
    41        389
    42         28
    43         54
    44          2
    49          1
    50         16
    51         41
    52         24
    53         42
    54          4
    55         22
    57         24
    60          2
    61          2
    62          6
    63         17
    64          4
    65        170
    66         48
    67        684
    68         67
    74          1
    75          1
    76          1
    77         26
    78          5
    79         33
    80          5
    81         30
    82          6
    89          1
    90          1
    91         18
    92          3
    93          5
    94         11
    95        999
    96         72
   103          2
   105          2
   107         10
   108         12
   109        318
   110         42
   115          1
   117          1
   119          2
   121          3
   122          3
   123          2
   134          1
   135          1
   137         84
   138          8
   151        145
   152        211
   153         24