##TITLE=Library Entry 20223
##JCAMP-DX=Revision 4.10 
##DATA TYPE=MASS SPECTRUM
##SAMPLE DESCRIPTION=CARL DJERASSI DEPT OF CHEM STANFORD UNIV STANFORD CALIF
 94305
##NAMES=HP
##CAS NAME=26,27-Dinorergosta-5,23-dien-3-ol, (3.beta.)-
##MOLFORM=C26H42O
##CAS REGISTRY NO=35882-88-3
##MP= -300
##BP= -300
##MW= 370
##$RETENTION INDEX=0
##$CONDENSED SPECTRUM=NO
##NPOINTS= 156
##XYDATA=(XY..XY) 1 
    41        747
    42         20
    43        202
    50         10
    51         10
    53        101
    55        999
    56         80
    57         90
    65         40
    67        404
    68         40
    69        949
    70         60
    71         20
    77        131
    78         30
    79        404
    80         50
    81        858
    82         80
    83        161
    84         10
    91        444
    92         90
    93        424
    94         90
    95        616
    96        141
    97        171
    98         10
    99         10
   103         10
   104         20
   105        505
   106        101
   107        303
   108         70
   109        353
   110         20
   111         20
   115         30
   117        141
   118         60
   119        333
   120        111
   121        282
   122         60
   123        171
   124         10
   125         10
   128         40
   129        101
   130         40
   131        242
   132         60
   133        676
   134        101
   135        191
   136         30
   137         80
   138         20
   141         30
   142         20
   143        141
   144         70
   145        404
   146         80
   147        282
   148         30
   149        242
   150         40
   151        272
   152         30
   155         30
   156         10
   157        131
   158         80
   159         50
   160        111
   161        191
   162         40
   163        191
   164         20
   165         30
   169         20
   171         80
   172         10
   173        191
   174         30
   175        121
   176         30
   177         90
   178         10
   183         20
   185         90
   186         30
   187        131
   188         20
   189         90
   190         10
   191         20
   197         30
   199         80
   200         10
   201         10
   202         70
   203         10
   204         50
   205         10
   206         10
   211         20
   213        161
   214         30
   215        303
   216         40
   217         30
   225         10
   227        101
   228         30
   229         30
   230         20
   231         50
   233         20
   239         10
   241         80
   242         10
   243         20
   245         20
   253         80
   254         30
   255         40
   257         10
   258         10
   259         10
   267         10
   269         10
   270         70
   271        494
   272        141
   273         20
   283        393
   284        101
   285         30
   296         10
   299         70
   300         40
   301        111
   302         20
   310         10
   314         40
   337         30
   352         20
   355         10
   356         10
   370         20