##TITLE=Library Entry 61271
##JCAMP-DX=Revision 4.10 
##DATA TYPE=MASS SPECTRUM
##SAMPLE DESCRIPTION=Chemical Concepts
##NAMES=HP
##CAS NAME=dl-Leucine, N-[(phenylmethoxy)carbonyl]-
##MOLFORM=C14H19NO4
##CAS REGISTRY NO=3588-60-1
##MP= -300
##BP= -300
##MW= 265
##$RETENTION INDEX=0
##$CONDENSED SPECTRUM=NO
##NPOINTS= 108
##XYDATA=(XY..XY) 1 
    26         28
    27        209
    28        192
    29        194
    30         38
    31         27
    36          2
    37         22
    38         48
    39        217
    40         37
    41        376
    42         58
    43        708
    45         20
    46          4
    49         13
    50        100
    51        166
    52         61
    53         68
    54         28
    55         65
    56         29
    57        360
    58         24
    59         12
    60          6
    61         14
    62         31
    63         65
    64         20
    65        153
    66         14
    67         23
    68         24
    69         51
    70        131
    71         26
    72         14
    73         55
    74         70
    75         23
    76         15
    77        323
    78         86
    79        640
    80         77
    81         18
    82         13
    83         35
    84         22
    85         57
    86         36
    87         25
    88         18
    89         70
    90         82
    91        999
    92        100
    93         10
    94          2
    95          9
    96         12
    97         11
    98          7
    99         23
   100          4
   101        268
   102         16
   104          3
   105         34
   106         11
   107        417
   108        716
   109         69
   110          9
   111          6
   112         75
   113         20
   114         19
   115          4
   118          2
   119          2
   120          3
   121          2
   123          3
   124          2
   125          3
   128          3
   129          3
   130         49
   132          4
   141          2
   148          6
   156          3
   158          2
   174          4
   176         96
   177         15
   178          2
   180          2
   209          2
   220         18
   221          3
   222          2
   265         18
   266          4