##TITLE=Library Entry 83697
##JCAMP-DX=Revision 4.10 
##DATA TYPE=MASS SPECTRUM
##SAMPLE DESCRIPTION=CARL DJERASSI DEPT OF CHEM STANFORD UNIV STANFORD CALIF
 94305
##NAMES=HP
##CAS NAME=26,27-Dinorergost-5-ene-3,24-diol, (3.beta.)-
##MOLFORM=C26H44O2
##CAS REGISTRY NO=35882-85-0
##MP= -300
##BP= -300
##MW= 388
##$RETENTION INDEX=0
##$CONDENSED SPECTRUM=NO
##NPOINTS= 241
##XYDATA=(XY..XY) 1 
    41        570
    42         30
    43        250
    45         50
    51         10
    53        110
    54         10
    55        870
    56        110
    57        220
    58         50
    59        710
    60         30
    65         60
    66         20
    67        450
    68         50
    69        700
    70         50
    71         50
    73        110
    74         10
    75         40
    77        160
    78         60
    79        570
    80         90
    81        910
    82        110
    83        330
    84         10
    85         40
    91        630
    92        150
    93        660
    94        140
    95        830
    96        160
    97        430
    98         50
    99         50
   100         10
   101         10
   103         40
   104         30
   105        850
   106        210
   107        999
   108        170
   109        530
   110         60
   111         60
   112         10
   113         30
   115         80
   116         40
   117        280
   118        130
   119        610
   120        380
   121        600
   122        220
   123        390
   124         70
   125         70
   127         10
   128         90
   129        160
   130         80
   131        490
   132        150
   133        610
   134        190
   135        430
   136        100
   137        150
   138         60
   139         20
   140         10
   141         50
   142         60
   143        430
   144        160
   145        870
   146        200
   147        570
   148        150
   149        340
   150         80
   151        190
   152         30
   153         20
   154         10
   155         80
   156         60
   157        300
   158        330
   159        680
   160        290
   161        600
   162        130
   163        270
   164         70
   165         60
   166         10
   167         10
   169        110
   170         50
   171        310
   172        160
   173        440
   174        110
   175        320
   176        110
   177         80
   178        110
   179         60
   181         20
   183         90
   184         40
   185        270
   186        110
   187        290
   188         80
   189        250
   190        110
   191         80
   192         50
   196         10
   197        180
   198         50
   199        290
   200         90
   201        160
   202         80
   203        260
   204         60
   205         50
   210         10
   211        260
   212         90
   213        660
   214        190
   215        270
   216         70
   217        150
   218         50
   219         50
   225         90
   226         60
   227        230
   228        180
   229        310
   230        140
   231        450
   232        130
   233         50
   237         10
   239        130
   240         40
   241        160
   242         40
   243         90
   244         50
   245        160
   246         90
   247         20
   250         10
   252         10
   253        240
   254        100
   255        320
   256        100
   257         50
   258        110
   259        280
   260        140
   261         20
   267         30
   269         40
   270        100
   271        780
   272        240
   273        140
   274         20
   276         40
   277         10
   281        150
   282         50
   283        290
   284         90
   285        290
   286         70
   287         40
   288         10
   295         40
   296        160
   297         60
   298         40
   299        380
   300        190
   301        140
   302         30
   303         90
   304        110
   309         20
   310         20
   311         50
   312         70
   313         60
   314        810
   315         60
   323         10
   324         10
   325         10
   327         40
   328         70
   329         20
   330         10
   331         10
   337        500
   338        160
   339         20
   342         10
   343         10
   344         10
   345         10
   351         10
   352        230
   353         80
   354         20
   355        420
   356        100
   370        670
   371        220
   372         40
   373         50
   374         30
   388        240
   389         90
   390         10