##TITLE=Library Entry 61304
##JCAMP-DX=Revision 4.10 
##DATA TYPE=MASS SPECTRUM
##SAMPLE DESCRIPTION=Japan AIST/NIMC Database- Spectrum MS-NW-5955
##NAMES=HP
##CAS NAME=DL-Phenylalanine, N-[(phenylmethoxy)carbonyl]-
##MOLFORM=C17H17NO4
##CAS REGISTRY NO=3588-57-6
##MP= -300
##BP= -300
##MW= 299
##$RETENTION INDEX=0
##$CONDENSED SPECTRUM=NO
##NPOINTS= 101
##XYDATA=(XY..XY) 1 
    17          1
    18          3
    26          4
    27         18
    28          9
    29          6
    31          6
    37          5
    38          9
    39         41
    40          6
    41         10
    42          2
    43          7
    44         20
    45          2
    49          2
    50         26
    51         59
    52         17
    53         10
    54          3
    55          3
    56          2
    57          2
    58          3
    59          1
    60          1
    61          5
    62         11
    63         25
    64         10
    65         73
    66          6
    67          1
    68          1
    69          2
    70          2
    71          2
    73          3
    74         13
    75          7
    76          9
    77        101
    78         27
    79        170
    80         18
    81          2
    83          1
    85          2
    86          3
    87          3
    88          1
    89         26
    90         28
    91        999
    92        104
    93          5
    96          1
   101          1
   102          7
   103          9
   104          9
   105         12
   106          7
   107        129
   108        204
   109         17
   110          2
   111          1
   115          2
   116          5
   117         18
   118         13
   119         15
   120          6
   121          1
   127          1
   128          3
   129          2
   130          1
   131          4
   132          4
   135          1
   137          1
   145          3
   146          2
   147          5
   148          6
   149          1
   151          1
   161          2
   167          1
   168          1
   181          2
   186          1
   191         35
   192          5
   193          1
   214          1
   238          1