##TITLE=Library Entry 90752
##JCAMP-DX=Revision 4.10 
##DATA TYPE=MASS SPECTRUM
##SAMPLE DESCRIPTION=Japan AIST/NIMC Database- Spectrum MS-IW-2300
##NAMES=HP
##CAS NAME=2,3-Dimethoxy-1,3-butadiene
##MOLFORM=C6H10O2
##CAS REGISTRY NO=3588-31-6
##MP= -300
##BP= -300
##MW= 114
##$RETENTION INDEX=0
##$CONDENSED SPECTRUM=NO
##NPOINTS= 74
##XYDATA=(XY..XY) 1 
    13          2
    14         22
    15         94
    16          1
    25          3
    26         34
    27        195
    28         76
    29        144
    30          7
    31         37
    32          6
    33          8
    36          1
    37         10
    38         22
    39        313
    40         61
    41        647
    42        355
    43        854
    44         25
    45        171
    46          4
    47         13
    49          9
    50         67
    51         96
    52        105
    53        190
    54        321
    55         55
    56         60
    57        160
    58         19
    59         38
    60          1
    61          1
    62          2
    65          1
    66          3
    67          9
    68         58
    69        100
    70         41
    71        336
    72         17
    73          9
    74          1
    75          9
    79          1
    81          5
    82          3
    83        230
    84        276
    85         23
    86         22
    87          9
    88          2
    89         90
    90          4
    91          1
    97          3
    98          2
    99         42
   100          4
   101          1
   111          4
   112          2
   113          7
   114        999
   115        103
   116         15
   117          2