##TITLE=Library Entry 69771
##JCAMP-DX=Revision 4.10 
##DATA TYPE=MASS SPECTRUM
##SAMPLE DESCRIPTION=Japan AIST/NIMC Database- Spectrum MS-NW-2293
##NAMES=HP
##CAS NAME=trans,trans-Muconic acid
##MOLFORM=C6H6O4
##CAS REGISTRY NO=3588-17-8
##MP= -300
##BP= -300
##MW= 142
##$RETENTION INDEX=0
##$CONDENSED SPECTRUM=NO
##NPOINTS= 97
##XYDATA=(XY..XY) 1 
    12          9
    13          3
    14          7
    15         11
    16         12
    17          3
    18         11
    24          3
    25         19
    26        162
    27        191
    28        110
    29         48
    30          1
    31          6
    32          7
    34          3
    36          8
    37         29
    38         33
    39        154
    40         46
    41        258
    42         42
    43         56
    44        338
    45        137
    46          7
    47          6
    48         12
    49         44
    50        180
    51        282
    52        213
    53         84
    54         66
    55        116
    56          8
    57          9
    58          3
    60          9
    62          5
    63          6
    64          5
    65          3
    66          4
    67          6
    68        111
    69        153
    70         16
    71          9
    72          1
    73          3
    74          1
    76          1
    77          9
    78          6
    79        138
    80        160
    81         29
    82         21
    83         23
    84          6
    85          1
    86          4
    87          5
    91          2
    92          5
    93          1
    94          1
    95         22
    96        133
    97        999
    98         74
    99         13
   100          3
   102          4
   104          6
   105          2
   107          6
   108         45
   109          3
   110          1
   111          3
   112          1
   113          2
   115          2
   122          2
   123          3
   124         47
   125         30
   126          6
   127          2
   141          1
   142        262
   143         17
   144          2