##TITLE=Library Entry 61319
##JCAMP-DX=Revision 4.10 
##DATA TYPE=MASS SPECTRUM
##SAMPLE DESCRIPTION=Japan AIST/NIMC Database- Spectrum MS-NW-2486
##NAMES=HP
##CAS NAME=DL-Valine, N-[(phenylmethoxy)carbonyl]-
##MOLFORM=C13H17NO4
##CAS REGISTRY NO=3588-63-4
##MP= -300
##BP= -300
##MW= 251
##$RETENTION INDEX=0
##$CONDENSED SPECTRUM=NO
##NPOINTS= 118
##XYDATA=(XY..XY) 1 
    12          1
    14          2
    15         12
    16          2
    17          3
    18         10
    25          1
    26         18
    27        199
    28        286
    29         54
    30         16
    31         19
    32          3
    36          2
    37         14
    38         29
    39        154
    40         22
    41        280
    42         47
    43        459
    44         49
    45          8
    46          3
    49          6
    50         53
    51        125
    52         42
    53         35
    54         25
    55         36
    56        111
    57          9
    58          1
    59          4
    60          2
    61          7
    62         14
    63         36
    64         11
    65        101
    66          7
    67          2
    68         11
    69          9
    70         17
    71          7
    72         27
    73        133
    74         39
    75         11
    76          9
    77        290
    78         69
    79        632
    80         64
    81          6
    82          6
    83         96
    84          7
    85          5
    86          3
    87          7
    88          1
    89         51
    90         72
    91        999
    92        110
    93          5
    95          1
    97          2
    98         25
    99          3
   100          4
   101        956
   102         37
   103          8
   104          1
   105         31
   106         15
   107        502
   108        987
   109         76
   110          5
   111          1
   114          3
   115          1
   116         47
   117          3
   118          3
   119          1
   120          1
   127          1
   133          1
   142          3
   143          4
   148          7
   149          2
   151          2
   154          2
   160          4
   161          1
   162         84
   163         10
   164          1
   165          1
   179          1
   180          1
   182          1
   197          1
   198          1
   200          1
   205          3
   206         17
   207          3
   251         15
   252          2