##TITLE=Library Entry 9716
##JCAMP-DX=Revision 4.10 
##DATA TYPE=MASS SPECTRUM
##SAMPLE DESCRIPTION=Exported from NIST MS Search
##NAMES=HP
##CAS NAME=Ethanethioic acid, S-(tetrahydro-2H-pyran-3-yl) ester
##MOLFORM=C7H12O2S
##CAS REGISTRY NO=35890-63-2
##MP= -300
##BP= -300
##MW= 160
##$RETENTION INDEX=0
##$CONDENSED SPECTRUM=NO
##NPOINTS= 58
##XYDATA=(XY..XY) 1 
    41        220
    42        140
    43        999
    44        112
    45        499
    46         80
    47         92
    48         16
    49         16
    50         16
    51         22
    52         14
    53         80
    54         92
    55        268
    56        180
    57        100
    58         92
    59        120
    60        436
    61        100
    62         24
    64         18
    65         14
    66         14
    67        100
    68         14
    69         60
    70         52
    71        266
    72         40
    73         84
    74        100
    75         32
    76         90
    77         40
    78         16
    81         16
    82         16
    83         92
    84        939
    85        350
    86         80
    87        232
    88         32
    89         40
    98         14
    99         40
   100         92
   101         44
   102         52
   103         16
   117         96
   118        140
   119         26
   120         16
   158         14
   160         60