##TITLE=Library Entry 8557
##JCAMP-DX=Revision 4.10 
##DATA TYPE=MASS SPECTRUM
##SAMPLE DESCRIPTION=NIST Mass Spectrometry Data Center, 2010
##NAMES=HP
##CAS NAME=3-Methylpentyl acetate
##MOLFORM=C8H16O2
##CAS REGISTRY NO=35897-13-3
##MP= -300
##BP= -300
##MW= 144
##$RETENTION INDEX=987
##$CONDENSED SPECTRUM=NO
##NPOINTS= 62
##XYDATA=(XY..XY) 1 
    14          2
    15         20
    26          6
    27         72
    28         25
    29        113
    30          4
    31          8
    37          1
    38          4
    39         90
    40         17
    41        275
    42        100
    43        999
    44         28
    45         15
    46          1
    50          5
    51          9
    52          4
    53         33
    54         30
    55        567
    56        409
    57        114
    58         26
    59          9
    61        253
    62          7
    63          2
    65          4
    66          1
    67         26
    69        897
    70         87
    71         22
    72         36
    73        100
    74          8
    75          1
    79          1
    82         11
    83         91
    84        677
    85         59
    87        166
    88         42
    89          3
    97          5
    98          1
    99         15
   100         10
   101          4
   102          1
   108          2
   111         24
   112          2
   114          3
   115         67
   116          5
   129          8