##TITLE=Library Entry 17783
##JCAMP-DX=Revision 4.10 
##DATA TYPE=MASS SPECTRUM
##SAMPLE DESCRIPTION=NIST Mass Spectrometry Data Center
##NAMES=HP
##CAS NAME=Pentazocine
##MOLFORM=C19H27NO
##CAS REGISTRY NO=359-83-1
##MP= -300
##BP= -300
##MW= 285
##$RETENTION INDEX=2269
##$CONDENSED SPECTRUM=NO
##NPOINTS= 207
##XYDATA=(XY..XY) 1 
    15          1
    27         34
    28         30
    29         34
    30         43
    31          1
    37          1
    38          2
    39         74
    40         17
    41        722
    42        115
    43        102
    44         98
    45        999
    46         32
    50          5
    51         31
    52         14
    53        103
    54         54
    55        126
    56        121
    57         96
    58         91
    59          5
    62          2
    63         14
    64          7
    65         45
    66         12
    67         69
    68        169
    69        564
    70        594
    71        117
    72         10
    73          1
    74          1
    75          5
    76          6
    77         99
    78         26
    79         45
    80         28
    81         30
    82         99
    83         26
    84         74
    85         19
    86          3
    87          2
    88          2
    89         16
    90          7
    91        129
    92         16
    93         26
    94         47
    95         25
    96         82
    97         22
    98         62
    99          6
   101          7
   102         17
   103         52
   104         14
   105         54
   106         15
   107        174
   108         56
   109         16
   110        590
   111         49
   112         60
   113         69
   114         14
   115        187
   116         65
   117         75
   118         22
   119         31
   120         19
   121         40
   122         38
   123          6
   124         34
   125          5
   126         16
   127        126
   128        146
   129         96
   130         38
   131        166
   132         66
   133         67
   134         48
   135         61
   136         12
   137          4
   138         39
   139         13
   140          9
   141         68
   142         25
   143         25
   144        127
   145        246
   146        249
   147        175
   148         33
   149          6
   150         24
   151          8
   152         20
   153         17
   154         10
   155         35
   156         13
   157        177
   158        233
   159        309
   160        158
   161         87
   162         47
   163          6
   164          8
   165          5
   166          3
   167          5
   168          6
   169         10
   170         17
   171         43
   172        214
   173        262
   174        233
   175         49
   176          8
   178        131
   179         19
   180          2
   181          3
   182          3
   183          7
   184         14
   185         36
   186         38
   187         32
   188         81
   189         13
   190          1
   194          1
   195          1
   196          3
   197          3
   198          7
   199         10
   200         49
   201         20
   202        384
   203         55
   204          4
   207          1
   209          1
   210          1
   211          1
   212          3
   213          2
   214         12
   215          7
   216        175
   217        747
   218        118
   219         11
   220          1
   224          1
   226          2
   227          1
   228         11
   229          6
   230        108
   231         19
   232          3
   238          1
   240          1
   241          1
   242         68
   243         18
   244          3
   254          2
   255          1
   256         15
   257          3
   258          1
   268          5
   269          3
   270        198
   271         39
   272          4
   282          1
   283          5
   284        150
   285        194
   286         40
   287          4