##TITLE=Library Entry 36903
##JCAMP-DX=Revision 4.10 
##DATA TYPE=MASS SPECTRUM
##SAMPLE DESCRIPTION=Dennis Rohrbaugh, CBDCOM/ERDEC, Edgewood, MD
##NAMES=HP
##CAS NAME=Arsinous iodide, bis(trifluoromethyl)-
##MOLFORM=C2AsF6I
##CAS REGISTRY NO=359-55-7
##MP= -300
##BP= -300
##MW= 340
##$RETENTION INDEX=0
##$CONDENSED SPECTRUM=NO
##NPOINTS= 30
##XYDATA=(XY..XY) 1 
    50         69
    69        999
    70         12
    75        433
    94        450
   106         24
   113        234
   125        154
   127        365
   144        334
   163         68
   175         36
   176          0
   177         15
   189         21
   194         38
   202        378
   213         12
   221        514
   233         10
   252         58
   271        544
   272          6
   315          5
   316          4
   321        778
   322         14
   339          7
   340        412
   341          8