##TITLE=Library Entry 351
##JCAMP-DX=Revision 4.10 
##DATA TYPE=MASS SPECTRUM
##SAMPLE DESCRIPTION=NIST Mass Spectrometry Data Center, 1994
##NAMES=HP
##CAS NAME=3,3,3-Trifluoro-1,2-epoxypropane
##MOLFORM=C3H3F3O
##CAS REGISTRY NO=359-41-1
##MP= -300
##BP= -300
##MW= 112
##$RETENTION INDEX=508
##$CONDENSED SPECTRUM=NO
##NPOINTS= 70
##XYDATA=(XY..XY) 1 
    12         27
    13         63
    14        225
    15        675
    16         12
    17          1
    18          1
    19          5
    20          2
    24          7
    25         26
    26         66
    27        277
    28         23
    29        999
    30         40
    31        227
    32         46
    33        353
    34          7
    36          3
    37          4
    38          2
    39          0
    40          3
    41         16
    42         86
    43        266
    44         56
    45         82
    46          9
    47          9
    50         72
    51        352
    52          4
    55          3
    56          7
    57          3
    60          2
    61          2
    62         18
    63         68
    64        213
    65         41
    66          1
    67          1
    68          1
    69        358
    70          3
    71          7
    73          0
    74          2
    75         16
    76          2
    77          2
    78         10
    79         39
    80          1
    81          0
    82        189
    83         21
    84          1
    91         18
    93         76
    94          2
    95          5
    96          1
   112        409
   113         12
   114          1