##TITLE=Library Entry 1442
##JCAMP-DX=Revision 4.10 
##DATA TYPE=MASS SPECTRUM
##SAMPLE DESCRIPTION=NIST Mass Spectrometry Data Center
##NAMES=HP
##CAS NAME=CHF2CH2OH
##MOLFORM=C2H4F2O
##CAS REGISTRY NO=359-13-7
##MP= -300
##BP= -300
##MW= 82
##$RETENTION INDEX=481
##$CONDENSED SPECTRUM=NO
##NPOINTS= 37
##XYDATA=(XY..XY) 1 
    12          7
    13         14
    14         19
    15        107
    16          8
    17          9
    19          9
    24          5
    25         19
    26         41
    27         25
    28         24
    29        289
    30         38
    31        999
    32         77
    33        136
    40          4
    41         10
    42         50
    43        269
    44         29
    45         79
    46         13
    47          6
    50         15
    51        121
    58         15
    60         15
    61         35
    62          9
    63         43
    64         41
    65         10
    80          3
    81          5
    82         71