##TITLE=Library Entry 52867
##JCAMP-DX=Revision 4.10 
##DATA TYPE=MASS SPECTRUM
##SAMPLE DESCRIPTION=GAZ DE FRANCE, DELORME, PARIS, FRANCE
##NAMES=HP
##CAS NAME=Ethane, 1,1,2-trichloro-2-fluoro-
##MOLFORM=C2H2Cl3F
##CAS REGISTRY NO=359-28-4
##MP= -300
##BP= -300
##MW= 150
##$RETENTION INDEX=0
##$CONDENSED SPECTRUM=NO
##NPOINTS= 66
##XYDATA=(XY..XY) 1 
    24          6
    25         27
    26         55
    27          1
    31         34
    32         11
    33          2
    35         58
    36         26
    37         20
    38          8
    43          4
    44         72
    45         87
    46          2
    47         53
    48         36
    49         40
    50         11
    51          7
    57          1
    58          1
    59         10
    60         45
    61         27
    62         15
    63          7
    66          4
    67        230
    68          4
    69         74
    70          3
    78         14
    79        159
    80         67
    81         52
    82         27
    83        999
    84          3
    85        635
    86          5
    87        103
    94          9
    95        101
    96          9
    97         66
    98          9
    99         11
   100          0
   101         38
   103         24
   105          4
   113         10
   114          1
   115         14
   116          2
   117          8
   118          0
   119          1
   148          1
   149          7
   150         84
   151         13
   152         80
   154         24
   156          2