##TITLE=Library Entry 71402
##JCAMP-DX=Revision 4.10 
##DATA TYPE=MASS SPECTRUM
##SAMPLE DESCRIPTION=THE M.W. KELLOGG CO., JERSEY CITY, N.J., USA
##NAMES=HP
##CAS NAME=Ethene, 2-chloro-1,1-difluoro-
##MOLFORM=C2HClF2
##CAS REGISTRY NO=359-10-4
##MP= -300
##BP= -300
##MW= 98
##$RETENTION INDEX=339
##$CONDENSED SPECTRUM=NO
##NPOINTS= 41
##XYDATA=(XY..XY) 1 
    20          1
    24         30
    25         37
    26          1
    31        289
    32         15
    33          1
    35         72
    36          6
    37         22
    38          2
    43         28
    44        130
    45          4
    47        111
    48        298
    49         56
    50        136
    51         26
    52          0
    59          8
    60          8
    61          3
    62         15
    63        244
    64          6
    66          4
    67        110
    68          2
    69         37
    70          0
    78         18
    79        117
    80          8
    81         38
    82          1
    97         13
    98        999
    99         26
   100        325
   101          6