##TITLE=Library Entry 69504
##JCAMP-DX=Revision 4.10 
##DATA TYPE=MASS SPECTRUM
##SAMPLE DESCRIPTION=Chemical Concepts
##NAMES=HP
##CAS NAME=2-Pyranone, 5,6-dihydro-3,5-dimethyl-6-(3-hydroxybutan-2-yl)-
##MOLFORM=C11H18O3
##CAS REGISTRY NO=35906-47-9
##MP= -300
##BP= -300
##MW= 198
##$RETENTION INDEX=0
##$CONDENSED SPECTRUM=NO
##NPOINTS= 101
##XYDATA=(XY..XY) 1 
    26          8
    27        184
    29        251
    30         50
    31         12
    33         21
    38         10
    39        104
    40         91
    41        234
    42         74
    43        193
    44         28
    45        162
    46         10
    48          9
    49          6
    50          8
    51         31
    52         24
    53        116
    54         34
    55        143
    56         76
    57        149
    58         22
    59         17
    60          8
    63          9
    64          7
    65         52
    66         62
    67        222
    68        246
    69        144
    70         18
    71         18
    72         10
    73         16
    75          6
    76          7
    77         52
    78         15
    79         58
    80         14
    81         71
    82         23
    83         40
    84         12
    85         53
    86         14
    87          9
    91         33
    92          8
    93         73
    94         28
    95        118
    96        999
    97        197
    98        108
    99         14
   101          9
   102          8
   103          6
   104          5
   105         16
   107         21
   108         46
   109        348
   110         78
   111         61
   112        121
   113         26
   114          7
   119          6
   121         22
   123         25
   124        122
   125        465
   126        120
   127         15
   129          6
   135          9
   136         41
   137         54
   138         14
   139         90
   140         10
   143         35
   147          8
   151         10
   152          6
   153         23
   154        168
   155         39
   165         22
   170         14
   180          7
   183         21
   197          5
   198         13