##TITLE=Library Entry 85582
##JCAMP-DX=Revision 4.10 
##DATA TYPE=MASS SPECTRUM
##SAMPLE DESCRIPTION=Chemical Concepts
##NAMES=HP
##CAS NAME=p-Mentha-1(7),8-dien-2-ol
##MOLFORM=C10H16O
##CAS REGISTRY NO=35907-10-9
##MP= -300
##BP= -300
##MW= 152
##$RETENTION INDEX=1186
##$CONDENSED SPECTRUM=NO
##NPOINTS= 109
##XYDATA=(XY..XY) 1 
    27        343
    28          3
    29        255
    30          6
    31        108
    37          2
    38         15
    39        467
    40        112
    41        942
    42        133
    43        251
    44         25
    45         33
    46          2
    47          1
    48          1
    50         23
    51         81
    52         45
    53        251
    54         63
    55        499
    56         80
    57         48
    58         11
    59         33
    60          8
    61          8
    62          8
    63         23
    64          8
    65        103
    66         74
    67        500
    68        181
    69        470
    70        138
    71         84
    72          4
    73          2
    74         10
    75          3
    76          2
    77        229
    78         72
    79        711
    80        107
    81        295
    82        124
    83        206
    84        119
    85         28
    86          1
    87          0
    89          6
    90          4
    91        678
    92        340
    93        416
    94        147
    95        226
    96        119
    97         52
    98          9
    99          1
   102          3
   103         23
   104         11
   105        232
   106        165
   107         85
   108        145
   109        999
   110        117
   111         27
   112          2
   115         14
   116          3
   117         36
   118          6
   119        616
   120         62
   121         59
   122         10
   123         92
   124         34
   125          3
   127          0
   128          1
   129          1
   131          2
   132          2
   133         23
   134        824
   135         87
   136          6
   137         76
   138          9
   139          1
   143          0
   145          1
   148          0
   149          0
   150          3
   151          4
   152         54
   153          5
   154          0