##TITLE=Library Entry 57058
##JCAMP-DX=Revision 4.10 
##DATA TYPE=MASS SPECTRUM
##SAMPLE DESCRIPTION=Exported from NIST MS Search
##NAMES=HP
##CAS NAME=Oxireno[4,5]cyclopenta[1,2-c]pyran-2(1aH)-one, hexahydro-5a,6-dih
ydroxy-1a-methyl-, (1a.alpha.,1b.beta.,5a.beta.,6.alpha.,6a.alpha.)-
##MOLFORM=C9H12O5
##CAS REGISTRY NO=35904-75-7
##MP= -300
##BP= -300
##MW= 200
##$RETENTION INDEX=0
##$CONDENSED SPECTRUM=NO
##NPOINTS= 14
##XYDATA=(XY..XY) 1 
    41        210
    43        410
    53         60
    55        110
    69         80
    71         80
    82         70
    85        100
    87        999
    97         70
   115        150
   153         70
   182         10
   185         10