##TITLE=Library Entry 57055
##JCAMP-DX=Revision 4.10 
##DATA TYPE=MASS SPECTRUM
##SAMPLE DESCRIPTION=Exported from NIST MS Search
##NAMES=HP
##CAS NAME=Oxireno[4.5]cyclopenta[1,2-c]pyran-2(1bH)-one, 1a,4,5,5a,6,6a-hex
ahydro-5a,6-dihydroxy-1a-methyl-, (1a.alpha.,1b.alpha.,5a.alpha.,6.alpha.,6a
.alpha.)-
##MOLFORM=C9H12O5
##CAS REGISTRY NO=35904-93-9
##MP= -300
##BP= -300
##MW= 200
##$RETENTION INDEX=0
##$CONDENSED SPECTRUM=NO
##NPOINTS= 14
##XYDATA=(XY..XY) 1 
    41        210
    43        340
    53         60
    55        110
    69         80
    71         90
    82         80
    85        120
    87        999
    97         70
   115        200
   153         90
   182         10
   185         10