##TITLE=Library Entry 2960
##JCAMP-DX=Revision 4.10 
##DATA TYPE=MASS SPECTRUM
##SAMPLE DESCRIPTION=NIST Mass Spectrometry Data Center, 1994
##NAMES=HP
##CAS NAME=5,5-Dimethyl-1,3-dioxan-2-one
##MOLFORM=C6H10O3
##CAS REGISTRY NO=3592-12-9
##MP= -300
##BP= -300
##MW= 130
##$RETENTION INDEX=0
##$CONDENSED SPECTRUM=NO
##NPOINTS= 36
##XYDATA=(XY..XY) 1 
    12          3
    13          2
    14         10
    15         69
    16          4
    17          0
    26         30
    27        269
    28        145
    29        373
    30         71
    37         19
    38         47
    39        377
    40         87
    41        999
    42         50
    43        104
    44         25
    49          5
    50         18
    51         21
    52          7
    53         36
    54         14
    55        108
    56        781
    57        155
    58         45
    67          2
    69          8
    71        156
    72          6
    85         25
    86          4
   130         10