##TITLE=Library Entry 59454
##JCAMP-DX=Revision 4.10 
##DATA TYPE=MASS SPECTRUM
##SAMPLE DESCRIPTION=Chemical Concepts
##NAMES=HP
##CAS NAME=3-Pentanone, 1,5-dichloro-
##MOLFORM=C5H8Cl2O
##CAS REGISTRY NO=3592-25-4
##MP= -300
##BP= -300
##MW= 154
##$RETENTION INDEX=0
##$CONDENSED SPECTRUM=NO
##NPOINTS= 87
##XYDATA=(XY..XY) 1 
    25          6
    26         71
    27        588
    28         85
    29         35
    30          1
    31         41
    35          2
    36         12
    37          5
    38          8
    39         25
    40          3
    41         15
    42         30
    43         18
    44          5
    45         18
    46          1
    47          1
    48          2
    49         26
    50          7
    51         11
    52          2
    53         17
    54         17
    55        507
    56         26
    57         11
    58          0
    59         51
    60          4
    61         20
    62         25
    63        664
    64         21
    65        216
    66          4
    67          2
    68          0
    69          1
    70          1
    71          4
    72          2
    73         27
    74          1
    75          2
    77          2
    79          1
    81          7
    82         17
    83         80
    84          9
    85          4
    87          6
    89          7
    90          4
    91        999
    92         35
    93        324
    94         10
    95          1
    97          1
    99          3
   100          3
   101         56
   102          3
   105          1
   106          1
   109          2
   110          1
   111          2
   118          8
   119        202
   120         27
   121         65
   122          7
   123          1
   127          0
   135          4
   137          2
   154         18
   155          1
   156         12
   157          1
   158          2