##TITLE=Library Entry 57874
##JCAMP-DX=Revision 4.10 
##DATA TYPE=MASS SPECTRUM
##SAMPLE DESCRIPTION=Institute of Organic Chemistry, Novosibirsk, USSR 1988
##NAMES=HP
##CAS NAME=Methyl 2,3,4-tri-O-methyl-6-deoxy-.beta.-D-mannopyranoside
##MOLFORM=C10H20O5
##CAS REGISTRY NO=35939-74-3
##MP= -300
##BP= -300
##MW= 220
##$RETENTION INDEX=0
##$CONDENSED SPECTRUM=NO
##NPOINTS= 22
##XYDATA=(XY..XY) 1 
    41         91
    43         84
    45        189
    55         18
    57         22
    59         41
    71         45
    72         91
    73        149
    75        259
    88        999
   101        179
   113          2
   115          7
   119         15
   125          2
   129         14
   131          7
   145          5
   157          4
   176         12
   189         14