##TITLE=Library Entry 27589
##JCAMP-DX=Revision 4.10 
##DATA TYPE=MASS SPECTRUM
##SAMPLE DESCRIPTION=Drug Lab
##NAMES=HP
##CAS NAME=Androst-5-ene-3,17-diol, 17-methyl-, dipropanoate, (3.beta.,17.be
ta.)-
##MOLFORM=C26H40O4
##CAS REGISTRY NO=3593-85-9
##MP= -300
##BP= -300
##MW= 416
##$RETENTION INDEX=0
##$CONDENSED SPECTRUM=NO
##NPOINTS= 197
##XYDATA=(XY..XY) 1 
    40          5
    41        107
    42         11
    43        225
    44          7
    45         17
    50          2
    51          8
    52          4
    53         45
    54          6
    55        146
    56         20
    57        999
    58         38
    59          7
    63          2
    65         30
    66          9
    67        123
    68         10
    69         44
    70          3
    71         25
    72          2
    73          6
    74         14
    75          7
    77         91
    78         24
    79        184
    80         23
    81        225
    82         23
    83         24
    84          4
    85         23
    86          3
    89          3
    91        308
    92         61
    93        191
    94         44
    95        127
    96         10
    97         18
    98          4
    99         12
   102          2
   103         25
   104         26
   105        311
   106         82
   107        260
   108        117
   109        126
   110         13
   111          8
   112          5
   113          4
   115         45
   116         24
   117        128
   118         58
   119        173
   120        107
   121        187
   122         62
   123         50
   124          8
   125          7
   127         19
   128         51
   129        100
   130         47
   131        184
   132         48
   133        176
   134         32
   135         47
   136          8
   137          7
   139          3
   141         40
   142         37
   143        231
   144         95
   145        332
   146         97
   147        336
   148         80
   149         50
   150         14
   151         10
   152          7
   153         10
   154          7
   155         38
   156         19
   157        152
   158        211
   159        243
   160        187
   161        174
   162         68
   163        101
   164         18
   165         14
   166          2
   167          9
   168          6
   169         33
   170         16
   171         62
   172         37
   173         66
   174         30
   175         35
   176          9
   177          9
   178          5
   179          4
   180          3
   181          9
   182          5
   183         40
   184         15
   185         46
   186         19
   187         36
   188          9
   189          5
   193          2
   195          7
   196          6
   197         72
   198         25
   199         67
   200         21
   201         25
   202          5
   203          5
   205          2
   209          7
   210          4
   211        111
   212         68
   213        102
   214         25
   215         20
   216          4
   217          2
   221          2
   223          3
   224          2
   225         30
   226         59
   227        163
   228         73
   229         14
   230          2
   237          7
   238          3
   239         20
   240         11
   241          6
   243          2
   251         13
   252          4
   253        340
   254         75
   255         16
   256          2
   257          3
   265          2
   266          7
   267        100
   268        303
   269        102
   270         22
   271          6
   281          6
   282          3
   284          2
   285         27
   286          8
   295          9
   296          2
   309          4
   324          4
   327         25
   328          6
   329          2
   342        475
   343        136
   344         18
   345          2