##TITLE=Library Entry 29436
##JCAMP-DX=Revision 4.10 
##DATA TYPE=MASS SPECTRUM
##SAMPLE DESCRIPTION=AAFS Toxicology Section MS DB Committee, U. Alberta, Ca
nada
##NAMES=HP
##CAS NAME=Butriptyline
##MOLFORM=C21H27N
##CAS REGISTRY NO=35941-65-2
##MP= -300
##BP= -300
##MW= 293
##$RETENTION INDEX=0
##$CONDENSED SPECTRUM=NO
##NPOINTS= 77
##XYDATA=(XY..XY) 1 
    41         10
    42         66
    43         15
    44         15
    45         13
    51          4
    55          4
    56         11
    58        999
    59         37
    63          7
    65         13
    68          4
    70         13
    71          7
    75          4
    76          6
    77         15
    78          4
    82          6
    84         20
    85         22
    86          4
    87         58
    88          6
    89         19
    91         74
    92          5
    94          4
    95          3
    98         12
   100        116
   101         15
   102          8
   103          6
   105         11
   115        186
   116         22
   117          5
   126          6
   127         12
   128         26
   129          9
   139         14
   141          9
   150          5
   151         11
   152         34
   153          9
   163         12
   164         12
   165         71
   166         13
   176         17
   177         14
   178        161
   179         30
   187          4
   188          5
   189         70
   190         36
   191         92
   192         57
   193         81
   194         12
   202         19
   203         14
   204          7
   205         14
   206         11
   215          6
   217          3
   278         16
   279          3
   293        233
   294         52
   295          6