##TITLE=Library Entry 70755
##JCAMP-DX=Revision 4.10 
##DATA TYPE=MASS SPECTRUM
##SAMPLE DESCRIPTION=Chemical Concepts
##NAMES=HP
##CAS NAME=Cyclododecanone, 2-chloro-
##MOLFORM=C12H21ClO
##CAS REGISTRY NO=35951-28-1
##MP= -300
##BP= -300
##MW= 216
##$RETENTION INDEX=0
##$CONDENSED SPECTRUM=NO
##NPOINTS= 128
##XYDATA=(XY..XY) 1 
    26          7
    27        239
    29        253
    30          3
    31          1
    39        190
    40          1
    41        698
    42        195
    43        224
    44          7
    45          3
    49          6
    51         10
    52          3
    53         84
    54        105
    55        561
    56        226
    57         80
    58         24
    59          5
    61          3
    62         16
    63          8
    64          5
    65         16
    66         12
    67        190
    68        127
    69        235
    70        104
    71         54
    72          9
    75         22
    76          8
    77         16
    78          5
    79         58
    80         39
    81        159
    82        101
    83        166
    84        282
    85         33
    86          1
    88          7
    89         10
    90          2
    91         22
    92         38
    93         38
    94         51
    95         92
    96         46
    97        167
    98        999
    99         65
   100          5
   103          5
   104         14
   105          2
   106          5
   107         26
   108         20
   109         30
   110         23
   111        162
   112        232
   113         17
   116          8
   117          8
   118          9
   119          8
   120          9
   121         32
   122         34
   123         21
   124         42
   125         66
   126         57
   127          5
   130         13
   131         10
   132         29
   133         16
   134         28
   135         12
   136         12
   137         53
   138         13
   139         65
   140         11
   144         13
   145         16
   146         12
   147         15
   148         21
   149         23
   150          6
   151         13
   152          1
   153          5
   154          1
   158          1
   159         19
   160         12
   161         10
   162          9
   163         24
   165          4
   167         26
   172         16
   173         24
   174         16
   175          8
   180          7
   181         39
   182          7
   187         12
   188         28
   189          7
   190          6
   198         11
   216        226
   217         29
   218         71
   219         10