##TITLE=Library Entry 19378
##JCAMP-DX=Revision 4.10 
##DATA TYPE=MASS SPECTRUM
##SAMPLE DESCRIPTION=V.G.Zaikin, TIPS, Russian Acad. Sci., Moscow
##NAMES=HP
##CAS NAME=4-Chloro-3-n-butyltetrahydropyran
##MOLFORM=C9H17ClO
##CAS REGISTRY NO=35952-06-8
##MP= -300
##BP= -300
##MW= 176
##$RETENTION INDEX=0
##$CONDENSED SPECTRUM=NO
##NPOINTS= 74
##XYDATA=(XY..XY) 1 
    36         28
    37         25
    38         37
    39        432
    40         81
    41        976
    42        195
    43        301
    44         89
    45         89
    49         32
    50         29
    51         66
    52         31
    53        269
    54        329
    55        999
    56        323
    57        131
    58         28
    62         19
    63         43
    65         61
    66         45
    67        427
    68        423
    69        378
    70        107
    71         65
    75         65
    76         49
    77         54
    78         38
    79        145
    80         57
    81        606
    82        201
    83        387
    84        125
    85         89
    86         18
    89         50
    90         28
    91         31
    92         41
    93         83
    94         85
    95        138
    96         99
    97        138
    98         39
    99         19
   101         24
   102         45
   103         16
   104         29
   105         90
   106         16
   107         48
   109         59
   110         79
   111         44
   112         14
   119         17
   122         76
   123         36
   125         24
   130         22
   140         32
   141         17
   176         15
   177          2
   178          5
   179          0