##TITLE=Library Entry 26211
##JCAMP-DX=Revision 4.10 
##DATA TYPE=MASS SPECTRUM
##SAMPLE DESCRIPTION=A.A.Kutin, Moscow, Russia
##NAMES=HP
##CAS NAME=2-Chloro-2,4-dimethylpentane
##MOLFORM=C7H15Cl
##CAS REGISTRY NO=35951-33-8
##MP= -300
##BP= -300
##MW= 134
##$RETENTION INDEX=0
##$CONDENSED SPECTRUM=NO
##NPOINTS= 89
##XYDATA=(XY..XY) 1 
    33          1
    34          1
    35         11
    36          5
    37          6
    38         16
    39        154
    40         53
    41        387
    42         63
    43        454
    44         21
    45          5
    46          3
    47         33
    48         12
    49         36
    50         11
    51         22
    52          6
    53         42
    54         36
    55        421
    56        185
    57        999
    58         52
    59          1
    60          1
    61          2
    62          3
    63         28
    64          2
    65         13
    66          3
    67         12
    68          4
    69         39
    70         14
    71         11
    72          1
    73          3
    74          1
    75         12
    76          2
    77         15
    78          2
    79         19
    80          1
    81          7
    82          6
    83         86
    84          6
    85         44
    86          1
    87          7
    88          0
    89          4
    90         81
    91        117
    92         31
    93         37
    94          2
    95          0
    97         82
    98         25
    99        545
   100         46
   101          2
   102          0
   103          7
   104          1
   105          0
   106          0
   107          5
   108          0
   109          2
   111          1
   112          0
   117          1
   118          1
   119          1
   120          1
   121          0
   122          0
   128          0
   132          0
   133          3
   134          0
   135          1