##TITLE=Library Entry 109925
##JCAMP-DX=Revision 4.10 
##DATA TYPE=MASS SPECTRUM
##SAMPLE DESCRIPTION=Div. of Experiment Therapeutics WRAIR, WRAMC, Washingto
n DC 20307
##NAMES=HP
##CAS NAME=1-[3,4,5-Trimethoxyphenyl]-3-[5-[2,4-diaminopyrimidinyl]]thiourea
##MOLFORM=C14H18N6O3S
##CAS REGISTRY NO=35967-26-1
##MP= -300
##BP= -300
##MW= 350
##$RETENTION INDEX=0
##$CONDENSED SPECTRUM=NO
##NPOINTS= 63
##XYDATA=(XY..XY) 1 
    41         55
    42         49
    43        254
    44         20
    45         86
    51         24
    52         50
    53        147
    54         92
    55        156
    56         54
    58         27
    65         62
    66         65
    67         49
    68        101
    69         50
    70         47
    80         61
    81         70
    82         61
    83         88
    85         18
    92         26
    93         42
    94         23
    95         21
    96         89
    97         75
    98         45
   108        121
   109         53
   110        150
   122         39
   124         26
   125        999
   126         63
   136         18
   137         26
   138         23
   139         18
   140        222
   142         87
   143         46
   149         66
   151         62
   152         60
   160         50
   167        416
   168        766
   169         56
   182         89
   183        348
   184         19
   208         18
   209         20
   210         74
   221         20
   223         18
   225        126
   226         21
   350        346
   351         51