##TITLE=Library Entry 4176
##JCAMP-DX=Revision 4.10 
##DATA TYPE=MASS SPECTRUM
##SAMPLE DESCRIPTION=Div. of Experiment Therapeutics WRAIR, WRAMC, Washingto
n DC 20307
##NAMES=HP
##CAS NAME=6-Cyclooctylamino-5,8-quinolinedione
##MOLFORM=C17H20N2O2
##CAS REGISTRY NO=35961-95-6
##MP= -300
##BP= -300
##MW= 284
##$RETENTION INDEX=0
##$CONDENSED SPECTRUM=NO
##NPOINTS= 160
##XYDATA=(XY..XY) 1 
    41        999
    42         41
    43        193
    44         11
    47         16
    49         91
    50         70
    51        152
    52         78
    53        214
    54        161
    55        504
    56         48
    57         36
    58          5
    62          8
    63         75
    64         25
    65         51
    67        371
    68        203
    69        250
    70         28
    71          3
    72          3
    74          3
    75         56
    76         86
    77        121
    78        208
    79        151
    80         35
    81        191
    82        156
    83         42
    84         48
    86         31
    88         12
    89         24
    90         87
    91         45
    92         22
    94        198
    95         45
    96         22
    97         26
    98          7
    99          4
   101          4
   102         98
   103         78
   104         58
   105         51
   106         76
   107         22
   108         18
   109         83
   110         71
   111         23
   112          1
   113          2
   114          2
   115          6
   116         32
   117         88
   118         60
   119         17
   120          8
   121          2
   122         15
   124         19
   125          6
   126          4
   127          2
   129         26
   130         52
   131         46
   132         26
   133         13
   134          9
   135          7
   136          8
   137          5
   140          6
   141          5
   142         11
   143         32
   144        137
   145         44
   146         68
   147         56
   148         51
   150         95
   151          8
   154          2
   155         16
   156         23
   157         41
   158         23
   159         41
   160         42
   161         10
   162          7
   167         33
   168         33
   169         40
   171         60
   172         24
   174        156
   175        514
   176        148
   177         17
   178         12
   181          5
   182          5
   183         19
   184         38
   185         99
   187        182
   188         39
   189         36
   190         12
   195         37
   196         15
   197         21
   199        106
   200         98
   201         67
   202         22
   203          5
   209          6
   211         20
   212         33
   213        379
   214         53
   215         23
   216         10
   223          2
   224          4
   225          7
   227         62
   228         14
   229         13
   237          2
   238          7
   239         14
   241         52
   242         13
   243          9
   252          1
   255         33
   256         24
   257          5
   267         12
   269         12
   283         19
   284        487
   285         83
   286         33
   287          2