##TITLE=Library Entry 53716
##JCAMP-DX=Revision 4.10 
##DATA TYPE=MASS SPECTRUM
##SAMPLE DESCRIPTION=Div. of Experiment Therapeutics WRAIR, WRAMC, Washingto
n DC 20307
##NAMES=HP
##CAS NAME=6-Bromo-.alpha.-[2-[1-butyrylpiperidyl]]-9-phenanthrenemethanol b
utyrate
##MOLFORM=C28H32BrNO3
##CAS REGISTRY NO=35960-05-5
##MP= -300
##BP= -300
##MW= 509
##$RETENTION INDEX=0
##$CONDENSED SPECTRUM=NO
##NPOINTS= 119
##XYDATA=(XY..XY) 1 
    41        161
    42         17
    43        644
    44         20
    45          2
    47          0
    49          4
    51          2
    53          4
    54         12
    55         56
    56         78
    57          6
    58          0
    60          4
    65          1
    67          9
    68         10
    69         10
    71        179
    72          6
    73          1
    75          0
    79          1
    80          4
    81          0
    82         20
    83         13
    84        999
    85         59
    86          2
    88          1
    94          1
    96          8
    97          4
    98          2
   107          0
   108          0
   110          2
   112          1
   114          1
   115          0
   124          0
   125          2
   126          2
   138          1
   140          1
   149          0
   150          3
   151          6
   152          8
   154        477
   155         32
   156          3
   163          1
   174          1
   175          3
   176         36
   177         29
   178         19
   179          2
   187          2
   188          2
   189         10
   190          3
   191          0
   200          1
   201          1
   202          5
   203          3
   204          1
   205          8
   206          4
   213          3
   214          2
   215         12
   216          7
   217          2
   226          0
   228          3
   229          2
   230          2
   231          0
   241          1
   242          1
   243          1
   255          2
   256          4
   257          3
   258          4
   269          1
   270          1
   271          3
   272          0
   283          5
   284          8
   285          9
   286          9
   287          3
   295          0
   296          0
   297          0
   310          1
   350          2
   351          1
   352          5
   353          0
   354          4
   355          0
   408          0
   421          0
   422         10
   423          2
   424          6
   425          1
   509          4
   510          2
   511          4
   512          0