##TITLE=Library Entry 5367
##JCAMP-DX=Revision 4.10 
##DATA TYPE=MASS SPECTRUM
##SAMPLE DESCRIPTION=J.A.ELVIDGE, UNIV. OF SURREY, GUILDFORD, SURREY, UK
##NAMES=HP
##CAS NAME=1-Piperazineethanimidamide, N-hydroxy-3,5-bis(hydroxyimino)-
##MOLFORM=C6H12N6O3
##CAS REGISTRY NO=35975-37-2
##MP= -300
##BP= -300
##MW= 216
##$RETENTION INDEX=0
##$CONDENSED SPECTRUM=NO
##NPOINTS= 13
##XYDATA=(XY..XY) 1 
    42        999
    55        200
    67        171
    69        186
    74        240
    83        157
    96        186
   143        186
   157         85
   164         31
   183         17
   184         21
   199        360