##TITLE=Library Entry 59053
##JCAMP-DX=Revision 4.10 
##DATA TYPE=MASS SPECTRUM
##SAMPLE DESCRIPTION=N.R.BAROT UNIV. OF SURREY, GUILDFORD, SURREY, UK
##NAMES=HP
##CAS NAME=2(3H)-Pyrazinone, 6-amino-4,5-dihydro-4-(phenylmethyl)-
##MOLFORM=C11H13N3O
##CAS REGISTRY NO=35975-16-7
##MP= -300
##BP= -300
##MW= 203
##$RETENTION INDEX=0
##$CONDENSED SPECTRUM=NO
##NPOINTS= 40
##XYDATA=(XY..XY) 1 
    39        210
    40         50
    41         30
    42        995
    43        110
    50         40
    51        120
    52         30
    57         50
    63         10
    64         40
    65        470
    69         80
    71         30
    77         40
    83         30
    84        760
    85         40
    89        120
    90         70
    91        999
    92        580
    93         40
   104         50
   106         50
   112        300
   113         20
   118         50
   120        130
   126         30
   131         40
   132        140
   133        480
   134         50
   145         40
   174         70
   175         10
   202         40
   203        820
   204         80