##TITLE=Library Entry 61726
##JCAMP-DX=Revision 4.10 
##DATA TYPE=MASS SPECTRUM
##SAMPLE DESCRIPTION=N.R.BAROT UNIV. OF SURREY, GUILDFORD, SURREY, UK
##NAMES=HP
##CAS NAME=Pyrazinamine, 3,4,5,6-tetrahydro-6-imino-4-(phenylmethyl)-
##MOLFORM=C11H14N4
##CAS REGISTRY NO=35975-20-3
##MP= -300
##BP= -300
##MW= 202
##$RETENTION INDEX=0
##$CONDENSED SPECTRUM=NO
##NPOINTS= 18
##XYDATA=(XY..XY) 1 
    41        120
    42        480
    43        130
    44        130
    65        120
    69         70
    83        250
    84        160
    91        999
    92        175
   111        150
   120        570
   133         70
   174         50
   175         15
   201         10
   202        250
   203         20