##TITLE=Library Entry 72827
##JCAMP-DX=Revision 4.10 
##DATA TYPE=MASS SPECTRUM
##SAMPLE DESCRIPTION=Div. of Experiment Therapeutics WRAIR, WRAMC, Washingto
n DC 20307
##NAMES=HP
##CAS NAME=N-[[2-Morpholinoethyl]]maleamic acid
##MOLFORM=C10H16N2O4
##CAS REGISTRY NO=35976-73-9
##MP= -300
##BP= -300
##MW= 228
##$RETENTION INDEX=0
##$CONDENSED SPECTRUM=NO
##NPOINTS= 63
##XYDATA=(XY..XY) 1 
    41         62
    42        239
    43         32
    44         36
    45         25
    46          2
    52          4
    53         15
    54         45
    55         64
    56        180
    57         28
    58          7
    59          2
    63          1
    66          2
    67          3
    68         12
    69         15
    70         57
    71         14
    72         29
    73          2
    78          2
    80          9
    81          4
    82         23
    83          7
    84          4
    85          7
    86          9
    87         11
    88          3
    95          3
    96          6
    97          3
    98         25
    99         45
   100        999
   101         64
   102          5
   107          2
   110         17
   111          3
   112          7
   113         28
   114          7
   123          4
   124         11
   125          2
   128          0
   129          0
   142          4
   157          0
   185          2
   209          5
   210         36
   211         14
   212          5
   226          0
   227          3
   228         10
   229          1