##TITLE=Library Entry 62268
##JCAMP-DX=Revision 4.10 
##DATA TYPE=MASS SPECTRUM
##SAMPLE DESCRIPTION=N.R.BAROT UNIV. OF SURREY, GUILDFORD, SURREY, UK
##NAMES=HP
##CAS NAME=2,6-Piperazinedione, 4-(phenylmethyl)-, dioxime
##MOLFORM=C11H14N4O2
##CAS REGISTRY NO=35975-18-9
##MP= -300
##BP= -300
##MW= 234
##$RETENTION INDEX=0
##$CONDENSED SPECTRUM=NO
##NPOINTS= 20
##XYDATA=(XY..XY) 1 
    42        110
    51         20
    55         20
    65        190
    67         40
    91        999
    92        430
   112         30
   143        520
   144         20
   145         20
   156         20
   157         60
   190         20
   203        190
   204         20
   217         80
   233         50
   234        380
   235         50