##TITLE=Library Entry 78653
##JCAMP-DX=Revision 4.10 
##DATA TYPE=MASS SPECTRUM
##SAMPLE DESCRIPTION=N.R.BAROT UNIV. OF SURREY, GUILDFORD, SURREY, UK
##NAMES=HP
##CAS NAME=2,6-Piperazinedione, 4-benzoyl-, 2-oxime
##MOLFORM=C11H11N3O3
##CAS REGISTRY NO=35975-25-8
##MP= -300
##BP= -300
##MW= 233
##$RETENTION INDEX=0
##$CONDENSED SPECTRUM=NO
##NPOINTS= 19
##XYDATA=(XY..XY) 1 
    41         60
    42        110
    43         10
    50         90
    51        290
    52         10
    74         30
    76         40
    77        710
    78         50
   104          5
   105        999
   106        120
   107          6
   201          4
   219          3
   220          2
   233         30
   234          3