##TITLE=Library Entry 85395
##JCAMP-DX=Revision 4.10 
##DATA TYPE=MASS SPECTRUM
##SAMPLE DESCRIPTION=Dmitri Zagorevskii, Scientific Instruments & Applicatio
ns
##NAMES=HP
##CAS NAME=(3Ar,6S,9as)-1,2,3,4,5,6,7,9a-octahydro-8-methyl-3a,6-methano-3ah
-cyclopentacycloocten-10-one
##MOLFORM=C13H18O
##CAS REGISTRY NO=359819-61-7
##MP= -300
##BP= -300
##MW= 190
##$RETENTION INDEX=0
##$CONDENSED SPECTRUM=NO
##NPOINTS= 86
##XYDATA=(XY..XY) 1 
    27        146
    28         28
    29         75
    38        208
    39         41
    40        288
    41         17
    42         48
    50         13
    51         65
    52         37
    53        141
    54         27
    55        114
    57          6
    63         25
    65         95
    66         38
    67        109
    68         20
    69         23
    77        200
    78         61
    79        293
    80         59
    81        103
    82         25
    83         14
    89          9
    91        326
    92         77
    93        189
    94         58
    95         59
    96         61
    97         16
   103         25
   104         17
   105        209
   106         63
   107         99
   108        999
   109        108
   110         15
   111          7
   115         39
   116         17
   117         70
   118         24
   119        170
   120         96
   121        109
   122         28
   123          8
   128         15
   129         21
   130         13
   131         42
   132         19
   133        128
   134        135
   135        281
   136         42
   143         11
   144         11
   145         22
   146          9
   147        143
   148         38
   149         99
   150         12
   157         19
   159         13
   161         50
   162         42
   163          9
   171         20
   172         10
   173         33
   175         53
   176         11
   177          8
   189         96
   190        697
   191        114
   192         11