##TITLE=Library Entry 1928
##JCAMP-DX=Revision 4.10 
##DATA TYPE=MASS SPECTRUM
##SAMPLE DESCRIPTION=NIST Mass Spectrometry Data Center
##NAMES=HP
##CAS NAME=3-(2,6-Dichlorophenoxy)prop-1-yne
##MOLFORM=C9H6Cl2O
##CAS REGISTRY NO=3598-66-1
##MP= -300
##BP= -300
##MW= 200
##$RETENTION INDEX=0
##$CONDENSED SPECTRUM=NO
##NPOINTS= 96
##XYDATA=(XY..XY) 1 
    12          4
    13          7
    18          9
    24          6
    25         31
    26         45
    35         29
    36         50
    37        336
    38        439
    39        999
    40         30
    44          4
    47         49
    48         16
    49         78
    50         75
    51         57
    52         10
    53        103
    54         10
    55         21
    60         51
    61        161
    62        294
    63        541
    64         31
    65         17
    66          6
    67          4
    71         15
    72        111
    73        463
    74        126
    75        290
    76         33
    77         11
    83        103
    84         40
    85         90
    86         20
    87         21
    89          4
    91          5
    95          6
    96         28
    97        127
    98         73
    99         97
   100         36
   101        145
   102        213
   103         19
   107        101
   109        116
   110         20
   111         50
   112         23
   113         10
   114          7
   121          2
   126         36
   128         11
   129          6
   130          3
   133        903
   135        601
   136        156
   137        379
   138         70
   139         95
   140          8
   145         17
   146         10
   147         13
   148          5
   161        333
   162         71
   163        220
   165        948
   166        107
   167        299
   168         29
   169          4
   171        432
   172         54
   173        262
   174         32
   175         52
   176          5
   200        397
   201         47
   202        255
   203         24
   204         42
   205          4