##TITLE=Library Entry 36704
##JCAMP-DX=Revision 4.10 
##DATA TYPE=MASS SPECTRUM
##SAMPLE DESCRIPTION=A.A.Kutin, Moscow, Russia
##NAMES=HP
##CAS NAME=Aniline, N,N-dimethyl-3,4-dinitro-
##MOLFORM=C8H9N3O4
##CAS REGISTRY NO=35998-95-9
##MP= -300
##BP= -300
##MW= 211
##$RETENTION INDEX=0
##$CONDENSED SPECTRUM=NO
##NPOINTS= 143
##XYDATA=(XY..XY) 1 
    35         12
    36          0
    37         20
    38         32
    39        110
    40         16
    41        167
    42        334
    43         68
    44        117
    45         14
    46        104
    47         26
    48          9
    49         13
    50         76
    51        157
    52         97
    53         84
    54         38
    55         91
    56         31
    57         85
    58          3
    59          3
    60          0
    61         38
    62        101
    63        335
    64         63
    65        170
    66        136
    67         77
    68        255
    69        999
    70         72
    71         31
    72         44
    73          8
    74        134
    75        135
    76         94
    77        124
    78         79
    79        145
    80         80
    81        122
    82         65
    83        100
    84         18
    85         57
    86          3
    87         23
    88         25
    89         20
    90         20
    91         68
    92        686
    93        113
    94         58
    95        129
    96         23
    97         24
    98         25
    99          7
   100          2
   101          1
   102         21
   103         26
   104         20
   105         37
   106        261
   107        360
   108         37
   109         18
   110          3
   111         20
   112         14
   113          5
   114          0
   115          3
   116          7
   117         25
   118        256
   119        762
   120         96
   121         24
   122        105
   123         83
   124          1
   125          5
   126          1
   127          4
   128          0
   130         10
   131          1
   132          1
   133          5
   134         29
   135         37
   136         33
   137         30
   138          2
   141          0
   143          1
   145          0
   147         16
   148          4
   149         15
   150          1
   151          0
   152          1
   153          3
   155          1
   157          0
   161          0
   162          1
   163          4
   164         11
   165          1
   166          0
   167          4
   168          2
   173          0
   175          0
   177          0
   178          0
   180          0
   181        174
   182         16
   183          0
   188          0
   189          0
   192          0
   193          0
   194          0
   195         12
   208          4
   209          0
   210         24
   211        795
   212         94
   213         11