##TITLE=Library Entry 25862
##JCAMP-DX=Revision 4.10 
##DATA TYPE=MASS SPECTRUM
##SAMPLE DESCRIPTION=Exported from NIST MS Search
##NAMES=HP
##CAS NAME=2-Hexanone, 1,1,1-trifluoro-
##MOLFORM=C6H9F3O
##CAS REGISTRY NO=360-34-9
##MP= -300
##BP= -300
##MW= 154
##$RETENTION INDEX=0
##$CONDENSED SPECTRUM=NO
##NPOINTS= 36
##XYDATA=(XY..XY) 1 
    41        730
    42        330
    43        130
    47         20
    50         20
    51         20
    53         20
    55         80
    56         20
    57        999
    58         60
    59         20
    64         20
    69        250
    75         20
    77         20
    84         20
    85        760
    86         50
    89         20
    91         30
    92         20
    97         20
   105         20
   112         30
   113         20
   115         20
   125         20
   126         20
   135          2
   136          2
   137          1
   139          1
   153          1
   154          2
   155          1