##TITLE=Library Entry 22867
##JCAMP-DX=Revision 4.10 
##DATA TYPE=MASS SPECTRUM
##SAMPLE DESCRIPTION=Zaikin V.G., TIPS RAS, Moscow, Russia
##NAMES=HP
##CAS NAME=N-Trifluoroacetylmorpholine
##MOLFORM=C6H8F3NO2
##CAS REGISTRY NO=360-95-2
##MP= -300
##BP= -300
##MW= 183
##$RETENTION INDEX=0
##$CONDENSED SPECTRUM=NO
##NPOINTS= 61
##XYDATA=(XY..XY) 1 
    26         39
    27        129
    29        128
    30         37
    31         30
    33          8
    39          3
    41         82
    42        535
    43         53
    45         29
    47          5
    50         23
    51          6
    52          5
    54         51
    55         46
    56        999
    57         89
    58         18
    59          3
    60          3
    68          4
    69        570
    70        235
    71          7
    72          5
    77          5
    78         50
    84        310
    85         19
    86        160
    87          6
    92          4
    96        176
    97         48
    98          9
   106         10
   109          5
   110         11
   114        362
   115         19
   125         20
   126        262
   127         28
   136          3
   138         11
   139        250
   140        140
   141         14
   152         13
   153        145
   154         25
   155         10
   164          4
   165          3
   168        648
   169         33
   182         14
   183        506
   184         31