##TITLE=Library Entry 7474
##JCAMP-DX=Revision 4.10 
##DATA TYPE=MASS SPECTRUM
##SAMPLE DESCRIPTION=NIST Mass Spectrometry Data Center
##NAMES=HP
##CAS NAME=Cholestan-3-ol, (3.beta.,5.beta.)-
##MOLFORM=C27H48O
##CAS REGISTRY NO=360-68-9
##MP= -300
##BP= -300
##MW= 388
##$RETENTION INDEX=3076
##$CONDENSED SPECTRUM=NO
##NPOINTS= 227
##XYDATA=(XY..XY) 1 
    15          7
    26         16
    27         79
    29        178
    30         21
    31         21
    38          8
    39         65
    40         18
    41        571
    42         83
    43        999
    45         35
    47          8
    50          7
    53        115
    54         44
    55        942
    56        130
    57        620
    58         48
    59         11
    65         47
    67        587
    68        154
    69        444
    70         66
    71        200
    72         13
    73         19
    75         38
    77        149
    78         50
    79        508
    80         93
    81        702
    82        164
    83        228
    84         33
    85         44
    86          9
    88         13
    91        396
    92         88
    93        685
    94        236
    95        734
    96        126
    97        149
    98         15
   100          6
   101         17
   102          7
   103         27
   104         18
   105        363
   106        207
   107        656
   108        543
   109        454
   110        116
   111        125
   112         15
   113          6
   115         31
   116         12
   117         66
   118         32
   119        266
   120        171
   121        398
   122        310
   123        275
   124        353
   125         70
   126         10
   127          8
   128         38
   129         26
   130         10
   131         90
   132         17
   133        238
   134        233
   135        356
   136        129
   137         98
   138         47
   139         16
   141         14
   142         18
   143         15
   144          8
   145        170
   146         75
   147        342
   148        225
   149        535
   150         95
   151         57
   152         93
   153         18
   154          6
   157         11
   158          9
   159        123
   160        110
   161        292
   162        132
   163        116
   164         39
   165        159
   166        154
   167         97
   168         22
   171          7
   173        115
   174         56
   175        150
   176         71
   177         58
   178         81
   179         36
   180          6
   182          9
   184          9
   185         14
   186          5
   187         84
   188         42
   189         74
   190         72
   191         72
   192         20
   193         17
   199         30
   201        145
   202         49
   203         47
   204         20
   205         25
   206         25
   208         19
   213         34
   214         17
   215        867
   216        315
   217        347
   218         77
   219        115
   220         27
   222         11
   229         40
   230         77
   231        103
   232         45
   233        654
   234        367
   235         61
   241          8
   242          6
   243         10
   244          5
   247         28
   248         58
   249         20
   254          5
   255         14
   256         10
   257         72
   258         26
   259          7
   260         15
   261         17
   262         67
   263         15
   264          8
   271          7
   273         21
   274         20
   275         12
   276         18
   277          8
   283          7
   285         18
   286         10
   287          9
   288         63
   289         29
   299          6
   301         15
   302          6
   313          6
   314          8
   315         21
   316         74
   317         24
   318          9
   327          8
   328         12
   329         35
   330         14
   331        118
   332         23
   333          7
   334          5
   345          7
   353         26
   354          8
   355        241
   356         83
   357         17
   358          9
   368          6
   369         12
   370        194
   371         63
   372         21
   373        445
   374        126
   375         11
   376          9
   378          4
   386         42
   387         12
   388        401
   389         92