##TITLE=Library Entry 85396
##JCAMP-DX=Revision 4.10 
##DATA TYPE=MASS SPECTRUM
##SAMPLE DESCRIPTION=Dmitri Zagorevskii, Scientific Instruments & Applicatio
ns
##NAMES=HP
##CAS NAME=(3Ar,6S,9ar)-1,2,3,4,5,6,7,9a-octahydro-8-methyl-3a,6-methano-3ah
-cyclopentacycloocten-10-one
##MOLFORM=C13H18O
##CAS REGISTRY NO=360068-20-8
##MP= -300
##BP= -300
##MW= 190
##$RETENTION INDEX=0
##$CONDENSED SPECTRUM=NO
##NPOINTS= 54
##XYDATA=(XY..XY) 1 
    27        149
    29         88
    38        210
    39         45
    40        297
    42         35
    51         69
    52         39
    53        146
    55        118
    57         32
    65        102
    66         43
    67        111
    69         29
    77        216
    78         67
    79        314
    80         67
    81        119
    82         29
    91        348
    92         81
    93        189
    94         83
    95         84
    96        213
    97         26
   103         31
   105        224
   106         86
   107         92
   108        999
   109        171
   115         44
   117         65
   119        118
   120         89
   121         90
   122         29
   131         34
   133        129
   134        146
   135        330
   136         45
   147        127
   148         37
   149        101
   161         33
   162         33
   175         47
   189         36
   190        687
   191        110