##TITLE=Library Entry 1365
##JCAMP-DX=Revision 4.10 
##DATA TYPE=MASS SPECTRUM
##SAMPLE DESCRIPTION=NIST Mass Spectrometry Data Center, 1994
##NAMES=HP
##CAS NAME=2,5-Dimethoxyphenethylamine
##MOLFORM=C10H15NO2
##CAS REGISTRY NO=3600-86-0
##MP= -300
##BP= -300
##MW= 181
##$RETENTION INDEX=0
##$CONDENSED SPECTRUM=NO
##NPOINTS= 91
##XYDATA=(XY..XY) 1 
    14          3
    15         38
    16          2
    18          2
    26          9
    27         18
    28         56
    29          2
    30        999
    31         19
    33          1
    37          2
    38         13
    39         78
    40         11
    41         20
    42         12
    43         12
    44          2
    45          2
    47          1
    50         24
    51         66
    52         29
    53         36
    54         17
    55         29
    57          1
    59          2
    61          2
    62          9
    63         28
    64         16
    65        104
    66         27
    67         18
    68          5
    69          4
    74          6
    75          5
    76         12
    77        115
    78         81
    79         48
    80          8
    81          6
    82          4
    86          1
    87          1
    89         14
    90         12
    91        102
    92         17
    93         17
    94         17
    95          6
   103          3
   104          9
   105         19
   106         16
   107         16
   108         27
   109         34
   110          3
   116          2
   117          4
   118          3
   119          4
   121         96
   122         26
   123         20
   124          1
   132          2
   133          6
   134          7
   135          4
   136          1
   137        289
   138         26
   139          2
   148          7
   149         12
   150         23
   151         39
   152        469
   153         42
   154          4
   164          2
   165          2
   181         86
   182          8