##TITLE=Library Entry 25021
##JCAMP-DX=Revision 4.10 
##DATA TYPE=MASS SPECTRUM
##SAMPLE DESCRIPTION=Japan AIST/NIMC Database- Spectrum MS-NW-8989
##NAMES=HP
##CAS NAME=tert-Butyl N-hydroxycarbamate
##MOLFORM=C5H11NO3
##CAS REGISTRY NO=36016-38-3
##MP= -300
##BP= -300
##MW= 133
##$RETENTION INDEX=0
##$CONDENSED SPECTRUM=NO
##NPOINTS= 61
##XYDATA=(XY..XY) 1 
    14          2
    15         14
    16          8
    17         10
    18         11
    26         11
    27         74
    28         69
    29        204
    30         73
    31         87
    32         14
    33         12
    34          1
    37          9
    38         21
    39        204
    40         43
    41        699
    42         51
    43        181
    44        316
    45         10
    46          1
    49          5
    50         21
    51         21
    52          6
    53         29
    54         11
    55        115
    56        303
    57        999
    58         53
    59        755
    60         32
    61          2
    62         12
    69         13
    70          2
    71          2
    72          5
    73          7
    74         17
    75          1
    77          2
    78         12
    85          1
    86          1
    87          6
    88          4
    89          2
    99          1
   100          2
   102          1
   115          4
   116          1
   118         19
   119          1
   133          3
   134          1