##TITLE=Library Entry 98667
##JCAMP-DX=Revision 4.10 
##DATA TYPE=MASS SPECTRUM
##SAMPLE DESCRIPTION=Japan AIST/NIMC Database- Spectrum MS-IW- 193
##NAMES=HP
##CAS NAME=Carbamic acid, [[(2,4,6-trimethylphenyl)sulfonyl]oxy]-, 1,1-dimet
hylethyl ester
##MOLFORM=C14H21NO5S
##CAS REGISTRY NO=36016-39-4
##MP= -300
##BP= -300
##MW= 315
##$RETENTION INDEX=0
##$CONDENSED SPECTRUM=NO
##NPOINTS= 137
##XYDATA=(XY..XY) 1 
    15          4
    16         21
    17         13
    18          3
    26          2
    27         29
    28         56
    29         25
    30        145
    31         13
    32          5
    34          1
    36          1
    37          2
    38          6
    39         67
    40          9
    41         71
    42         21
    43         43
    44         11
    45          5
    46          1
    48          2
    50         12
    51         39
    52         15
    53         29
    54          9
    55         39
    56        243
    57         29
    58         77
    59         12
    60          1
    61          1
    62          5
    63         20
    64          8
    65         42
    66          6
    67          6
    68          5
    69          4
    70         50
    71         26
    72         13
    73          5
    74          6
    75          6
    76          6
    77         86
    78         49
    79         37
    80          3
    81          2
    82         14
    83          4
    84          9
    85          5
    86         79
    87          6
    88          4
    89         10
    90          7
    91        184
    92         32
    93         12
    94          3
    95          2
    96          2
    97          3
    98          1
    99          1
   100         18
   101         23
   102         13
   103        244
   104         40
   105         90
   106         19
   107         13
   108          3
   109          1
   110          5
   111          1
   112          2
   113          1
   114          1
   115        100
   116         26
   117        739
   118        999
   119        237
   120         85
   121         26
   122          3
   123          2
   124          2
   125          3
   126          3
   127          8
   128          3
   129          1
   133          3
   134        616
   135        134
   136         18
   137          3
   138          2
   139          1
   140          1
   142          2
   143          4
   144          2
   149          2
   150          2
   151          2
   152          7
   153          1
   154          2
   164         51
   165         55
   166          9
   167          4
   168          1
   181          1
   182         30
   183          6
   184          3
   185          3
   198          3
   199          2
   200        958
   201        105
   202         53
   203          5