##TITLE=Library Entry 11031
##JCAMP-DX=Revision 4.10 
##DATA TYPE=MASS SPECTRUM
##SAMPLE DESCRIPTION=NIST Mass Spectrometry Data Center
##NAMES=HP
##CAS NAME=3,6-Dimethyl-6-hepten-4-yn-3-ol
##MOLFORM=C9H14O
##CAS REGISTRY NO=3601-67-0
##MP= -300
##BP= -300
##MW= 138
##$RETENTION INDEX=0
##$CONDENSED SPECTRUM=NO
##NPOINTS= 82
##XYDATA=(XY..XY) 1 
    13          1
    15         45
    16          1
    17          1
    18          3
    19          2
    25          1
    26         20
    27        146
    28         23
    29        114
    30          2
    31         10
    32          1
    36          1
    37         10
    38         26
    39        195
    40         35
    41         99
    43        999
    44         22
    45          8
    46          1
    49          5
    50         46
    51         87
    52         24
    53         73
    54          8
    55         61
    56          4
    57         67
    58          2
    61          8
    62         25
    63         53
    64         15
    65         79
    66         35
    67         73
    68          4
    69          8
    71          1
    72          4
    73          4
    74         13
    75         10
    76          6
    77         68
    78         18
    79         63
    80         10
    81         25
    82          3
    83          3
    85          1
    86          3
    87          2
    89          6
    91         39
    93         47
    94         13
    95         33
    96          3
    97          1
   102          1
   103          6
   105         14
   106          3
   107          6
   109        889
   110         66
   111          4
   119          1
   120          4
   121          5
   123        125
   124         11
   137         10
   138         28
   139          2