##TITLE=Library Entry 83961
##JCAMP-DX=Revision 4.10 
##DATA TYPE=MASS SPECTRUM
##SAMPLE DESCRIPTION=V.A.KOPTYUG, ATLAS OF MASS SPECTRA OF ORGANIC COMPOUNDS
##NAMES=HP
##CAS NAME=Benzeneamine, 3-hexyl-
##MOLFORM=C12H19N
##CAS REGISTRY NO=36042-29-2
##MP= -300
##BP= -300
##MW= 177
##$RETENTION INDEX=0
##$CONDENSED SPECTRUM=NO
##NPOINTS= 36
##XYDATA=(XY..XY) 1 
    51         25
    52         18
    53         20
    54         24
    55         17
    65         46
    66         22
    77         87
    78         36
    79         64
    80         12
    89         16
    90         13
    91         42
    92         26
    93         49
    94         38
   103         19
   104         13
   105         22
   106        372
   107        999
   108         73
   115         15
   117         20
   118         23
   119         33
   120        160
   121         44
   132         24
   134         19
   135         26
   175         11
   177        264
   178         48
   179         13