##TITLE=Library Entry 68346
##JCAMP-DX=Revision 4.10 
##DATA TYPE=MASS SPECTRUM
##SAMPLE DESCRIPTION=G.A.M.S., PARIS, FRANCE.
##NAMES=HP
##CAS NAME=Naphthalene, decahydro-1,2-dimethyl-
##MOLFORM=C12H22
##CAS REGISTRY NO=3604-14-6
##MP= -300
##BP= -300
##MW= 166
##$RETENTION INDEX=1228
##$CONDENSED SPECTRUM=NO
##NPOINTS= 81
##XYDATA=(XY..XY) 1 
    26          6
    27        160
    28        169
    29        222
    30          4
    38          2
    39        190
    40         39
    41        656
    42         78
    43        124
    44          6
    50          3
    51          5
    52         16
    53        148
    54        141
    56        672
    57         57
    58          3
    63          5
    64          2
    65         49
    66         61
    67        780
    68        301
    69        417
    70        227
    71        120
    72          5
    77         72
    78         17
    79        122
    80         52
    81        942
    82        386
    83        160
    84         61
    85         12
    91         46
    92          5
    93         50
    95        999
    96        996
    97        324
    98         23
    99          1
   103          2
   105          8
   106          2
   107         18
   108         48
   109        807
   110        294
   111        102
   113          3
   114          3
   115          2
   116          1
   117          1
   119          1
   121          5
   122         12
   123         73
   124         69
   125          8
   135          3
   136         21
   137        174
   138         38
   139          3
   149          5
   150          2
   151        390
   152         90
   153          6
   164          2
   165          5
   166        857
   167        114
   168          6