##TITLE=Library Entry 98975
##JCAMP-DX=Revision 4.10 
##DATA TYPE=MASS SPECTRUM
##SAMPLE DESCRIPTION=Chemical Concepts
##NAMES=HP
##CAS NAME=Phosphonous diamide, P-(1,1-dimethylethyl)-N,N,N',N'-tetramethyl-
##MOLFORM=C8H21N2P
##CAS REGISTRY NO=36050-72-3
##MP= -300
##BP= -300
##MW= 176
##$RETENTION INDEX=0
##$CONDENSED SPECTRUM=NO
##NPOINTS= 96
##XYDATA=(XY..XY) 1 
    26          4
    27         23
    29         46
    30         41
    31          1
    32          1
    33          4
    36          0
    37          0
    38          2
    39         26
    40          8
    41         74
    42         78
    43         23
    44        139
    45         53
    46         12
    47         16
    48          4
    49          5
    50          2
    51          2
    53          2
    54          0
    55         11
    56         18
    57         38
    58         48
    59         12
    60        138
    61         10
    62          6
    63          0
    69          0
    70          0
    71          2
    72          1
    73          3
    74         10
    75         57
    76        890
    77         28
    78          1
    79          1
    81          0
    83          0
    84          0
    85          0
    86         20
    87          4
    88          0
    89          1
    90         10
    91          4
    92         74
    93          5
    94          2
    96          0
   100          1
   102          1
   105          3
   106          0
   107          0
   108          0
   109          4
   110         12
   111          3
   112          4
   113          0
   114          0
   116          1
   117          1
   118          5
   119        999
   120         53
   121          1
   127          3
   129          0
   131          0
   132         48
   133          4
   135          7
   136          6
   137          0
   148          2
   149          1
   155          1
   156          6
   163          4
   164          0
   165          0
   167          2
   169          0
   176         18
   177          1