##TITLE=Library Entry 12067
##JCAMP-DX=Revision 4.10 
##DATA TYPE=MASS SPECTRUM
##SAMPLE DESCRIPTION=Chemical Concepts
##NAMES=HP
##CAS NAME=2,6-Dimethyl-2,6-octadiene-1,8-diol diacetate
##MOLFORM=C14H22O4
##CAS REGISTRY NO=36052-53-6
##MP= -300
##BP= -300
##MW= 254
##$RETENTION INDEX=1741
##$CONDENSED SPECTRUM=NO
##NPOINTS= 64
##XYDATA=(XY..XY) 1 
    27          7
    28          5
    29         11
    39         12
    40          4
    41         33
    42          4
    43        999
    44         10
    45          3
    53         15
    54          2
    55         18
    56          3
    57          4
    61          2
    65          6
    66          4
    67         46
    68         52
    69          8
    71          3
    77          5
    78          2
    79         12
    80          6
    81         11
    82          4
    83          5
    84        237
    85        103
    86          3
    91         12
    92         14
    93         26
    94          8
    95          5
    97          4
   105         14
   106         13
   107         12
   108          2
   109          8
   110          2
   119          6
   120          5
   121         12
   122          2
   123          5
   124          1
   126         43
   127         43
   128          3
   133          5
   134        240
   135         48
   136          4
   137          5
   151          3
   152         12
   153          2
   194          3
   195          5
   212          2