##TITLE=Library Entry 79770
##JCAMP-DX=Revision 4.10 
##DATA TYPE=MASS SPECTRUM
##SAMPLE DESCRIPTION=N.R.BAROT UNIV. OF SURREY, GUILDFORD, SURREY, UK
##NAMES=HP
##CAS NAME=2,6-Piperazinedione, 4-benzoyl-, dioxime
##MOLFORM=C11H12N4O3
##CAS REGISTRY NO=36064-37-6
##MP= -300
##BP= -300
##MW= 248
##$RETENTION INDEX=0
##$CONDENSED SPECTRUM=NO
##NPOINTS= 16
##XYDATA=(XY..XY) 1 
    40         30
    41         60
    42         90
    76         30
    77        850
    78         70
   105        999
   106        190
   122         20
   127         10
   143         30
   231        400
   232         50
   233         20
   248        130
   249         20