##TITLE=Library Entry 3837
##JCAMP-DX=Revision 4.10 
##DATA TYPE=MASS SPECTRUM
##SAMPLE DESCRIPTION=CARL DJERASSI DEPT OF CHEM STANFORD UNIV STANFORD CALIF
 94305
##NAMES=HP
##CAS NAME=7-Oxabicyclo[4.1.0]heptane, 3-methyl-
##MOLFORM=C7H12O
##CAS REGISTRY NO=36099-51-1
##MP= -300
##BP= -300
##MW= 112
##$RETENTION INDEX=0
##$CONDENSED SPECTRUM=NO
##NPOINTS= 40
##XYDATA=(XY..XY) 1 
    29        257
    31         19
    32         69
    38         19
    39        386
    40         79
    41        999
    42        633
    43        366
    44        188
    45          9
    51         39
    53        138
    54         69
    55        564
    56        435
    57        267
    58         49
    65         19
    66         19
    67        306
    68        445
    69        376
    70        376
    71         79
    77         29
    79        128
    81         59
    82         19
    83        178
    84        524
    85         29
    91          9
    93          9
    94         29
    96          9
    97        960
    98         39
   111         19
   112         39