##TITLE=Library Entry 16711
##JCAMP-DX=Revision 4.10 
##DATA TYPE=MASS SPECTRUM
##SAMPLE DESCRIPTION=Japan AIST/NIMC Database- Spectrum MS-IW-2863
##NAMES=HP
##CAS NAME=Ethyl trans-3-methyl-2-oxiranecarboxylate
##MOLFORM=C6H10O3
##CAS REGISTRY NO=36099-48-6
##MP= -300
##BP= -300
##MW= 130
##$RETENTION INDEX=0
##$CONDENSED SPECTRUM=NO
##NPOINTS= 57
##XYDATA=(XY..XY) 1 
    13          1
    14          8
    15         30
    16          1
    17          1
    18          2
    25          3
    26         57
    27        311
    28        147
    29        882
    30         56
    31        106
    32          4
    37          3
    38          7
    39         33
    40         15
    41         37
    42         43
    43        170
    44         15
    45        999
    46         39
    47          8
    53          2
    54          1
    55         31
    56         21
    57        453
    58        186
    59         12
    60          2
    61          1
    68          4
    69         59
    70          3
    71         29
    72          1
    73        184
    74        207
    75         16
    76          8
    83          1
    84        111
    85        153
    86         13
    87         50
    88          2
    99          2
   101          2
   102        461
   103         23
   104          5
   113          1
   115         25
   116          1