##TITLE=Library Entry 82700
##JCAMP-DX=Revision 4.10 
##DATA TYPE=MASS SPECTRUM
##SAMPLE DESCRIPTION=Japan AIST/NIMC Database- Spectrum MS-IW-4350
##NAMES=HP
##CAS NAME=N-Benzyl-4-bromobenzenesulfonamide
##MOLFORM=C13H12BrNO2S
##CAS REGISTRY NO=3609-87-8
##MP= -300
##BP= -300
##MW= 325
##$RETENTION INDEX=0
##$CONDENSED SPECTRUM=NO
##NPOINTS= 82
##XYDATA=(XY..XY) 1 
    27          2
    28          2
    30          1
    38          1
    39          6
    41          2
    50         19
    51         25
    52          6
    53          2
    62          1
    63          5
    64          2
    65         20
    66          1
    74          6
    75         31
    76         33
    77         81
    78         30
    79        104
    80          7
    89          5
    90          2
    91        104
    92          9
    93          9
    96          2
   103          2
   104         90
   105         48
   106        999
   107         87
   108          4
   109          1
   124          1
   131          1
   141         10
   142          1
   143          1
   145          1
   152          3
   153          1
   155         49
   156         12
   157         51
   158         11
   159          2
   165          2
   171          3
   172          4
   173          3
   174          3
   175          1
   177          1
   179          1
   180          2
   181          2
   182          1
   184          1
   203         21
   204          2
   205         21
   206          2
   207          1
   219         17
   220          2
   221         40
   222          4
   223         22
   224          1
   225          1
   246          1
   259          1
   260          3
   261          1
   262          3
   324          2
   325          5
   326          3
   327          5
   328          1