##TITLE=Library Entry 20332
##JCAMP-DX=Revision 4.10 
##DATA TYPE=MASS SPECTRUM
##SAMPLE DESCRIPTION=CARL DJERASSI DEPT OF CHEM STANFORD UNIV STANFORD CALIF
 94305
##NAMES=HP
##CAS NAME=Oxirane, 2-(1,1-dimethylethyl)-3-ethyl-, cis-
##MOLFORM=C8H16O
##CAS REGISTRY NO=36099-44-2
##MP= -300
##BP= -300
##MW= 128
##$RETENTION INDEX=0
##$CONDENSED SPECTRUM=NO
##NPOINTS= 14
##XYDATA=(XY..XY) 1 
    41        300
    42        300
    43        120
    45         10
    53         40
    54         20
    55        999
    56         60
    57        160
    59        130
    69         40
    70        780
    71        100
   113         10