##TITLE=Library Entry 19431
##JCAMP-DX=Revision 4.10 
##DATA TYPE=MASS SPECTRUM
##SAMPLE DESCRIPTION=V.G.Zaikin, TIPS, Russian Acad. Sci., Moscow
##NAMES=HP
##CAS NAME=N,N-Di(cyclohexyl)trifluoroacetamide
##MOLFORM=C14H22F3NO
##CAS REGISTRY NO=361-10-4
##MP= -300
##BP= -300
##MW= 277
##$RETENTION INDEX=0
##$CONDENSED SPECTRUM=NO
##NPOINTS= 87
##XYDATA=(XY..XY) 1 
    29        243
    30         15
    31         13
    38         12
    39        213
    40         36
    41        824
    42        100
    43        257
    44        100
    45         66
    50         27
    51         52
    52         13
    53         95
    54        158
    55        999
    56        148
    57        145
    58         32
    59         11
    65         20
    66         21
    67        288
    69        268
    70         85
    71         59
    72         12
    77         25
    78         14
    79         46
    80         21
    81        180
    82        400
    83        635
    84         79
    85         38
    95         21
    96         28
    97         51
    98         33
    99         10
   103          5
   105         10
   108          5
   110          7
   111         21
   112         14
   113          5
   114        116
   125         12
   126        170
   127         18
   137         51
   139        103
   140        135
   141         23
   148          8
   149         68
   150         10
   151          8
   152        246
   153         79
   154         12
   166         31
   167         12
   168          6
   176         31
   177         19
   178         15
   180         13
   194         45
   195         54
   196        383
   197         50
   208         24
   209          4
   210          6
   212          4
   220         38
   221          6
   222          2
   234         56
   235          8
   236          2
   277         36
   278          6