##TITLE=Library Entry 40453
##JCAMP-DX=Revision 4.10 
##DATA TYPE=MASS SPECTRUM
##SAMPLE DESCRIPTION=Patti Price, Georgia Bureau of Investigation, Decatur,
 Georgia
##NAMES=HP
##CAS NAME=Camazepam
##MOLFORM=C19H18ClN3O3
##CAS REGISTRY NO=36104-80-0
##MP= -300
##BP= -300
##MW= 371
##$RETENTION INDEX=2954
##$CONDENSED SPECTRUM=NO
##NPOINTS= 172
##XYDATA=(XY..XY) 1 
    42         25
    43          4
    44         59
    45          8
    50          1
    51         16
    56          9
    61          1
    62          1
    63          6
    64          1
    65          1
    66          1
    67          1
    69          3
    72        999
    73         40
    74          6
    75         18
    76          8
    77         43
    78          4
    81          1
    82          7
    83          3
    84          4
    85          1
    86          1
    87          3
    88          3
    89         15
    90          3
    91          1
    92          1
    94          1
    95         11
    96          6
    98          2
    99          3
   100          3
   101          2
   102         10
   103          1
   104          3
   105          6
   106          1
   107          1
   109          3
   110         31
   111          4
   112          3
   113          6
   114          6
   115         11
   116          1
   117          7
   118          1
   119          1
   120          1
   121          1
   123          2
   124          4
   125          7
   126          3
   127         14
   128          4
   134          1
   138          6
   139          3
   140          2
   141          1
   142          1
   150         12
   151         17
   152         15
   153          4
   154          1
   159          1
   160          1
   162          1
   163         10
   164          4
   165         28
   166          8
   167          2
   175          1
   176          2
   177         18
   178          9
   179          6
   180          6
   181          1
   188          1
   190          9
   191          4
   192          9
   193         12
   194          1
   195          1
   196          1
   198          1
   199          2
   200          1
   201          1
   202          1
   203          1
   204          3
   205         12
   206          2
   212          1
   213          1
   214          1
   215          1
   216          1
   217          1
   218          1
   219          4
   220          2
   221         26
   222          5
   226          1
   227         26
   228          8
   229          6
   230          3
   235          1
   236          1
   237          1
   238          2
   239         13
   240          2
   241          6
   242          8
   243          2
   244          2
   249          1
   253          5
   254          5
   255        116
   256        115
   257         72
   258         41
   259          7
   268          1
   269          8
   270          3
   271        228
   272         38
   273         82
   274          9
   281          1
   282          9
   283         35
   284         25
   285         11
   286          7
   287          1
   299         34
   300          3
   301         10
   302          1
   314         14
   315          2
   316          2
   328         15
   329          1
   330          4
   343          1
   371         33
   372          5
   373         13
   374          1