##TITLE=Library Entry 57102
##JCAMP-DX=Revision 4.10 
##DATA TYPE=MASS SPECTRUM
##SAMPLE DESCRIPTION=NIST Mass Spectrometry Data Center, 2007
##NAMES=HP
##CAS NAME=Ethanol, 2-[2-(2-methoxyethoxy)ethoxy]-, acetate
##MOLFORM=C9H18O5
##CAS REGISTRY NO=3610-27-3
##MP= -300
##BP= -300
##MW= 206
##$RETENTION INDEX=1392
##$CONDENSED SPECTRUM=NO
##NPOINTS= 66
##XYDATA=(XY..XY) 1 
    14          2
    15         41
    16          1
    18          1
    19          2
    26          6
    27         28
    28         66
    29        135
    30         13
    31        100
    32          2
    33          4
    39          2
    40          1
    41         12
    42         32
    43        727
    44         44
    45        225
    46          5
    47          1
    55          1
    56          1
    57         18
    58        309
    59        667
    60         26
    61          9
    69          1
    70         21
    71         10
    72          7
    73         28
    74          4
    75          6
    76          1
    77          1
    85          1
    86         18
    87        999
    88         58
    89        144
    90          7
    91          1
    99          9
   100          3
   101         20
   102         17
   103         51
   104          3
   105          1
   114          3
   115          6
   116          1
   117         10
   118          3
   119          1
   130          2
   131          8
   132          1
   133         12
   134          1
   147          2
   161          1
   163          1