##TITLE=Library Entry 31243
##JCAMP-DX=Revision 4.10 
##DATA TYPE=MASS SPECTRUM
##SAMPLE DESCRIPTION=Chemical Concepts
##NAMES=HP
##CAS NAME=Rhodium, chlorotris(trimethylphosphine)-, (sp-4-2)-
##MOLFORM=C9H27ClP3Rh
##CAS REGISTRY NO=36103-64-7
##MP= -300
##BP= -300
##MW= 366
##$RETENTION INDEX=0
##$CONDENSED SPECTRUM=NO
##NPOINTS= 130
##XYDATA=(XY..XY) 1 
    25          1
    26         15
    27         78
    29         18
    30          0
    31          4
    33         11
    34          4
    35         16
    36        126
    37          5
    38         39
    39         10
    40         11
    41        103
    42          5
    43          1
    44         67
    45        332
    46         55
    47        109
    48         10
    51          0
    52          0
    53          0
    54          1
    55          9
    56         45
    57        225
    58         78
    59        657
    60         56
    61        999
    62         24
    63          0
    67          0
    68          4
    69          4
    71          5
    72          2
    73         42
    74          3
    75        175
    76        653
    77         40
    78          2
    79          0
    81          0
    89          0
    90          0
    91         52
    92          2
    93          0
   103          1
   111          3
   113          1
   119          0
   134          0
   135          1
   137          0
   147         23
   148          8
   149          3
   150          4
   160          3
   161          2
   162          2
   163         16
   164          8
   165          9
   173          1
   174          1
   175          1
   176          5
   177          3
   178         56
   179         27
   180          4
   181          0
   183          0
   191          4
   192          1
   193          7
   194         17
   195          6
   196          0
   205          0
   207          3
   208          3
   209         13
   210          5
   211          3
   221          2
   222          0
   223         68
   224          9
   225         21
   226          8
   227          0
   235          3
   236          0
   237          3
   238          1
   239         50
   240          3
   250          1
   251          2
   252         13
   253         22
   254        242
   255         50
   256          2
   275          1
   289         11
   290        203
   291         16
   292         66
   293          4
   315          1
   329          0
   330          2
   331         10
   332          0
   351          2
   353          1
   365          1
   366        167
   367         17
   368         58
   369          4