##TITLE=Library Entry 56323
##JCAMP-DX=Revision 4.10 
##DATA TYPE=MASS SPECTRUM
##SAMPLE DESCRIPTION=H.Maurer ET AL.J.Chromatogr. 222,409(1981)
##NAMES=HP
##CAS NAME=5-Chloro-2'-fluoro-2-diethyaminoethylaminobenzophenone
##MOLFORM=C19H22ClFN2O
##CAS REGISTRY NO=36105-18-7
##MP= -300
##BP= -300
##MW= 348
##$RETENTION INDEX=2555
##$CONDENSED SPECTRUM=NO
##NPOINTS= 11
##XYDATA=(XY..XY) 1 
    44        167
    57         26
    58        147
    86        999
    87        225
   109         46
   123         49
   166         28
   348        125
   349         28
   350         43