##TITLE=Library Entry 38462
##JCAMP-DX=Revision 4.10 
##DATA TYPE=MASS SPECTRUM
##SAMPLE DESCRIPTION=Exported from NIST MS Search
##NAMES=HP
##CAS NAME=3-Furanol, tetrahydro-2,2,4,4-tetramethyl-
##MOLFORM=C8H16O2
##CAS REGISTRY NO=3611-76-5
##MP= -300
##BP= -300
##MW= 144
##$RETENTION INDEX=0
##$CONDENSED SPECTRUM=NO
##NPOINTS= 40
##XYDATA=(XY..XY) 1 
    15         81
    19          7
    26         18
    27        185
    28         33
    29        177
    30         11
    31         73
    37          6
    38         14
    39        172
    40         29
    41         65
    42         81
    43        512
    44         30
    45         52
    51         10
    53         53
    55        113
    56         50
    57         92
    58         24
    59        333
    60         12
    67         31
    68         96
    69         38
    71        999
    72         89
    73         16
    81         17
    83         26
    85         22
    86        202
    87         14
    97         17
    99         18
   111         10
   129          7