##TITLE=Library Entry 61829
##JCAMP-DX=Revision 4.10 
##DATA TYPE=MASS SPECTRUM
##SAMPLE DESCRIPTION=A.A.Kutin, Moscow, Russia
##NAMES=HP
##CAS NAME=Methanone, (2-benzyloxyphenyl)[2-(2-methoxyphenyl)-1-oxiranyl]-
##MOLFORM=C23H20O4
##CAS REGISTRY NO=36129-62-1
##MP= -300
##BP= -300
##MW= 360
##$RETENTION INDEX=0
##$CONDENSED SPECTRUM=NO
##NPOINTS= 168
##XYDATA=(XY..XY) 1 
    37          0
    38          6
    39         41
    40         18
    41         18
    42          2
    43         11
    44         14
    45          3
    50         14
    51         52
    52          9
    53          6
    54          1
    55          9
    56          2
    57          6
    58          0
    59          1
    60          3
    61          1
    62          7
    63         33
    64         25
    65        123
    66          8
    67          2
    68          1
    69          4
    70          1
    71          3
    72          1
    73          3
    74          4
    75          5
    76         22
    77         91
    78         25
    79         11
    80          1
    81          2
    82          1
    83          3
    84          1
    85          2
    87          2
    89         54
    91        999
    92        101
    93         19
    94          5
    95          2
    96          0
    97          1
    99          0
   101          2
   102          3
   103          5
   104         12
   105         43
   106          9
   107         78
   108          9
   109          2
   111          1
   113          0
   114          0
   115          6
   116          2
   117          3
   118         14
   119         16
   120         33
   121        185
   122         17
   123          2
   126          2
   127          2
   128          2
   129          3
   131          6
   133        116
   134         16
   135         47
   136          9
   137          3
   139          2
   140          0
   141          2
   145          1
   146          2
   147         13
   148         11
   149         22
   150          7
   151          5
   152         12
   153          6
   154          1
   155          1
   161          0
   163          3
   165         16
   166          3
   167          8
   168          3
   169          1
   174          1
   175          0
   176          5
   177          2
   178          3
   179          2
   181         17
   182          3
   183          3
   184          1
   185          0
   191          0
   193          2
   194          1
   195          8
   196          4
   197         10
   198          2
   205          1
   207          4
   208          2
   209          9
   210         10
   211        129
   212         21
   213         13
   214          0
   221          5
   222          3
   223         27
   224         10
   225          6
   226          3
   235          0
   236          1
   237          2
   238          2
   239          3
   240          6
   241          8
   242          1
   252         18
   253         52
   254         12
   255          1
   267          2
   269        130
   270         24
   271          3
   303          1
   313          2
   331          5
   332          4
   333          0
   342          1
   343          2
   344          3
   345          0
   360        127
   361         30
   362          4