##TITLE=Library Entry 60727
##JCAMP-DX=Revision 4.10 
##DATA TYPE=MASS SPECTRUM
##SAMPLE DESCRIPTION=Exported from NIST MS Search
##NAMES=HP
##CAS NAME=2,5-Hexanediol, 1,3,4,6-tetrachloro-
##MOLFORM=C6H10Cl4O2
##CAS REGISTRY NO=36120-61-3
##MP= -300
##BP= -300
##MW= 254
##$RETENTION INDEX=0
##$CONDENSED SPECTRUM=NO
##NPOINTS= 54
##XYDATA=(XY..XY) 1 
    49         43
    51         13
    75         44
    77         33
    78         27
    79        307
    80          9
    81        100
    87         92
    89         29
    91        999
    93        438
   104         43
   105        355
   106         13
   107        120
   109         69
   111         47
   113          7
   122         73
   123        209
   124         46
   125        135
   126         16
   127         55
   129         20
   139         19
   140         61
   141         13
   142         41
   143          2
   144          3
   151         12
   153          7
   155          3
   157         13
   158         30
   159         10
   160         28
   161          2
   162          9
   169        307
   171        200
   173         40
   183          2
   185          2
   187        141
   189        134
   191         41
   201         15
   203         13
   205         47
   207         43
   209         15