##TITLE=Library Entry 60765
##JCAMP-DX=Revision 4.10 
##DATA TYPE=MASS SPECTRUM
##SAMPLE DESCRIPTION=NIST Mass Spectrometry Data Center, 1992
##NAMES=HP
##CAS NAME=4-Piperidinone, 1-(phenylmethyl)-
##MOLFORM=C12H15NO
##CAS REGISTRY NO=3612-20-2
##MP= -300
##BP= -300
##MW= 189
##$RETENTION INDEX=0
##$CONDENSED SPECTRUM=NO
##NPOINTS= 107
##XYDATA=(XY..XY) 1 
    13          0
    14          5
    15         23
    16          0
    17          1
    18          3
    26         20
    27         83
    28        107
    29         16
    30         14
    31          1
    36          0
    37          3
    38         11
    39         92
    40         14
    41         58
    42        210
    43         29
    44          2
    46          3
    50         23
    51         54
    52         16
    53          9
    54         25
    55         51
    56         94
    57          9
    59          5
    61          2
    62         10
    63         42
    64          2
    65        187
    66         12
    67          2
    68          4
    69          2
    70          4
    71          8
    73          2
    74          4
    75          5
    76          7
    77         27
    78         10
    79          6
    80          1
    81          2
    82          6
    83         11
    84         26
    85          2
    86          1
    87          1
    89         39
    91        999
    92        222
    93         13
    94          0
    96          3
    98        254
    99         15
   100          1
   101          0
   102          1
   103          9
   104         33
   105         13
   106          6
   107          2
   112        193
   113         13
   114          1
   115          2
   116          2
   117         16
   118         52
   119         11
   120          2
   128          0
   129          1
   130         10
   131         11
   132          9
   133          1
   134          0
   142          0
   143          0
   144          2
   146         66
   147          8
   148          0
   158          2
   159          0
   160          0
   170          0
   171          0
   172          2
   173          0
   174          1
   188        148
   189        181
   190         25
   191          2