##TITLE=Library Entry 76091
##JCAMP-DX=Revision 4.10 
##DATA TYPE=MASS SPECTRUM
##SAMPLE DESCRIPTION=A.A.Kutin, Moscow, Russia
##NAMES=HP
##CAS NAME=Furan-2(5H)-one, 5-ethoxycarbonylmethyl-3,4-diphenyl-
##MOLFORM=C20H18O4
##CAS REGISTRY NO=36126-37-1
##MP= -300
##BP= -300
##MW= 322
##$RETENTION INDEX=0
##$CONDENSED SPECTRUM=NO
##NPOINTS= 210
##XYDATA=(XY..XY) 1 
    33          2
    34          0
    36          0
    37          1
    38          8
    39         55
    40          8
    42        203
    43         61
    44         13
    45         32
    46          0
    47          0
    48          0
    50         75
    51        175
    52         46
    53          6
    54          1
    55          5
    56          3
    57          1
    59          5
    60          9
    61          4
    62         18
    63         61
    64          9
    65         35
    66          4
    67          1
    68          1
    69         11
    70          4
    71          1
    72          1
    74         49
    75         66
    76        147
    77        495
    78         40
    79          4
    80          0
    81          0
    82          2
    83          0
    84          0
    85          0
    86          6
    87         15
    88         10
    89         31
    90         12
    91         68
    92          6
    94         17
    95          5
    96          1
    97          0
    98          6
    99          5
   102        999
   103        104
   105        719
   106         49
   107          2
   108          1
   110          1
   111          1
   113          5
   114         11
   115         79
   116         20
   117          8
   118          2
   119          1
   120          2
   121          2
   122          2
   123          1
   124          0
   125          2
   126         16
   127         20
   128         19
   129         22
   130         11
   131          4
   132          0
   133          1
   135          0
   136          0
   137          2
   138          2
   139         10
   140          1
   141          1
   142          0
   143          3
   144          7
   145          3
   146          2
   147          9
   148          1
   149          1
   150          9
   151         15
   152         20
   153          4
   154          0
   155          2
   156          1
   157          1
   158          2
   159          0
   160          1
   161          1
   162          2
   163          8
   164          6
   165         23
   166          5
   167          1
   168          0
   171          4
   172          6
   173          7
   174          3
   175          6
   176         26
   177         20
   178         65
   179         30
   180          4
   181          0
   185          0
   187          4
   189         34
   190         11
   191         19
   192          9
   193         14
   194          2
   195          0
   198          0
   199          4
   200         13
   201         12
   202         60
   203         45
   204         21
   205         17
   207        146
   208         20
   209          1
   210          0
   213          0
   215          0
   216          0
   217          2
   218          2
   219          3
   220          8
   221          3
   222          0
   223          1
   224          0
   229          0
   230          2
   231          7
   232         10
   233         14
   235        534
   236         81
   237         10
   238          1
   242          0
   247          2
   248          8
   249          5
   250          2
   251          3
   252          0
   253          0
   258          0
   260          0
   264          0
   266          0
   267          0
   275          0
   276          1
   277          1
   278          2
   279          0
   293          4
   294          5
   295          0
   296          0
   304          0
   306          0
   307          1
   308          0
   317          0
   319          2
   320          2
   321          4
   322         63
   323         12
   324          1
   325          0