##TITLE=Library Entry 64207
##JCAMP-DX=Revision 4.10 
##DATA TYPE=MASS SPECTRUM
##SAMPLE DESCRIPTION=A.A.Kutin, Moscow, Russia
##NAMES=HP
##CAS NAME=Propenone, 1-(2-benzyloxyphenyl)-3-(2-chlorophenyl)-
##MOLFORM=C22H17ClO2
##CAS REGISTRY NO=36121-02-5
##MP= -300
##BP= -300
##MW= 348
##$RETENTION INDEX=0
##$CONDENSED SPECTRUM=NO
##NPOINTS= 255
##XYDATA=(XY..XY) 1 
    33          0
    34          0
    35          0
    36          3
    37          1
    38          6
    39         38
    40          5
    41         11
    42          0
    43          2
    44          3
    45          0
    48          0
    50         13
    51         27
    52          5
    53          3
    54          0
    55          1
    56          0
    57          1
    58          0
    59          0
    60          0
    61          1
    62          6
    63         29
    64         21
    65        119
    66          7
    67          0
    68          0
    69          1
    70          0
    71          0
    73          2
    74          9
    75         34
    76         16
    77         14
    78          1
    79          0
    80          0
    81          0
    82          1
    83          1
    84          0
    85          1
    86          1
    87          3
    89         33
    91        999
    92        106
    93         12
    94          1
    95          0
    96          0
    97          1
    98          1
    99          3
   101         66
   102         29
   103          3
   104          2
   105          3
   106          0
   107          0
   108          0
   109          0
   110          0
   111          2
   112          0
   113          2
   114          1
   115          8
   116          2
   117          1
   118          3
   120         23
   121         88
   122          7
   123          2
   124          1
   125          4
   126          2
   127          2
   128          1
   129          0
   130          1
   131          1
   132          0
   133          1
   134         11
   136         17
   137         15
   138          7
   139         10
   140          1
   141          0
   142          0
   143          0
   144          0
   145          0
   147          5
   148          0
   149          4
   150          2
   151          4
   152          5
   153          1
   154          0
   155          0
   156          0
   157          0
   159          0
   160          0
   161          0
   162          1
   163          5
   164          8
   165         46
   166         17
   167          4
   168          1
   169          0
   173          0
   174          0
   175          1
   176          4
   177          2
   178          7
   179          5
   180          1
   181          4
   182          1
   183          1
   184          0
   185          0
   186          0
   187          0
   188          0
   189          1
   190          1
   191          3
   192          4
   193         29
   194          9
   195          4
   196          1
   197          0
   198          0
   199          1
   200          0
   201          4
   202          1
   203          1
   204          0
   205          2
   206          1
   207          6
   208          2
   209          2
   210          3
   211          1
   212          1
   214         97
   215         21
   216         31
   217          6
   218          1
   219          2
   221         21
   222          8
   223         30
   224          5
   225          1
   226          1
   227          5
   228         16
   229         11
   230          7
   231          3
   232          1
   233          0
   235          2
   236          0
   237         12
   238          2
   239          0
   240          0
   241          1
   242          0
   243          0
   244          2
   245          0
   246          0
   247          0
   251          0
   252          0
   253          0
   254          0
   257        150
   258         27
   259         49
   260          7
   261          0
   265          0
   266          0
   267          0
   268          0
   269          0
   270          1
   271          5
   272          1
   273          1
   274          0
   276          0
   277          0
   278          0
   281          0
   283          0
   284          0
   285          0
   293          0
   294          0
   295          5
   296          1
   297          0
   307          0
   308          0
   309          0
   310          0
   311          2
   313        142
   314         32
   315          4
   316          0
   317          0
   319          0
   328          0
   329          1
   330          2
   331          3
   332          1
   333          1
   334          0
   335          0
   345          0
   347          5
   348         14
   349          4
   350          4
   351          1
   352          0