##TITLE=Library Entry 62168
##JCAMP-DX=Revision 4.10 
##DATA TYPE=MASS SPECTRUM
##SAMPLE DESCRIPTION=A.A.Kutin, Moscow, Russia
##NAMES=HP
##CAS NAME=2-Propen-1-one, 3-[4-(dimethylamino)phenyl]-1-[2-(phenylmethoxy)p
henyl]-
##MOLFORM=C24H23NO2
##CAS REGISTRY NO=36121-08-1
##MP= -300
##BP= -300
##MW= 357
##$RETENTION INDEX=0
##$CONDENSED SPECTRUM=NO
##NPOINTS= 172
##XYDATA=(XY..XY) 1 
    33          1
    37          3
    39        154
    40         17
    41         49
    42        126
    43         16
    44         40
    45          4
    50         24
    51         80
    52         22
    53         13
    54          3
    55          7
    56          2
    57          2
    58          2
    60          0
    62         21
    63         75
    65        322
    66         18
    67          4
    68          2
    69          2
    70          3
    72          5
    74          7
    75         18
    76         34
    77        106
    78         24
    79         23
    80          4
    81          3
    82          2
    83          2
    86          2
    87          4
    89         77
    91        999
    92         95
    93         22
    94          5
    95          1
    96          2
    98          1
    99          0
   101         17
   102         60
   103         54
   104         49
   105         58
   106          7
   107          8
   108          2
   110          3
   113          2
   114          3
   115         19
   116         26
   117         33
   118         45
   119         44
   120         44
   121        134
   122         10
   125          3
   126          3
   127          7
   128         22
   129         30
   130         98
   131         77
   132         49
   134        819
   135         80
   136          5
   137          1
   139         10
   140          3
   141          7
   142          8
   144        107
   145        122
   146        194
   147        319
   148         34
   149          7
   150          4
   151          8
   152         24
   153         13
   154          5
   155          2
   156          1
   158          6
   159          6
   160          8
   161          8
   162          3
   163          8
   164         11
   165         85
   166         36
   167         14
   168          5
   169          1
   170          0
   172          2
   174         43
   175          6
   176          6
   177          6
   178         17
   179         11
   181         84
   182         14
   183          1
   189          1
   190          3
   191          6
   192          8
   193         17
   194         54
   195         19
   196          4
   204          3
   205          8
   206          6
   207         19
   208         29
   209          4
   210        230
   211         18
   219          7
   220         11
   221         36
   222         31
   223         27
   224          9
   225          1
   232          0
   233          3
   234         16
   236        154
   237         78
   238         37
   239          6
   247          3
   248          9
   250         82
   251         90
   252         16
   253          2
   261          0
   262          1
   264         20
   266        202
   267         37
   268          5
   339          1
   340          7
   341          2
   342          2
   353          2
   354          6
   357        451
   358         99
   359         13
   360          1