##TITLE=Library Entry 59794
##JCAMP-DX=Revision 4.10 
##DATA TYPE=MASS SPECTRUM
##SAMPLE DESCRIPTION=A.A.Kutin, Moscow, Russia
##NAMES=HP
##CAS NAME=Methanone, (2-benzyloxyphenyl)[3-(4-fluorophenyl)-2-oxiranyl]-
##MOLFORM=C22H17FO3
##CAS REGISTRY NO=36129-66-5
##MP= -300
##BP= -300
##MW= 348
##$RETENTION INDEX=0
##$CONDENSED SPECTRUM=NO
##NPOINTS= 156
##XYDATA=(XY..XY) 1 
    33          1
    37          1
    39         87
    40          6
    41         16
    42          1
    44          2
    45          0
    50         16
    51         61
    52          6
    53          4
    55          2
    57         11
    59          2
    60          0
    61          1
    62         11
    63         39
    65        145
    66          4
    67          0
    69          1
    70          4
    71          0
    74          3
    75         16
    76         20
    77         59
    78          6
    79          1
    81          6
    83         21
    84          1
    85          0
    86          1
    87          2
    89         34
    91        999
    92         95
    93          8
    94          4
    95         19
    96          2
    97          1
    98          0
    99          0
   101          7
   102          1
   103          2
   105         40
   107         26
   108         41
   109        106
   110          7
   111          0
   113          0
   114          0
   115          1
   118          1
   119          2
   120         26
   121         30
   122          5
   123         17
   124          2
   125          0
   126          0
   127          0
   128          0
   131          1
   133         77
   134          7
   136          7
   137          2
   138          4
   139          0
   144          0
   146          4
   147         24
   149          7
   150          1
   151          1
   152          5
   153          2
   154          0
   155          0
   156          0
   157          0
   159          0
   163          0
   164          0
   165          5
   166          1
   167          3
   168          0
   170          2
   171          2
   172          0
   176          0
   177          0
   178          1
   179          1
   181          6
   183          7
   184          2
   185          3
   186          0
   193          0
   194          0
   195          2
   196          1
   197          1
   198          8
   199         15
   200          2
   201          1
   205          0
   207          2
   208          1
   209          1
   211         46
   212          7
   213          3
   214          0
   215          0
   220          0
   221          0
   223         14
   224          7
   225          6
   226          1
   227          3
   228         14
   229          9
   230          1
   238          0
   239          2
   241         43
   242         27
   243          4
   244          0
   254          1
   255          1
   257         71
   258         10
   259          1
   291          0
   319          7
   320          1
   330          0
   331          0
   332          1
   348         16
   349          3
   350          0