##TITLE=Library Entry 40539
##JCAMP-DX=Revision 4.10 
##DATA TYPE=MASS SPECTRUM
##SAMPLE DESCRIPTION=Japan AIST/NIMC Database- Spectrum MS-IW-6279
##NAMES=HP
##CAS NAME=Octanal, 7-methoxy-3,7-dimethyl-
##MOLFORM=C11H22O2
##CAS REGISTRY NO=3613-30-7
##MP= -300
##BP= -300
##MW= 186
##$RETENTION INDEX=1839
##$CONDENSED SPECTRUM=NO
##NPOINTS= 69
##XYDATA=(XY..XY) 1 
    15          3
    27         15
    28          5
    29         26
    31          8
    39         16
    40          3
    41         70
    42         17
    43         60
    44          2
    45         14
    51          1
    53          8
    54          2
    55         68
    56         24
    57         14
    58          1
    59         32
    60          1
    61          2
    65          1
    67         13
    68          6
    69         66
    70          7
    71         11
    72         12
    73        999
    74         51
    75          6
    77          2
    79          7
    80          1
    81         54
    82          6
    83          9
    84          4
    85         24
    86          2
    87          1
    91          1
    93         11
    94          2
    95         32
    96          3
    97         13
    98          3
    99          4
   105          1
   107          2
   109          7
   110          7
   111         10
   112          3
   113          1
   121         17
   122          1
   123          1
   136          2
   137          8
   138          1
   139          6
   153          4
   154          1
   155          1
   171         23
   172          2