##TITLE=Library Entry 9772
##JCAMP-DX=Revision 4.10 
##DATA TYPE=MASS SPECTRUM
##SAMPLE DESCRIPTION=C.C.SWEELEY,K.KRISHNANGKURA,MICHIGAN STATE UNIV,EAST LA
NSING,
##NAMES=HP
##CAS NAME=Acetamide, N-[2,3-dihydroxy-1-(hydroxymethyl)heptadecyl]-, triace
tate (ester)
##MOLFORM=C26H47NO7
##CAS REGISTRY NO=3613-96-5
##MP= -300
##BP= -300
##MW= 485
##$RETENTION INDEX=0
##$CONDENSED SPECTRUM=NO
##NPOINTS= 176
##XYDATA=(XY..XY) 1 
    40          9
    41        155
    42         67
    43        999
    44         77
    45         34
    50          8
    51          6
    52          4
    53         10
    54         22
    55        129
    56         61
    57        198
    58         19
    59         33
    60        313
    61         21
    65          3
    66         14
    67         52
    68         42
    69         61
    70         37
    71         55
    72         44
    73         18
    74         17
    75          6
    77         45
    78         17
    79         20
    80         13
    81         35
    82         73
    83         63
    84        926
    85        182
    86         36
    87          4
    90          5
    91          6
    93         16
    94         16
    95         41
    96         73
    97         62
    98         47
    99         27
   100         10
   101         29
   102        355
   103         36
   105          4
   107          5
   108          9
   109         13
   110         28
   111         14
   112         20
   113          4
   114         66
   115         54
   116         17
   117          4
   119          5
   120          4
   121          9
   122         10
   123         21
   124         14
   125          4
   126         32
   127         17
   128          6
   130          6
   132         17
   134          4
   135         14
   136         19
   138         18
   139         17
   140         16
   141         26
   142         12
   144        500
   145        346
   146         22
   147         11
   148          4
   149          8
   150          6
   151         16
   154          4
   156         14
   157         39
   158         10
   159         11
   160          5
   163          3
   164          3
   165          6
   168         39
   169         10
   170          6
   174         16
   179          6
   180          3
   184          4
   186         28
   188          3
   193          3
   194          7
   196          6
   201         19
   207          6
   211          5
   212          9
   215         75
   216         10
   217          9
   218          9
   219         10
   220          4
   221          3
   222         23
   224          7
   234         13
   235          8
   237         13
   238          7
   239          4
   243          4
   246          3
   250         10
   251          6
   259          3
   262         10
   263          6
   264         16
   265         10
   266          4
   268         26
   269          6
   271          3
   279          3
   280         11
   281         12
   282         12
   285          9
   289          8
   291          6
   292         61
   294          8
   298          7
   299          6
   305         77
   306         29
   310         50
   312          5
   319          3
   322         11
   323         23
   324          4
   340          4
   352         54
   354          3
   365          7
   366         29
   367          3
   383         12
   412          4
   426          3
   429          4
   449          3
   450          4