##TITLE=Library Entry 61922
##JCAMP-DX=Revision 4.10 
##DATA TYPE=MASS SPECTRUM
##SAMPLE DESCRIPTION=A.A.Kutin, Moscow, Russia
##NAMES=HP
##CAS NAME=Methanone, (2-benzyloxy-1-naphthyl)[2-(1-naphthyl)oxiranyl]-
##MOLFORM=C30H22O3
##CAS REGISTRY NO=36136-65-9
##MP= -300
##BP= -300
##MW= 430
##$RETENTION INDEX=0
##$CONDENSED SPECTRUM=NO
##NPOINTS= 218
##XYDATA=(XY..XY) 1 
    33          0
    38          2
    39         23
    40          8
    41          8
    42          1
    44         12
    45          1
    50          5
    51         14
    52          3
    53          1
    55          3
    57          0
    60          0
    62          7
    63         19
    64          8
    65         76
    66          4
    69          2
    71          0
    73          1
    74          4
    75         10
    76          7
    77         21
    78          3
    79          1
    84          0
    86          3
    87          6
    88          9
    89         25
    91        999
    92         73
    93          2
    98          1
    99          1
   101         12
   102          5
   103          2
   104          0
   105          2
   106          0
   107          1
   111          0
   113         15
   114         32
   115         61
   116          6
   120          0
   121          2
   123          0
   125          6
   126         43
   127        109
   128         38
   129          4
   130          0
   131          2
   132          1
   133          1
   137          2
   138          6
   139         59
   140         28
   141         99
   142         21
   143          8
   144          6
   145          1
   149          1
   150          2
   151          8
   152         19
   153         32
   154         18
   155         89
   156         18
   157          2
   159          1
   163          0
   164          0
   165          2
   166          1
   167          6
   168         25
   169         46
   170         29
   171         45
   172          6
   173          0
   176          0
   178          0
   179          4
   180          1
   181          2
   183         84
   184         15
   185          2
   189          1
   190          0
   195          6
   196          4
   197          5
   198          0
   199          1
   200          0
   201          1
   202          6
   203          3
   204          1
   205          2
   206          0
   211          1
   213          1
   214          0
   215          5
   216          3
   217         11
   218          5
   219          4
   220          0
   224          0
   225          0
   226          2
   227          1
   228          1
   229          4
   230          4
   231         18
   232          6
   233          8
   234         36
   235          6
   236          0
   237          1
   238          0
   239          4
   240          2
   241          1
   242          2
   243          3
   244          2
   245          6
   246          3
   247          1
   248          0
   250          2
   251          1
   252          6
   253          4
   254          0
   255          1
   256          1
   257          2
   258          2
   260         35
   261         37
   262          7
   263          6
   264          2
   265         13
   266          3
   267          1
   268          3
   269          3
   270          0
   271          0
   273          4
   274         24
   275          6
   276          2
   277          1
   279          1
   281         10
   282          3
   283          4
   284          1
   286          1
   287          0
   292          1
   293          6
   294          2
   295          2
   296          4
   297          1
   304          0
   305          3
   306          1
   308          1
   309          1
   310          3
   311         10
   312          2
   321         18
   322          9
   323         26
   324         18
   325          4
   326          0
   339         17
   340          4
   341          0
   373          2
   374          0
   390          0
   400          0
   401         21
   402          6
   403          1
   412          0
   413          1
   414          1
   430         62
   431         18
   432          3