##TITLE=Library Entry 64312
##JCAMP-DX=Revision 4.10 
##DATA TYPE=MASS SPECTRUM
##SAMPLE DESCRIPTION=Chemical Concepts
##NAMES=HP
##CAS NAME=Anthracene, 9,10-dihydro-9,10-bis(phenylmethyl)-
##MOLFORM=C28H24
##CAS REGISTRY NO=3613-43-2
##MP= -300
##BP= -300
##MW= 360
##$RETENTION INDEX=0
##$CONDENSED SPECTRUM=NO
##NPOINTS= 159
##XYDATA=(XY..XY) 1 
    26          0
    27          0
    29          0
    31          0
    33          0
    36          0
    37          0
    38          0
    39         12
    40          0
    41          4
    42          0
    43          0
    44          0
    45          0
    49          0
    50          0
    51          4
    52          0
    53          0
    55          0
    56          0
    57          0
    59          0
    61          0
    62          0
    63          5
    64          1
    65         39
    66          2
    71          0
    73          0
    74          0
    75          1
    76          1
    77          2
    78          0
    79          0
    86          0
    87          1
    88          1
    89          5
    90          2
    91        999
    92         72
    93          2
    96          0
    98          0
    99          0
   101          0
   102          0
   103          0
   104          0
   105          0
   113          0
   115          1
   116          0
   117          0
   118          0
   119          0
   125          0
   126          2
   127          1
   128          1
   129          0
   130          0
   131          0
   132          0
   133          0
   134          0
   136          1
   137          0
   139          2
   140          0
   141          0
   144          0
   147          0
   149          0
   150          4
   151          9
   152         13
   153          1
   160          0
   161          0
   162          0
   163          1
   164          1
   165          4
   166          1
   167          0
   171          0
   172          0
   174          2
   175          4
   176         21
   177         14
   178        232
   179         40
   180          3
   181          0
   182          0
   186          0
   187          1
   188          1
   189          6
   190          3
   191         48
   192          8
   193          1
   200          0
   201          0
   202          1
   203          0
   205          0
   211          0
   213          0
   215          1
   216          0
   224          0
   226          1
   227          0
   228          0
   233          0
   234          0
   235          0
   236          0
   237          1
   238          0
   239          2
   240          0
   241          0
   248          0
   249          0
   250          1
   251          0
   252          6
   253          3
   254          0
   259          0
   260          0
   261          1
   263          4
   264          2
   265         12
   266          6
   267         13
   269        397
   270         89
   271         10
   272          0
   278          0
   279          0
   281          0
   282          0
   283          0
   357          0
   358          3
   359          1
   360          0