##TITLE=Library Entry 68358
##JCAMP-DX=Revision 4.10 
##DATA TYPE=MASS SPECTRUM
##SAMPLE DESCRIPTION=NIST Mass Spectrometry Data Center
##NAMES=HP
##CAS NAME=1,Cyanoacetyl-3,5-dimethylpyrazole
##MOLFORM=C8H9N3O
##CAS REGISTRY NO=36140-83-7
##MP= -300
##BP= -300
##MW= 163
##$RETENTION INDEX=0
##$CONDENSED SPECTRUM=NO
##NPOINTS= 63
##XYDATA=(XY..XY) 1 
    15          1
    25          1
    26          7
    27         21
    29          5
    30          5
    31          1
    37          6
    38         33
    39        175
    40        120
    41        100
    42         72
    43         14
    44          1
    47          1
    49          1
    50         14
    51         36
    52         50
    53         31
    54        117
    55         59
    56         21
    57          2
    61          3
    62         10
    63         23
    64          8
    65         60
    66         40
    67         95
    68        103
    69         33
    70          1
    77          1
    78          4
    79          5
    80         12
    81        120
    82         33
    83          6
    93          4
    94         13
    95        999
    96        866
    97         53
    98          1
   106          3
   107          2
   108         17
   109          5
   120          9
   121         62
   122         34
   123         29
   124          2
   134         19
   135        148
   136         17
   163        231
   164         22
   165          1