##TITLE=Library Entry 30964
##JCAMP-DX=Revision 4.10 
##DATA TYPE=MASS SPECTRUM
##SAMPLE DESCRIPTION=Japan AIST/NIMC Database- Spectrum MS-NW-3184
##NAMES=HP
##CAS NAME=Rhamnose
##MOLFORM=C6H12O5
##CAS REGISTRY NO=3615-41-6
##MP= -300
##BP= -300
##MW= 164
##$RETENTION INDEX=0
##$CONDENSED SPECTRUM=NO
##NPOINTS= 87
##XYDATA=(XY..XY) 1 
    12          2
    13          4
    14         20
    15         77
    16          6
    17         23
    18         89
    24          1
    25          4
    26         20
    27        100
    28         38
    29        235
    30         37
    31        273
    32         61
    33          7
    36          1
    37          2
    38          4
    39         30
    40          8
    41         51
    42        132
    43        279
    44         57
    45        346
    46          8
    47         27
    49          1
    50          1
    51          1
    52          1
    53         12
    54          9
    55         45
    56         83
    57        129
    58        167
    59         30
    60        999
    61         88
    62          8
    63          1
    68          1
    69         17
    70         13
    71        140
    72         51
    73        517
    74         64
    75         32
    76          2
    77          2
    81          3
    82          4
    83          9
    84          5
    85         16
    86          9
    87         14
    88          5
    89          9
    90          5
    91         12
    97          2
    98          1
    99          7
   100         25
   101          6
   102         44
   103          4
   104         15
   105          2
   106          4
   109          1
   110          2
   115          2
   117         20
   118          1
   119          3
   120          1
   128          3
   129          1
   133          6
   146          1
   147          1