##TITLE=Library Entry 10717
##JCAMP-DX=Revision 4.10 
##DATA TYPE=MASS SPECTRUM
##SAMPLE DESCRIPTION=Exported from NIST MS Search
##NAMES=HP
##CAS NAME=d-Glucose, 2,3,4,6-tetra-O-methyl-
##MOLFORM=C10H20O6
##CAS REGISTRY NO=3615-47-2
##MP= -300
##BP= -300
##MW= 236
##$RETENTION INDEX=0
##$CONDENSED SPECTRUM=NO
##NPOINTS= 50
##XYDATA=(XY..XY) 1 
    39          1
    41         38
    42         17
    43        999
    44         35
    45        314
    46          1
    47          1
    53         10
    55         15
    56          1
    57         10
    58         21
    59         30
    69         11
    70          1
    71        108
    72         14
    73         28
    74         32
    75         61
    81         10
    83          1
    85         28
    86          1
    87        165
    88         42
    89         47
    98         14
    99         31
   100          4
   101        542
   102         51
   103          8
   111          1
   113         54
   114          7
   115         11
   117        297
   118         14
   119         10
   129        240
   130         15
   131         28
   143          2
   145        165
   146         10
   161        154
   162         10
   205         21