##TITLE=Library Entry 28897
##JCAMP-DX=Revision 4.10 
##DATA TYPE=MASS SPECTRUM
##SAMPLE DESCRIPTION=Japan AIST/NIMC Database- Spectrum MS-IW- 67
##NAMES=HP
##CAS NAME=Ethanamine, 2,2-diethoxy-N,N-dimethyl-
##MOLFORM=C8H19NO2
##CAS REGISTRY NO=3616-56-6
##MP= -300
##BP= -300
##MW= 161
##$RETENTION INDEX=0
##$CONDENSED SPECTRUM=NO
##NPOINTS= 59
##XYDATA=(XY..XY) 1 
    15         15
    26          3
    27         23
    28         18
    29         62
    30         41
    31         12
    40          1
    41          7
    42         66
    43         39
    44         81
    45         42
    46          3
    47        388
    48          4
    49          2
    54          1
    55          3
    56         13
    57         19
    58        999
    59         50
    60          4
    61          8
    70         14
    71         14
    72        295
    73         43
    74          4
    75        324
    76         10
    77          1
    79         12
    81          4
    84          2
    85          1
    86         29
    87          4
    88         46
    89          6
   100          2
   101          1
   102          4
   103        429
   104         24
   105          2
   107          6
   109          2
   114          2
   115          9
   116        313
   117        150
   118          9
   130          2
   132          3
   160          1
   161         19
   162          3