##TITLE=Library Entry 71640
##JCAMP-DX=Revision 4.10 
##DATA TYPE=MASS SPECTRUM
##SAMPLE DESCRIPTION=Japan AIST/NIMC Database- Spectrum MS-NW-9649
##NAMES=HP
##CAS NAME=Piperidinoacetal
##MOLFORM=C11H23NO2
##CAS REGISTRY NO=3616-58-8
##MP= -300
##BP= -300
##MW= 201
##$RETENTION INDEX=0
##$CONDENSED SPECTRUM=NO
##NPOINTS= 75
##XYDATA=(XY..XY) 1 
    15          5
    18          1
    19          1
    26          2
    27         13
    28         16
    29         25
    30         13
    31         11
    39          7
    40          1
    41         56
    42         50
    43         14
    44         41
    45         22
    46          2
    47         63
    52          1
    53          3
    54          6
    55         54
    56         15
    57          4
    58          7
    59          2
    60          2
    61          7
    67          5
    68          6
    69         33
    70         43
    71          2
    72          3
    73          3
    75         65
    76          2
    79          2
    80          1
    81          2
    82          7
    83          7
    84         37
    85         13
    86          1
    89          2
    94          1
    96         18
    97          5
    98        999
    99         73
   100          2
   103         59
   104          3
   108          1
   110         14
   111          4
   112         34
   113          4
   124          2
   126         63
   127          5
   128          4
   142          6
   143          2
   153          1
   154          3
   155         16
   156        162
   157         53
   158          5
   199          1
   200          2
   201          3
   202          1