##TITLE=Library Entry 50438
##JCAMP-DX=Revision 4.10 
##DATA TYPE=MASS SPECTRUM
##SAMPLE DESCRIPTION=ASES Database, Dalian Institute, P.R. China
##NAMES=HP
##CAS NAME=2-(1-Hydroxycyclohexyl)-furan
##MOLFORM=C10H14O2
##CAS REGISTRY NO=36169-67-2
##MP= -300
##BP= -300
##MW= 166
##$RETENTION INDEX=0
##$CONDENSED SPECTRUM=NO
##NPOINTS= 29
##XYDATA=(XY..XY) 1 
    39        282
    41        292
    43        462
    44         61
    53        138
    55        171
    57        100
    65         80
    66        100
    69         59
    70        110
    77        100
    79        161
    81        999
    82        181
    83         49
    84         60
    91         89
    94        321
    95        872
    96         80
   107        149
   109         60
   110         50
   120         99
   138         99
   149          9
   166        351
   167         39