##TITLE=Library Entry 52181
##JCAMP-DX=Revision 4.10 
##DATA TYPE=MASS SPECTRUM
##SAMPLE DESCRIPTION=D.HENNEBERG, MAX-PLANCK INSTITUTE, MULHEIM, WEST GERMAN
Y
##NAMES=HP
##CAS NAME=Arsinous-76As chloride, dicyclohexyl-
##MOLFORM=C12H22AsCl
##CAS REGISTRY NO=3617-38-7
##MP= -300
##BP= -300
##MW= 276
##$RETENTION INDEX=0
##$CONDENSED SPECTRUM=NO
##NPOINTS= 84
##XYDATA=(XY..XY) 1 
    26          0
    27         43
    28          1
    29         46
    30          0
    35          0
    36          4
    37          0
    38          1
    39         50
    40          5
    41        197
    42          8
    43         13
    50          1
    51          5
    52          3
    53         36
    54         26
    55        405
    56         17
    57          0
    63          0
    65          6
    66          4
    67         64
    68          4
    69          4
    77          9
    78          2
    79         24
    80          8
    81         73
    82         16
    83        999
    84         60
    85          1
    89          6
    90          0
    91          1
    97          0
   100          0
   101          6
   102          2
   103          6
   104          0
   105          2
   110          2
   111          2
   112          0
   113          1
   114          1
   115          6
   116          2
   117         10
   125          2
   127          2
   128          1
   129         12
   130          1
   131         16
   132          0
   137          1
   139          1
   141          0
   143          0
   151          3
   153          1
   155          0
   157         12
   158          8
   159         10
   160          1
   161          1
   192          2
   193          1
   194          2
   195          0
   196          0
   242          2
   276         54
   277          7
   278         17
   279          2