##TITLE=Library Entry 1793
##JCAMP-DX=Revision 4.10 
##DATA TYPE=MASS SPECTRUM
##SAMPLE DESCRIPTION=V.Zaikin,Topchiev Inst.Petrochem.Synth.,Moscow
##NAMES=HP
##CAS NAME=Cyclononene
##MOLFORM=C9H16
##CAS REGISTRY NO=3618-11-9
##MP= -300
##BP= -300
##MW= 124
##$RETENTION INDEX=997
##$CONDENSED SPECTRUM=NO
##NPOINTS= 61
##XYDATA=(XY..XY) 1 
    24          2
    25          7
    26         58
    27        376
    28        160
    29        176
    30          5
    36          2
    37         21
    38         63
    39        999
    40        150
    41        936
    42        156
    43         28
    49          7
    50         78
    51        164
    52         94
    53        416
    54        714
    55        539
    56         54
    57         10
    61          7
    62         24
    63         64
    64         10
    65        159
    66        123
    67        988
    68        321
    70         17
    74          9
    75          6
    76          3
    77        160
    78         37
    79        193
    80         43
    81        609
    82        244
    83         42
    84          2
    86          2
    87          2
    89          6
    91         56
    92          7
    93          6
    94          6
    95        193
    96        281
    97         20
   103          2
   109         27
   110          2
   115          2
   123          2
   124         99
   125         11