##TITLE=Library Entry 57693
##JCAMP-DX=Revision 4.10 
##DATA TYPE=MASS SPECTRUM
##SAMPLE DESCRIPTION=Institute of Organic Chemistry, Novosibirsk, USSR 1988
##NAMES=HP
##CAS NAME=Dimethyl 2-methyldecane-1,10-dioate
##MOLFORM=C13H24O4
##CAS REGISTRY NO=36186-94-4
##MP= -300
##BP= -300
##MW= 244
##$RETENTION INDEX=0
##$CONDENSED SPECTRUM=NO
##NPOINTS= 119
##XYDATA=(XY..XY) 1 
    29        172
    30          5
    31         22
    38          8
    39         51
    40         13
    41        362
    42         89
    43        380
    44          6
    45         31
    53         24
    54         36
    55        508
    56        126
    57        130
    58         12
    59        253
    60         13
    61          4
    65         12
    66          6
    67         80
    68         56
    69        425
    70         60
    71         30
    72          9
    73         58
    74        237
    75         14
    77         13
    78          4
    79         29
    80         14
    81         93
    82         36
    83        244
    84         96
    85        330
    86         12
    87        126
    88        999
    89         45
    90         19
    91         10
    93         16
    94         15
    95         44
    96         43
    97        203
    98        273
    99         26
   100         24
   101        132
   102         13
   105          7
   107         25
   108         12
   109         32
   110         60
   111        122
   112        227
   113         24
   114         26
   115         25
   118          3
   119          3
   121          4
   122          4
   123         26
   124         32
   125        208
   126         31
   128         25
   129         51
   130          4
   132          3
   133          6
   134         11
   135         59
   136         15
   137         25
   138         67
   139        114
   140          9
   141         12
   142          6
   143          8
   146          5
   151          4
   152         68
   153        110
   154         13
   155          8
   156         13
   157        120
   158         21
   162         27
   163          5
   166          5
   167         13
   170         18
   171         44
   172          4
   179          2
   180        110
   181         12
   182          3
   183          2
   184         11
   185        105
   186         13
   187          5
   194          6
   195          3
   212         25
   213         42
   214          5