##TITLE=Library Entry 57705
##JCAMP-DX=Revision 4.10 
##DATA TYPE=MASS SPECTRUM
##SAMPLE DESCRIPTION=Institute of Organic Chemistry, Novosibirsk, USSR 1988
##NAMES=HP
##CAS NAME=Dimethyl 2-methylnonane-1,9-dioate
##MOLFORM=C12H22O4
##CAS REGISTRY NO=36186-93-3
##MP= -300
##BP= -300
##MW= 230
##$RETENTION INDEX=0
##$CONDENSED SPECTRUM=NO
##NPOINTS= 103
##XYDATA=(XY..XY) 1 
    29         81
    30          4
    31         14
    33          9
    39         53
    41        262
    42         59
    43         64
    44          6
    45         44
    46          3
    47          3
    51          4
    53         19
    54         15
    55        444
    56         99
    57        124
    58          9
    59        217
    60          4
    61          2
    67         45
    68         31
    69        300
    70         61
    71         14
    72          1
    73         44
    74        160
    75          3
    76          1
    77          1
    78          3
    79         14
    80          9
    81         45
    82         11
    83        179
    84         71
    87         84
    88        999
    89         50
    90          2
    91          1
    92          2
    93         24
    94         19
    95         34
    96         60
    97        257
    98        165
    99         11
   101         94
   102          9
   105          2
   106          2
   109         13
   110         62
   111        223
   112         70
   113          3
   115         24
   116          1
   117          1
   119          1
   120          4
   121         33
   122          4
   123          4
   124         23
   125         69
   126          9
   128         19
   129          7
   130          6
   132          4
   137         14
   138        104
   139        161
   140         19
   141          9
   142         14
   143        169
   144         19
   148         14
   149          5
   151          6
   156         14
   157         31
   158          3
   164          4
   165          9
   166        359
   167         41
   170         23
   171        160
   172         21
   180          2
   181          1
   198         22
   199         54
   200          7