##TITLE=Library Entry 23458
##JCAMP-DX=Revision 4.10 
##DATA TYPE=MASS SPECTRUM
##SAMPLE DESCRIPTION=P.A. Leclercq, Lab. Instrum. Anal., Eindhoven Univ. Tec
hnol., Netherlands
##NAMES=HP
##CAS NAME=Zinc(II) bis(N,N-diisobutyldithiocarbamate)
##MOLFORM=C18H36N2S4Zn
##CAS REGISTRY NO=36190-62-2
##MP= -300
##BP= -300
##MW= 472
##$RETENTION INDEX=0
##$CONDENSED SPECTRUM=NO
##NPOINTS= 173
##XYDATA=(XY..XY) 1 
    41        940
    42        505
    43        877
    44         65
    45        286
    46        102
    47        166
    48         90
    49         35
    50         39
    51         40
    52         26
    53        104
    54         85
    55        849
    56        581
    57        999
    58        140
    59         77
    60        158
    61         24
    62         45
    63          5
    64         16
    65          9
    66          8
    67         24
    68         60
    69         24
    70         70
    71         33
    72        284
    73        255
    74        157
    75        180
    76        110
    77         49
    78         16
    79         11
    80         33
    81         24
    82         93
    83         14
    84        222
    85         18
    86        125
    87         44
    88        122
    89        175
    90         97
    91         16
    92         16
    94         24
    95         12
    96         50
    97         16
    98         32
    99         20
   100         88
   101         14
   102         13
   105         19
   106         13
   108          5
   110         12
   111          5
   112         22
   113         12
   114        105
   115        344
   116        278
   117         37
   118         28
   122          5
   124         15
   126         14
   128         28
   129         14
   130         28
   131          5
   132         48
   133          5
   134          7
   137          7
   138         13
   139         15
   140        131
   141         16
   142         16
   146         13
   147         24
   148         52
   149         13
   150         13
   151          6
   152          5
   153         16
   154         24
   155         11
   156         62
   157          8
   158         16
   160         11
   161          8
   162          5
   168          7
   170         20
   171         24
   172        245
   173         93
   174         23
   180          7
   182         14
   184          9
   185          6
   186          7
   187          6
   188         15
   189          5
   202         23
   203         87
   204        100
   205         70
   206         16
   207          8
   212         40
   213          5
   214         26
   215          6
   216         16
   260          5
   267         16
   268        146
   269         28
   270         95
   271         31
   272         63
   273          9
   274          8
   295          8
   297          6
   299          7
   300         56
   301         20
   302         40
   303         18
   304         27
   305          8
   327         19
   329         13
   331          8
   351         22
   353         29
   354          7
   355         19
   356          6
   357          8
   383         59
   384         13
   385         51
   386         15
   387         30
   388          6
   439         11
   441          8
   443          6
   471         31
   472         76
   473         40
   474         62
   475         32
   476         38
   477          7