##TITLE=Library Entry 8726
##JCAMP-DX=Revision 4.10 
##DATA TYPE=MASS SPECTRUM
##SAMPLE DESCRIPTION=Humboldt-Universitat zu Berlin, Department of Chemistry
, Analytical Group
##NAMES=HP
##CAS NAME=2-Acetyl-3-benzylidene-hexahydropyrrolo[1,2-a]pyrazin-1,4-dione
##MOLFORM=C16H16N2O3
##CAS REGISTRY NO=36199-70-9
##MP= -300
##BP= -300
##MW= 284
##$RETENTION INDEX=0
##$CONDENSED SPECTRUM=NO
##NPOINTS= 132
##XYDATA=(XY..XY) 1 
    12          3
    13          3
    14         28
    15        302
    16          6
    17          7
    18         28
    26         15
    27        108
    28        190
    29         22
    30         22
    31          2
    37          6
    38         20
    39        178
    40         52
    41        402
    42        211
    43        999
    44         31
    45          5
    50         26
    51         45
    52         20
    53         17
    54         21
    55         44
    56         20
    57          5
    58          4
    61          5
    62         26
    63        103
    64         30
    65         33
    66         13
    67         13
    68        113
    69        104
    70        516
    71         27
    72          2
    74          8
    75         16
    76         23
    77         28
    78          8
    79          2
    80          3
    81          8
    82          3
    83          3
    84          5
    85          3
    86          3
    87          9
    88         23
    89        299
    90        161
    91         34
    92          3
    94          3
    95          2
    96         10
    97         15
    98         70
    99          5
   100          3
   101          7
   102         36
   103         15
   104          8
   105         12
   109          4
   112          5
   114         13
   115         27
   116        417
   117        288
   118         44
   119          5
   122          5
   123         11
   127          3
   128         11
   129         21
   130         34
   131         32
   132          6
   137         13
   141          4
   142          5
   143         13
   144         52
   145         25
   146          5
   154          3
   155          3
   156          6
   157         29
   158         19
   159         11
   165          3
   168          3
   169          4
   170          8
   171          8
   172         22
   173          7
   174          2
   184          3
   185         28
   186        290
   187         43
   188          4
   197         11
   198          3
   199          3
   200          3
   213         64
   214        187
   215         29
   216          3
   225         22
   226          3
   241         84
   242        452
   243         76
   244          8
   284         22
   285          6