##TITLE=Library Entry 30664
##JCAMP-DX=Revision 4.10 
##DATA TYPE=MASS SPECTRUM
##SAMPLE DESCRIPTION=Japan AIST/NIMC Database- Spectrum MS-NW-6931
##NAMES=HP
##CAS NAME=Uridine, 2',3'-O-(1-methylethylidene)-
##MOLFORM=C12H16N2O6
##CAS REGISTRY NO=362-43-6
##MP= -300
##BP= -300
##MW= 284
##$RETENTION INDEX=0
##$CONDENSED SPECTRUM=NO
##NPOINTS= 184
##XYDATA=(XY..XY) 1 
    14          4
    15         37
    16          1
    17          3
    18         10
    25          1
    26         38
    27         78
    28        105
    29         85
    30          9
    31        167
    32          3
    37          2
    38          9
    39        109
    40         92
    41        214
    42        104
    43        654
    44         50
    45         37
    46          2
    47          7
    48          1
    50          1
    51          5
    52         20
    53         56
    54         72
    55        138
    56         34
    57        361
    58         61
    59        999
    60         41
    61         15
    62          7
    63          1
    64          2
    65          3
    66          9
    67         75
    68        657
    69        487
    70        131
    71        347
    72         17
    73        140
    74          7
    75          2
    76         12
    77          2
    78          5
    79          9
    80         20
    81         29
    82         56
    83         39
    84        118
    85        267
    86        187
    87         40
    88          3
    89         10
    90          3
    91          1
    92          2
    93          2
    94         14
    95        135
    96         93
    97         96
    98        106
    99         14
   100         14
   101         84
   102          6
   103          2
   104          1
   106          2
   107          2
   108         19
   109         12
   110         20
   111         14
   112        210
   113        507
   114        328
   115        169
   116         11
   117          2
   119          1
   120          3
   121          1
   122         12
   123          6
   124         35
   125         27
   126        109
   127         21
   128          3
   129         85
   130          7
   131          2
   133          1
   134          3
   135          6
   136         50
   137        192
   138         70
   139         12
   140          3
   141         84
   142         40
   143          9
   144          3
   148         42
   149          6
   150          2
   151          5
   152         24
   153         12
   154          9
   155         28
   156          5
   157         47
   158          5
   159          1
   163          2
   164          3
   165          8
   166         20
   167        102
   168         10
   169          3
   170         29
   171          6
   172         37
   173        824
   174         77
   175         11
   176          1
   178          2
   179        145
   180         26
   181          7
   182          2
   183          3
   184          3
   191          7
   192          1
   194          1
   195         94
   196         22
   197          8
   198          3
   199          2
   207          1
   208          5
   209        137
   210         16
   211          3
   223          1
   224          1
   225          4
   226         42
   227         21
   228          3
   239          1
   240          1
   251          2
   253         44
   254          7
   255          2
   266          5
   267          2
   269        266
   270         38
   271          6
   272          1
   284         45
   285          9
   286          2