##TITLE=Library Entry 40429
##JCAMP-DX=Revision 4.10 
##DATA TYPE=MASS SPECTRUM
##SAMPLE DESCRIPTION=AAFS Toxicology Section MS DB Committee, U. Alberta, Ca
nada
##NAMES=HP
##CAS NAME=Propiomazine
##MOLFORM=C20H24N2OS
##CAS REGISTRY NO=362-29-8
##MP= -300
##BP= -300
##MW= 340
##$RETENTION INDEX=2738
##$CONDENSED SPECTRUM=NO
##NPOINTS= 194
##XYDATA=(XY..XY) 1 
    35          3
    36         10
    37          1
    38          4
    39          4
    40          1
    41          7
    42         19
    43         14
    44         29
    45         11
    50          2
    51          5
    52          2
    53          2
    54          1
    55         11
    56         18
    57         23
    58         11
    59         15
    60          2
    62          1
    63          8
    64          2
    65          4
    66          1
    67          2
    68          3
    69         16
    70         26
    71         21
    72        999
    73         51
    74          4
    75          5
    76          4
    77         13
    78          5
    79          8
    80          1
    81          5
    82          5
    83          5
    84          6
    85          9
    86          5
    87          6
    88          3
    89          9
    90          1
    91          5
    92          2
    93          3
    94          2
    95         10
    96          4
    97          5
    98         12
   100          2
   101          2
   102          3
   103          5
   104          4
   105          9
   106         24
   107          4
   108          5
   109          6
   110          1
   111          3
   112          2
   113          8
   115          3
   116          1
   117          2
   118          1
   119          2
   120          4
   121          4
   122          2
   123          1
   124          1
   125          2
   126          5
   127          7
   128          4
   129          2
   131          1
   133          3
   135          3
   136          2
   137          5
   138          2
   139         12
   140          5
   141          2
   145          3
   146          2
   147          2
   148          1
   149          2
   150          2
   151          4
   152          7
   153         10
   154         10
   155          2
   157          1
   158          1
   159          2
   163          1
   164          3
   165          2
   166          6
   167          6
   168          2
   169          4
   170          5
   171          9
   172          3
   173          1
   174          1
   177          2
   178          7
   179         13
   180          6
   181          1
   182          1
   183          4
   184          4
   185          1
   190          1
   191          2
   192          1
   193          3
   194          2
   195          1
   196         36
   197         49
   198         63
   199         14
   200          3
   201          1
   204          2
   205          1
   206          2
   207          2
   209          5
   210         15
   211          9
   212          9
   213          1
   215          1
   217          1
   218          1
   221          1
   222          3
   223          4
   224          4
   225          4
   226         22
   227          4
   228          2
   234          1
   235          1
   236         17
   237          4
   238          2
   239          1
   240          2
   250          1
   252          1
   254         43
   255         64
   256         13
   257          6
   258          1
   268         11
   269         36
   270          8
   271          4
   282          1
   283         27
   284          5
   285          2
   295          1
   296          1
   298          1
   299          1
   300          1
   340         27
   341          7
   342          2