##TITLE=Library Entry 16337
##JCAMP-DX=Revision 4.10 
##DATA TYPE=MASS SPECTRUM
##SAMPLE DESCRIPTION=NIST Mass Spectrometry Data Center
##NAMES=HP
##CAS NAME=Methylenedioxyamphetamine acetate
##MOLFORM=C12H15NO3
##CAS REGISTRY NO=36209-71-9
##MP= -300
##BP= -300
##MW= 221
##$RETENTION INDEX=1860
##$CONDENSED SPECTRUM=NO
##NPOINTS= 120
##XYDATA=(XY..XY) 1 
    14          4
    15         21
    18         13
    26          2
    27         15
    28         26
    29          9
    30          5
    31          2
    37          2
    38          6
    39         30
    40          6
    41         17
    42         49
    43        190
    44        999
    45         27
    46          1
    49          1
    50         22
    51        108
    52         20
    53         15
    54          3
    55          5
    56          5
    57          7
    58          2
    59          1
    60          1
    61          1
    62          7
    63         21
    64          5
    65         17
    66          5
    67          4
    68          2
    69          3
    70          5
    71          1
    73          7
    74          6
    75          7
    76         17
    77        168
    78         50
    79         34
    80          5
    81          1
    82          1
    85          1
    86        130
    87          8
    88          1
    89         11
    90          4
    91         13
    92          3
    93          3
    94          1
    95          1
   101          1
   102          6
   103         36
   104         50
   105         55
   106         22
   107          6
   108          1
   110          1
   111          1
   115          2
   116          1
   117          3
   118          4
   119          5
   120          5
   121          7
   122          8
   123          1
   128          1
   130          2
   131         45
   132         22
   133         11
   134         11
   135        272
   136         76
   137          6
   138          1
   145          1
   146          2
   147          9
   148          8
   149          2
   159          1
   160          2
   161         46
   162        830
   163         94
   164         16
   165          1
   174          1
   175          1
   176          1
   177          4
   178          6
   179          1
   188          1
   202          1
   203          3
   204          1
   205          1
   206          1
   207          1
   219          1
   221         39
   222          5