##TITLE=Library Entry 38275
##JCAMP-DX=Revision 4.10 
##DATA TYPE=MASS SPECTRUM
##SAMPLE DESCRIPTION=Chemical Concepts
##NAMES=HP
##CAS NAME=3-Buten-2-ol, 1-bromo-2-methyl-
##MOLFORM=C5H9BrO
##CAS REGISTRY NO=36219-40-6
##MP= -300
##BP= -300
##MW= 164
##$RETENTION INDEX=0
##$CONDENSED SPECTRUM=NO
##NPOINTS= 72
##XYDATA=(XY..XY) 1 
    26          7
    27         59
    28         10
    29         33
    31         15
    37          4
    38         10
    39         83
    40         17
    41        153
    42         34
    43        365
    44         11
    45         14
    49          2
    50         12
    51         21
    52          8
    53         58
    54          4
    55         51
    56         11
    57         70
    58         15
    59          6
    61          3
    62          3
    63          4
    65         11
    66          4
    67         55
    68         16
    69         64
    70         15
    71        999
    72         68
    73          4
    77          3
    79          9
    80          7
    81          7
    82          6
    83          3
    84          5
    85         19
    86          2
    91          3
    92          4
    93         30
    94          4
    95         26
    96          2
   107          3
   108          0
   109          3
   110          0
   119          4
   120          0
   121         17
   122          1
   123         16
   124          1
   136          3
   137         22
   138          5
   139         22
   140          2
   148          3
   149         62
   150          4
   151         51
   152          4