##TITLE=Library Entry 16694
##JCAMP-DX=Revision 4.10 
##DATA TYPE=MASS SPECTRUM
##SAMPLE DESCRIPTION=Chemical Concepts
##NAMES=HP
##CAS NAME=Propane, 1-chloro-3-methoxy-
##MOLFORM=C4H9ClO
##CAS REGISTRY NO=36215-07-3
##MP= -300
##BP= -300
##MW= 108
##$RETENTION INDEX=728
##$CONDENSED SPECTRUM=NO
##NPOINTS= 58
##XYDATA=(XY..XY) 1 
    25          4
    26         42
    27        134
    28         71
    29        254
    30         13
    31         32
    33         10
    34          0
    35          4
    36          8
    37         12
    38         23
    39        106
    40         22
    41        192
    42         22
    43         26
    45        999
    46         45
    47          7
    48          5
    49         46
    50          2
    51         18
    52          0
    53          2
    54          0
    55          4
    56          5
    57         15
    58          5
    59          2
    60          2
    61          7
    62          4
    63          8
    64          1
    65          2
    69          0
    71         34
    72         19
    73          4
    75          9
    76         82
    77          8
    78         26
    79          5
    81          1
    89          0
    91          0
    93         25
    94          1
    95          7
   108        104
   109          8
   110         34
   111          2