##TITLE=Library Entry 20174
##JCAMP-DX=Revision 4.10 
##DATA TYPE=MASS SPECTRUM
##SAMPLE DESCRIPTION=D.HENNEBERG, MAX-PLANCK INSTITUTE, MULHEIM, WEST GERMAN
Y
##NAMES=HP
##CAS NAME=4-Decene, 6-methyl-, (E)-
##MOLFORM=C11H22
##CAS REGISTRY NO=36229-57-9
##MP= -300
##BP= -300
##MW= 154
##$RETENTION INDEX=0
##$CONDENSED SPECTRUM=NO
##NPOINTS= 69
##XYDATA=(XY..XY) 1 
    25          0
    26          5
    27        131
    28          3
    29        161
    30          3
    33          0
    35          1
    38          3
    39         85
    40         11
    41        282
    42         40
    43        131
    44          0
    45          2
    47          0
    49          1
    50          2
    51          8
    52          3
    53         42
    54         19
    55        999
    56        309
    57        148
    58          6
    59          0
    61          0
    63          1
    65          9
    66          5
    67         45
    68         42
    69        325
    70        108
    71         10
    77          8
    78          0
    79         10
    80          1
    81         19
    82          4
    83         59
    84         61
    85          9
    86          0
    89          0
    91          3
    93          0
    95          4
    96         17
    97        236
    98         45
    99          4
   103          0
   104          0
   108          0
   109          0
   110          1
   111         22
   112         31
   113          2
   119          0
   120          0
   125          1
   152          0
   154         43
   155          5