##TITLE=Library Entry 47406
##JCAMP-DX=Revision 4.10 
##DATA TYPE=MASS SPECTRUM
##SAMPLE DESCRIPTION=NIST Mass Spectrometry Data Center, 1992
##NAMES=HP
##CAS NAME=Benzenesulfonamide, N-butyl-
##MOLFORM=C10H15NO2S
##CAS REGISTRY NO=3622-84-2
##MP= -300
##BP= -300
##MW= 213
##$RETENTION INDEX=1796
##$CONDENSED SPECTRUM=NO
##NPOINTS= 92
##XYDATA=(XY..XY) 1 
    14          1
    15         12
    17          4
    18         12
    25          1
    27         96
    28        104
    29         49
    30         97
    31          3
    32          4
    37          1
    38          5
    39         55
    40          9
    41         71
    42         19
    43         36
    44          8
    45          4
    47          1
    48          2
    50         66
    51        261
    52         24
    53          8
    54          3
    55          7
    56         14
    57          6
    58          1
    62          4
    63          6
    64          6
    65         15
    66          8
    67          1
    68          1
    69          4
    70          3
    71          2
    72         11
    73          3
    74         16
    75         16
    76          1
    77        999
    78        108
    79         15
    80          1
    81          2
    82          1
    89          0
    91          9
    92          9
    93          7
    94          9
    95          1
    96          1
    97         14
   104          2
   105          2
   106         10
   108          1
   109          3
   110          1
   117          1
   118          3
   119          2
   120          1
   125         19
   126          2
   127          1
   132         13
   133          1
   138          0
   141        985
   142         75
   143         50
   144          2
   158        132
   159         10
   160          6
   170        912
   171         84
   172         47
   173          4
   183          1
   184          3
   213         56
   214          6
   215          3