##TITLE=Library Entry 35432
##JCAMP-DX=Revision 4.10 
##DATA TYPE=MASS SPECTRUM
##SAMPLE DESCRIPTION=Exported from NIST MS Search
##NAMES=HP
##CAS NAME=3,7,11-Tridecatrienoic acid, 4,8,12-trimethyl-, methyl ester, (Z,
E)-
##MOLFORM=C17H28O2
##CAS REGISTRY NO=36237-70-4
##MP= -300
##BP= -300
##MW= 264
##$RETENTION INDEX=0
##$CONDENSED SPECTRUM=NO
##NPOINTS= 163
##XYDATA=(XY..XY) 1 
    15         81
    16          4
    17          2
    25          4
    26          6
    27        106
    28          4
    29         78
    30          4
    31          4
    37          4
    38          5
    39        146
    40         42
    41         61
    42         36
    43         61
    44          5
    45          6
    50         10
    51         29
    52         16
    53        136
    54         13
    55        144
    56          6
    57         17
    58          2
    59        106
    60          4
    61          4
    62          4
    63          6
    64          4
    65         29
    66         19
    67        171
    68        176
    69        999
    70         66
    71          5
    72          4
    73         16
    74          8
    75          8
    76          1
    77         46
    78         10
    79         65
    80         39
    81        404
    82         59
    83         16
    84          4
    85        106
    86         10
    87          6
    88          4
    89          4
    91         40
    92         16
    93        146
    94         29
    95        108
    96         53
    97         10
    98         10
    99          9
   100          1
   101          2
   102          1
   103          6
   104          5
   105         35
   106          8
   107         73
   108         23
   109         89
   110         10
   111          6
   112          4
   113          4
   114          4
   115          6
   116          1
   117          4
   118          1
   119         35
   120         21
   121        285
   122         76
   123        104
   124         29
   125          5
   126          2
   127         25
   128         31
   129          5
   131          2
   133          6
   134          8
   135         76
   136        119
   137         97
   138         10
   139          4
   140         15
   141         15
   142          2
   143          1
   145         10
   146          1
   147         19
   148          5
   149         31
   150          5
   151          2
   152          2
   153         35
   154          5
   155          2
   159          2
   160          1
   161         12
   162          4
   163         38
   164          6
   165          6
   166          1
   167          1
   168          1
   175          8
   176          4
   177         12
   178          4
   179          6
   180         16
   181         10
   182          6
   183          2
   189         10
   190         13
   191          4
   193         10
   194          4
   195         20
   196          2
   206          2
   208          2
   209          5
   214          4
   215          1
   216          2
   220          2
   221         53
   222         10
   223          1
   232          1
   233          6
   249          5
   264         95
   265         21
   266          4