##TITLE=Library Entry 34355
##JCAMP-DX=Revision 4.10 
##DATA TYPE=MASS SPECTRUM
##SAMPLE DESCRIPTION=Exported from NIST MS Search
##NAMES=HP
##CAS NAME=6,10,14-Hexadecatrienoic acid, 3,7,11,15-tetramethyl-, methyl est
er, [R-(E,E)]-
##MOLFORM=C21H36O2
##CAS REGISTRY NO=36237-72-6
##MP= -300
##BP= -300
##MW= 320
##$RETENTION INDEX=0
##$CONDENSED SPECTRUM=NO
##NPOINTS= 175
##XYDATA=(XY..XY) 1 
    15         47
    16          3
    17          6
    18         13
    24          6
    26          7
    27         60
    29         78
    30          2
    31          7
    38          6
    39        102
    40         31
    41        446
    42         38
    43         73
    44          1
    45          6
    50          9
    51         14
    52         10
    53        102
    54         18
    55        169
    56         23
    57         25
    59         75
    62          2
    63          6
    65         28
    66         18
    67        176
    68        171
    69        999
    70         64
    71          9
    73         46
    74         15
    77         36
    78          9
    79         50
    80         35
    81        401
    82         73
    83         32
    84          6
    85         46
    86          6
    87         11
    91         36
    92         28
    93        143
    94         47
    95        190
    96         34
    97         17
    98          5
    99         10
   100          2
   101         10
   102          5
   103          5
   104          2
   105         17
   106          7
   107         63
   108         50
   109        310
   110         55
   111         13
   112          5
   113          6
   114          3
   115         39
   116          5
   117          5
   118          2
   119         13
   120          6
   121        111
   122         85
   123        135
   124         26
   125          7
   127         36
   128          6
   129         11
   130          5
   131          5
   133          9
   134          5
   135         35
   136        210
   137        122
   138         15
   139          7
   140          2
   141          7
   143          2
   145          2
   147         11
   148          5
   149         28
   150          9
   151         21
   152         18
   153         10
   154          2
   155          5
   156          2
   157          2
   159          6
   161          5
   162          2
   163         21
   164         10
   165         10
   166          2
   167          3
   169          3
   171          2
   173          2
   175          6
   176          5
   177         63
   178         10
   179          5
   182         13
   183          7
   187          2
   189          3
   190          2
   191         34
   192          5
   193          3
   195          3
   196         26
   197          2
   201          5
   202          2
   203          5
   205          5
   206          3
   207          7
   208          3
   209         39
   210          7
   211          2
   219         14
   220          3
   221          5
   223          2
   224          2
   235         13
   236         28
   237         18
   238         15
   239          5
   249         10
   250          5
   251         85
   252         19
   253          2
   263          2
   264          5
   265          3
   272          3
   277         25
   278          7
   281          3
   289          3
   305          5
   320         57
   321         14
   322          2