##TITLE=Library Entry 76111
##JCAMP-DX=Revision 4.10 
##DATA TYPE=MASS SPECTRUM
##SAMPLE DESCRIPTION=CARL DJERASSI DEPT OF CHEM STANFORD UNIV STANFORD CALIF
 94305
##NAMES=HP
##CAS NAME=2-Propyn-1-one, 1-phenyl-
##MOLFORM=C9H6O
##CAS REGISTRY NO=3623-15-2
##MP= -300
##BP= -300
##MW= 130
##$RETENTION INDEX=0
##$CONDENSED SPECTRUM=NO
##NPOINTS= 25
##XYDATA=(XY..XY) 1 
    37         10
    38         20
    39         30
    49         10
    50        170
    51        350
    52         40
    53        190
    62         10
    63         20
    73         10
    74         90
    75         80
    76        190
    77        320
    78         20
   101         30
   102        999
   103         80
   104         10
   105         80
   106         10
   129         40
   130        890
   131         90