##TITLE=Library Entry 52633
##JCAMP-DX=Revision 4.10 
##DATA TYPE=MASS SPECTRUM
##SAMPLE DESCRIPTION=Exported from NIST MS Search
##NAMES=HP
##CAS NAME=8,12-Tetradecadienoic acid, 5-ethenyl-3,5,9,13-tetramethyl-, meth
yl ester
##MOLFORM=C21H36O2
##CAS REGISTRY NO=36237-73-7
##MP= -300
##BP= -300
##MW= 320
##$RETENTION INDEX=0
##$CONDENSED SPECTRUM=NO
##NPOINTS= 200
##XYDATA=(XY..XY) 1 
    15         54
    25          3
    26          8
    27         77
    28          9
    29         82
    30          3
    31          8
    38          7
    39        123
    40         40
    41        555
    42         45
    43         82
    44          2
    45         11
    50          7
    51         21
    52         11
    53        124
    54         23
    55        243
    56         21
    57         37
    58          2
    59        117
    60          3
    61          2
    62          2
    63          9
    65         29
    66         16
    67        235
    68        155
    69        858
    70         55
    71         18
    72          3
    73         68
    74         28
    75          7
    77         42
    78          9
    79         72
    80         31
    81        349
    82        176
    83        999
    84          8
    85         16
    87          9
    88          2
    89          2
    91         40
    92         14
    93        102
    94         63
    95        431
    96         75
    97         35
    98          3
    99         10
   101         18
   102          2
   103          4
   104          2
   105         21
   106         11
   107        161
   108         58
   109        298
   110         47
   111         32
   112          3
   113          9
   114          2
   115         31
   116          3
   117          2
   118          4
   119         16
   120          9
   121        180
   122         56
   123        214
   124         34
   125         14
   126          2
   127         15
   128          2
   129          4
   130          2
   131          2
   132          2
   133         16
   134          2
   135        103
   136         44
   137        140
   138         23
   139         22
   140          2
   141         11
   142          2
   143         21
   144          2
   145          7
   146          4
   147         10
   148          3
   149         64
   150         52
   151         32
   152          9
   153          8
   154          2
   155          3
   156          1
   157          2
   158          1
   159         18
   160          3
   161         16
   162          3
   163         42
   164         20
   165          8
   167          2
   168          9
   169         42
   170          8
   171         20
   172          2
   173          2
   175         21
   176          4
   177        131
   178         21
   179          9
   180          2
   181          3
   182          8
   183          8
   184          2
   185          2
   187          2
   188          1
   189          3
   190          2
   191         10
   192          2
   193          2
   195          9
   196          5
   197          3
   201         10
   202          2
   203         10
   204          2
   205         52
   206         41
   207         11
   208          2
   209         18
   210          2
   211          2
   215          2
   217          5
   218          2
   219         31
   220          5
   221          5
   223          8
   227          3
   231          3
   233          3
   235          7
   236         14
   237         11
   238         14
   239          3
   245          9
   246          4
   247          2
   249         21
   250          8
   251         29
   252          8
   263          2
   264          3
   271          3
   277         68
   278         18
   289         11
   290          2
   305         10
   306          3
   320         75
   321         21
   322          3