##TITLE=Library Entry 35431
##JCAMP-DX=Revision 4.10 
##DATA TYPE=MASS SPECTRUM
##SAMPLE DESCRIPTION=Exported from NIST MS Search
##NAMES=HP
##CAS NAME=3,7,11-Tridecatrienoic acid, 4,8,12-trimethyl-, methyl ester, (E,
E)-
##MOLFORM=C17H28O2
##CAS REGISTRY NO=36237-69-1
##MP= -300
##BP= -300
##MW= 264
##$RETENTION INDEX=0
##$CONDENSED SPECTRUM=NO
##NPOINTS= 144
##XYDATA=(XY..XY) 1 
    14          9
    15          3
    17          5
    24          1
    26          3
    27         52
    28         50
    29         50
    30          2
    31          2
    32          2
    35          1
    39         75
    40         23
    41        338
    42         26
    43         36
    45          3
    48          1
    49          1
    51         21
    52          6
    53         89
    54          9
    55         97
    56          3
    57         13
    59         75
    63          6
    65         18
    66         15
    67        110
    68        144
    69        999
    70         60
    71          2
    73          2
    75         17
    76          3
    77         35
    78         10
    79         52
    80         34
    81        376
    82         52
    83         13
    85        114
    86         15
    87          1
    89          2
    91         31
    92         15
    93        144
    94         25
    95        111
    96         50
    97          9
    98          2
    99          7
   101          1
   102          1
   103          2
   104          2
   105         23
   106          3
   107         64
   108         23
   109         46
   110          7
   111          3
   113          1
   115          2
   116          1
   117          1
   118          1
   119         22
   120         23
   121        363
   122         76
   123         97
   124         36
   125          2
   127         18
   128         23
   129          3
   131          2
   132          1
   133         10
   134         11
   135         86
   136         25
   137        126
   138         10
   140         15
   141         11
   145          5
   146          1
   147         32
   149         19
   150          2
   152          3
   153         63
   154          3
   155          1
   156          1
   159          1
   161         14
   162          3
   163         25
   164          3
   165          2
   167          1
   175          3
   176          1
   177         15
   178          1
   179         13
   180         26
   181         11
   182          9
   189          6
   190         23
   191          6
   193          9
   194          2
   195         17
   196          1
   205          9
   207          1
   208          7
   209          2
   220          1
   221         38
   222          3
   223          1
   232          1
   233          2
   249          2
   262          1
   263          1
   264         57
   265         15
   266          2
   267          1