##TITLE=Library Entry 34345
##JCAMP-DX=Revision 4.10 
##DATA TYPE=MASS SPECTRUM
##SAMPLE DESCRIPTION=Exported from NIST MS Search
##NAMES=HP
##CAS NAME=6,10,14-Hexadecatrien-1-ol, 3,7,11,15-tetramethyl-, [R-(E,E)]-
##MOLFORM=C20H36O
##CAS REGISTRY NO=36237-66-8
##MP= -300
##BP= -300
##MW= 292
##$RETENTION INDEX=0
##$CONDENSED SPECTRUM=NO
##NPOINTS= 128
##XYDATA=(XY..XY) 1 
    18          2
    19          4
    26          4
    27         73
    28          6
    29          9
    30          2
    31         66
    32          2
    38          2
    39         85
    40         30
    41        537
    42         38
    43        110
    44          5
    45         12
    50          1
    51         16
    52         11
    53         99
    54         13
    55        206
    56         23
    57         46
    58          2
    59          6
    65         22
    66         17
    67        160
    68        151
    69        999
    70         67
    71         26
    72          2
    77         33
    78          8
    79         52
    80         35
    81        357
    82         99
    83         41
    84         11
    85         55
    86          5
    91         31
    92         24
    93        128
    94         33
    95        220
    96         31
    97         22
    98         11
    99         99
   100          6
   101          1
   102          1
   103          4
   105         19
   106          4
   107         52
   108         24
   109        114
   110         24
   111         24
   112         11
   113          9
   119          9
   120          4
   121         95
   122         31
   123        129
   124         17
   125          9
   127          2
   133          2
   135         35
   136        197
   137        150
   138         19
   139         11
   140          2
   147          4
   148          1
   149         31
   150         12
   151          4
   153          4
   154          2
   161          2
   163         22
   164          4
   165          2
   167          4
   168          4
   175          1
   177         12
   178          4
   179         11
   180          1
   181          9
   182          2
   189          2
   191         24
   192          5
   193          2
   205         11
   206          4
   207          8
   208         13
   209         11
   210         12
   211          1
   219          1
   220          1
   221          6
   222          4
   223         51
   224          9
   236          4
   237          1
   249         22
   250          6
   277          4
   290          2
   291          1
   292         53
   293         15