##TITLE=Library Entry 60640
##JCAMP-DX=Revision 4.10 
##DATA TYPE=MASS SPECTRUM
##SAMPLE DESCRIPTION=NIST Mass Spectrometry Data Center, 1990.
##NAMES=HP
##CAS NAME=1,2,3,4,5,8-Hexahydronaphthalene
##MOLFORM=C10H14
##CAS REGISTRY NO=36231-13-7
##MP= -300
##BP= -300
##MW= 134
##$RETENTION INDEX=1147
##$CONDENSED SPECTRUM=NO
##NPOINTS= 55
##XYDATA=(XY..XY) 1 
    15          7
    26          7
    27         56
    28         30
    29         14
    38         15
    39        128
    40         19
    41         61
    43          4
    50         42
    51        107
    52         42
    53         45
    54          6
    55         14
    58         14
    62         18
    63         62
    64         29
    65        127
    66         33
    67         23
    74         17
    75         16
    76         21
    77        197
    78        197
    79        137
    80         36
    86          4
    87          5
    89         24
    91        999
    92        433
    93         78
    94          6
   101          4
   102         21
   103         63
   104        140
   105        211
   106        103
   107         10
   115         62
   116         21
   117         38
   118          4
   119        135
   120         12
   131         18
   132         43
   133         36
   134        324
   135         33