##TITLE=Library Entry 78768
##JCAMP-DX=Revision 4.10 
##DATA TYPE=MASS SPECTRUM
##SAMPLE DESCRIPTION=Chemical Concepts
##NAMES=HP
##CAS NAME=N-(5-Ethyl-1,3,4-thiadiazol-2-yl)benzamide
##MOLFORM=C11H11N3OS
##CAS REGISTRY NO=36231-88-6
##MP= -300
##BP= -300
##MW= 233
##$RETENTION INDEX=0
##$CONDENSED SPECTRUM=NO
##NPOINTS= 59
##XYDATA=(XY..XY) 1 
    33          5
    34         13
    35         36
    36         96
    37          3
    38         90
    39         64
    40          2
    41         23
    42         15
    43         23
    44         25
    45         56
    46         14
    47         13
    48          9
    50        184
    51        272
    52         21
    53          9
    54          9
    55          9
    56          9
    57         13
    58         24
    59         20
    60         14
    61          5
    62         10
    63         29
    64          5
    65          5
    69         77
    70          9
    71         15
    72         11
    73         38
    74         54
    75         46
    77        708
    78         46
    79          1
    94         10
    95          2
   105        999
   106         63
   107          5
   113         32
   114          5
   128          8
   129         11
   130          3
   205         37
   206          5
   207          1
   232         24
   233         15
   234          3
   235          1