##TITLE=Library Entry 83694
##JCAMP-DX=Revision 4.10 
##DATA TYPE=MASS SPECTRUM
##SAMPLE DESCRIPTION=GFS Chemicals / NIST MS Data Center.
##NAMES=HP
##CAS NAME=o-(p-Toluylsulfonamide)aniline
##MOLFORM=C13H14N2O2S
##CAS REGISTRY NO=3624-90-6
##MP= -300
##BP= -300
##MW= 262
##$RETENTION INDEX=0
##$CONDENSED SPECTRUM=NO
##NPOINTS= 87
##XYDATA=(XY..XY) 1 
    15          1
    18          4
    26          2
    27         16
    28         12
    29          2
    30          2
    37          1
    38          5
    39         38
    40          3
    41         12
    42          3
    43          2
    44          1
    45          1
    48          1
    50          9
    51         27
    52         37
    53         70
    54         14
    55          2
    62          5
    63         21
    64          9
    65         55
    66          4
    67          3
    69          1
    71          2
    74          1
    75          2
    76          4
    77          9
    78         16
    79         31
    80        263
    81         18
    82          1
    85          1
    87          1
    89         13
    90         11
    91         78
    92         12
    93          1
    95          1
   105         20
   107        999
   108         73
   109          2
   111          1
   118          1
   119          1
   121          1
   123          1
   124          3
   128          1
   132          1
   136          1
   137          1
   139          7
   140          1
   141          1
   153          1
   155         11
   156          3
   157          1
   166          1
   168          0
   169          1
   170          2
   171          1
   180          3
   181          3
   182         10
   183          8
   184          1
   195          2
   196          2
   197          8
   198          1
   262        141
   263         21
   264          7
   265          1