##TITLE=Library Entry 57005
##JCAMP-DX=Revision 4.10 
##DATA TYPE=MASS SPECTRUM
##SAMPLE DESCRIPTION=RZ-83-2
##NAMES=HP
##CAS NAME=D-Fructose, 3-O-methyl-
##MOLFORM=C7H14O6
##CAS REGISTRY NO=36256-85-6
##MP= -300
##BP= -300
##MW= 194
##$RETENTION INDEX=0
##$CONDENSED SPECTRUM=NO
##NPOINTS= 50
##XYDATA=(XY..XY) 1 
    31        919
    32        408
    33         72
    38          4
    39         48
    40          4
    41         76
    42         88
    43        456
    44         88
    45        168
    46          4
    47          4
    49          8
    55         48
    56          8
    57         88
    58        128
    59        108
    60         68
    61         68
    68          4
    69         48
    70          4
    71        144
    72         32
    73         64
    74        276
    75        112
    76          8
    77          4
    85         96
    86         28
    87        999
    88        112
    89         32
    99          8
   100        104
   101         28
   102          4
   103         80
   104         28
   117         28
   118         28
   144          4
   145         48
   146          8
   158          4
   163         80
   164          4