##TITLE=Library Entry 35378
##JCAMP-DX=Revision 4.10 
##DATA TYPE=MASS SPECTRUM
##SAMPLE DESCRIPTION=Chemical Concepts
##NAMES=HP
##CAS NAME=6,10-Dodecadien-3-ol, 3,7,11-trimethyl-
##MOLFORM=C15H28O
##CAS REGISTRY NO=3625-49-8
##MP= -300
##BP= -300
##MW= 224
##$RETENTION INDEX=0
##$CONDENSED SPECTRUM=NO
##NPOINTS= 130
##XYDATA=(XY..XY) 1 
    26          4
    27        102
    29        152
    30          3
    31         30
    37          0
    38          1
    39         97
    40          9
    41        728
    42         38
    43        274
    44          7
    45         45
    50          2
    51         12
    52          7
    53         99
    54         16
    55        280
    56         17
    57        169
    58         39
    59         11
    60          0
    63          1
    65         26
    66          9
    67        233
    68         96
    69        999
    70         65
    71         79
    72         12
    73        273
    74         12
    76          0
    77         39
    78          7
    79         72
    80         29
    81        848
    82        105
    83         84
    84         10
    85         24
    86          2
    87          0
    91         52
    92         18
    93        142
    94         42
    95        665
    96         69
    97         19
    98          2
    99         11
   103          3
   105         35
   106          9
   107        103
   108         31
   109        188
   110         20
   111         17
   112          0
   113         13
   114          0
   115          3
   116          0
   117          5
   118          1
   119         16
   120          5
   121        175
   122         60
   123        162
   124         25
   125         14
   126          0
   127          7
   128          0
   129          0
   131          7
   132          0
   133         13
   134          5
   135         44
   136        212
   137        631
   138         76
   139         15
   140          1
   141          0
   143          0
   145          5
   146          2
   147          8
   148          3
   149         41
   150         10
   151          5
   152          6
   153          5
   155          3
   159          8
   160          0
   161          4
   162          7
   163        139
   164         20
   165          0
   173          0
   175          0
   177        100
   178         15
   179          0
   181          4
   187          5
   189          0
   191         34
   192          5
   195          7
   202          2
   203          0
   205          4
   206        260
   207         44
   208          3
   209          5