##TITLE=Library Entry 45122
##JCAMP-DX=Revision 4.10 
##DATA TYPE=MASS SPECTRUM
##SAMPLE DESCRIPTION=Chuck Anderson, Aldrich Chemical Co.
##NAMES=HP
##CAS NAME=3-Bromopropionaldehyde dimethyl acetal
##MOLFORM=C5H11BrO2
##CAS REGISTRY NO=36255-44-4
##MP= -300
##BP= -300
##MW= 182
##$RETENTION INDEX=0
##$CONDENSED SPECTRUM=NO
##NPOINTS= 58
##XYDATA=(XY..XY) 1 
    15         11
    26         11
    27         58
    28         29
    29        100
    30          5
    31         88
    32          2
    33          2
    37          3
    38          7
    39         69
    40          8
    41        172
    42         17
    43         24
    44          6
    45        323
    46          7
    47        288
    48          5
    53          4
    55         30
    56         21
    57         37
    58          7
    59         22
    71        225
    72         14
    73          1
    75        999
    76         33
    77          5
    79          2
    80          2
    81          3
    82          2
    93         10
    94          2
    95         14
    97          2
   101          3
   106          2
   107          8
   109         10
   119          2
   121          2
   123          5
   125          5
   135          2
   137          1
   150         28
   151        223
   152         42
   153        217
   154         10
   181          8
   183          8