##TITLE=Library Entry 20364
##JCAMP-DX=Revision 4.10 
##DATA TYPE=MASS SPECTRUM
##SAMPLE DESCRIPTION=W.V. BROWN, CSIRO, BLACK MOUNTAIN, CANBERRA CITY, AUSTR
ALIA
##NAMES=HP
##CAS NAME=cis-2-Ethylcyclopentanecarboxaldehyde
##MOLFORM=C8H14O
##CAS REGISTRY NO=36258-05-6
##MP= -300
##BP= -300
##MW= 126
##$RETENTION INDEX=0
##$CONDENSED SPECTRUM=NO
##NPOINTS= 73
##XYDATA=(XY..XY) 1 
    38          6
    39        128
    40         25
    41        307
    42         94
    43        136
    44        145
    45        205
    46         38
    47         19
    50          6
    51         17
    52          8
    53         49
    54         20
    55        999
    56         72
    57        470
    58        410
    59         81
    60        145
    61         14
    62          5
    63          6
    64          1
    65         19
    66         89
    67        299
    68        239
    69        247
    70        897
    71        102
    72         17
    73        153
    74         29
    75         15
    76          3
    77         27
    78         12
    79        102
    80         39
    81         47
    82        504
    83        200
    84        136
    85        111
    86          6
    87          9
    88          6
    89          8
    90          3
    91         16
    92          1
    93        213
    94         18
    95        141
    96         17
    97        431
    98        145
    99          8
   102          3
   103          7
   104          6
   105          2
   107         10
   108        341
   109         24
   110          2
   111         40
   112          5
   125          5
   126         23
   127          2