##TITLE=Library Entry 9114
##JCAMP-DX=Revision 4.10 
##DATA TYPE=MASS SPECTRUM
##SAMPLE DESCRIPTION=P.A. Leclercq, Lab. Instrum. Anal., Eindhoven Univ. Tec
hnol., Netherlands
##NAMES=HP
##CAS NAME=Nickel, bis(dipentylcarbamodithioato-S,S')-, (SP-4-1)-
##MOLFORM=C22H44N2NiS4
##CAS REGISTRY NO=36259-37-7
##MP= -300
##BP= -300
##MW= 522
##$RETENTION INDEX=3969
##$CONDENSED SPECTRUM=NO
##NPOINTS= 238
##XYDATA=(XY..XY) 1 
    41        527
    42        187
    43        999
    44        177
    45         45
    46         10
    47         24
    50          5
    51          7
    52          5
    53         25
    54         24
    55        159
    56         60
    57         30
    58         10
    59         23
    60         95
    61         20
    62         12
    64          4
    65          6
    67         22
    68         28
    69        195
    70         60
    71        722
    72         41
    73         27
    74         27
    75         24
    76         47
    77         25
    78          6
    79          5
    80         12
    81          8
    82         18
    83          5
    84         34
    85         25
    86         25
    87         10
    88         27
    89         16
    91         10
    92          5
    93          4
    94         10
    95          5
    96         25
    97          5
    98         84
    99         20
   100         86
   101         35
   102         13
   103          5
   104          7
   105          7
   106          5
   108          9
   109          5
   110         37
   111          5
   112         75
   113         11
   114         20
   115         13
   116          6
   117         39
   118         19
   119         15
   120          7
   121          5
   122         11
   123          6
   124          6
   125         15
   126         20
   127         28
   128         34
   129         34
   130        338
   131         32
   132         25
   133          8
   134         13
   135          6
   136          9
   137          4
   138         10
   139          6
   140         10
   141          9
   142          8
   143          8
   144         25
   145          9
   146          8
   147         23
   148          5
   149         35
   150         22
   151         12
   152         20
   153          5
   154         48
   155         30
   156        191
   157         37
   158         22
   159         28
   160         12
   161         26
   162          7
   163          9
   164          9
   165          5
   166         19
   167          9
   168        162
   169         24
   170         15
   171          6
   172         17
   173         20
   174         11
   175         13
   176         10
   177          6
   178          5
   179          4
   180         13
   181         13
   182         13
   183          7
   184         15
   185         11
   186         37
   187         40
   188         34
   189         15
   190         12
   191          4
   192         23
   193          6
   194         39
   195          9
   196         20
   197          7
   198         31
   199         10
   200        211
   201         81
   202         35
   203         42
   204         11
   205         13
   212         10
   214         20
   215         25
   216         12
   217         12
   218          5
   219         10
   220         10
   222          9
   224          7
   226         29
   228         32
   229         22
   230         14
   231         11
   232         35
   233         37
   234         10
   235          5
   242          6
   244          4
   247          3
   252          6
   254          9
   255          7
   256         46
   257         27
   258         27
   259         12
   260          8
   261          8
   262          5
   290         65
   291         25
   292         29
   293          6
   294          7
   295          3
   299          4
   329         57
   330         12
   331          7
   335          3
   336          6
   343          3
   355         26
   356          7
   357         14
   358          4
   359          4
   387          3
   389          8
   391          4
   400          5
   412          3
   413          3
   414          4
   457          5
   458          5
   459          5
   460          3
   488          4
   489          8
   490        182
   491         50
   492        100
   493         25
   494         22
   495          8
   496          5
   520          8
   521         17
   522        626
   523        190
   524        392
   525        106
   526         94
   527         23
   528         23