##TITLE=Library Entry 72772
##JCAMP-DX=Revision 4.10 
##DATA TYPE=MASS SPECTRUM
##SAMPLE DESCRIPTION=HOME OFFICE, CENTRAL RES. EST., ALDERMASTON, BERKS., U.
K.
##NAMES=HP
##CAS NAME=4-Morpholinebutyric acid, .beta.-methyl-.alpha.,.alpha.-diphenyl-
##MOLFORM=C21H25NO3
##CAS REGISTRY NO=3626-55-9
##MP= -300
##BP= -300
##MW= 339
##$RETENTION INDEX=0
##$CONDENSED SPECTRUM=NO
##NPOINTS= 22
##XYDATA=(XY..XY) 1 
    35         10
    36         80
    38         30
    41         20
    42         40
    43         10
    44         10
    55         20
    56         70
    57         10
    70         20
    77         10
    91         20
   100        999
   101         60
   105         10
   115         20
   127         10
   128         20
   165         20
   178         10
   193         10