##TITLE=Library Entry 15874
##JCAMP-DX=Revision 4.10 
##DATA TYPE=MASS SPECTRUM
##SAMPLE DESCRIPTION=Exported from NIST MS Search
##NAMES=HP
##CAS NAME=Glycine, N-[N-[N-[N-[cis-4-hydroxy-1-[N-[N-[(3-hydroxy-2-pyridiny
l)carbonyl]-L-threonyl]-D-leucyl]-D-prolyl]-N-methylglycyl]-N,3-dimethyl-L-l
eucyl]-L-alanyl]-N-methyl-L-2-phenyl-, methyl ester
##MOLFORM=C45H66N8O12
##CAS REGISTRY NO=36261-15-1
##MP= -300
##BP= -300
##MW= 910
##$RETENTION INDEX=0
##$CONDENSED SPECTRUM=NO
##NPOINTS= 422
##XYDATA=(XY..XY) 1 
    31        309
    32        214
    36        119
    37         42
    38        119
    39        571
    40        100
    41        576
    42        823
    43        419
    44        999
    45         47
    50         76
    51        123
    52         76
    53         85
    54        100
    55        285
    56        352
    57        304
    58        190
    60         52
    63         52
    64         47
    65        159
    66        180
    67        226
    68        252
    69        166
    70        247
    71        150
    72         76
    73        499
    74         71
    76         40
    77        180
    78        154
    79        102
    80         47
    81         71
    82         80
    83        107
    84        100
    85         47
    86        999
    87         61
    89         61
    90         71
    91        373
    92         71
    93        157
    94        504
    95        357
    96         61
    97         57
    98         76
    99         47
   100        214
   101         33
   102         23
   103         28
   104         47
   105         64
   106         42
   107         33
   108         88
   109         47
   110         40
   111         71
   112        133
   113        171
   114        599
   115         47
   116         19
   117         40
   118        421
   119        100
   120        523
   121        207
   122        409
   123        166
   124         30
   125         28
   126        109
   127         40
   128         19
   129         28
   130         11
   131         16
   132         50
   133         28
   134         28
   135         28
   136         47
   137         28
   138         95
   139         57
   140        123
   141         66
   142         83
   143         35
   144         16
   145         26
   146         80
   147         47
   148         33
   149        204
   150         95
   151        300
   152         71
   153         50
   154         66
   155         52
   156         66
   157         23
   158         19
   159         19
   160         19
   161         19
   162         23
   163        114
   164         28
   165         71
   166         52
   167         52
   168         42
   169         40
   170        123
   171         28
   172         14
   173         11
   174         28
   175         38
   176         21
   177        100
   178        200
   179        328
   180        416
   181         71
   182         54
   183        171
   184        111
   185        100
   186         11
   187         11
   188         11
   189         19
   190         42
   191         28
   192         47
   193         38
   194         38
   195        119
   196         19
   197         42
   198         16
   199         28
   200          7
   201         14
   202         19
   203         21
   204         26
   205         88
   206         23
   207         23
   208         14
   209         16
   210         19
   211         54
   212        276
   213        119
   214         11
   215         14
   216         16
   217         16
   218        159
   219          3
   220          1
   221         11
   222          9
   223        100
   224         25
   225         79
   226         50
   227         30
   228          6
   229          6
   230         11
   231          7
   232          6
   233         11
   234         17
   235         16
   236          9
   237         14
   238         14
   239         19
   240         16
   241         32
   242          9
   243          6
   244          6
   245         11
   246          9
   247          4
   248          4
   249          4
   250          6
   251         57
   252         19
   253         32
   254         14
   255          9
   256          9
   257          4
   258          4
   259          4
   260          4
   261         14
   262         11
   263          9
   264         19
   265         35
   266         16
   267         41
   268         11
   269          4
   270         11
   271          9
   272          6
   273          6
   274          6
   275          2
   276          4
   277          7
   278          4
   279          7
   280          9
   281          6
   282         22
   283         14
   284         19
   285          6
   286          2
   287         16
   288          9
   289          6
   290         19
   291         30
   292         47
   293         10
   294          5
   295          1
   296          7
   297          7
   298         25
   299          7
   300          5
   301          7
   302          5
   303          5
   304          5
   305         10
   306         15
   307         13
   308         11
   309          7
   310         17
   311          7
   312          7
   313          2
   314          2
   315          2
   316          2
   317          7
   318         47
   319         52
   320         17
   321          4
   322          5
   323          7
   324         98
   325         37
   326         60
   327         11
   332          7
   335          7
   336         45
   337         10
   338         10
   339         10
   340          7
   341          7
   349          5
   352         11
   353         46
   354         17
   355          5
   358          7
   359          7
   360          7
   361         20
   362         14
   363         14
   364          2
   369          5
   377          4
   378          4
   379          4
   380         10
   381         10
   382          4
   384          2
   385          4
   392         12
   393         10
   394          4
   395          5
   396          4
   397         23
   398          4
   402         12
   403          7
   404         17
   405         17
   406          5
   407          4
   418          4
   419         10
   420          1
   421          4
   423          7
   424          7
   425          1
   430          4
   431          7
   432          2
   433         35
   434          7
   439          5
   448          7
   449         10
   450          2
   460          2
   462          5
   463         50
   464         21
   465         42
   466         10
   476         70
   477         20
   478          4
   489         23
   490         12
   491          7
   492          4
   502          9
   503          2
   504          2
   505          5
   520         47
   521         14
   522          5
   532          6
   533          2
   543          2
   544          4
   545          2
   557         16
   558          6
   559          3
   560          4
   574          4
   575          3
   576         35
   577         11
   578          2
   602          9
   603          8
   604          4
   616         15
   617         41
   618         15
   619          3
   642          4
   643          5
   644          4
   645          4
   660         11
   661         30
   662         11
   663          2
   669          1
   670          2
   671          1
   687          1
   688          2
   689          1
   713          1
   714          1
   715          0
   731          0
   732          1
   733          0
   796          2
   797          0
   798          0
   822          0
   823          0
   824          0
   840          1
   841          0
   842          0
   848          0
   849          0
   851          0
   866          1
   867          1
   892          2
   893          1
   910          1
   911          0