##TITLE=Library Entry 30638
##JCAMP-DX=Revision 4.10 
##DATA TYPE=MASS SPECTRUM
##SAMPLE DESCRIPTION=H.W.ROESKY GOTTINGEN UNIV., GOTTINGEN, GERMANY, F.R.G.
##NAMES=HP
##CAS NAME=Phosphorodifluoridothioic hydrazide, 2,2-dimethyl-
##MOLFORM=C2H7F2N2PS
##CAS REGISTRY NO=36267-50-2
##MP= -300
##BP= -300
##MW= 160
##$RETENTION INDEX=0
##$CONDENSED SPECTRUM=NO
##NPOINTS= 9
##XYDATA=(XY..XY) 1 
    30         40
    42        270
    43        290
    44        110
    59        999
    69        140
   101         50
   120         20
   160        690