##TITLE=Library Entry 37043
##JCAMP-DX=Revision 4.10 
##DATA TYPE=MASS SPECTRUM
##SAMPLE DESCRIPTION=Exported from NIST MS Search
##NAMES=HP
##CAS NAME=Alanine, N-[(3-methoxy-2-pyridinyl)carbonyl]-N,O-dimethyl-L-threo
nyl-N-methyl-D-.alpha.-aminobutyryl-L-prolyl-N-methyl-L-phenylalanyl-cis-4-m
ethoxy-L-pipecoloyl-N-methyl-2-phenyl-, methyl ester
##MOLFORM=C51H69N7O11
##CAS REGISTRY NO=36261-14-0
##MP= -300
##BP= -300
##MW= 955
##$RETENTION INDEX=0
##$CONDENSED SPECTRUM=NO
##NPOINTS= 167
##XYDATA=(XY..XY) 1 
    41        928
    42        690
    43        619
    44        666
    45        159
    46         42
    47        161
    48         85
    49         52
    50        119
    51        166
    52         85
    53        204
    54        200
    55        809
    56        499
    57        559
    58        119
    59        242
    60         52
    61         90
    62         47
    63        119
    64         59
    65        119
    66         59
    67        323
    68        323
    69        559
    70        999
    71        445
    72        566
    73         83
    77        280
    78        447
    79        242
    80        123
    81        404
    82        321
    83        366
    84        178
    85        204
    86         88
    89         85
    91        523
    92        133
    93        123
    94        104
    95        238
    96        166
    97        238
    98        100
    99         83
   100         76
   103        219
   104        142
   105        352
   106         83
   107        119
   108        404
   109        204
   110        159
   111        204
   114        409
   115         80
   118        166
   119         88
   120         83
   121         61
   123        107
   125         80
   128         83
   131        380
   132        142
   133         85
   134        404
   135        161
   136        528
   137         78
   138         59
   139        180
   140         83
   141        100
   163        100
   164         61
   165         66
   166         54
   167        157
   168         85
   169        166
   170         52
   177         71
   178        242
   179        209
   180         42
   195        109
   197         71
   198         71
   219         66
   233        609
   234         95
   237        238
   238         40
   241         52
   244        114
   245         42
   257         52
   258         66
   259         40
   265        447
   266        100
   277         33
   303         47
   304         40
   305         90
   306         71
   318         52
   328         30
   329         19
   330         16
   331         42
   332        733
   333        142
   334         33
   358         30
   364         52
   427         30
   429         40
   461         30
   499         40
   562         11
   563         14
   564         14
   565         16
   589         11
   590        102
   591         40
   592         14
   593          9
   594         14
   621         11
   622        250
   623         90
   624         19
   640          4
   660          2
   717          2
   718          4
   719          2
   730          4
   731          4
   734          4
   735          4
   736          2
   761          2
   762          9
   763          7
   764          2
   838          7
   839          2
   896          7
   897          4
   898          2
   923          2
   924          4
   925          2
   955          2