##TITLE=Library Entry 9389
##JCAMP-DX=Revision 4.10 
##DATA TYPE=MASS SPECTRUM
##SAMPLE DESCRIPTION=Shen K. Yang, Dept. of Pharmacology., USUHS, Bethesda,
 MD 20814
##NAMES=HP
##CAS NAME=Benzophenone, 2-[N-acetyl-N-methylamino]-5-chloro-
##MOLFORM=C16H14ClNO2
##CAS REGISTRY NO=36271-03-1
##MP= -300
##BP= -300
##MW= 287
##$RETENTION INDEX=0
##$CONDENSED SPECTRUM=NO
##NPOINTS= 167
##XYDATA=(XY..XY) 1 
    43        999
    44         17
    47         64
    48         25
    49         24
    50         64
    51        124
    52         18
    53          8
    54          4
    55          8
    56         21
    57          5
    58          1
    60          1
    61          6
    62         20
    63         55
    64          9
    65          8
    66          5
    67          1
    68          1
    69          4
    70          3
    71          5
    73         20
    74         23
    75         63
    77        347
    78         28
    79          5
    80          1
    81          2
    82          4
    83          7
    84         11
    86          9
    87          8
    88         24
    89         13
    91         65
    92          5
    94          1
    95          1
    97          9
    98         13
    99          9
   100          5
   101          4
   102         15
   103          4
   104         15
   105         85
   106          6
   107          1
   108          0
   109          2
   111         47
   112         16
   113         19
   114          8
   115          7
   116          2
   117          2
   118          2
   119          1
   122          1
   124         14
   125         17
   126         14
   127          8
   128          2
   129          0
   130          0
   132          4
   133         19
   134          1
   135          0
   136          1
   137          2
   138         18
   139         21
   140         22
   141          6
   142          4
   143          0
   147          2
   149          3
   150         16
   151         18
   152         37
   153         10
   154          4
   155          1
   156          0
   161          0
   162          1
   163          3
   164          7
   165         14
   166         34
   167         14
   168         50
   169          6
   170         15
   171          1
   173          1
   174          0
   175          0
   176          1
   177          2
   178          4
   179          6
   180         24
   181         13
   182        226
   183         18
   184         74
   185          7
   186          2
   187          0
   188          1
   190          2
   191          1
   192          3
   193         40
   194         11
   195          5
   196          1
   199          1
   200          3
   201          2
   202          2
   203          1
   204          1
   208          7
   209         10
   210          6
   211          1
   212          0
   213          1
   214         20
   215         18
   216         13
   217          5
   218          1
   226          1
   227         12
   228         67
   229         22
   230         34
   231          7
   232          2
   242          3
   244        192
   245         98
   246         62
   247         30
   248          4
   252          1
   272          0
   286          0
   287         22
   288          4
   289          5
   290          1