##TITLE=Library Entry 24168
##JCAMP-DX=Revision 4.10 
##DATA TYPE=MASS SPECTRUM
##SAMPLE DESCRIPTION=HOME OFFICE, CENTRAL RES. EST., ALDERMASTON, BERKS., U.
K.
##NAMES=HP
##CAS NAME=4-Piperidinecarbonitrile, 1-methyl-4-phenyl-
##MOLFORM=C13H16N2
##CAS REGISTRY NO=3627-62-1
##MP= -300
##BP= -300
##MW= 200
##$RETENTION INDEX=0
##$CONDENSED SPECTRUM=NO
##NPOINTS= 30
##XYDATA=(XY..XY) 1 
    39         60
    41         50
    42        500
    43        780
    44        130
    51         60
    56         40
    57        999
    58         80
    70        690
    71        580
    72         50
    77         50
    82         50
    83         30
    84         80
    87         70
    91        150
    92         50
    96         60
   103         40
   109         50
   115         60
   122         80
   129         30
   172         60
   173        140
   199        240
   200        380
   201         50