##TITLE=Library Entry 60984
##JCAMP-DX=Revision 4.10 
##DATA TYPE=MASS SPECTRUM
##SAMPLE DESCRIPTION=A.A.Kutin, Moscow, Russia
##NAMES=HP
##CAS NAME=Methanone, (2-benzyloxyphenyl)[2-(4-methylphenyl)-1-oxyranyl]-
##MOLFORM=C23H20O3
##CAS REGISTRY NO=36284-31-8
##MP= -300
##BP= -300
##MW= 344
##$RETENTION INDEX=0
##$CONDENSED SPECTRUM=NO
##NPOINTS= 209
##XYDATA=(XY..XY) 1 
    33          0
    36          0
    37          1
    38          6
    39         46
    40          5
    41         14
    42          1
    43          3
    44          3
    45          1
    46          0
    48          0
    50         15
    51         49
    52          9
    53          8
    54          1
    55          4
    56          1
    57          1
    58          0
    59          1
    60          1
    61          1
    62          7
    63         33
    64         22
    65        122
    66          8
    67          1
    68          0
    69          3
    70          0
    71          1
    72          0
    73          1
    74          3
    75          6
    76         22
    77        101
    78         36
    79         16
    80          1
    81          0
    82          0
    83          1
    84          0
    85          1
    86          1
    87          2
    89         37
    91        999
    92        104
    93         11
    94          1
    95          0
    96          0
    97          0
    98          0
    99          0
   100          0
   101          2
   102          9
   103         37
   104         38
   105        217
   106         20
   107          2
   108          0
   109          0
   110          0
   111          0
   112          0
   113          0
   115         11
   116          2
   117          4
   118         13
   119         47
   120         29
   121         50
   122          4
   123          0
   124          0
   125          0
   126          0
   127          1
   128          2
   129          1
   131          5
   132         22
   133        173
   134         21
   135          2
   136          0
   137          0
   138          0
   139          1
   140          0
   141          1
   142          0
   143          0
   144          0
   145          1
   146          4
   147         19
   148          2
   149          3
   150          1
   151          2
   152          8
   153          3
   154          1
   155          1
   156          0
   157          0
   159          0
   160          1
   161          0
   162          0
   163          1
   164          1
   165          9
   166          4
   167          7
   168          1
   169          0
   170          0
   171          0
   172          0
   176          1
   177          1
   178          4
   179          4
   180          2
   181         18
   182          5
   183          2
   184          1
   185          0
   189          0
   190          0
   191          0
   192          0
   193          2
   194          5
   195         32
   196          6
   197          6
   198          1
   199          0
   202          0
   204          0
   205          0
   206          1
   207          4
   208          2
   209          4
   210          7
   211         71
   212         10
   213          1
   214          0
   219          0
   220          0
   221          2
   223         25
   224         14
   225          8
   226          1
   227          0
   228          0
   234          0
   235          2
   236          5
   237         18
   238          6
   239          1
   240          0
   241          0
   249          0
   251          1
   253        130
   254         22
   255          3
   256          0
   266          0
   269          0
   270          0
   287          1
   288          0
   297          0
   298          0
   310          0
   311          0
   313          0
   315          6
   316          2
   317          0
   326          0
   327          0
   328          0
   329          0
   341          0
   344         46
   345         10
   346          1
   347          0