##TITLE=Library Entry 81618
##JCAMP-DX=Revision 4.10 
##DATA TYPE=MASS SPECTRUM
##SAMPLE DESCRIPTION=Chemical Concepts
##NAMES=HP
##CAS NAME=Benzenemethanol, .alpha.-1-cyclohexen-1-yl-
##MOLFORM=C13H16O
##CAS REGISTRY NO=36306-47-5
##MP= -300
##BP= -300
##MW= 188
##$RETENTION INDEX=0
##$CONDENSED SPECTRUM=NO
##NPOINTS= 120
##XYDATA=(XY..XY) 1 
    26         10
    27        107
    28         17
    29         43
    31          9
    38         11
    39        175
    40         22
    41        192
    42         12
    43         57
    50         50
    51        174
    52         54
    53        114
    54         59
    55        113
    56          9
    57         25
    58          8
    62         17
    63         67
    64         27
    65         86
    66         34
    67        156
    68         19
    69         26
    70         15
    71         42
    74         17
    75         29
    76         46
    77        543
    78        161
    79        624
    80         56
    81        146
    82         43
    83         34
    84         22
    85         23
    86          6
    87         10
    88          7
    89         42
    90         14
    91        526
    92        172
    93         40
    94          7
    95         25
    97         88
    98          8
   101          7
   102         34
   103         49
   104         57
   105        999
   106         98
   107        377
   108         33
   109         70
   110         29
   111         28
   113          8
   114          9
   115        214
   116         62
   117         92
   118         23
   119         13
   120        406
   121         55
   122          5
   126         10
   127         57
   128        141
   129        208
   130         33
   131         94
   132         24
   133        131
   134         21
   135         10
   139         18
   140          9
   141        175
   142        154
   143         44
   144         26
   145        144
   146         51
   147         28
   149          6
   151          7
   152         32
   153         42
   154         37
   155        136
   156         18
   157         21
   158         11
   159        230
   160         32
   165         26
   166          8
   167         20
   168         10
   169         87
   170        441
   171         72
   172         11
   173          9
   185         21
   186         42
   187        228
   188        924
   189        109
   190          9