##TITLE=Library Entry 31798
##JCAMP-DX=Revision 4.10 
##DATA TYPE=MASS SPECTRUM
##SAMPLE DESCRIPTION=J. E. CALIN
##NAMES=HP
##CAS NAME=1,3-Dioxane, 5,5-difluoro-
##MOLFORM=C4H6F2O2
##CAS REGISTRY NO=36301-44-7
##MP= -300
##BP= -300
##MW= 124
##$RETENTION INDEX=0
##$CONDENSED SPECTRUM=NO
##NPOINTS= 24
##XYDATA=(XY..XY) 1 
    15         30
    26         30
    27         90
    29        340
    30         50
    31        460
    33         40
    45         90
    46         30
    47        100
    49         30
    51         20
    63         40
    64        999
    65        400
    66         20
    74         10
    75         30
    77         40
    93         20
    94        210
    95         20
   123        500
   124         50