##TITLE=Library Entry 11213
##JCAMP-DX=Revision 4.10 
##DATA TYPE=MASS SPECTRUM
##SAMPLE DESCRIPTION=Exported from NIST MS Search
##NAMES=HP
##CAS NAME=1,3-Dioxolane, 2,2-dimethyl-4,5-bis(1-methylethenyl)-
##MOLFORM=C11H18O2
##CAS REGISTRY NO=36334-87-9
##MP= -300
##BP= -300
##MW= 182
##$RETENTION INDEX=0
##$CONDENSED SPECTRUM=NO
##NPOINTS= 53
##XYDATA=(XY..XY) 1 
    41        450
    42        110
    43        999
    44         40
    45         10
    50         30
    51         50
    52         40
    53        180
    54        110
    55        260
    56         60
    57         60
    58         40
    59        270
    60         10
    63         10
    65         30
    66         10
    67         60
    68         30
    69        330
    70         60
    71        100
    72         80
    77         50
    78         10
    79         90
    80         10
    81         50
    82         70
    83        300
    84         40
    91         60
    92         20
    93         30
    94         20
    95         30
    96         30
    97        780
    98         70
   105         30
   107        100
   108         20
   109         40
   111         40
   112        999
   113        100
   121         30
   125        100
   126         20
   167        180
   168         30