##TITLE=Library Entry 10481
##JCAMP-DX=Revision 4.10 
##DATA TYPE=MASS SPECTRUM
##SAMPLE DESCRIPTION=Exported from NIST MS Search
##NAMES=HP
##CAS NAME=1,3-Dioxolane, 2,2-dimethyl-4,5-di-1-propenyl-
##MOLFORM=C11H18O2
##CAS REGISTRY NO=36334-88-0
##MP= -300
##BP= -300
##MW= 182
##$RETENTION INDEX=0
##$CONDENSED SPECTRUM=NO
##NPOINTS= 54
##XYDATA=(XY..XY) 1 
    41        410
    42         80
    43        999
    44         90
    45         10
    50         30
    51         70
    52         50
    53        260
    54        250
    55        320
    56         50
    57         60
    58        100
    59        370
    60         10
    63         20
    65         40
    66         20
    67         80
    68         30
    69        470
    70         90
    71        220
    72         40
    77         60
    78         30
    79        110
    80         20
    81         40
    82        110
    83        810
    84         70
    85         30
    91         70
    92         10
    93         40
    94         90
    95         70
    96         10
    97        940
    98         70
    99         20
   105         20
   107        120
   108         20
   109         40
   111         40
   112        870
   113         70
   114         20
   125        150
   140         10
   167        110