##TITLE=Library Entry 10537
##JCAMP-DX=Revision 4.10 
##DATA TYPE=MASS SPECTRUM
##SAMPLE DESCRIPTION=Exported from NIST MS Search
##NAMES=HP
##CAS NAME=1,3-Dioxolane, 4-ethenyl-2,2-dimethyl-5-phenyl-
##MOLFORM=C13H16O2
##CAS REGISTRY NO=36334-89-1
##MP= -300
##BP= -300
##MW= 204
##$RETENTION INDEX=0
##$CONDENSED SPECTRUM=NO
##NPOINTS= 62
##XYDATA=(XY..XY) 1 
    41        240
    42        110
    43        999
    44         30
    50         60
    51        200
    52         50
    53         30
    54         20
    55        100
    56         60
    57        140
    58        100
    59        100
    62         20
    63        100
    64         50
    65         90
    68         30
    69        300
    70         50
    74         20
    75         30
    76         30
    77        300
    78         70
    79        100
    80         30
    83        430
    84         30
    89        170
    90        270
    91        290
    92         30
    97         40
    98        910
    99         70
   102         30
   103         30
   104         20
   105        180
   106         30
   107         60
   115        130
   116         40
   117        100
   118         40
   119         60
   127         40
   128         80
   129        170
   130         50
   131         20
   133         50
   145         20
   146         20
   147        130
   148        130
   149         20
   189         70
   190         20
   204          1