##TITLE=Library Entry 84381
##JCAMP-DX=Revision 4.10 
##DATA TYPE=MASS SPECTRUM
##SAMPLE DESCRIPTION=F. TURECEK,HEYROVSKY INST PHYS CHEM & ELECTROCHEM,PRAGU
E,CZECH
##NAMES=HP
##CAS NAME=Dimethyl (3S,4R,5S,6R)-3,6-dimethylcyclohexene-4,5-dicarboxylate
##MOLFORM=C12H18O4
##CAS REGISTRY NO=36337-44-7
##MP= -300
##BP= -300
##MW= 226
##$RETENTION INDEX=0
##$CONDENSED SPECTRUM=NO
##NPOINTS= 74
##XYDATA=(XY..XY) 1 
    26         20
    27         80
    29         60
    31         10
    39         80
    40         10
    41        130
    42         20
    43         70
    44         30
    45         20
    46         70
    50         10
    51         30
    52         10
    53         50
    54         20
    55         80
    56         30
    57         60
    59        110
    60         20
    65         40
    66         10
    67        100
    68         20
    69         40
    70         20
    71         30
    74         10
    77         70
    78         20
    79         80
    80         10
    81         40
    82         80
    83         30
    84         10
    85         20
    91        180
    92         40
    93         70
    94         10
    95         20
    96         10
    97         20
   102         70
   103         10
   104         10
   105         60
   106        180
   107        999
   108        110
   109         20
   111         10
   112         10
   113        120
   114         10
   119         30
   123         10
   125         20
   133         20
   134         20
   135         40
   145         20
   151         40
   161         10
   166        340
   167         50
   194         40
   195        120
   196         20
   226         35
   227          6