##TITLE=Library Entry 59612
##JCAMP-DX=Revision 4.10 
##DATA TYPE=MASS SPECTRUM
##SAMPLE DESCRIPTION=T. McMurry, NCI, NIH, Bethesda, MD 20892
##NAMES=HP
##CAS NAME=1-Toluenesulfonylazacyclopropane
##MOLFORM=C9H11NO2S
##CAS REGISTRY NO=3634-89-7
##MP= -300
##BP= -300
##MW= 197
##$RETENTION INDEX=0
##$CONDENSED SPECTRUM=NO
##NPOINTS= 76
##XYDATA=(XY..XY) 1 
    44         10
    45         21
    46          2
    48         16
    49          3
    50         62
    51        111
    52         37
    53         22
    54          2
    55         29
    56         12
    57         37
    58          2
    60          4
    61          9
    62         50
    63        171
    64         56
    65        520
    66         35
    67         20
    68          8
    69         29
    70         14
    71         22
    73          2
    74         15
    75         15
    76         13
    77         68
    78         38
    79         30
    80          3
    81         10
    82         12
    83         21
    84         10
    85         14
    86          9
    87          9
    88          3
    89        151
    90         51
    91        999
    92         82
    93         10
    95         13
    96          5
    97         20
    98          2
    99          2
   103         24
   104         11
   105        138
   106         17
   107          9
   108          2
   109          6
   110          2
   111         15
   112          2
   117          5
   121         11
   122          3
   123          2
   125          2
   132          2
   139         33
   140          2
   155        111
   156         15
   157          7
   197        157
   198         19
   199          8