##TITLE=Library Entry 8285
##JCAMP-DX=Revision 4.10 
##DATA TYPE=MASS SPECTRUM
##SAMPLE DESCRIPTION=NIST Mass Spectrometry Data Center, 1990.
##NAMES=HP
##CAS NAME=Octadecanoic acid, propyl ester
##MOLFORM=C21H42O2
##CAS REGISTRY NO=3634-92-2
##MP= -300
##BP= -300
##MW= 326
##$RETENTION INDEX=2295
##$CONDENSED SPECTRUM=NO
##NPOINTS= 69
##XYDATA=(XY..XY) 1 
    27        123
    29        216
    39         60
    41        615
    42        219
    43        999
    44         36
    45         18
    53         26
    54         54
    55        456
    56        110
    57        417
    58         43
    59         49
    60        332
    61        904
    62         20
    67         75
    68         40
    69        244
    70         58
    71        209
    73        363
    74         37
    79         22
    81         71
    82         38
    83        168
    84         71
    85        106
    86         14
    87         97
    93         19
    95         62
    96         27
    97        124
    98         62
    99         32
   101         49
   102        286
   103        113
   109         33
   111         58
   113         15
   115        245
   116         35
   123         19
   125         29
   129        118
   143         33
   157         39
   158         18
   171        146
   172         20
   185         57
   199         25
   213         24
   227         55
   241         53
   255         18
   267        102
   268         22
   283         34
   284         43
   285        104
   286         22
   326         96
   327         22