##TITLE=Library Entry 780
##JCAMP-DX=Revision 4.10 
##DATA TYPE=MASS SPECTRUM
##SAMPLE DESCRIPTION=J. SHAW, BORRISTON RESEARCH, ROCKVILLE, MD, USA
##NAMES=HP
##CAS NAME=Phosphoric acid, 2-(diethylamino)-6-methyl-4-pyrimidinyl diethyl
 ester
##MOLFORM=C13H24N3O4P
##CAS REGISTRY NO=36378-61-7
##MP= -300
##BP= -300
##MW= 317
##$RETENTION INDEX=1972
##$CONDENSED SPECTRUM=NO
##NPOINTS= 165
##XYDATA=(XY..XY) 1 
    12          5
    13          3
    14         17
    15         97
    16         14
    17         71
    18        247
    19          8
    25          5
    26         67
    27        401
    28        472
    29        999
    30         57
    31         46
    32          2
    35          1
    36          5
    37          2
    38         10
    39         81
    40         36
    41         97
    42        317
    43        150
    44        111
    45         66
    47         19
    49          2
    51          4
    52         13
    53         23
    54         71
    55        141
    56        174
    57         30
    58         54
    59          3
    62          1
    63          2
    64          5
    65         37
    66         95
    67        179
    68         64
    69        153
    70         32
    71        138
    72        189
    73         12
    76          1
    77          7
    78          3
    79         26
    81        172
    82         44
    83         39
    84         82
    85          4
    86          1
    89          1
    91         38
    92         11
    93         27
    94         13
    95         21
    96         50
    97         12
    99         58
   100          3
   101          1
   103          1
   104          1
   105         10
   106          7
   107         25
   108         85
   109        224
   110         64
   111         22
   112          1
   115          1
   117          5
   118          1
   119          4
   120         31
   121         10
   122         14
   123         21
   124         21
   125          7
   126          2
   127          7
   130          3
   131          6
   132          3
   133          9
   134         34
   135         48
   136         20
   137         38
   138        210
   139         16
   140          1
   144          2
   145          2
   146          6
   148         21
   149          7
   150         30
   152        486
   153         38
   154          3
   155          5
   161         13
   162         54
   163        157
   164         46
   166        134
   167         11
   171          8
   172          1
   174          1
   176          1
   178          9
   179         14
   180         77
   181         25
   182          5
   184          1
   189          2
   190          7
   191          8
   192          2
   194          2
   196          2
   200          6
   207          1
   208          2
   214          1
   217          1
   218          6
   219          7
   228          9
   230          1
   235          1
   238          4
   240          1
   244          9
   245         12
   246         13
   247          2
   260          5
   263          1
   272          7
   274         65
   275          6
   288        102
   289         11
   290          1
   302         98
   303         11
   304          1
   317         52
   318         10