##TITLE=Library Entry 34919
##JCAMP-DX=Revision 4.10 
##DATA TYPE=MASS SPECTRUM
##SAMPLE DESCRIPTION=NIST Mass Spectrometry Data Center, 1990.
##NAMES=HP
##CAS NAME=Cyclooctanemethanol
##MOLFORM=C9H18O
##CAS REGISTRY NO=3637-63-6
##MP= -300
##BP= -300
##MW= 142
##$RETENTION INDEX=0
##$CONDENSED SPECTRUM=NO
##NPOINTS= 43
##XYDATA=(XY..XY) 1 
    26          7
    27         76
    28         23
    29         85
    30          7
    31         78
    32          4
    39        143
    40         40
    41        380
    42         68
    43         70
    44         10
    50          6
    51         16
    52         10
    53         72
    54        120
    55        445
    56         38
    57         79
    65         20
    66         28
    67        209
    68        101
    69        999
    70         65
    77         17
    78          5
    79         35
    80         16
    81        148
    82        190
    83         35
    91          7
    93          5
    95         85
    96        181
    97         15
   109         18
   111        310
   112         28
   124         10