##TITLE=Library Entry 1344
##JCAMP-DX=Revision 4.10 
##DATA TYPE=MASS SPECTRUM
##SAMPLE DESCRIPTION=NIST Mass Spectrometry Data Center, 1994
##NAMES=HP
##CAS NAME=4-Ethoxy-3-methoxyphenethylamine
##MOLFORM=C11H17NO2
##CAS REGISTRY NO=36377-59-0
##MP= -300
##BP= -300
##MW= 195
##$RETENTION INDEX=0
##$CONDENSED SPECTRUM=NO
##NPOINTS= 82
##XYDATA=(XY..XY) 1 
     4          3
    14          4
    15         15
    18          5
    26         13
    27         86
    28         93
    29         95
    30        999
    31         19
    32          2
    38         10
    39         80
    40         18
    41         22
    42         13
    43         25
    44          5
    50         21
    51         89
    52         32
    53         30
    54          6
    55         23
    62          7
    63         26
    64         15
    65         70
    66         59
    67         22
    68          4
    69          2
    74          3
    75          5
    77         89
    78         54
    79         38
    80         10
    81         13
    82          2
    89         24
    90         26
    91         37
    92         10
    93         12
    94         97
    95         24
    96          3
   103          3
   104          4
   105         35
   106         36
   107         52
   108         11
   109         21
   110          3
   117          3
   118          4
   119          5
   120          3
   121         10
   122        106
   123        108
   124         10
   133          2
   134          6
   135         31
   136          2
   137        549
   138        351
   139         33
   140          2
   149          3
   150          7
   151          7
   164          5
   165         62
   166        464
   167         50
   168          3
   195         78
   196          9