##TITLE=Library Entry 55109
##JCAMP-DX=Revision 4.10 
##DATA TYPE=MASS SPECTRUM
##SAMPLE DESCRIPTION=Japan AIST/NIMC Database- Spectrum MS-IW-6268
##NAMES=HP
##CAS NAME=Pentanal, 5-hydroxy-, (2,4-dinitrophenyl)hydrazone
##MOLFORM=C11H14N4O5
##CAS REGISTRY NO=3638-33-3
##MP= -300
##BP= -300
##MW= 282
##$RETENTION INDEX=0
##$CONDENSED SPECTRUM=NO
##NPOINTS= 217
##XYDATA=(XY..XY) 1 
    15          4
    17         12
    18         46
    19          1
    26          8
    27         99
    28         77
    29         93
    30        114
    31         98
    32          2
    37          4
    38         17
    39         75
    40         15
    41        201
    42         37
    43        173
    44         22
    45         10
    46          2
    49          1
    50         22
    51         56
    52         46
    53         39
    54         37
    55        228
    56         41
    57        135
    58          8
    59          3
    61          7
    62         34
    63         90
    64         60
    65         37
    66         19
    67        199
    68         34
    69         26
    70         18
    71        551
    72         26
    73          4
    74         15
    75         88
    76         58
    77        117
    78         69
    79         78
    80         28
    81         17
    82         28
    83        156
    84         57
    85        999
    86         63
    87          6
    88          9
    89         25
    90         46
    91         63
    92         60
    93         24
    94          6
    95          6
    96          3
    97          2
    98          6
    99          6
   100          8
   101         18
   102         18
   103         46
   104         44
   105         26
   106         24
   107         17
   108          8
   109          2
   110          1
   111          2
   114          3
   115         17
   116         16
   117         23
   118         24
   119         31
   120         12
   121          8
   122         79
   123          8
   124          1
   127          4
   128         12
   129         17
   130         33
   131         32
   132         12
   133          7
   134          8
   135         20
   136         12
   137         19
   138         17
   139          2
   140          1
   141          4
   142         10
   143         21
   144         17
   145         15
   146          7
   147         16
   148          8
   149         37
   150         16
   151          8
   152         74
   153         23
   154          8
   155          9
   156         12
   157         13
   158          6
   159         16
   160          8
   161          6
   162          8
   163          8
   164         36
   165         43
   166         16
   167         36
   168         16
   169         10
   170         10
   171         15
   172          9
   173         23
   174          7
   175          9
   176         19
   177        205
   178         32
   179          9
   180         29
   181         32
   182          6
   183         49
   184         25
   185          7
   186          2
   187          2
   188          4
   189         32
   190         15
   191         28
   192          9
   193         29
   194         23
   195          8
   196         33
   197          5
   198          8
   199          2
   200          3
   201          9
   202         12
   203         25
   204          7
   205          3
   206         28
   207          6
   208          1
   209          1
   214          2
   215          9
   216         12
   217         28
   218         10
   219         52
   220         14
   221          2
   222          3
   223         18
   224          7
   225          1
   228          1
   229          5
   230          4
   231          4
   232          1
   233          1
   234          1
   235         10
   236          7
   237          4
   238          1
   245          2
   246          1
   247         42
   248          9
   249          3
   250          2
   251          2
   252          3
   263          1
   264          6
   265          3
   266          4
   280         47
   281          9
   282        185
   283         38
   284          5