##TITLE=Library Entry 15799
##JCAMP-DX=Revision 4.10 
##DATA TYPE=MASS SPECTRUM
##SAMPLE DESCRIPTION=FI-49-17
##NAMES=HP
##CAS NAME=Norpseudoephedrine
##MOLFORM=C9H13NO
##CAS REGISTRY NO=36393-56-3
##MP= -300
##BP= -300
##MW= 151
##$RETENTION INDEX=0
##$CONDENSED SPECTRUM=NO
##NPOINTS= 50
##XYDATA=(XY..XY) 1 
    38          3
    39         15
    40          5
    41          8
    42         30
    43         16
    44        999
    45         16
    50         13
    51         40
    52         13
    53          8
    54          2
    55          5
    56          1
    57          0
    58          3
    62          3
    63          9
    64          3
    65          9
    66          1
    72          3
    73          3
    74          7
    75          3
    76          4
    77         65
    78         17
    79         39
    80          5
    89          6
    90          4
    91         15
    92          4
   103          2
   104          2
   105         12
   106          6
   107          9
   108          2
   115          4
   116          1
   117          6
   118          6
   119          2
   132          2
   133          2
   134          1
   135          1