##TITLE=Library Entry 57275
##JCAMP-DX=Revision 4.10 
##DATA TYPE=MASS SPECTRUM
##SAMPLE DESCRIPTION=Japan AIST/NIMC Database- Spectrum MS-NW-6580
##NAMES=HP
##CAS NAME=2-Ethyl-2-hydroxybutyric acid
##MOLFORM=C6H12O3
##CAS REGISTRY NO=3639-21-2
##MP= -300
##BP= -300
##MW= 132
##$RETENTION INDEX=0
##$CONDENSED SPECTRUM=NO
##NPOINTS= 84
##XYDATA=(XY..XY) 1 
    12          1
    14          5
    15         22
    16          3
    17          4
    18         15
    25          2
    26         36
    27        232
    28        105
    29        618
    30         19
    31         93
    32          2
    36          1
    37          8
    38         14
    39        109
    40         27
    41        326
    42         39
    43        133
    44         58
    45        815
    46         18
    47         28
    49          2
    50          9
    51         13
    52          7
    53         87
    54         10
    55         66
    56         41
    57        976
    58         41
    59         21
    60          3
    61          3
    62          3
    63          6
    64          1
    65          8
    66          6
    67         49
    68         26
    69        247
    70         24
    71         20
    72          3
    73          6
    74          4
    75         31
    76          2
    77          3
    78          5
    79          2
    80          1
    81         41
    82          3
    83          4
    84          1
    85         19
    86         64
    87        999
    88         59
    89         18
    94          2
    95          4
    96         41
    97          9
    98          5
    99         68
   100          4
   101          1
   102         12
   103        100
   104         12
   105          2
   112          2
   113          3
   114         87
   115         10
   116          1