##TITLE=Library Entry 53280
##JCAMP-DX=Revision 4.10 
##DATA TYPE=MASS SPECTRUM
##SAMPLE DESCRIPTION=Japan AIST/NIMC Database- Spectrum MS-NW-3240
##NAMES=HP
##CAS NAME=Benzenamine, 4-fluoro-3-nitro-
##MOLFORM=C6H5FN2O2
##CAS REGISTRY NO=364-76-1
##MP= -300
##BP= -300
##MW= 156
##$RETENTION INDEX=0
##$CONDENSED SPECTRUM=NO
##NPOINTS= 108
##XYDATA=(XY..XY) 1 
    14          2
    15          1
    16          2
    18          1
    20          1
    25          1
    26          5
    27         11
    28         67
    29          3
    30         45
    31         37
    32          8
    33         13
    36          2
    37         13
    38         20
    39         54
    40         13
    41         28
    42          3
    43          1
    44          9
    45          3
    46         11
    47          1
    48          3
    49          5
    50         20
    51         42
    52         61
    53         44
    54         16
    55          7
    56         40
    57        212
    58         12
    59         12
    60          7
    61         22
    62         47
    63        170
    64         29
    65         23
    66          7
    67          2
    68          9
    69          7
    70         19
    71         20
    72          9
    73          6
    74          8
    75          7
    76         11
    77          7
    78         30
    79          9
    80         19
    81         83
    82         91
    83        999
    84         98
    85          6
    86          1
    87          2
    88          5
    89         27
    90        110
    91         12
    92          4
    93          5
    94          5
    95          2
    96          6
    97          9
    98        122
    99         10
   100          1
   101          1
   102          1
   103          1
   104          1
   105          1
   106         27
   107          6
   108         18
   109         76
   110        718
   111         56
   112          3
   114          1
   119          2
   122          1
   123          4
   124          1
   125          1
   126        146
   127         13
   128          4
   136          7
   139          1
   140         14
   141          1
   155          4
   156        800
   157         60
   158          6