##TITLE=Library Entry 90622
##JCAMP-DX=Revision 4.10 
##DATA TYPE=MASS SPECTRUM
##SAMPLE DESCRIPTION=Japan AIST/NIMC Database- Spectrum MS-NW-7290
##NAMES=HP
##CAS NAME=2,5-Difluoronitrobenzene
##MOLFORM=C6H3F2NO2
##CAS REGISTRY NO=364-74-9
##MP= -300
##BP= -300
##MW= 159
##$RETENTION INDEX=0
##$CONDENSED SPECTRUM=NO
##NPOINTS= 94
##XYDATA=(XY..XY) 1 
    16          1
    18          2
    20          2
    25          1
    26          3
    27          2
    28         19
    29          1
    30        277
    31         58
    32          3
    33          1
    36          5
    37         33
    38         14
    39         10
    40          1
    43          1
    44          7
    45          7
    46         16
    47          1
    48          2
    49         11
    50         60
    51         55
    52          4
    53          2
    55          7
    56         35
    57         84
    58          4
    60          5
    61         53
    62        105
    63        806
    64         47
    65          2
    67          1
    68         65
    69         47
    70          6
    71          1
    72          2
    73         15
    74         54
    75         74
    76         11
    77          5
    79          9
    80         13
    81         69
    82         14
    83          2
    86         16
    87         34
    88          3
    91          3
    92         28
    93        108
    94         34
    95          4
    99          9
   100         14
   101        519
   102         29
   103          2
   105          1
   106          2
   107          2
   108          1
   109          2
   110          7
   111          9
   112         67
   113        999
   114         68
   115          3
   117          1
   126          3
   127          4
   128          2
   129        103
   130          8
   131         34
   132          2
   139          2
   140          1
   141          1
   143         49
   144          4
   159        926
   160         67
   161          6