##TITLE=Library Entry 1247
##JCAMP-DX=Revision 4.10 
##DATA TYPE=MASS SPECTRUM
##SAMPLE DESCRIPTION=V.G.Zaikin, TIPS, Russian Acad. Sci.
##NAMES=HP
##CAS NAME=Benzene, 2-fluoro-1,3,5-trinitro-
##MOLFORM=C6H2FN3O6
##CAS REGISTRY NO=364-44-3
##MP= -300
##BP= -300
##MW= 231
##$RETENTION INDEX=0
##$CONDENSED SPECTRUM=NO
##NPOINTS= 21
##XYDATA=(XY..XY) 1 
    30        999
    46        200
    50         15
    51         12
    61         38
    62         65
    63         20
    73         32
    74        210
    75        350
    81        135
    82         20
    93        815
    94         60
   138         30
   139         14
   185         10
   215         10
   231        530
   232         41
   233          1