##TITLE=Library Entry 18062
##JCAMP-DX=Revision 4.10 
##DATA TYPE=MASS SPECTRUM
##SAMPLE DESCRIPTION=V.A.Korolev, Moscow, Russia
##NAMES=HP
##CAS NAME=2-Chloropyridine-3-carbaldehyde
##MOLFORM=C6H4ClNO
##CAS REGISTRY NO=36404-88-3
##MP= -300
##BP= -300
##MW= 141
##$RETENTION INDEX=0
##$CONDENSED SPECTRUM=NO
##NPOINTS= 49
##XYDATA=(XY..XY) 1 
    35         89
    36         63
    37        225
    38        228
    39        117
    40         31
    41          4
    44          3
    47         43
    48         44
    49        286
    50        999
    51        830
    52        227
    53         59
    55          2
    56          7
    59          3
    60         42
    61         78
    62         92
    63         55
    64         26
    72         13
    73         10
    74         25
    75        170
    76        542
    77        711
    78        405
    79         25
    84         61
    85        122
    86         50
    87         51
    88         11
    89          3
    91          1
   105        586
   106         39
   112        402
   113         48
   114        138
   115         12
   140        397
   141        819
   142        188
   143        276
   144         12