##TITLE=Library Entry 8964
##JCAMP-DX=Revision 4.10 
##DATA TYPE=MASS SPECTRUM
##SAMPLE DESCRIPTION=NIST Mass Spectrometry Data Center
##NAMES=HP
##CAS NAME=Epoxyaurapten
##MOLFORM=C19H22O4
##CAS REGISTRY NO=36414-00-3
##MP= -300
##BP= -300
##MW= 314
##$RETENTION INDEX=2774
##$CONDENSED SPECTRUM=NO
##NPOINTS= 82
##XYDATA=(XY..XY) 1 
    27         49
    29         45
    31         33
    38          8
    39        109
    40         30
    41        320
    42         45
    43        999
    44         38
    45         16
    50         20
    51         90
    52         18
    53        124
    54         12
    55        185
    56          8
    57         46
    58          5
    59        241
    60          7
    62         15
    63         52
    64         16
    65         49
    66         20
    67        208
    68         87
    69        155
    71        680
    72         38
    73         40
    74          6
    75          5
    76         13
    77        142
    78         48
    79        194
    80         24
    81        588
    82         48
    83         30
    85        136
    86         10
    88          4
    89         50
    90          6
    91         38
    92          8
    93         97
    94         28
    95         82
    97         22
   104          4
   105         71
   106         14
   107         50
   108          7
   109         45
   110          6
   111         13
   118          5
   119          9
   121          6
   131          6
   133         39
   134        172
   135        107
   136         13
   137          7
   146          4
   153        288
   154         32
   161          8
   162        211
   163         95
   164         10
   175         13
   176          5
   187          5
   213          6