##TITLE=Library Entry 20220
##JCAMP-DX=Revision 4.10 
##DATA TYPE=MASS SPECTRUM
##SAMPLE DESCRIPTION=R. I. REED UNIVERSITY OF GLASGOW
##NAMES=HP
##CAS NAME=Ergost-22-en-3-ol, (3.beta.,5.alpha.,22E,24R)-
##MOLFORM=C28H48O
##CAS REGISTRY NO=36422-25-0
##MP= -300
##BP= -300
##MW= 400
##$RETENTION INDEX=0
##$CONDENSED SPECTRUM=NO
##NPOINTS= 302
##XYDATA=(XY..XY) 1 
    50         37
    51        121
    52         82
    53        142
    54         69
    55        999
    56        149
    57        361
    58        133
    59         32
    60         21
    61         13
    62         10
    63         48
    64        154
    65         57
    66         47
    67        521
    68        145
    69        892
    70        100
    71        119
    72         22
    73         13
    74         82
    75         37
    76         56
    77        127
    78         70
    79        257
    80         78
    81        687
    82        282
    83        433
    84          1
    85         55
    86          8
    87         18
    88          9
    89          7
    90         15
    91        381
    92        127
    93        393
    94        181
    95        591
    96        258
    97        164
    98         32
    99         13
   100         11
   101         23
   102         54
   103         17
   104         14
   105        193
   106         77
   107        462
   108        156
   109        640
   110         89
   111         71
   112         14
   113         16
   114          4
   115         41
   116         18
   117         67
   118         26
   119        146
   120         57
   121        255
   122        133
   123        322
   124         66
   125         90
   126         13
   127         14
   128         21
   129         34
   130         17
   131         70
   132         25
   133        144
   134         71
   135        213
   136         58
   137        146
   138         28
   139         11
   140          9
   141         14
   142         13
   143         16
   144         10
   145         78
   146         23
   147        202
   148         72
   149        228
   150         55
   151         90
   152        113
   153         24
   154          9
   155          8
   156          6
   157         18
   158          9
   159         66
   160         28
   161        218
   162         47
   163        243
   164         48
   165         39
   166         64
   167         10
   168          6
   169          5
   170          4
   171         13
   172          7
   173         44
   174         18
   175         87
   176         44
   177         70
   178         17
   179         20
   180          7
   181          3
   182          2
   183          1
   184          3
   185         12
   186          5
   187         43
   188         11
   189         70
   190         17
   191         40
   192         10
   193          9
   194          7
   195          3
   196          2
   197          4
   198          2
   199         18
   200          8
   201         57
   202         23
   203         68
   204         26
   205         21
   206          8
   207          5
   208          2
   209          1
   210          1
   211          3
   212          1
   213         24
   214         13
   215         89
   216         30
   217         62
   218         16
   219         20
   220          8
   221          4
   222          1
   223          1
   224          3
   225          1
   226          2
   227         16
   228          9
   229         51
   230         34
   231         56
   232         30
   233         30
   234         12
   235          1
   236          1
   237          1
   238          5
   239          4
   240          2
   241         17
   242         20
   243         23
   244         14
   245         44
   246         20
   247         15
   248          4
   249          1
   250          1
   251          1
   252          1
   253          2
   254         15
   255        176
   256         59
   257        304
   258        111
   259         44
   260         31
   261         10
   262          2
   263          0
   264          1
   265          4
   266          1
   267          3
   268          1
   269         48
   270         34
   271        172
   272        123
   273        245
   274        108
   275         37
   276          4
   281          2
   282          1
   283         35
   284         82
   285        108
   286         29
   287         62
   288         18
   289          3
   290          1
   295          1
   296          4
   297          3
   298         17
   299         40
   300        149
   301         74
   302        137
   303         34
   304          4
   309          1
   310          1
   311          3
   312          3
   313          3
   314         29
   315          8
   316         22
   317          4
   325          4
   326          3
   327          3
   328          4
   329          3
   330          1
   334         19
   335          1
   336          0
   337         12
   338          4
   339         59
   340         17
   341          4
   342          1
   343          1
   350          1
   351          1
   352          1
   353          2
   354          1
   355         44
   356         11
   357         19
   358          8
   367         15
   368          4
   369          3
   370          2
   380          5
   381          2
   382         87
   383         41
   384          8
   385         15
   386          4
   387          2
   396          5
   397          2
   398        124
   399         35
   400        147
   401         45
   402          5
   403          1
   404          1