##TITLE=Library Entry 66087
##JCAMP-DX=Revision 4.10 
##DATA TYPE=MASS SPECTRUM
##SAMPLE DESCRIPTION=Chemical Concepts
##NAMES=HP
##CAS NAME=Bicyclo[3.2.0]heptane, 6-methylene-
##MOLFORM=C8H12
##CAS REGISTRY NO=3642-22-6
##MP= -300
##BP= -300
##MW= 108
##$RETENTION INDEX=0
##$CONDENSED SPECTRUM=NO
##NPOINTS= 62
##XYDATA=(XY..XY) 1 
    32          1
    37          7
    38         32
    39        430
    40         95
    41        345
    42         25
    43          5
    45          3
    46          0
    49          1
    50         36
    51         96
    52         62
    53        138
    54        105
    55         32
    56          5
    57          1
    58          2
    59          1
    61          2
    62          8
    63         31
    64         11
    65        130
    66        168
    67        350
    68        106
    69          9
    70          0
    73          1
    74          4
    75         10
    76          3
    77        285
    78        113
    79        761
    80        328
    81         36
    82          2
    83          0
    85          0
    86          0
    87          0
    89         16
    90          3
    91        229
    92         31
    93        999
    94         80
    95          6
   102          1
   103          9
   104          2
   105         20
   106          3
   107         71
   108        249
   109         21
   110          1
   111          1