##TITLE=Library Entry 50421
##JCAMP-DX=Revision 4.10 
##DATA TYPE=MASS SPECTRUM
##SAMPLE DESCRIPTION=Chemical Concepts
##NAMES=HP
##CAS NAME=Spiro[4.5]decan-2-one
##MOLFORM=C10H16O
##CAS REGISTRY NO=3643-16-1
##MP= -300
##BP= -300
##MW= 152
##$RETENTION INDEX=1180
##$CONDENSED SPECTRUM=NO
##NPOINTS= 104
##XYDATA=(XY..XY) 1 
    27        258
    28        164
    29        161
    30          4
    31          6
    34          1
    37          3
    39        364
    40        103
    41        504
    42         59
    43         86
    44         26
    45         10
    46         10
    47          7
    48          3
    49          0
    50         20
    51         61
    52         43
    53        228
    54        287
    55        451
    56        334
    57        384
    58         19
    59         10
    60          1
    61          2
    62          4
    63         15
    64          4
    65         70
    66         71
    67        810
    68        321
    69         96
    70         37
    71         42
    72         11
    73         16
    74          2
    75          2
    76          2
    77         77
    78         31
    79        322
    80        215
    81        999
    82        182
    83         50
    84         13
    85          7
    86          1
    87          0
    88          1
    89          2
    90          0
    91         56
    92         37
    93         70
    94        935
    95        476
    96        372
    97        188
    98         17
    99          1
   101          0
   102          0
   103          2
   104          1
   105         21
   106         13
   107          9
   108         63
   109        506
   110        156
   111         16
   112          1
   115          2
   117          1
   119         26
   120          4
   121          3
   122          1
   123        481
   124         61
   125          5
   129          1
   133          5
   134         48
   135          8
   136          1
   137         39
   138          4
   139          1
   141          3
   142          1
   149          3
   152        589
   153         73
   154          6
   155          2