##TITLE=Library Entry 69463
##JCAMP-DX=Revision 4.10 
##DATA TYPE=MASS SPECTRUM
##SAMPLE DESCRIPTION=Chuck Anderson, Aldrich Chemical Co.
##NAMES=HP
##CAS NAME=2H-Azepin-2-one, hexahydro-1-(phenylthio)-
##MOLFORM=C12H15NOS
##CAS REGISTRY NO=36452-23-0
##MP= -300
##BP= -300
##MW= 221
##$RETENTION INDEX=0
##$CONDENSED SPECTRUM=NO
##NPOINTS= 89
##XYDATA=(XY..XY) 1 
    15         11
    18          4
    26          8
    27         65
    28         82
    29         54
    30         91
    32          1
    36          3
    37          6
    38         16
    39        183
    40         22
    41        238
    42        113
    43         29
    44         11
    45         40
    46          8
    47          3
    50         24
    51         57
    52          8
    53         19
    54         24
    55        162
    56        109
    57         17
    58         13
    59          9
    60         11
    61          0
    62          9
    63         17
    65        179
    66         46
    67        106
    68         20
    69        166
    70         28
    71          8
    73          2
    74          7
    75          6
    76          3
    77         45
    78         29
    79         29
    80          9
    81         13
    82         29
    83         18
    84        183
    85         21
    86          3
    91         22
    92          3
    93         29
    94         41
    95         63
    96        999
    97         73
    98          5
   104          4
   105          5
   108         26
   109        350
   110         96
   111         31
   112          8
   113         12
   118          7
   123          8
   124          6
   125         41
   126         17
   127          1
   134         12
   135          6
   136         22
   137          9
   138         52
   139          4
   151          2
   164         10
   218          4
   221        141
   222         19
   223          8