##TITLE=Library Entry 69638
##JCAMP-DX=Revision 4.10 
##DATA TYPE=MASS SPECTRUM
##SAMPLE DESCRIPTION=KC-853-3
##NAMES=HP
##CAS NAME=20,21-Dinoraspidospermidine, 17-methoxy-, (5.xi.,19.xi.)-
##MOLFORM=C18H24N2O
##CAS REGISTRY NO=36459-11-7
##MP= -300
##BP= -300
##MW= 284
##$RETENTION INDEX=0
##$CONDENSED SPECTRUM=NO
##NPOINTS= 72
##XYDATA=(XY..XY) 1 
    41         36
    42         26
    43         18
    44         18
    77         21
    78         10
    79         10
    80         18
    81         15
    82         10
    83         15
    91         10
    92         10
    93         10
    94         10
    95         13
    96        999
   120         18
   122         31
   123         13
   124         47
   125         10
   126          5
   127         21
   128          7
   129         13
   130         21
   131         15
   132          7
   134         31
   136         15
   141         68
   142         68
   143         15
   144          2
   145         21
   146          7
   147          7
   156          7
   157          7
   158         10
   159         10
   160         34
   161         10
   162         10
   167         10
   168         13
   169         15
   170         15
   171         10
   172          5
   173         15
   174         18
   196          7
   197          7
   198          7
   200          7
   238          5
   239          5
   240          5
   241          5
   242          5
   253          2
   254          2
   255          5
   256         28
   257         10
   281          5
   282         15
   283        394
   284        447
   285         89