##TITLE=Library Entry 90059
##JCAMP-DX=Revision 4.10 
##DATA TYPE=MASS SPECTRUM
##SAMPLE DESCRIPTION=Humboldt-Universitat zu Berlin, Department of Chemistry
, Analytical Group
##NAMES=HP
##CAS NAME=1-Naphthalenesulfonyl chloride, 3-diazo-3,4-dihydro-4-oxo-
##MOLFORM=C10H5ClN2O3S
##CAS REGISTRY NO=36451-09-9
##MP= -300
##BP= -300
##MW= 268
##$RETENTION INDEX=0
##$CONDENSED SPECTRUM=NO
##NPOINTS= 177
##XYDATA=(XY..XY) 1 
    12          2
    13          1
    14          8
    15          3
    16          7
    17         25
    18         87
    25          3
    26         28
    27         32
    28        101
    29         17
    30          1
    31          5
    32         13
    34          1
    35         19
    36         30
    37         36
    38         50
    39        199
    40          8
    41         21
    42          7
    43         50
    44         14
    45         14
    47          4
    48         72
    49         33
    50        107
    51         76
    52          8
    53         37
    55         47
    57        138
    58          5
    59          3
    60          7
    61         64
    62        126
    63        438
    64         48
    65         12
    66          8
    68          5
    69         41
    71         29
    72          4
    73         27
    74        152
    75        103
    76         18
    77         13
    78          2
    79          1
    80          2
    81          6
    82          8
    83         14
    84         21
    85         72
    86        206
    87        283
    88         46
    89         80
    90          7
    91          4
    92          4
    93         24
    94          6
    95          4
    96          3
    97         13
    98         23
    99         20
   100         12
   101        130
   102         17
   103          2
   104          2
   105          5
   106          6
   107          1
   108          4
   109         18
   110         44
   111         31
   113        999
   114        108
   115         13
   116          4
   117          9
   118          2
   119          3
   120          3
   121         16
   122          4
   123          4
   124          2
   125          3
   126          2
   127          6
   129        339
   130         36
   131          3
   132          6
   133         55
   134          9
   135          4
   136          2
   138          1
   139          2
   141        240
   142         29
   143          5
   144          3
   145          6
   146          2
   148        383
   149         44
   150        125
   151         13
   152          1
   154          1
   155          3
   157        309
   158         36
   159          5
   161         35
   162          4
   163          3
   164          6
   165          0
   166          2
   167          0
   168          1
   169          2
   171          0
   174          1
   176         66
   177          8
   178         23
   179          2
   182          0
   183          1
   184          0
   185          1
   189          2
   190          2
   191          1
   192          5
   193          0
   194          2
   195          0
   196          1
   197          1
   205        140
   206         17
   207          9
   208          1
   210          0
   211          1
   224          0
   225          0
   233         40
   234          5
   235          2
   236          0
   240          0
   242          1
   253          0
   268         72
   269          8
   270         27
   271          3
   272          1