##TITLE=Library Entry 11263
##JCAMP-DX=Revision 4.10 
##DATA TYPE=MASS SPECTRUM
##SAMPLE DESCRIPTION=P.F.CASALS, LAB. PHYSCHIM. PHOTOCHIM. ORG., UNIV. DU MA
NS, FR.
##NAMES=HP
##CAS NAME=2,6,10,14-Pentadecanetetrone
##MOLFORM=C15H24O4
##CAS REGISTRY NO=36452-83-2
##MP= -300
##BP= -300
##MW= 268
##$RETENTION INDEX=0
##$CONDENSED SPECTRUM=NO
##NPOINTS= 27
##XYDATA=(XY..XY) 1 
    43        999
    55        550
    58        200
    59         50
    70         50
    71        350
    83        180
    85        620
    95        330
    97        450
   113        870
   114         70
   123        250
   125        380
   128        100
   137        300
   141        330
   147         50
   155         50
   165        700
   180         50
   183        380
   192         50
   193         70
   232         70
   250        380
   268         30