##TITLE=Library Entry 61748
##JCAMP-DX=Revision 4.10 
##DATA TYPE=MASS SPECTRUM
##SAMPLE DESCRIPTION=NIST Mass Spectrometry Data Center
##NAMES=HP
##CAS NAME=N-Benzyl-2-phenethylamine
##MOLFORM=C15H17N
##CAS REGISTRY NO=3647-71-0
##MP= -300
##BP= -300
##MW= 211
##$RETENTION INDEX=0
##$CONDENSED SPECTRUM=NO
##NPOINTS= 48
##XYDATA=(XY..XY) 1 
    27          2
    30          1
    38          1
    39         24
    40          1
    41         10
    42          5
    43          1
    50          8
    51         29
    52          8
    53          3
    62          4
    63         23
    64          7
    65        130
    66          7
    74          2
    75          2
    76          3
    77         42
    78         14
    79         20
    80          1
    89         27
    90         15
    91        999
    92         90
    93          3
   102          2
   103         18
   104         13
   105         35
   106          6
   116          1
   117          8
   118         30
   119          7
   120        709
   121         70
   122          3
   130          1
   132          2
   134          2
   165          1
   209          2
   210          2
   211          1