##TITLE=Library Entry 22512
##JCAMP-DX=Revision 4.10 
##DATA TYPE=MASS SPECTRUM
##SAMPLE DESCRIPTION=A.Pleshkova, Nesmeyanov Inst.Org.Elem.Cpds, Moscow
##NAMES=HP
##CAS NAME=2-n-Propylaziridine
##MOLFORM=C5H11N
##CAS REGISTRY NO=3647-38-9
##MP= -300
##BP= -300
##MW= 85
##$RETENTION INDEX=0
##$CONDENSED SPECTRUM=NO
##NPOINTS= 18
##XYDATA=(XY..XY) 1 
    27         77
    28        372
    29         77
    30        196
    31         11
    41        134
    42         88
    43         70
    44         22
    56        999
    57        236
    58         15
    70        734
    71         26
    72         14
    84         68
    85         22
    86          1