##TITLE=Library Entry 100590
##JCAMP-DX=Revision 4.10 
##DATA TYPE=MASS SPECTRUM
##SAMPLE DESCRIPTION=Dmitri Zagorevskii, Scientific Instruments @ Applicatio
ns
##NAMES=HP
##CAS NAME=N-Ethyl-N-methyl-4-nitrosobenzenamine
##MOLFORM=C9H12N2O
##CAS REGISTRY NO=36479-98-8
##MP= -300
##BP= -300
##MW= 164
##$RETENTION INDEX=0
##$CONDENSED SPECTRUM=NO
##NPOINTS= 108
##XYDATA=(XY..XY) 1 
    36          6
    37         13
    38         28
    39         96
    40         11
    41         71
    42        122
    43         63
    44         55
    45          7
    50         90
    51        108
    52         61
    53         27
    54         20
    55         40
    56         52
    57         58
    58         12
    59         11
    60         15
    61          9
    62         20
    63        100
    64         50
    65        106
    66         51
    67         25
    68         23
    69         28
    70         11
    71         21
    72          8
    73          8
    74         30
    75         31
    76         94
    77        163
    78         92
    79        109
    80         23
    81         20
    82         13
    83         22
    84          7
    85         13
    87          5
    88          8
    89         29
    90         43
    91        259
    92         94
    93         48
    94         21
    95         27
    96         11
    97         20
    98         11
    99          4
   102         15
   103         39
   104        104
   105        142
   106        106
   107         23
   108          9
   109         17
   111         10
   112          7
   113          5
   115         15
   116         12
   117         59
   118        163
   119        999
   120        146
   121         26
   122          9
   123         10
   124         10
   125         10
   127          5
   129          4
   130         13
   131         44
   132         68
   133        158
   134        215
   135         72
   136         21
   137          6
   141          4
   145         17
   146         22
   147         79
   148         43
   149        211
   150         69
   151         15
   157          5
   159          6
   160          7
   161         22
   162         25
   163         14
   164        839
   165        188
   166         19