##TITLE=Library Entry 64510
##JCAMP-DX=Revision 4.10 
##DATA TYPE=MASS SPECTRUM
##SAMPLE DESCRIPTION=A.A.Kutin, Moscow, Russia
##NAMES=HP
##CAS NAME=Methanone, (2-benzyloxyphenyl)[2-(3,4-dimethoxyphenyl)-1-oxiranyl
]-
##MOLFORM=C24H22O5
##CAS REGISTRY NO=3647-29-8
##MP= -300
##BP= -300
##MW= 390
##$RETENTION INDEX=0
##$CONDENSED SPECTRUM=NO
##NPOINTS= 243
##XYDATA=(XY..XY) 1 
    33          0
    34          0
    36          0
    37          1
    38          7
    39         47
    40          8
    41         17
    42          1
    43          6
    44          6
    45          4
    46          0
    47          0
    50         16
    51         47
    52         10
    53         10
    54          1
    55          7
    56          1
    57          2
    58          0
    59          2
    60          1
    61          1
    62          7
    63         34
    64         29
    65        128
    66         12
    67          6
    68          1
    69          5
    70          0
    71          1
    72          0
    73          1
    74          3
    75          9
    76         25
    77        105
    78         22
    79         28
    80          7
    81          2
    82          1
    83          1
    84          0
    85          1
    86          1
    87          2
    89         40
    91        999
    92        114
    93         19
    94          7
    95         18
    96          2
    97          0
    98          0
    99          0
   100          0
   101          1
   102          3
   103          4
   104         16
   105         68
   106         20
   107         51
   108         11
   109          3
   110          1
   111          0
   112          0
   113          1
   114          1
   115          5
   116          1
   117          2
   118         11
   119         13
   120         36
   121        129
   122         14
   123          6
   124          1
   125          1
   126          1
   127          3
   128          5
   129          2
   130          1
   131          4
   133        170
   134         18
   135         18
   136          9
   137         31
   138         60
   139         12
   140          2
   141          3
   142          0
   143          0
   145          1
   146          3
   147         18
   148         14
   149         10
   151        220
   152         30
   153          7
   154          1
   155          2
   156          1
   157          1
   158          0
   159          0
   160          0
   161          1
   162          3
   163         10
   164          8
   165         76
   166         83
   167         26
   168          8
   169          3
   170          0
   171          1
   172          0
   174          0
   175          0
   176          0
   177          2
   178         10
   179         38
   180         11
   181         11
   182          3
   183          3
   184          2
   185          1
   186          0
   189          0
   190          0
   191          1
   192          0
   193          1
   194          2
   195         32
   196         10
   197          6
   198          1
   199          2
   200          0
   201          0
   202          0
   203          0
   204          0
   205          2
   206          7
   207          5
   208          2
   209          4
   211        118
   212         19
   213          3
   214          0
   215          0
   219          0
   220          0
   221          0
   222          1
   223         19
   224          8
   225          5
   226          2
   227         19
   228          4
   229          0
   235          0
   236          0
   237          1
   239         33
   240         15
   241         11
   242          2
   243         23
   244          3
   245          0
   250          0
   251          1
   252          1
   253          2
   254          1
   255          3
   256          5
   257          1
   258          0
   265          0
   266          0
   267          1
   268          1
   269          3
   270         27
   271         33
   272          5
   273          0
   280          0
   281          2
   282          3
   283          7
   284          2
   285          0
   286          0
   296          0
   299        227
   300         41
   301          6
   302          0
   312          0
   315          0
   333          1
   334          0
   343          0
   344          0
   359          0
   361          3
   362          2
   363          0
   372          2
   373          1
   374          3
   375          0
   376          0
   387          0
   388          0
   390        160
   391         38
   392          6
   393          0