##TITLE=Library Entry 59705
##JCAMP-DX=Revision 4.10 
##DATA TYPE=MASS SPECTRUM
##SAMPLE DESCRIPTION=A.A.Kutin, Moscow, Russia
##NAMES=HP
##CAS NAME=Methanone, (2-benzyloxy-5-methylphenyl)(2-phenyl-1-oxyranyl]-
##MOLFORM=C23H20O3
##CAS REGISTRY NO=3647-26-5
##MP= -300
##BP= -300
##MW= 344
##$RETENTION INDEX=0
##$CONDENSED SPECTRUM=NO
##NPOINTS= 176
##XYDATA=(XY..XY) 1 
    36          0
    37          0
    38          4
    39         40
    40          5
    41         15
    42          1
    43          4
    44          3
    45          0
    50         10
    51         35
    52         13
    53          6
    54          0
    55          3
    56          0
    57          1
    59          0
    60          0
    61          1
    62          5
    63         27
    64         15
    65        121
    66          7
    67          1
    69          3
    70          0
    71          0
    72          0
    73          0
    74          2
    75          3
    76          7
    77         53
    78         20
    79          5
    80          0
    81          0
    82          0
    83          0
    84          0
    85          0
    86          0
    87          2
    89         56
    91        999
    92         80
    93          3
    94          0
    95          0
    96          0
    97          0
    98          0
    99          0
   101          0
   102          3
   103          8
   104          6
   105         36
   106         10
   107          4
   108          0
   109          0
   110          0
   111          0
   112          0
   113          0
   115          3
   116          1
   118         13
   119         16
   120          3
   121          1
   123          0
   125          0
   126          0
   127          0
   128          1
   129          0
   130          0
   131          2
   132          2
   133          5
   134         35
   135         50
   136          4
   137          0
   139          0
   140          0
   141          1
   142          0
   144          0
   145          0
   147         53
   148          5
   149          1
   150          0
   151          1
   152          4
   153          2
   154          1
   155          0
   159          0
   160          3
   161         22
   162          2
   163          6
   164          1
   165          8
   166          4
   167          4
   168          1
   169          1
   170          0
   176          0
   177          0
   178          3
   179          4
   180          5
   181         17
   182          3
   183          0
   189          0
   190          0
   191          0
   192          1
   193          1
   194          2
   195          7
   196          1
   197          7
   198          5
   199          0
   202          0
   205          0
   206          0
   207          1
   208          1
   209          6
   210         23
   211          3
   212          0
   219          0
   220          0
   221          4
   222          1
   223          1
   224          3
   225         30
   226          4
   227          0
   233          0
   235          1
   236          4
   237         41
   238         42
   239          6
   240          1
   249          0
   251          0
   253         24
   254          4
   255          0
   287          0
   310          0
   315          4
   316          1
   326          0
   327          0
   328          0
   329          0
   343          0
   344          3
   345          0