##TITLE=Library Entry 42072
##JCAMP-DX=Revision 4.10 
##DATA TYPE=MASS SPECTRUM
##SAMPLE DESCRIPTION=Exported from NIST MS Search
##NAMES=HP
##CAS NAME=Boron, [.mu.-(ethanethiolato)](ethanethiolato)triethyl[.mu.-[1-(m
ethylimino)propyl-C:N]]di-
##MOLFORM=C14H33B2NS2
##CAS REGISTRY NO=36487-35-1
##MP= -300
##BP= -300
##MW= 301
##$RETENTION INDEX=0
##$CONDENSED SPECTRUM=NO
##NPOINTS= 96
##XYDATA=(XY..XY) 1 
    39         96
    40        147
    41        696
    42        154
    43         23
    45        116
    46         30
    47        135
    53         65
    54         83
    55        100
    56         77
    57        154
    58         15
    59         38
    61         50
    62        189
    66         25
    67         34
    68        112
    69        162
    70        150
    71         38
    72        203
    73        999
    79         92
    80        382
    81         50
    82        137
    83         15
   100         96
   101        398
   102         36
   108         87
   109        135
   110        769
   111         38
   113         17
   114         81
   125         54
   126        131
   127        116
   129         52
   130        247
   131         15
   137         15
   138         77
   139         11
   140         25
   141        129
   142        441
   143         30
   152         15
   153         50
   154        102
   155         17
   168         25
   169        160
   170        295
   171         25
   176         13
   177         67
   178        212
   179         77
   180         13
   200         13
   201         75
   202        154
   203         32
   208         19
   209        141
   210        303
   211         48
   212          9
   213         34
   214         77
   215         15
   238         30
   239        208
   240        441
   241         77
   242         56
   243          7
   270         38
   271        321
   272        721
   273        112
   274         48
   275          9
   299          9
   300         77
   301        174
   302         30
   303         11
   304          7
   305          1