##TITLE=Library Entry 36582
##JCAMP-DX=Revision 4.10 
##DATA TYPE=MASS SPECTRUM
##SAMPLE DESCRIPTION=JOCEAH, 43(26)4981(1978); R. J. LAGOW ET AL
##NAMES=HP
##CAS NAME=Tricyclo[3.3.1.1(3,7)]decane, 1,2,2,3,4,4,6,6,8,8,9,9,10,10-tetra
decafluoro-5,7-bis(trifluoromethyl)-
##MOLFORM=C12F20
##CAS REGISTRY NO=36481-20-6
##MP= -300
##BP= -300
##MW= 524
##$RETENTION INDEX=0
##$CONDENSED SPECTRUM=NO
##NPOINTS= 21
##XYDATA=(XY..XY) 1 
    31        100
    69        999
   100         47
   131        136
   150         34
   169        101
   181        143
   219          6
   231         32
   243         14
   255         30
   269         16
   281         21
   331         20
   343         10
   381         10
   393         10
   455          4
   481          2
   505         16
   524          0