##TITLE=Library Entry 68443
##JCAMP-DX=Revision 4.10 
##DATA TYPE=MASS SPECTRUM
##SAMPLE DESCRIPTION=Exported from NIST MS Search
##NAMES=HP
##CAS NAME=Bicyclo[2.2.1]heptan-2-one, 5,5,6-trimethyl-, exo-
##MOLFORM=C10H16O
##CAS REGISTRY NO=3649-86-3
##MP= -300
##BP= -300
##MW= 152
##$RETENTION INDEX=0
##$CONDENSED SPECTRUM=NO
##NPOINTS= 43
##XYDATA=(XY..XY) 1 
    27        212
    29        115
    39        242
    40         36
    41        442
    42         72
    43         90
    51         30
    52         18
    53        121
    54         45
    55        412
    56         30
    57         15
    65         30
    66         18
    67        218
    68        166
    69        348
    70        187
    71          9
    77         54
    79         66
    80         15
    81        212
    82        121
    83        203
    84         21
    91         30
    93         51
    94         21
    95        999
    96         90
    97        121
   108        121
   109        163
   110        484
   111        115
   123         36
   124          9
   137         84
   152        303
   153         18