##TITLE=Library Entry 85359
##JCAMP-DX=Revision 4.10 
##DATA TYPE=MASS SPECTRUM
##SAMPLE DESCRIPTION=NIST Mass Spectrometry Data Center, 1994
##NAMES=HP
##CAS NAME=m-Trifluoromethylphenylhydrazine
##MOLFORM=C7H7F3N2
##CAS REGISTRY NO=365-34-4
##MP= -300
##BP= -300
##MW= 176
##$RETENTION INDEX=0
##$CONDENSED SPECTRUM=NO
##NPOINTS= 138
##XYDATA=(XY..XY) 1 
    12          2
    14          6
    15          7
    16         84
    17         69
    18          7
    19          6
    20         14
    21          2
    25          5
    26         35
    27         47
    28        204
    29        179
    30        101
    31        260
    32          9
    33          8
    36          5
    37         84
    38        154
    39        192
    40         39
    41         36
    42         11
    43          8
    44          7
    46         23
    47          4
    48         47
    49         25
    50        277
    51        254
    52        125
    53         30
    54         12
    55          7
    56         24
    57        122
    58         10
    60          6
    61         55
    62        108
    63        260
    64        140
    65         77
    66         84
    67        105
    68         48
    69        175
    70         33
    71          5
    72         13
    73         24
    74        106
    75        275
    76         91
    77        227
    78        178
    79         49
    80         30
    81         63
    82         51
    83        113
    84         18
    85         16
    86          9
    87         42
    88         88
    89         74
    90         64
    91         94
    92         34
    93         22
    94         25
    95         92
    96         77
    97          8
    98          8
    99         71
   100         58
   101        180
   102         56
   103         15
   104          6
   105         44
   106         37
   107        295
   108        999
   109        503
   110         91
   111         26
   112         54
   113        146
   114        136
   115         13
   116         58
   117         50
   118         12
   119         17
   120         64
   121          9
   122          4
   123          7
   124          4
   125        184
   126        178
   127        448
   128         61
   129         62
   130         20
   131          7
   132         29
   133         32
   134          4
   135          4
   136        280
   137        454
   138         46
   139         38
   140         72
   141         34
   142          6
   143          7
   144          4
   145         87
   146         54
   147          4
   155         44
   156        444
   157         40
   158          7
   159          4
   160         19
   161         18
   174          5
   176        629
   177         55