##TITLE=Library Entry 78775
##JCAMP-DX=Revision 4.10 
##DATA TYPE=MASS SPECTRUM
##SAMPLE DESCRIPTION=Chemical Concepts
##NAMES=HP
##CAS NAME=Acetophenone, 2,2-difluoro-2-phenyl-
##MOLFORM=C14H10F2O
##CAS REGISTRY NO=365-01-5
##MP= -300
##BP= -300
##MW= 232
##$RETENTION INDEX=0
##$CONDENSED SPECTRUM=NO
##NPOINTS= 93
##XYDATA=(XY..XY) 1 
    27         23
    28          8
    29          2
    30          1
    31          5
    32          1
    36          1
    37          4
    38         12
    39         27
    40          1
    41          1
    43          2
    44          1
    45          1
    47          1
    49          7
    50        100
    51        289
    52         15
    53          3
    55          1
    56          3
    57         10
    58          1
    61          4
    62         10
    63         13
    64          2
    65          1
    68          1
    69          2
    70          2
    71          1
    73          5
    74         24
    75         31
    76         43
    77        682
    78         44
    79          5
    80          2
    81          9
    82          3
    83          2
    84          1
    85          2
    86          3
    87          3
    88          3
    89          2
    91          1
    92          1
    94          1
    95          2
    96          1
    97          1
    98          2
    99          5
   100          3
   101          8
   102          2
   105        999
   106         78
   107         17
   108          4
   109          1
   113          1
   122          1
   123          2
   124          1
   125          6
   127        111
   128          8
   133          1
   143          1
   151          1
   152          1
   157          1
   163          1
   164          1
   165          4
   170          1
   171          1
   178          1
   181          1
   182          1
   183          6
   184          1
   185          3
   201          1
   213          3
   232          2