##TITLE=Library Entry 28598
##JCAMP-DX=Revision 4.10 
##DATA TYPE=MASS SPECTRUM
##SAMPLE DESCRIPTION=AAFS Toxicology Section MS DB Committee, U. Alberta, Ca
nada
##NAMES=HP
##CAS NAME=Benzenemethanol, 4-hydroxy-.alpha.-[1-(methylamino)ethyl]-, (R*,S
*)-
##MOLFORM=C10H15NO2
##CAS REGISTRY NO=365-26-4
##MP= -300
##BP= -300
##MW= 181
##$RETENTION INDEX=1682
##$CONDENSED SPECTRUM=NO
##NPOINTS= 111
##XYDATA=(XY..XY) 1 
    42         34
    43         26
    44         14
    45          1
    50          7
    51         21
    52          5
    53         10
    54          4
    55         20
    56         54
    58        999
    59         39
    60          1
    61          1
    62          5
    63         13
    64          5
    65         46
    66         23
    67         14
    68          3
    69          5
    70          3
    71          4
    72          2
    73          1
    74          5
    75          4
    76          6
    77        104
    78         13
    79          7
    80          1
    81          4
    82          2
    83          3
    84          2
    85          2
    86          1
    87          1
    88          1
    89          3
    90          1
    91          8
    92          2
    93         20
    94         14
    95         43
    96          4
    97          3
    98          2
    99          1
   100          1
   101          1
   102          1
   103          6
   104          1
   105          6
   106          2
   107         15
   108          1
   109          2
   110          1
   111          1
   112          1
   113          1
   114          1
   115          1
   116          1
   117          5
   118          2
   119          2
   120          2
   121         38
   122          9
   123         27
   124          2
   125          1
   126          1
   127          1
   129          1
   130          3
   131          2
   132          2
   133         10
   134          3
   135          1
   136          1
   137          1
   138          1
   139          1
   141          1
   144          1
   145          1
   146          3
   147          7
   148          6
   149          3
   150          1
   151          1
   152          1
   155          1
   160          1
   161          1
   162          3
   163          1
   164          2
   165          1
   181          1
   182          1