##TITLE=Library Entry 84625
##JCAMP-DX=Revision 4.10 
##DATA TYPE=MASS SPECTRUM
##SAMPLE DESCRIPTION=D.HENNEBERG, MAX-PLANCK INSTITUTE, MULHEIM, WEST GERMAN
Y
##NAMES=HP
##CAS NAME=1,4-Methano-1H-indene, octahydro-4-methyl-8-methylene-7-(1-methyl
ethyl)-, [1S-(1.alpha.,3a.beta.,4.alpha.,7.alpha.,7a.beta.)]-
##MOLFORM=C15H24
##CAS REGISTRY NO=3650-28-0
##MP= -300
##BP= -300
##MW= 204
##$RETENTION INDEX=1396
##$CONDENSED SPECTRUM=NO
##NPOINTS= 150
##XYDATA=(XY..XY) 1 
    22          0
    23          0
    24          0
    25          2
    26          9
    27        237
    28        240
    29        232
    30          5
    33          1
    34          1
    35          2
    36          1
    37          8
    38          6
    39        221
    40         41
    41        709
    42         37
    43        237
    44         11
    47          3
    48          2
    49          2
    50         11
    51         64
    52         30
    53        185
    54         24
    55        369
    56         30
    57         58
    58          8
    61          1
    62          4
    63         23
    64         16
    65        135
    66         44
    67        344
    68         37
    69        198
    70         21
    71         22
    72          5
    76         11
    77        283
    78         94
    79        439
    80        132
    81        322
    82         63
    83         50
    84          8
    85          7
    86          3
    87          6
    88          8
    89         24
    90         16
    91        635
    92        248
    93        636
    94        260
    95        258
    96         38
    97         13
    98          5
    99          4
   100          4
   101          9
   102         11
   103         45
   104         33
   105        571
   106        186
   107        318
   108        999
   109        265
   110         39
   111         11
   112          5
   113          5
   114          4
   115         50
   116         23
   117         82
   118         29
   119        345
   120        181
   121        147
   122        108
   123         44
   124         10
   125          3
   126          3
   127         10
   128         22
   129         20
   130         11
   131         43
   132         22
   133        351
   134        104
   135        106
   136         46
   137         13
   138          1
   139          1
   141          4
   142          3
   143          5
   144          3
   145         26
   146         12
   147        137
   148        105
   149         34
   150         10
   151          2
   152          0
   153          0
   154          0
   155          1
   156          0
   157          2
   159         12
   160         15
   161        462
   162         74
   163         14
   164          1
   165          0
   171          0
   173          2
   174          1
   175         48
   176         19
   177          1
   183          0
   187          5
   188          2
   189        123
   190         20
   191          1
   202          3
   203          2
   204        165
   205         27
   206          2