##TITLE=Library Entry 80630
##JCAMP-DX=Revision 4.10 
##DATA TYPE=MASS SPECTRUM
##SAMPLE DESCRIPTION=Exported from NIST MS Search
##NAMES=HP
##CAS NAME=D-Glucose, cyclic 1,2-ethanediyl mercaptal
##MOLFORM=C8H16O5S2
##CAS REGISTRY NO=3650-65-5
##MP= -300
##BP= -300
##MW= 256
##$RETENTION INDEX=0
##$CONDENSED SPECTRUM=NO
##NPOINTS= 66
##XYDATA=(XY..XY) 1 
    41         14
    42         18
    43        139
    44         22
    45        160
    46         14
    47         44
    48          5
    54          7
    55         23
    56          8
    57         75
    58         18
    59         55
    60         78
    61        456
    62         11
    63         11
    64          8
    69         22
    71         39
    72          8
    73        177
    74         18
    75         18
    76         51
    77         23
    78         69
    79         12
    80          5
    85         25
    86          5
    87         30
    88          4
    89         20
    90          4
    91         34
    92          4
    97          9
   101          5
   103         20
   104          5
   105        999
   106        652
   107        136
   108         69
   109          7
   115         22
   118         11
   119         46
   120          9
   131          9
   133        129
   134         12
   135         30
   136          8
   147        405
   148         32
   149         36
   159          5
   161          4
   164          2
   189          4
   220         25
   238         22
   256          1