##TITLE=Library Entry 19496
##JCAMP-DX=Revision 4.10 
##DATA TYPE=MASS SPECTRUM
##SAMPLE DESCRIPTION=NIST Mass Spectrometry Data Center
##NAMES=HP
##CAS NAME=2-((2R,4aR,8aS)-4a-Methyl-8-methylenedecahydronaphthalen-2-yl)acr
ylaldehyde
##MOLFORM=C15H22O
##CAS REGISTRY NO=3650-40-6
##MP= -300
##BP= -300
##MW= 218
##$RETENTION INDEX=1691
##$CONDENSED SPECTRUM=NO
##NPOINTS= 135
##XYDATA=(XY..XY) 1 
    27         54
    29        124
    31          3
    38          6
    39        222
    40         51
    41        847
    42        121
    44         20
    50         12
    51         61
    52         40
    53        295
    54        141
    55        999
    56        380
    57        601
    62          4
    63         25
    64         17
    65        192
    66         78
    67        683
    68        269
    70        457
    72         44
    73         11
    76          7
    77        427
    78        101
    79        627
    80        147
    81        477
    82        399
    83        706
    84        364
    85        177
    86         17
    87          5
    89         12
    90          5
    91        605
    92        120
    93        513
    94        188
    95        444
    96        221
    97        648
    98        165
    99         36
   103         68
   104         51
   105        462
   106        166
   107        383
   108        173
   110        125
   111        358
   112        107
   113         21
   115         92
   116         38
   117        174
   118         89
   120        145
   121        816
   122        343
   123        169
   124        120
   125        149
   126        107
   127         27
   128         62
   129        131
   130         53
   131        237
   132         65
   133        211
   134        189
   135        164
   136        192
   138        100
   139         55
   140         34
   141         21
   142         20
   143        111
   144         65
   145        134
   146         57
   147        299
   148        142
   149        173
   150         65
   151         33
   152         13
   153         19
   154         31
   155         10
   156         11
   157         69
   158         44
   159         88
   160         73
   161        192
   162        136
   163         72
   164         40
   166         13
   167          9
   168         15
   170          4
   171         24
   172         36
   173         13
   174        106
   175        183
   176        118
   177         33
   179          7
   185        160
   186         22
   187         56
   189         74
   190        133
   191         17
   195          3
   196          5
   200         85
   201         22
   203        148
   211          3
   217          7
   218        169
   219         25