##TITLE=Library Entry 34492
##JCAMP-DX=Revision 4.10 
##DATA TYPE=MASS SPECTRUM
##SAMPLE DESCRIPTION=S.KUSHWAHA DEPT. BIOCHEM., UNIV. OF OTTAWA, OTTAWA, CAN
ADA
##NAMES=HP
##CAS NAME=.beta.,.epsilon.-Carotene, neo
##MOLFORM=C40H56
##CAS REGISTRY NO=36516-73-1
##MP= -300
##BP= -300
##MW= 536
##$RETENTION INDEX=0
##$CONDENSED SPECTRUM=NO
##NPOINTS= 144
##XYDATA=(XY..XY) 1 
    39        240
    40         60
    41        930
    42         90
    43         70
    44        120
    51         70
    53        220
    55        890
    56        120
    57        300
    65        130
    67        330
    68         80
    69        999
    70        100
    71        100
    77        330
    78        100
    79        430
    80        130
    81        760
    82        100
    83        260
    84         60
    85        160
    91        820
    92        220
    93        620
    94        120
    95        650
    96         90
    97        100
   103         60
   104         60
   105        900
   106        220
   107        640
   108        150
   109        280
   111         80
   115        130
   116         80
   117        230
   118         90
   119        850
   120        220
   121        470
   122        150
   123        600
   124         70
   127         70
   128        160
   129        230
   130        120
   131        310
   132        170
   133        450
   134        120
   135        130
   137        190
   141        130
   142        140
   143        320
   144        270
   145        570
   146        170
   147        210
   149        130
   153         60
   154         60
   155        140
   156        130
   157        350
   158        170
   159        320
   160         60
   161        120
   165        110
   166         70
   167        100
   168         60
   169        170
   170        100
   171        230
   172        100
   173        130
   174         60
   175        150
   177        200
   178         70
   179         90
   181        100
   182         60
   183        200
   184         80
   185        130
   187        120
   189         90
   193         70
   194         80
   195        130
   196         60
   197        240
   198         80
   199        100
   201         80
   203        120
   207        110
   209        170
   210         60
   211        150
   221         50
   223         90
   225         70
   226         50
   235         50
   237         50
   239         60
   240         60
   241         40
   243         70
   250         30
   251         30
   252         40
   254         40
   266         60
   267         60
   268         50
   322         40
   378         50
   388         80
   389         30
   430         70
   431         50
   444        240
   445        150
   446         60
   456         20
   468         30
   480         20
   536        900
   537        300
   538         90