##TITLE=Library Entry 5188
##JCAMP-DX=Revision 4.10 
##DATA TYPE=MASS SPECTRUM
##SAMPLE DESCRIPTION=ATLAS OF MASS SPECTRA OF ORGANIC COMPOUNDS, V. A. KOPTY
UG, ED.
##NAMES=HP
##CAS NAME=2-Butanone, (1-methyl-2-propenyl)hydrazone
##MOLFORM=C8H16N2
##CAS REGISTRY NO=36566-77-5
##MP= -300
##BP= -300
##MW= 140
##$RETENTION INDEX=0
##$CONDENSED SPECTRUM=NO
##NPOINTS= 44
##XYDATA=(XY..XY) 1 
    27        185
    28        130
    29        333
    30        135
    31         10
    39        117
    40         22
    41        241
    42        999
    43         82
    44        223
    45         10
    51         11
    52         10
    53         48
    54         72
    55        333
    56        278
    57        139
    58         24
    68        185
    69         72
    70        241
    71         50
    72         22
    82         22
    83         15
    84         32
    85        259
    86         43
    96         11
    97         22
    98         15
   111         67
   112         10
   113        146
   114         11
   124         17
   125        890
   126         89
   139         20
   140        482
   141         89
   142         11