##TITLE=Library Entry 41870
##JCAMP-DX=Revision 4.10 
##DATA TYPE=MASS SPECTRUM
##SAMPLE DESCRIPTION=Japan AIST/NIMC Database- Spectrum MS-IW- 908
##NAMES=HP
##CAS NAME=2,5-O-Methylene-D-mannitol
##MOLFORM=C7H14O6
##CAS REGISTRY NO=36566-49-1
##MP= -300
##BP= -300
##MW= 194
##$RETENTION INDEX=0
##$CONDENSED SPECTRUM=NO
##NPOINTS= 107
##XYDATA=(XY..XY) 1 
    14          2
    15         31
    17          3
    18          4
    19          1
    26          5
    27         59
    28        128
    29        121
    30         16
    31        206
    32          7
    33          2
    38          1
    39         24
    40         20
    41         75
    42         26
    43        213
    44        211
    45        437
    46         17
    47         21
    49          4
    51          1
    53          5
    54          5
    55        115
    56        309
    57        573
    58         75
    59         42
    60        111
    61        246
    62          9
    63          3
    65          1
    67          1
    68         28
    69        119
    70         17
    71         64
    72         23
    73        999
    74        539
    75         65
    76          4
    77          3
    79          1
    81          7
    82          2
    83          4
    84          6
    85        216
    86        466
    87         71
    88          9
    89          4
    90          3
    91         82
    92          3
    93          1
    94          1
    95          2
    96          1
    97         27
    98         24
    99         24
   100          3
   101          5
   102         10
   103        871
   104         62
   105         17
   106          1
   109          1
   110          2
   111          2
   113          3
   114         22
   115        456
   116        214
   117         21
   118          3
   119          1
   121          1
   127          5
   128          4
   129          5
   131         35
   132          5
   133        264
   134         18
   135          3
   141          1
   145         49
   146         96
   147          9
   148          1
   149          1
   158          1
   159          6
   163          6
   165          2
   177          4
   194         14
   195          9