##TITLE=Library Entry 74551
##JCAMP-DX=Revision 4.10 
##DATA TYPE=MASS SPECTRUM
##SAMPLE DESCRIPTION=Exported from NIST MS Search
##NAMES=HP
##CAS NAME=Pentanoic acid, 3,5-dioxo-, methyl ester
##MOLFORM=C6H8O4
##CAS REGISTRY NO=36568-10-2
##MP= -300
##BP= -300
##MW= 144
##$RETENTION INDEX=0
##$CONDENSED SPECTRUM=NO
##NPOINTS= 12
##XYDATA=(XY..XY) 1 
    43        280
    59        430
    71        629
    85        669
    97        300
   101        999
   112        170
   113        150
   126        110
   127         20
   129         30
   144         50