##TITLE=Library Entry 1595
##JCAMP-DX=Revision 4.10 
##DATA TYPE=MASS SPECTRUM
##SAMPLE DESCRIPTION=ATLAS OF MASS SPECTRA OF ORGANIC COMPOUNDS, V. A. KOPTY
UG, ED.
##NAMES=HP
##CAS NAME=Hydrazine, 2-butenyl-
##MOLFORM=C4H10N2
##CAS REGISTRY NO=36566-68-4
##MP= -300
##BP= -300
##MW= 86
##$RETENTION INDEX=830
##$CONDENSED SPECTRUM=NO
##NPOINTS= 37
##XYDATA=(XY..XY) 1 
    26         33
    27        246
    28        233
    29        416
    30         77
    31        260
    32        999
    33         20
    37         16
    38         33
    39        260
    40         26
    41        192
    42         66
    43         92
    44        116
    45        192
    50         32
    51         29
    52         18
    53        120
    54         67
    55        671
    56         94
    57         22
    58         49
    59         38
    67         12
    68         74
    69         34
    70         21
    71        288
    72         21
    85         16
    86        329
    87         41
    88          8