##TITLE=Library Entry 87903
##JCAMP-DX=Revision 4.10 
##DATA TYPE=MASS SPECTRUM
##SAMPLE DESCRIPTION=J. SHAW, BORRISTON RESEARCH, ROCKVILLE, MD, USA
##NAMES=HP
##CAS NAME=Alanine, N-(6-amino-1,4-dihydro-4-oxo-1,3,5-triazin-2-yl)-2-methy
l-
##MOLFORM=C7H11N5O3
##CAS REGISTRY NO=36576-45-1
##MP= -300
##BP= -300
##MW= 213
##$RETENTION INDEX=0
##$CONDENSED SPECTRUM=NO
##NPOINTS= 126
##XYDATA=(XY..XY) 1 
    12         19
    13         24
    15        455
    16         75
    17        175
    18          1
    19          6
    20          1
    22          1
    26         57
    27        196
    28          4
    29        112
    30         39
    31         12
    39        460
    41        714
    42        796
    43        738
    44        169
    45         20
    46          3
    48          7
    50          7
    51         11
    53        110
    54         52
    55         67
    56        159
    57         80
    58        150
    59         18
    60          4
    62         47
    63         11
    64          9
    68        524
    69        750
    70        111
    71         10
    72          5
    73          6
    74          3
    75         18
    76         18
    77          5
    78          2
    79          4
    80          5
    83        387
    84         66
    85         17
    86         28
    87          4
    89          7
    90          4
    91          3
    92          1
    94         30
    96         25
    97        108
    98         38
    99         15
   100          4
   101          1
   103          1
   104          1
   105          2
   107          3
   108          3
   109         15
   111        999
   112         93
   113         19
   114          2
   115          2
   116          1
   117          5
   118          1
   119          1
   121          2
   122          4
   123         15
   124         19
   125         11
   126         18
   127         19
   128         10
   129          3
   131          1
   133          5
   134          1
   135          2
   137         25
   138         14
   139         34
   140          4
   141          3
   142          1
   143          1
   145          1
   147          1
   149          4
   150          1
   151          8
   152        102
   153         17
   154          9
   155          1
   161         10
   162          2
   163          7
   164          2
   166        130
   167         50
   168         21
   169          3
   175          1
   180        142
   181         15
   182          2
   194         76
   195        234
   196         52
   197          5
   198          1