##TITLE=Library Entry 20926
##JCAMP-DX=Revision 4.10 
##DATA TYPE=MASS SPECTRUM
##SAMPLE DESCRIPTION=SHELL RESEARCH LIMITED THORNTON RESEARCH CENTRE
##NAMES=HP
##CAS NAME=Oxirane, 2-methyl-2-propyl-
##MOLFORM=C6H12O
##CAS REGISTRY NO=3657-41-8
##MP= -300
##BP= -300
##MW= 100
##$RETENTION INDEX=738
##$CONDENSED SPECTRUM=NO
##NPOINTS= 34
##XYDATA=(XY..XY) 1 
    26         26
    27        196
    28         46
    29        283
    30         23
    31         30
    38         23
    39        256
    40         51
    41        464
    42        398
    43        398
    44         16
    45         27
    50         13
    51         21
    53         68
    54         28
    55        999
    56         70
    57        124
    58        170
    59         43
    67         43
    68         18
    69         67
    70         27
    71         47
    72        198
    73         18
    85        549
    86         68
    99         26
   100         21