##TITLE=Library Entry 20446
##JCAMP-DX=Revision 4.10 
##DATA TYPE=MASS SPECTRUM
##SAMPLE DESCRIPTION=William W. Christie, Mylnefield Lipid Analysis, Invergo
wrie, Dundee, Scotland, UK
##NAMES=HP
##CAS NAME=Methyl 16-hydroxy-hexadecanoate
##MOLFORM=C17H34O3
##CAS REGISTRY NO=36575-67-4
##MP= -300
##BP= -300
##MW= 286
##$RETENTION INDEX=2335
##$CONDENSED SPECTRUM=NO
##NPOINTS= 130
##XYDATA=(XY..XY) 1 
    53         50
    54         80
    55        999
    56        149
    57        209
    58         20
    59        229
    60         10
    61         10
    65         10
    66         10
    67        189
    68        119
    69        499
    70         80
    71         80
    72         10
    73         60
    74        919
    75        279
    76         10
    77         10
    78         10
    79         40
    80         30
    81        169
    82        139
    83        319
    84        299
    85         60
    87        459
    88         50
    89         10
    91         10
    93         40
    94         20
    95        119
    96        159
    97        239
    98        489
    99         40
   100         10
   101         70
   102         10
   105         10
   107         20
   108         20
   109         70
   110         80
   111        109
   112        129
   113         30
   114         20
   115         50
   116         40
   117         10
   119         10
   121         30
   122         20
   123         50
   124         50
   125         60
   126         30
   127         20
   128         10
   129         70
   130         20
   133         10
   134         10
   135         30
   136         10
   137         40
   138         40
   139         30
   140         20
   141         20
   142         10
   143        119
   144         10
   147         10
   148         10
   149         20
   150         10
   151         20
   152         50
   153         20
   154         40
   155         10
   157         40
   158         10
   161         10
   163         10
   164         10
   165         20
   166         20
   167         10
   168         20
   169         10
   171         30
   172         10
   175         10
   179         10
   180         10
   181         10
   183         10
   185         40
   186         10
   192         10
   193         10
   194         30
   195         10
   198         10
   199         60
   200         20
   208         10
   209         10
   211         10
   213         30
   218         10
   219         20
   225         20
   227         10
   236         50
   237         30
   238         10
   254         30
   255         20
   256        209
   257         30
   268         10