##TITLE=Library Entry 52604
##JCAMP-DX=Revision 4.10 
##DATA TYPE=MASS SPECTRUM
##SAMPLE DESCRIPTION=NIST Mass Spectrometry Data Center, 1990.
##NAMES=HP
##CAS NAME=Bis(2-ethylhexyl) hydrogen phosphite
##MOLFORM=C16H35O3P
##CAS REGISTRY NO=3658-48-8
##MP= -300
##BP= -300
##MW= 306
##$RETENTION INDEX=0
##$CONDENSED SPECTRUM=NO
##NPOINTS= 79
##XYDATA=(XY..XY) 1 
    15          1
    17          0
    18          1
    27         54
    28         17
    29        133
    30          4
    31          9
    32          0
    37          0
    39         38
    41        282
    42         52
    43        193
    44          6
    45          9
    47          4
    49          1
    50          1
    51          1
    52          1
    53         16
    54         20
    55        201
    56         93
    57        389
    58         19
    59          1
    63          0
    65         19
    66         20
    67         16
    68         15
    69         88
    70        161
    71        313
    72         20
    73          1
    77          3
    78          5
    79          5
    80          2
    81         11
    82          1
    83        999
    84         43
    85          9
    86          0
    91          0
    93          0
    96        173
    97         28
    98          3
    99          0
   100          0
   109          3
   110          1
   111          8
   112         62
   113        182
   114         17
   115          0
   121          1
   122          0
   123          4
   124          0
   135          0
   136          1
   137          8
   138          1
   151          4
   152          1
   165          5
   166          0
   179          0
   193          0
   194          2
   195          8
   196          0