##TITLE=Library Entry 76325
##JCAMP-DX=Revision 4.10 
##DATA TYPE=MASS SPECTRUM
##SAMPLE DESCRIPTION=Exported from NIST MS Search
##NAMES=HP
##CAS NAME=Butane, 1,1-diethoxy-2-methyl-
##MOLFORM=C9H20O2
##CAS REGISTRY NO=3658-94-4
##MP= -300
##BP= -300
##MW= 160
##$RETENTION INDEX=953
##$CONDENSED SPECTRUM=NO
##NPOINTS= 32
##XYDATA=(XY..XY) 1 
    27        159
    28        402
    29        470
    30         24
    31        198
    41        373
    42         73
    43        253
    44         27
    45        440
    46         46
    47        723
    55        143
    56         66
    57        302
    58         67
    59        115
    60         29
    69        168
    70        187
    71        434
    72         21
    73         58
    75        596
    85         35
    86         31
    87        158
   103        999
   114         96
   115        365
   131          3
   159          3