##TITLE=Library Entry 7985
##JCAMP-DX=Revision 4.10 
##DATA TYPE=MASS SPECTRUM
##SAMPLE DESCRIPTION=Japan AIST/NIMC Database- Spectrum MS-NW-2260
##NAMES=HP
##CAS NAME=Furaneol
##MOLFORM=C6H8O3
##CAS REGISTRY NO=3658-77-3
##MP= -300
##BP= -300
##MW= 128
##$RETENTION INDEX=1070
##$CONDENSED SPECTRUM=NO
##NPOINTS= 80
##XYDATA=(XY..XY) 1 
    12          1
    13          5
    14         18
    15         77
    16          4
    17          2
    18          7
    24          1
    25          7
    26         52
    27        144
    28         84
    29        156
    30          8
    31         39
    32          5
    36          3
    37          7
    38          9
    39         25
    40         10
    41          9
    42         40
    43        999
    44         63
    45        120
    46          3
    49          1
    50          3
    51          2
    52          1
    53         17
    54         23
    55        140
    56         75
    57        564
    58         26
    59          2
    60         37
    61          2
    65          1
    66          2
    67         14
    68          8
    69          5
    70          2
    71          5
    72         48
    73          7
    74          2
    77          2
    79          4
    81          2
    82          3
    83          9
    84          3
    85        206
    86         11
    87          9
    88          1
    94          2
    96          2
    97          3
    98          3
    99          3
   100          4
   101          4
   109          2
   110          2
   111          1
   112          1
   113          2
   114          1
   124          5
   125          1
   126         13
   127          9
   128        510
   129         36
   130          5