##TITLE=Library Entry 1287
##JCAMP-DX=Revision 4.10 
##DATA TYPE=MASS SPECTRUM
##SAMPLE DESCRIPTION=Chemical Concepts
##NAMES=HP
##CAS NAME=Phosphoramidic dichloride, methyl-
##MOLFORM=CH4Cl2NOP
##CAS REGISTRY NO=36598-86-4
##MP= -300
##BP= -300
##MW= 147
##$RETENTION INDEX=0
##$CONDENSED SPECTRUM=NO
##NPOINTS= 72
##XYDATA=(XY..XY) 1 
    27         15
    28        137
    29         52
    30        999
    31         30
    35         34
    36        241
    37         13
    38         84
    39         14
    45         18
    46        114
    47          7
    48         10
    49          4
    59         12
    60         10
    61          3
    62          4
    64         19
    65          2
    66         10
    67          3
    68          2
    69          5
    70          4
    71          7
    72          8
    73         10
    74         10
    75          6
    76         27
    77          5
    78         16
    79          4
    80          9
    81          3
    82         19
    83         66
    84          3
    85         23
    91          9
    92          3
    93          2
    94          2
    95          2
    96          2
    97          2
    98          2
   101          4
   103          4
   105          4
   106         60
   107         10
   108          6
   109        101
   112        415
   113          7
   114         96
   116          2
   117         66
   118         38
   119         81
   120         25
   121         17
   122          3
   146         93
   147         21
   148         49
   149         17
   150         11
   151          2