##TITLE=Library Entry 68670
##JCAMP-DX=Revision 4.10 
##DATA TYPE=MASS SPECTRUM
##SAMPLE DESCRIPTION=NIST Mass Spectrometry Data Center
##NAMES=HP
##CAS NAME=2-(2-Thienylidene)-4'-fluoroacetophenone
##MOLFORM=C13H9FOS
##CAS REGISTRY NO=366-81-4
##MP= -300
##BP= -300
##MW= 232
##$RETENTION INDEX=0
##$CONDENSED SPECTRUM=NO
##NPOINTS= 168
##XYDATA=(XY..XY) 1 
    26          4
    27          8
    31          5
    32          1
    33          3
    34          1
    37         11
    38         35
    39        199
    40          3
    44          2
    45        155
    46          4
    47          7
    49          8
    50        113
    51        129
    52         10
    53         21
    54          3
    55          2
    56          4
    57         59
    58         65
    59         24
    60          4
    61         16
    62         43
    63         98
    64         15
    65        355
    66         21
    67          2
    68         30
    69        190
    70         32
    71         16
    72          3
    73         10
    74         79
    75        398
    76         40
    77         12
    78          1
    79         16
    80          5
    81         36
    82         46
    83         43
    84        288
    85         31
    86         22
    87          9
    88          8
    89          9
    90          1
    91          5
    92         43
    93         25
    94         62
    95        999
    96         79
    97          7
    98         10
    99          9
   100          5
   101         47
   102         58
   104          1
   105          8
   106          9
   107         25
   108        116
   109        592
   110         52
   111         40
   112          4
   113          4
   114          1
   115          3
   116          4
   117          3
   118          2
   119          3
   120         96
   121         16
   122         10
   123        727
   124         56
   125         14
   126          4
   127          2
   129          1
   131          7
   132          8
   133         80
   134         11
   135          7
   137        800
   138         68
   139         67
   140          6
   141          2
   143          1
   144          9
   145         11
   146         31
   147          8
   148        261
   149         31
   150          7
   151          9
   152          8
   153          1
   155          2
   156          2
   157         27
   158          7
   159        141
   160         19
   161          1
   163          2
   165          3
   168          5
   169         12
   170        101
   171        126
   172         17
   173          3
   174          1
   175          3
   176          2
   177          1
   178         13
   179          2
   180          1
   181          1
   182          3
   183         32
   184         33
   185         23
   186          8
   187          9
   188          6
   189         44
   190          6
   191         10
   192          1
   199        162
   200         23
   201          5
   202         81
   203        425
   204        122
   205         33
   206          6
   211          1
   212          1
   213          5
   214          1
   215         32
   216          4
   217          4
   231        210
   232        711
   233        114
   234         40
   235          4