##TITLE=Library Entry 73964
##JCAMP-DX=Revision 4.10 
##DATA TYPE=MASS SPECTRUM
##SAMPLE DESCRIPTION=O A MAMER, MCGILL UNIVERSITY, MONTREAL,
##NAMES=HP
##CAS NAME=2,2-Di-butyl methylmalonate
##MOLFORM=C12H22O4
##CAS REGISTRY NO=36602-12-7
##MP= -300
##BP= -300
##MW= 230
##$RETENTION INDEX=0
##$CONDENSED SPECTRUM=NO
##NPOINTS= 68
##XYDATA=(XY..XY) 1 
    15         40
    16          5
    19          5
    25          3
    26         23
    27        164
    28        196
    29        510
    30         16
    31         19
    37          3
    38          5
    39         68
    40         10
    41        400
    42         20
    43         49
    44         11
    45         78
    46          3
    50          4
    51          5
    53         13
    54          8
    55         71
    56        289
    57        883
    58         41
    59         14
    71          1
    72          5
    73        173
    74        295
    75         15
    76          1
    77          0
    83         27
    85          3
    99          3
   100         16
   101        999
   102         48
   103          9
   116          1
   117          0
   118          4
   119        351
   120         17
   121          4
   123          6
   128          4
   130         33
   131          5
   137          4
   139         95
   140         10
   141          3
   145         64
   146         10
   147          5
   148          0
   157        301
   158         29
   159         18
   174          4
   175         20
   191          4
   201         10