##TITLE=Library Entry 97327
##JCAMP-DX=Revision 4.10 
##DATA TYPE=MASS SPECTRUM
##SAMPLE DESCRIPTION=Chemical Concepts
##NAMES=HP
##CAS NAME=Benzene, (2-bromocyclopropyl)-
##MOLFORM=C9H9Br
##CAS REGISTRY NO=36617-02-4
##MP= -300
##BP= -300
##MW= 196
##$RETENTION INDEX=0
##$CONDENSED SPECTRUM=NO
##NPOINTS= 133
##XYDATA=(XY..XY) 1 
    25          1
    26         12
    27         32
    28          3
    29          2
    31          0
    34          0
    35          0
    36          0
    37          9
    38         27
    39        137
    40         11
    41         14
    42          1
    43          3
    44          1
    45          1
    46          0
    47          0
    48          0
    49          4
    50         61
    51        100
    52         23
    53          6
    54          0
    55          5
    56          2
    57         30
    58         53
    59          0
    60          1
    61         11
    62         38
    63         94
    64         18
    65         66
    66          6
    67          4
    68         15
    69          1
    70          0
    71          0
    72          0
    73          4
    74         21
    75         17
    76         17
    77         37
    78         21
    79          3
    80          2
    81          3
    82          2
    83          0
    84          1
    85          4
    86          9
    87         13
    88          9
    89         67
    90         14
    91        211
    92         16
    93          8
    94          1
    95          0
    96          0
    97          0
    98          1
    99          0
   100          0
   101          2
   102         20
   103          8
   104          2
   105          1
   106          0
   107          0
   108          0
   109          0
   110          1
   111          0
   113         11
   114         13
   115        443
   116         70
   117        999
   118         42
   119          6
   120          0
   121          1
   125          0
   129          0
   131          1
   132          0
   133          1
   135          0
   143          0
   144          0
   145          0
   146          0
   147          0
   149          0
   150          0
   151          2
   152          3
   153          1
   154          1
   155          0
   157          0
   158          0
   169          0
   170          0
   171          0
   172          0
   173          2
   174          0
   175          1
   176          0
   177          0
   184          0
   186          0
   191          0
   193          0
   195          4
   196          6
   197          5
   198          6
   199          1
   200          0
   201          0