##TITLE=Library Entry 24101
##JCAMP-DX=Revision 4.10 
##DATA TYPE=MASS SPECTRUM
##SAMPLE DESCRIPTION=S.Dewitt ET AL.JAOCS, 59,69(1982)
##NAMES=HP
##CAS NAME=Heptadecanoic acid, heptadecyl ester
##MOLFORM=C34H68O2
##CAS REGISTRY NO=36617-50-2
##MP= -300
##BP= -300
##MW= 508
##$RETENTION INDEX=0
##$CONDENSED SPECTRUM=NO
##NPOINTS= 84
##XYDATA=(XY..XY) 1 
    41        655
    43        997
    44        248
    45         43
    48         53
    53         25
    54        106
    55        910
    56        398
    57        999
    58         87
    59         16
    60        109
    61        177
    64         47
    67        217
    68        214
    69        615
    70        286
    71        578
    72         71
    73        264
    74         19
    76         78
    78          6
    79         37
    80         28
    81        199
    82        270
    83        506
    84        211
    85        292
    87         50
    93         31
    94         12
    95        118
    96        214
    97        435
    98        140
    99         62
   101         22
   108         90
   110         87
   111        233
   112         75
   113         16
   115         34
   116         28
   123         25
   124         31
   125         81
   126         28
   127         19
   129         56
   133          9
   136          6
   137         22
   138         16
   139         37
   140          6
   147          6
   153         19
   167          6
   170          6
   191          6
   193          6
   207          1
   208          1
   210          4
   227          2
   236          2
   238         24
   239          3
   250          1
   251          1
   253          5
   268          2
   269          3
   270         18
   271         77
   272         12
   281          4
   283          2
   508          6