##TITLE=Library Entry 19340
##JCAMP-DX=Revision 4.10 
##DATA TYPE=MASS SPECTRUM
##SAMPLE DESCRIPTION=Exported from NIST MS Search
##NAMES=HP
##CAS NAME=Cycloheptadecanone
##MOLFORM=C17H32O
##CAS REGISTRY NO=3661-77-6
##MP= -300
##BP= -300
##MW= 252
##$RETENTION INDEX=0
##$CONDENSED SPECTRUM=NO
##NPOINTS= 177
##XYDATA=(XY..XY) 1 
    13          1
    17          1
    18          3
    25          1
    26          7
    27         88
    28         50
    29        260
    30          6
    31          6
    32          2
    37          1
    38          1
    39         94
    40         23
    41        894
    42        212
    43        509
    44          8
    45          8
    46          1
    47          1
    48          1
    50          1
    51          5
    52          4
    53         57
    54        115
    55        999
    56        198
    57        267
    58        771
    59        373
    60         10
    61          1
    62          1
    63          3
    64          1
    65         11
    66         18
    67        216
    68        176
    69        403
    70        160
    71        808
    72         75
    73         12
    74          3
    75          1
    77         12
    78          9
    79         52
    80        134
    81        103
    82        222
    83        294
    84        267
    85        128
    86         13
    87          3
    89          1
    91         10
    92          7
    93         42
    94          3
    95        103
    96        283
    97        235
    98        344
    99         39
   100         28
   101          5
   102          1
   103          1
   104          1
   105          3
   106          3
   107         34
   108         53
   109         84
   110        100
   111        147
   112         45
   113         33
   114         19
   115          4
   116          1
   117          1
   118          1
   119          2
   120          1
   121         49
   122         34
   123         40
   124         56
   125        161
   126         21
   127         33
   128          8
   129          3
   131          1
   133          1
   134          2
   135         62
   136         30
   137         21
   138         47
   139         25
   140          7
   141          9
   142          7
   143          1
   147          3
   148          1
   149         40
   150         18
   151         13
   152         42
   153         18
   154          6
   155         11
   156         24
   157          3
   161          1
   163         22
   164          9
   165          8
   166         20
   167         11
   168          3
   169         10
   170         22
   171          3
   176          1
   177         11
   178          8
   179          4
   180          3
   181          7
   182          6
   183          6
   184         12
   185          2
   191          8
   192         26
   193          5
   194         52
   195         19
   196          9
   197         10
   198          1
   205          8
   206          4
   207          4
   208          1
   209         18
   210         19
   211          8
   212          1
   218          1
   219          7
   220          1
   221          2
   223         19
   224          7
   225          1
   232          1
   234         57
   235         11
   236          2
   237         14
   238          3
   250          4
   251          4
   252        212
   253         36
   254          4