##TITLE=Library Entry 58353
##JCAMP-DX=Revision 4.10 
##DATA TYPE=MASS SPECTRUM
##SAMPLE DESCRIPTION=RADIAN CORP
##NAMES=HP
##CAS NAME=1-Butanamine, 4-(methoxydimethylsilyl)-
##MOLFORM=C7H19NOSi
##CAS REGISTRY NO=3663-43-2
##MP= -300
##BP= -300
##MW= 161
##$RETENTION INDEX=0
##$CONDENSED SPECTRUM=NO
##NPOINTS= 83
##XYDATA=(XY..XY) 1 
    15          5
    17          2
    18          8
    26          2
    27         15
    29         23
    30        419
    31         28
    33          2
    39         14
    40          2
    41         16
    42         43
    43        125
    44         42
    45        111
    46         12
    47         11
    51          1
    53          8
    54          6
    55         22
    56         18
    57         16
    58        107
    59        510
    60         86
    61         42
    62          4
    66          2
    67          4
    68          4
    69          6
    70         11
    71         11
    72        133
    73         24
    74         93
    75         94
    76         15
    77          5
    82          2
    83          5
    84          3
    85         16
    86        173
    87         27
    88         80
    89        999
    90        242
    91         52
    92          8
    95          1
    96          2
    97         10
    98          6
    99          8
   100         20
   101         19
   102         12
   103          2
   104         15
   105          4
   106         24
   107          2
   110          3
   112         14
   113          1
   114        280
   115         32
   116         15
   117         10
   118        166
   119         19
   120          8
   128         12
   129        105
   130         17
   131          7
   132          2
   144          5
   146         19
   147          3