##TITLE=Library Entry 87552
##JCAMP-DX=Revision 4.10 
##DATA TYPE=MASS SPECTRUM
##SAMPLE DESCRIPTION=Chemical Concepts
##NAMES=HP
##CAS NAME=1,4-Benzodioxin-2-methanol, 2,3-dihydro-
##MOLFORM=C9H10O3
##CAS REGISTRY NO=3663-82-9
##MP= -300
##BP= -300
##MW= 166
##$RETENTION INDEX=0
##$CONDENSED SPECTRUM=NO
##NPOINTS= 46
##XYDATA=(XY..XY) 1 
    37         29
    38         68
    39        100
    40         18
    41         17
    43        210
    44          7
    50        199
    51        249
    52        381
    53        110
    54         39
    55         34
    57        223
    58         11
    63        172
    64        100
    65         56
    66         13
    67          3
    74         25
    75         16
    77        239
    79        204
    80        253
    81        239
    82         44
    92         69
    93         11
    94          8
    95          5
   105          9
   107        173
   110        999
   111         43
   112          4
   119          4
   121        258
   122         22
   135        739
   136         50
   137          5
   147         27
   148          7
   166        796
   167         67