##TITLE=Library Entry 8099
##JCAMP-DX=Revision 4.10 
##DATA TYPE=MASS SPECTRUM
##SAMPLE DESCRIPTION=Chemical Concepts
##NAMES=HP
##CAS NAME=7-Octen-2-one
##MOLFORM=C8H14O
##CAS REGISTRY NO=3664-60-6
##MP= -300
##BP= -300
##MW= 126
##$RETENTION INDEX=1097
##$CONDENSED SPECTRUM=NO
##NPOINTS= 60
##XYDATA=(XY..XY) 1 
    26         12
    27         96
    28          4
    29         58
    30          2
    31          4
    37          3
    38         10
    39        138
    40         24
    41        235
    42         30
    43        999
    44         25
    45         10
    50          8
    51         15
    52          7
    53         43
    54         27
    55        218
    56         21
    57         24
    58        409
    59         59
    60          2
    63          3
    65          8
    66          8
    67         91
    68        350
    69         82
    70          9
    71        292
    72         19
    77          7
    78          3
    79         22
    80          4
    81         10
    82         15
    83         85
    84         37
    85         43
    86          3
    91          5
    93         23
    94          2
    95          4
    96          2
    97         48
    98         11
    99          2
   108         44
   109          6
   111         44
   112          4
   125          2
   126         58
   127          6