##TITLE=Library Entry 53704
##JCAMP-DX=Revision 4.10 
##DATA TYPE=MASS SPECTRUM
##SAMPLE DESCRIPTION=CARL DJERASSI DEPT OF CHEM STANFORD UNIV STANFORD CALIF
 94305
##NAMES=HP
##CAS NAME=1,3-Dioxolane-2-propanol, 2,4-dimethyl-
##MOLFORM=C8H16O3
##CAS REGISTRY NO=36651-29-3
##MP= -300
##BP= -300
##MW= 160
##$RETENTION INDEX=0
##$CONDENSED SPECTRUM=NO
##NPOINTS= 25
##XYDATA=(XY..XY) 1 
    40        330
    41        350
    42        150
    43        900
    44         90
    45        420
    53         30
    54         20
    55         70
    56         30
    57         40
    58         90
    59         40
    61         20
    69         60
    72         20
    82         60
    83        150
    84        999
    85         60
    86         80
   101        870
   102         40
   144         20
   145         40