##TITLE=Library Entry 57173
##JCAMP-DX=Revision 4.10 
##DATA TYPE=MASS SPECTRUM
##SAMPLE DESCRIPTION=CARL DJERASSI DEPT OF CHEM STANFORD UNIV STANFORD CALIF
 94305
##NAMES=HP
##CAS NAME=1,3-Dioxolane-2-hexanoic acid, 2-methyl-, ethyl ester
##MOLFORM=C12H22O4
##CAS REGISTRY NO=36651-18-0
##MP= -300
##BP= -300
##MW= 230
##$RETENTION INDEX=0
##$CONDENSED SPECTRUM=NO
##NPOINTS= 24
##XYDATA=(XY..XY) 1 
    41         40
    42         20
    43        290
    44         10
    45         20
    55         40
    59         30
    69         30
    71         30
    72         20
    81         10
    85         40
    86         10
    87        999
    88         50
    95         60
    97         20
    99         20
   101         10
   115         10
   125         20
   185         50
   215        140
   216         30