##TITLE=Library Entry 10785
##JCAMP-DX=Revision 4.10 
##DATA TYPE=MASS SPECTRUM
##SAMPLE DESCRIPTION=CARL DJERASSI DEPT OF CHEM STANFORD UNIV STANFORD CALIF
 94305
##NAMES=HP
##CAS NAME=Octanoic acid, 7-oxo-, ethyl ester
##MOLFORM=C10H18O3
##CAS REGISTRY NO=36651-36-2
##MP= -300
##BP= -300
##MW= 186
##$RETENTION INDEX=0
##$CONDENSED SPECTRUM=NO
##NPOINTS= 54
##XYDATA=(XY..XY) 1 
    41        110
    42         50
    43        999
    44         30
    45         60
    49         10
    53         10
    55        160
    56         10
    57         10
    58        160
    59         30
    60         80
    61         50
    67         10
    68         10
    69        150
    70         30
    71         80
    72         10
    73        130
    74         10
    79         10
    81         20
    83        120
    84         30
    85         10
    86         10
    87         20
    88        100
    89         10
    95        240
    96         20
    97        110
    98         80
    99         40
   101        420
   102         30
   112         60
   113         20
   115         30
   116         10
   123         40
   125         60
   128         30
   129        420
   130         40
   140         40
   141        120
   142         10
   143         10
   144         10
   168         10
   186         10