##TITLE=Library Entry 57160
##JCAMP-DX=Revision 4.10 
##DATA TYPE=MASS SPECTRUM
##SAMPLE DESCRIPTION=CARL DJERASSI DEPT OF CHEM STANFORD UNIV STANFORD CALIF
 94305
##NAMES=HP
##CAS NAME=1,3-Dioxolane-2-pentanol, 2-methyl-
##MOLFORM=C9H18O3
##CAS REGISTRY NO=36651-23-7
##MP= -300
##BP= -300
##MW= 174
##$RETENTION INDEX=0
##$CONDENSED SPECTRUM=NO
##NPOINTS= 24
##XYDATA=(XY..XY) 1 
    41        100
    42         20
    43        500
    44         20
    45         30
    53         10
    55         60
    58         50
    59         20
    67         20
    69         50
    71         40
    72         20
    85         40
    87        999
    88         50
    97         30
    99         30
   111         10
   112         20
   115         10
   158         10
   159        140
   160         10