##TITLE=Library Entry 20258
##JCAMP-DX=Revision 4.10 
##DATA TYPE=MASS SPECTRUM
##SAMPLE DESCRIPTION=NIST Mass Spectrometry Data Center, 1990.
##NAMES=HP
##CAS NAME=1-Hexadecanol
##MOLFORM=C16H34O
##CAS REGISTRY NO=36653-82-4
##MP= -300
##BP= -300
##MW= 242
##$RETENTION INDEX=1880
##$CONDENSED SPECTRUM=NO
##NPOINTS= 61
##XYDATA=(XY..XY) 1 
    14          7
    27         84
    28         13
    29        214
    30          7
    31        224
    39        109
    41        758
    42        199
    43        710
    44         55
    45         19
    51          6
    53         76
    54        148
    55        999
    56        410
    57        653
    58         32
    65         18
    66         24
    67        211
    68        349
    69        822
    70        425
    71        273
    72         19
    73         19
    77          9
    79         24
    81        127
    82        394
    83        760
    84        292
    85        155
    86         11
    94          5
    95         53
    96        140
    97        573
    98        161
    99         32
   109         13
   110         58
   111        254
   112         91
   113         14
   123          5
   124         28
   125         97
   126         51
   127          7
   138         15
   139         28
   140         27
   152          8
   153         11
   154         15
   168         13
   196         26
   224         12