##TITLE=Library Entry 57168
##JCAMP-DX=Revision 4.10 
##DATA TYPE=MASS SPECTRUM
##SAMPLE DESCRIPTION=CARL DJERASSI DEPT OF CHEM STANFORD UNIV STANFORD CALIF
 94305
##NAMES=HP
##CAS NAME=1,3-Dioxolane-2-pentanoic acid, 2-methyl-, ethyl ester
##MOLFORM=C11H20O4
##CAS REGISTRY NO=36651-17-9
##MP= -300
##BP= -300
##MW= 216
##$RETENTION INDEX=0
##$CONDENSED SPECTRUM=NO
##NPOINTS= 20
##XYDATA=(XY..XY) 1 
    41         40
    42         10
    43        350
    45         20
    55         30
    59         20
    64         10
    71         10
    72         20
    81         90
    83         20
    85         30
    87        999
    88         40
    98         10
    99         20
   109         10
   111         20
   155         20
   201        110