##TITLE=Library Entry 13043
##JCAMP-DX=Revision 4.10 
##DATA TYPE=MASS SPECTRUM
##SAMPLE DESCRIPTION=CARL DJERASSI DEPT OF CHEM STANFORD UNIV STANFORD CALIF
 94305
##NAMES=HP
##CAS NAME=Undecanoic acid, 10-oxo-, ethyl ester
##MOLFORM=C13H24O3
##CAS REGISTRY NO=36651-38-4
##MP= -300
##BP= -300
##MW= 228
##$RETENTION INDEX=0
##$CONDENSED SPECTRUM=NO
##NPOINTS= 58
##XYDATA=(XY..XY) 1 
    41        230
    42         60
    43        999
    44         30
    45         60
    53         20
    54         20
    55        320
    56         50
    57         30
    58        310
    59         60
    60         90
    67         60
    68         10
    69        120
    70         40
    71        140
    72         10
    79         20
    80         20
    81         70
    82         10
    83        170
    84         80
    85         30
    87         20
    88        120
    89         10
    95         50
    96         30
    97        210
    98         80
    99         10
   101        160
   102         10
   107         20
   111         30
   112         10
   115         30
   121         30
   123         20
   124         50
   125        320
   126         20
   139         30
   143         10
   152         10
   154         10
   157         20
   158         10
   170         20
   171        400
   172         50
   182         10
   183        190
   184         20
   199         10