##TITLE=Library Entry 57148
##JCAMP-DX=Revision 4.10 
##DATA TYPE=MASS SPECTRUM
##SAMPLE DESCRIPTION=Exported from NIST MS Search
##NAMES=HP
##CAS NAME=.alpha.-d-Galactopyranoside, methyl 2-(acetylmethylamino)-2-deoxy
-3,4-di-O-methyl-, 6-acetate
##MOLFORM=C14H25NO7
##CAS REGISTRY NO=36663-29-3
##MP= -300
##BP= -300
##MW= 319
##$RETENTION INDEX=0
##$CONDENSED SPECTRUM=NO
##NPOINTS= 121
##XYDATA=(XY..XY) 1 
    41         97
    42        186
    43        596
    44         66
    45        172
    46          5
    47         16
    52         16
    53          8
    54         33
    55        133
    56         39
    57         22
    58         44
    61          5
    68         16
    69         44
    70         39
    71         83
    72        256
    73         39
    74         44
    75        111
    80          2
    81         11
    82         16
    83          8
    84         19
    85         22
    86         27
    87        999
    88        153
    89         16
    94         39
    95         13
    96         13
    97         11
    98        206
    99         41
   100         94
   101         47
   102          2
   110         13
   111         13
   112         19
   113          8
   114         11
   115         33
   116         30
   117         44
   118          2
   122         22
   123          2
   124         22
   125         11
   126         69
   127         16
   128         19
   129        520
   130        156
   140          5
   141          8
   142        445
   143         39
   144         11
   152          7
   153          1
   154         46
   155          6
   156          5
   157          7
   158          5
   160          1
   168         10
   169          1
   170          2
   171          0
   172         17
   173          3
   174          0
   182          9
   183          1
   184          5
   185          1
   186          8
   187          1
   188         10
   189          0
   195          1
   196          5
   197          1
   198          0
   200          0
   202          0
   212          1
   213          0
   214         12
   215          8
   216          1
   217          7
   218          0
   224          3
   225          0
   226          1
   227          3
   228          3
   244          1
   245          1
   246         12
   247          0
   256         24
   257         27
   260         19
   286         19
   287          6
   288          0
   289          0
   303          1
   318          1
   319          1
   320          0