##TITLE=Library Entry 451
##JCAMP-DX=Revision 4.10 
##DATA TYPE=MASS SPECTRUM
##SAMPLE DESCRIPTION=Exported from NIST MS Search
##NAMES=HP
##CAS NAME=2-Butyne-1,4-diol, diformate
##MOLFORM=C6H6O4
##CAS REGISTRY NO=36677-73-3
##MP= -300
##BP= -300
##MW= 142
##$RETENTION INDEX=0
##$CONDENSED SPECTRUM=NO
##NPOINTS= 80
##XYDATA=(XY..XY) 1 
    16         26
    17         23
    18         49
    19         15
    20          1
    22          2
    24        189
    25        595
    26        148
    27        151
    28        223
    29        999
    30         66
    31        197
    32         16
    33          2
    35          2
    36        360
    37        111
    38        187
    39        920
    40        248
    41        285
    42        128
    43        389
    44        117
    45         33
    46         12
    47        121
    48          8
    49         39
    50        191
    51        456
    52        157
    53         55
    54         14
    55        129
    56         22
    57         40
    58         80
    59          5
    60          3
    61          1
    62          1
    63          2
    64          2
    65          6
    66         20
    67         52
    68        222
    69         58
    70         14
    71         55
    72          3
    73          2
    74          1
    75          1
    76          2
    77          2
    78          1
    79          1
    81          1
    82          1
    83          3
    84          3
    85         11
    86         16
    87          3
    88          1
    91          1
    95          2
    96         10
    97         28
    98          2
    99          1
   105          1
   111          1
   113          2
   115          1
   125          1