##TITLE=Library Entry 6165
##JCAMP-DX=Revision 4.10 
##DATA TYPE=MASS SPECTRUM
##SAMPLE DESCRIPTION=JAFCAU, 26(4)866(1978); R. G. BUTTERY ET AL.
##NAMES=HP
##CAS NAME=4-Hepten-2-one, (E)-
##MOLFORM=C7H12O
##CAS REGISTRY NO=36678-43-0
##MP= -300
##BP= -300
##MW= 112
##$RETENTION INDEX=1335
##$CONDENSED SPECTRUM=NO
##NPOINTS= 11
##XYDATA=(XY..XY) 1 
    41        330
    43        999
    53         20
    55         40
    68         20
    69         70
    77          4
    83          6
    94         20
    97         10
   112         50