##TITLE=Library Entry 29785
##JCAMP-DX=Revision 4.10 
##DATA TYPE=MASS SPECTRUM
##SAMPLE DESCRIPTION=P.E. BUTLER ESSO R. & E. CO., LINDEN, NEW JERSEY, USA
##NAMES=HP
##CAS NAME=2-Butanone, 3-ethoxy-3-methyl-
##MOLFORM=C7H14O2
##CAS REGISTRY NO=36687-99-7
##MP= -300
##BP= -300
##MW= 130
##$RETENTION INDEX=0
##$CONDENSED SPECTRUM=NO
##NPOINTS= 13
##XYDATA=(XY..XY) 1 
    39         50
    41         92
    42         38
    43        290
    45         18
    55          5
    57         37
    59        999
    73          2
    85         14
    87        282
   101          1
   115          2