##TITLE=Library Entry 91076
##JCAMP-DX=Revision 4.10 
##DATA TYPE=MASS SPECTRUM
##SAMPLE DESCRIPTION=LAC, NIDDK, NIH, Bethesda, MD 20892
##NAMES=HP
##CAS NAME=Solasodiene
##MOLFORM=C27H41NO
##CAS REGISTRY NO=3669-17-8
##MP= -300
##BP= -300
##MW= 395
##$RETENTION INDEX=3151
##$CONDENSED SPECTRUM=NO
##NPOINTS= 228
##XYDATA=(XY..XY) 1 
    41        191
    42         75
    43        135
    44         41
    45         38
    46         29
    47          0
    49          2
    51          4
    52          1
    53         50
    54         48
    55        203
    56         40
    57         23
    58         16
    59          0
    60          8
    63          1
    65         20
    66          2
    67        119
    68         58
    69         69
    70         43
    71         13
    72          6
    73          6
    74          1
    77         61
    78         14
    79        135
    80         17
    81        145
    82         29
    83         27
    84         26
    85          3
    86          9
    87          1
    88          1
    89          0
    91        153
    92         28
    93         79
    94         27
    95         54
    96         45
    97         18
    98         61
    99          6
   100          1
   102          1
   103         12
   104          8
   105        150
   106         32
   107         78
   108         42
   109         47
   110         37
   111         48
   113        796
   114        999
   115         84
   117         69
   118         14
   119         40
   120         44
   121         42
   122         24
   123         19
   124         87
   125         89
   126         18
   127          2
   128         23
   129         33
   130         15
   131         50
   132         16
   133         50
   134         19
   135         15
   136         14
   138        682
   139         82
   140          4
   141         28
   142         18
   143         71
   144         22
   145         62
   146         15
   147         31
   148         14
   149          9
   150         16
   152         38
   153         10
   154          6
   155         12
   156          2
   157         49
   158         36
   159         43
   160         17
   161         39
   162         31
   163         10
   164         19
   165          5
   166         28
   167          9
   168          8
   169         12
   170          3
   171         17
   172         10
   173         14
   174         17
   175         24
   176         14
   177          6
   178         14
   179          5
   180         11
   181          5
   182          2
   183         10
   184          2
   185         12
   186          5
   187          6
   188          4
   189          3
   190          2
   191          1
   192         10
   193          0
   194          3
   195          3
   196          2
   197         14
   198          8
   199         22
   200          5
   201          3
   202          1
   203          2
   204          1
   205          0
   206          2
   209          1
   210          0
   211          6
   212         17
   213         15
   214         38
   215          7
   216          5
   218          0
   220          1
   222          1
   223          2
   225         10
   226          3
   227          3
   228          1
   230          0
   232          2
   237          2
   238          1
   239          3
   240          5
   241          2
   246          2
   251          4
   252          4
   253         24
   254          5
   256          0
   260          0
   265          0
   266          0
   267         39
   268         10
   269          1
   276          0
   280          1
   281          0
   282         41
   283         19
   284          3
   293          2
   296          3
   308          1
   310          2
   311          0
   324          4
   325          1
   337          1
   338          7
   339          8
   340          2
   350          0
   352         15
   353          4
   362          1
   364          1
   365          1
   366         27
   367        113
   368         27
   369          3
   376          1
   378          2
   380         13
   381          3
   391          0
   392          2
   393          1
   394         19
   395        169
   396         56
   397         11
   398          1
   399          0