##TITLE=Library Entry 89394
##JCAMP-DX=Revision 4.10 
##DATA TYPE=MASS SPECTRUM
##SAMPLE DESCRIPTION=Japan AIST/NIMC Database- Spectrum MS-NW-1127
##NAMES=HP
##CAS NAME=Phenol, 2-fluoro-
##MOLFORM=C6H5FO
##CAS REGISTRY NO=367-12-4
##MP= -300
##BP= -300
##MW= 112
##$RETENTION INDEX=889
##$CONDENSED SPECTRUM=NO
##NPOINTS= 67
##XYDATA=(XY..XY) 1 
    14          2
    15          1
    25          2
    26          8
    27          9
    28         10
    29         11
    31         37
    32          2
    33          4
    36          3
    37         21
    38         44
    39         45
    40          3
    41          4
    42          4
    43          2
    44          3
    45          9
    46          3
    48          1
    49          9
    50         24
    51         15
    52          2
    53         27
    54          1
    55         10
    56         50
    57        114
    58         15
    60          4
    61         15
    62         24
    63        183
    64        536
    65         35
    66          8
    67          2
    68          9
    69          7
    70          4
    71          2
    73         20
    74          9
    75          9
    76          1
    77          2
    79          2
    80          4
    81         21
    82         11
    83        119
    84         25
    85          1
    86          3
    92        197
    93         14
    94          4
    95          2
    97          1
   110          3
   111         11
   112        999
   113         66
   114          4