##TITLE=Library Entry 55084
##JCAMP-DX=Revision 4.10 
##DATA TYPE=MASS SPECTRUM
##SAMPLE DESCRIPTION=Japan AIST/NIMC Database- Spectrum MS-IW-5622
##NAMES=HP
##CAS NAME=2,4-Pentanedione, 1,1,1-trifluoro-
##MOLFORM=C5H5F3O2
##CAS REGISTRY NO=367-57-7
##MP= -300
##BP= -300
##MW= 154
##$RETENTION INDEX=0
##$CONDENSED SPECTRUM=NO
##NPOINTS= 87
##XYDATA=(XY..XY) 1 
    13          3
    14         14
    15         55
    20          4
    25          4
    26         16
    27         62
    28         23
    29         64
    30          2
    31         70
    32          1
    33          6
    36          1
    37         12
    38         21
    39         77
    40          9
    41         81
    42         84
    43        849
    44         27
    45         39
    47          6
    49          3
    50         15
    51         22
    52          2
    53         18
    54          3
    55         45
    56          8
    57          9
    58          5
    59          4
    60          2
    61          4
    62          1
    63         11
    64          5
    66          3
    67         19
    68          4
    69        871
    70         27
    71          9
    73          2
    74          2
    75         13
    76          1
    77          8
    78          4
    79          2
    82          1
    83         11
    84         18
    85        999
    86         47
    87         11
    88          1
    89         29
    90          1
    91         37
    92          3
    93          1
    94          1
    95          2
    97         18
    99          1
   102          1
   103          1
   105          1
   107         12
   108          1
   109          1
   111          4
   117          1
   119        127
   120         15
   121          2
   125          1
   139        232
   140         10
   141          1
   154        333
   155         19
   156          1