##TITLE=Library Entry 79677
##JCAMP-DX=Revision 4.10 
##DATA TYPE=MASS SPECTRUM
##SAMPLE DESCRIPTION=J Am Soc Mass Spectrom 2008, 19, 1114-1118
##NAMES=HP
##CAS NAME=N-Benzoyl derivative of o-fluoroaniline
##MOLFORM=C13H10FNO
##CAS REGISTRY NO=367-97-5
##MP= -300
##BP= -300
##MW= 215
##$RETENTION INDEX=0
##$CONDENSED SPECTRUM=NO
##NPOINTS= 37
##XYDATA=(XY..XY) 1 
    37          7
    38         17
    39         38
    49          7
    50         98
    51        299
    52         28
    53          7
    56          7
    57         91
    58          7
    61          7
    62          7
    63         28
    64          7
    65          7
    69          7
    74         28
    75         38
    76         38
    77        689
    78         48
    81         17
    82         17
    83        149
    84          7
    89          7
    90          7
   105        999
   106         88
   107          7
   109         10
   110         28
   111          7
   185          7
   215        327
   216         48