##TITLE=Library Entry 22503
##JCAMP-DX=Revision 4.10 
##DATA TYPE=MASS SPECTRUM
##SAMPLE DESCRIPTION=NIST Mass Spectrometry Data Center, 2010
##NAMES=HP
##CAS NAME=Butyl trifluoroacetate
##MOLFORM=C6H9F3O2
##CAS REGISTRY NO=367-64-6
##MP= -300
##BP= -300
##MW= 170
##$RETENTION INDEX=679
##$CONDENSED SPECTRUM=NO
##NPOINTS= 56
##XYDATA=(XY..XY) 1 
    14          1
    15          7
    26         23
    27        157
    28         91
    30          9
    31         13
    33          6
    37          5
    38         14
    39        154
    40         40
    41        696
    42         49
    44         11
    45          9
    47         22
    50         55
    51         17
    52          4
    53         23
    54         20
    55        200
    56        999
    57        717
    58         32
    59         11
    60          1
    61          7
    65          1
    69        865
    70         10
    71          3
    72          6
    73          2
    78         32
    80          6
    83          1
    85          1
    91          1
    93          1
    95          8
    97         61
    99        170
   101         10
   109          1
   112          5
   113         10
   115         25
   125          5
   128          3
   129          1
   141         86
   142          5
   153          1
   155          7