##TITLE=Library Entry 1376
##JCAMP-DX=Revision 4.10 
##DATA TYPE=MASS SPECTRUM
##SAMPLE DESCRIPTION=Japan AIST/NIMC Database- Spectrum MS-NW-6460
##NAMES=HP
##CAS NAME=4-Fluoro-3-nitrobenzotrifluoride
##MOLFORM=C7H3F4NO2
##CAS REGISTRY NO=367-86-2
##MP= -300
##BP= -300
##MW= 209
##$RETENTION INDEX=0
##$CONDENSED SPECTRUM=NO
##NPOINTS= 151
##XYDATA=(XY..XY) 1 
    12          1
    14          2
    15          2
    16          3
    20          4
    25          2
    26          4
    27          3
    28         20
    29          3
    30        999
    31         67
    32          2
    33          3
    36          4
    37         24
    38         19
    39          7
    40          1
    41          1
    42          4
    43          1
    44          9
    45          3
    46         51
    47          1
    48          2
    49         10
    50         79
    51         40
    52          2
    53          2
    55          3
    56         23
    57         57
    58          4
    59          1
    60          4
    61         29
    62         35
    63        116
    64          9
    67          2
    68         65
    69        114
    70          4
    71          1
    72          3
    73         16
    74         64
    75        140
    76          9
    77          2
    78          1
    79          5
    80          9
    81         40
    82         15
    83          2
    84          1
    85          5
    86          6
    87          9
    88          9
    89          2
    91          2
    92         22
    93         85
    94         93
    95         12
    96          1
    98          4
    99         35
   100          7
   101        246
   102         14
   103          2
   104          4
   105          4
   106          6
   107          6
   108          8
   109          1
   110          4
   111          5
   112         34
   113        249
   114         17
   115          1
   117         16
   118          8
   119          8
   120          1
   122          1
   123         13
   124          3
   125         32
   126          5
   127          3
   128          1
   129          2
   130          2
   131         18
   132         28
   133          3
   136          2
   137         11
   138          1
   139          1
   141          3
   142          2
   143        197
   144        133
   145         13
   146          2
   147          1
   148          1
   149          2
   150         10
   151        234
   152         18
   153          1
   157          3
   158          2
   159          4
   160          4
   161          9
   162         23
   163        691
   164         59
   165          2
   167          1
   170          1
   174          1
   177          5
   178          1
   179        146
   180         12
   181          2
   188          2
   189          2
   190        161
   191         15
   192          2
   193         44
   194          4
   207          8
   208          1
   209        648
   210         53
   211          6