##TITLE=Library Entry 114768
##JCAMP-DX=Revision 4.10 
##DATA TYPE=MASS SPECTRUM
##SAMPLE DESCRIPTION=NIST Mass Spectrometry Data Center
##NAMES=HP
##CAS NAME=2,4-Difluorophenol
##MOLFORM=C6H4F2O
##CAS REGISTRY NO=367-27-1
##MP= -300
##BP= -300
##MW= 130
##$RETENTION INDEX=0
##$CONDENSED SPECTRUM=NO
##NPOINTS= 59
##XYDATA=(XY..XY) 1 
    12         10
    14         13
    15          2
    16          8
    17          3
    25         10
    26         16
    27          9
    28         17
    29         27
    31        163
    32         10
    36         12
    37         50
    38         25
    39         13
    41         20
    42          8
    43          8
    44         16
    45          9
    49         28
    50         64
    51        124
    52         23
    53         42
    54         11
    55         28
    56         73
    57        104
    58          9
    60         14
    61         60
    62         49
    63        177
    64         19
    65         20
    68         21
    69         12
    71          7
    73         20
    74         18
    75        133
    76         25
    77          7
    79         19
    80         32
    81        196
    82        833
    83         76
    92          8
    99         32
   101        234
   102         35
   110        123
   111         12
   128          8
   130        999
   131         70