##TITLE=Library Entry 50569
##JCAMP-DX=Revision 4.10 
##DATA TYPE=MASS SPECTRUM
##SAMPLE DESCRIPTION=TNO Volatile Compounds in Food - Chemical Concepts
##NAMES=HP
##CAS NAME=Furfuryl pentanoate
##MOLFORM=C10H14O3
##CAS REGISTRY NO=36701-01-6
##MP= -300
##BP= -300
##MW= 182
##$RETENTION INDEX=1232
##$CONDENSED SPECTRUM=NO
##NPOINTS= 72
##XYDATA=(XY..XY) 1 
    25          1
    26         20
    27        210
    28         45
    29        166
    30          4
    31          4
    32          1
    33          0
    36          0
    37          5
    38         14
    39         83
    40         15
    41        120
    42         33
    43         19
    44          5
    45          4
    49          1
    50         16
    51         36
    52        157
    53        166
    54         10
    55         41
    56          8
    57        177
    58          8
    59          3
    60          6
    63          0
    66          1
    67          1
    68          4
    69         11
    70         12
    71          3
    72          0
    73          2
    74          1
    75          2
    79          3
    80        124
    81        999
    82         86
    83         10
    84          4
    85        116
    86          7
    87          0
    94          1
    95         15
    96          4
    97         45
    98        339
    99         20
   100          2
   101          8
   102          0
   103          5
   107          1
   108          0
   109         14
   110          1
   122          7
   123          1
   136          0
   167          0
   168          0
   182        105
   183         12