##TITLE=Library Entry 83888
##JCAMP-DX=Revision 4.10 
##DATA TYPE=MASS SPECTRUM
##SAMPLE DESCRIPTION=Japan AIST/NIMC Database- Spectrum MS-IW-6519
##NAMES=HP
##CAS NAME=2-Furyl alpha-hydroxybenzyl ketone
##MOLFORM=C12H10O3
##CAS REGISTRY NO=36715-43-2
##MP= -300
##BP= -300
##MW= 202
##$RETENTION INDEX=0
##$CONDENSED SPECTRUM=NO
##NPOINTS= 73
##XYDATA=(XY..XY) 1 
    17          1
    18          3
    26          1
    27          9
    28          5
    29          7
    31          1
    37          4
    38         10
    39         64
    40          8
    41         16
    42          3
    43          1
    49          1
    50         19
    51         71
    52         12
    53         12
    55          1
    61          1
    62          4
    63          9
    64          3
    65          4
    66          2
    67          9
    68         30
    69          9
    73          1
    74          7
    75          6
    76          7
    77        277
    78         34
    79        365
    80         24
    81          3
    86          1
    87          1
    89          7
    90          5
    91          7
    95        180
    96         28
    97        169
    98          9
    99          1
   101          1
   102          2
   103          1
   105        400
   106         34
   107        999
   108         78
   109          5
   115          5
   116          1
   127          3
   128          6
   129          1
   139          2
   157          3
   168          2
   172          1
   185          2
   186         14
   187          2
   200          7
   201          1
   202        113
   203         14
   204          1