##TITLE=Library Entry 14025
##JCAMP-DX=Revision 4.10 
##DATA TYPE=MASS SPECTRUM
##SAMPLE DESCRIPTION=Div. of Experiment Therapeutics WRAIR, WRAMC, Washingto
n DC 20307
##NAMES=HP
##CAS NAME=6-[3,4-Dichlorophenyl]-4,5-dihydro-3(2H)-pyridazinone
##MOLFORM=C10H8Cl2N2O
##CAS REGISTRY NO=36725-34-5
##MP= -300
##BP= -300
##MW= 242
##$RETENTION INDEX=0
##$CONDENSED SPECTRUM=NO
##NPOINTS= 183
##XYDATA=(XY..XY) 1 
    42        140
    43        999
    44         11
    45          1
    47         11
    48          4
    49         49
    50         99
    51         93
    52         23
    53          8
    54         19
    55        102
    56         27
    57         32
    58          4
    59          1
    60          9
    61         38
    62         71
    63        103
    64         15
    65         14
    66          6
    67          4
    68          7
    69         13
    70          4
    71         53
    72         30
    73         69
    74        140
    75        173
    76         30
    77          9
    78          6
    79          2
    80          3
    81          1
    82          3
    83          8
    84         51
    85         51
    86         69
    87         65
    88         27
    89        113
    91          1
    92          2
    93          1
    94          1
    95          2
    96          9
    97         49
    98         26
    99        103
   100         66
   101         58
   102         24
   103          3
   104          1
   105          0
   107         32
   108         19
   109         98
   110         39
   111         45
   112         13
   113         44
   114         48
   115        159
   116         33
   117         12
   118          2
   119          2
   120          3
   121          9
   122          6
   123         28
   124         52
   125         18
   126         20
   127          7
   128          3
   129          2
   130          1
   131          1
   132          1
   133          9
   134          6
   135         89
   136        183
   137         57
   138         65
   139         10
   140          1
   141          1
   142          3
   143          5
   144         12
   145         94
   146         13
   147         64
   148         19
   149         95
   150         93
   151         62
   152         45
   153         15
   154          6
   155          1
   156          0
   157          8
   159         34
   160          4
   161         22
   162         24
   163          8
   164         12
   165         19
   166          3
   167          5
   168          0
   170         21
   171        238
   172         54
   173        155
   174         28
   175         27
   176          4
   177          3
   178         10
   179        101
   180         12
   181         33
   182          1
   183         13
   184          1
   185         78
   186         36
   187        151
   188         31
   189         82
   190         18
   191         13
   192          4
   193          0
   196          2
   197         31
   198         22
   199         58
   200         15
   201         28
   202          4
   203          3
   206          1
   207          5
   208          1
   209          1
   210          0
   211          0
   212          2
   213         51
   214         33
   215         35
   216         19
   217          7
   218          3
   225          1
   226         10
   227          1
   228          6
   229          0
   230          1
   239          2
   241         39
   242        609
   243         96
   244        401
   245         51
   246         68
   247          8
   248          0