##TITLE=Library Entry 25745
##JCAMP-DX=Revision 4.10 
##DATA TYPE=MASS SPECTRUM
##SAMPLE DESCRIPTION=NIST Mass Spectrometry Data Center, 2010
##NAMES=HP
##CAS NAME=Hexanoyl chloride, 3,5,5-trimethyl-
##MOLFORM=C9H17ClO
##CAS REGISTRY NO=36727-29-4
##MP= -300
##BP= -300
##MW= 176
##$RETENTION INDEX=1063
##$CONDENSED SPECTRUM=NO
##NPOINTS= 83
##XYDATA=(XY..XY) 1 
    14          1
    15          4
    26          3
    27         40
    28         12
    29         80
    30          2
    35          2
    36         10
    37          2
    38          8
    39        102
    40         21
    41        314
    42         47
    43         83
    44          3
    45          1
    46          2
    47          3
    48          5
    49          6
    50          4
    51         11
    52          4
    53         28
    54          7
    55        166
    56        204
    57        999
    58         42
    59          1
    61          1
    63         24
    64          1
    65         12
    66          2
    67         15
    68          6
    69        308
    70         16
    71         46
    72          3
    75          1
    77         15
    78          3
    79         10
    80          2
    81          6
    82          5
    83        525
    84        124
    85         29
    86          2
    89          1
    90          1
    91          4
    92          1
    93          2
    95          1
    96          3
    97         62
    98         16
    99          2
   103          1
   105          2
   107          3
   109          1
   111          1
   112          3
   113          1
   119          3
   121          1
   122          2
   123          1
   125         46
   126          4
   140         15
   141         54
   142          5
   143          1
   161          5
   163          2