##TITLE=Library Entry 22200
##JCAMP-DX=Revision 4.10 
##DATA TYPE=MASS SPECTRUM
##SAMPLE DESCRIPTION=J.E. WILKINSON S-CUBED, SAN DIEGO, CA.
##NAMES=HP
##CAS NAME=Iprodione
##MOLFORM=C13H13Cl2N3O3
##CAS REGISTRY NO=36734-19-7
##MP= -300
##BP= -300
##MW= 329
##$RETENTION INDEX=2439
##$CONDENSED SPECTRUM=NO
##NPOINTS= 68
##XYDATA=(XY..XY) 1 
    41        382
    42        204
    43        925
    44        253
    45          1
    49         10
    50          2
    51          0
    56        999
    57         38
    58        612
    61          4
    62         15
    63          7
    64          7
    70        243
    71          2
    73         24
    74         22
    75         24
    84         84
    85          8
    86         16
    87          1
    88          9
    90          3
    97         14
    98          1
    99         21
   109         23
   110          5
   111          5
   124        100
   125          6
   126         23
   145         41
   147         20
   153         11
   157         22
   158          3
   160         12
   161         26
   162          8
   163          8
   174          7
   181          6
   187        264
   188        110
   189        157
   190         42
   192          4
   216         93
   217          3
   218         58
   220          1
   244         48
   245        116
   247         37
   248          7
   249          3
   271         39
   273         20
   314        406
   315         32
   316        231
   318          9
   329         17
   331          6