##TITLE=Library Entry 47806
##JCAMP-DX=Revision 4.10 
##DATA TYPE=MASS SPECTRUM
##SAMPLE DESCRIPTION=A.A.Kutin, Moscow, Russia
##NAMES=HP
##CAS NAME=1,3-Diazetidine, 2,4-bis(hexafluoroisopropylideno)-1,3-diphenyl-
##MOLFORM=C20H10F12N2
##CAS REGISTRY NO=36737-85-6
##MP= -300
##BP= -300
##MW= 506
##$RETENTION INDEX=0
##$CONDENSED SPECTRUM=NO
##NPOINTS= 120
##XYDATA=(XY..XY) 1 
    33         19
    34         12
    36          3
    37          4
    38         13
    40        237
    41         27
    42         11
    44        128
    45          7
    46          2
    48          1
    50         78
    51        278
    53          6
    54          4
    55         14
    56          8
    57         13
    61          1
    62          5
    63         16
    64         11
    65         17
    66          4
    67          2
    69         34
    70          8
    71          6
    74         21
    75         33
    77        999
    78         55
    79         11
    80         10
    81          7
    82         13
    83          5
    84          2
    85          3
    87          2
    88          3
    89          8
    91         55
    92         10
    93          9
    95         16
    96         10
    97          5
    98          1
    99          3
   100          3
   101          1
   103         19
   104         13
   105          6
   106          6
   107          4
   108          3
   109          4
   111          3
   112          3
   113          2
   114          2
   115          3
   116          2
   117          7
   118         13
   119          5
   121          3
   122          1
   123          1
   125          3
   126          1
   127         16
   128         13
   131          1
   132          1
   133          2
   134          4
   135          1
   137          1
   138          3
   139          4
   140          2
   143          1
   144          1
   147          2
   149         10
   150          5
   151          5
   152          4
   153          1
   155          2
   157          2
   162          1
   163          3
   164          5
   165         24
   166          2
   171          3
   172          1
   173          2
   176          1
   181          2
   183          1
   184         13
   191          1
   193          1
   203          1
   208          1
   219          2
   222          7
   234         80
   235          7
   253        475
   254         50
   391          2
   506         27
   507          4