##TITLE=Library Entry 30252
##JCAMP-DX=Revision 4.10 
##DATA TYPE=MASS SPECTRUM
##SAMPLE DESCRIPTION=R.NAKAO RADIATION CENTER OF OSAKA PREFECTURE, SAKIA, JA
PAN
##NAMES=HP
##CAS NAME=Pentane, 3-ethoxy-
##MOLFORM=C7H16O
##CAS REGISTRY NO=36749-13-0
##MP= -300
##BP= -300
##MW= 116
##$RETENTION INDEX=773
##$CONDENSED SPECTRUM=NO
##NPOINTS= 14
##XYDATA=(XY..XY) 1 
    27        170
    28        190
    29        290
    31        270
    39        130
    41        230
    42        170
    43        120
    55        370
    59        999
    70        130
    87        540
   116          2
   117          0