##TITLE=Library Entry 19634
##JCAMP-DX=Revision 4.10 
##DATA TYPE=MASS SPECTRUM
##SAMPLE DESCRIPTION=V.Zaikin,Topchiev Inst.Petrochem.Synth.,Moscow
##NAMES=HP
##CAS NAME=Bromoacetic acid, dodecyl ester
##MOLFORM=C14H27BrO2
##CAS REGISTRY NO=3674-07-5
##MP= -300
##BP= -300
##MW= 306
##$RETENTION INDEX=1884
##$CONDENSED SPECTRUM=NO
##NPOINTS= 108
##XYDATA=(XY..XY) 1 
    27        214
    28         42
    29        395
    30         12
    31         16
    33          3
    35          3
    36         10
    37          6
    38         15
    39        245
    40         74
    41        865
    42        509
    43        956
    44         77
    45         14
    49          5
    50         13
    51         23
    52          9
    53         91
    54        154
    55        999
    56        569
    57        609
    58         19
    59          6
    60         10
    61         14
    62          2
    63          6
    65         14
    66         12
    67        150
    68        247
    69        715
    70        536
    71        269
    72         19
    73         10
    75          3
    76          3
    77         19
    78          9
    79         26
    80          8
    81         61
    82        290
    83        604
    84        283
    85        121
    86          7
    91          6
    92          8
    93        119
    94         22
    95        124
    96        103
    97        410
    98        173
    99         32
   100          7
   101          5
   105          6
   108          3
   109         15
   110         36
   111        212
   112        116
   113         23
   115          3
   117          2
   120         12
   121        240
   122         14
   123        239
   124         14
   125         61
   126         52
   127          5
   128          4
   130          3
   131          2
   137         10
   138         31
   139         92
   140        159
   141         76
   142          6
   143          3
   148         13
   149          3
   150          9
   151          9
   153         11
   162          8
   164          4
   166          8
   167         19
   168         70
   169          9
   178          4
   179          6
   213         18
   214          2
   220          3
   227          2