##TITLE=Library Entry 700
##JCAMP-DX=Revision 4.10 
##DATA TYPE=MASS SPECTRUM
##SAMPLE DESCRIPTION=Japan AIST/NIMC Database- Spectrum MS-IW- 695
##NAMES=HP
##CAS NAME=Propanoic acid, 2,3-dibromo-, ethyl ester
##MOLFORM=C5H8Br2O2
##CAS REGISTRY NO=3674-13-3
##MP= -300
##BP= -300
##MW= 258
##$RETENTION INDEX=1140
##$CONDENSED SPECTRUM=NO
##NPOINTS= 113
##XYDATA=(XY..XY) 1 
    13          1
    14          4
    15         15
    16          1
    25          7
    26         91
    27        484
    28         60
    29        999
    30         34
    31         16
    32          1
    38          1
    39          5
    40          1
    41          8
    42          7
    43         48
    44          9
    45         83
    46          2
    53         14
    54         18
    55        563
    56         36
    57          4
    58          6
    59          6
    68          1
    69          1
    71         35
    72          7
    73         73
    74          2
    75          1
    79         11
    80         25
    81         12
    82         24
    83          1
    85          6
    91          1
    92          2
    93          5
    94          2
    95          4
    99         32
   100          3
   101          1
   104          4
   105         89
   106        858
   107        197
   108        840
   109        111
   110          9
   111          2
   120          2
   121          1
   122          2
   123         13
   125         12
   129          1
   133         56
   134          6
   135         80
   136          7
   137         33
   138          1
   139          5
   150         21
   151        127
   152         26
   153        125
   154          5
   160          3
   162          3
   163          1
   165          1
   178         13
   179        425
   180         37
   181        415
   182         23
   183          2
   184          2
   185        124
   186         35
   187        243
   188         61
   189        118
   190         29
   213         68
   214          2
   215        134
   216          5
   217         66
   218          2
   230         54
   231          3
   232        106
   233          7
   234         52
   235          3
   243          1
   245          2
   247          1
   258          2
   259          2
   260          4
   261          3
   262          2
   263          1