##TITLE=Library Entry 31463
##JCAMP-DX=Revision 4.10 
##DATA TYPE=MASS SPECTRUM
##SAMPLE DESCRIPTION=Japan AIST/NIMC Database- Spectrum MS-NW-1592
##NAMES=HP
##CAS NAME=Propanoic acid, 2,3-dichloro-, methyl ester
##MOLFORM=C4H6Cl2O2
##CAS REGISTRY NO=3674-09-7
##MP= -300
##BP= -300
##MW= 156
##$RETENTION INDEX=927
##$CONDENSED SPECTRUM=NO
##NPOINTS= 88
##XYDATA=(XY..XY) 1 
    12          1
    13          3
    14          8
    15        337
    16          4
    17          1
    18          3
    24          1
    25         12
    26         82
    27        215
    28         17
    29         43
    30          9
    31         52
    32          3
    33          1
    35          6
    36         11
    37          2
    38          3
    39          9
    40          1
    41         12
    42          4
    43         14
    44          7
    45          8
    47          4
    48          9
    49         44
    50          5
    51         34
    52          2
    53         19
    54          7
    55        114
    56          5
    57          1
    58          1
    59        746
    60         19
    61        273
    62        999
    63        132
    64        309
    65         16
    71          1
    75          3
    76          9
    77         76
    78          4
    79         35
    81          4
    83          1
    85          8
    87          5
    89         69
    90          5
    91         22
    92          2
    93          2
    95          5
    96         32
    97        307
    98         28
    99        194
   100          7
   101         30
   102          2
   105          1
   106          1
   108          1
   119          3
   120          6
   121        153
   122          9
   123         50
   124          8
   125         61
   126          5
   127         37
   128          2
   129          6
   131          2
   155          2
   156          1
   157          1