##TITLE=Library Entry 68774
##JCAMP-DX=Revision 4.10 
##DATA TYPE=MASS SPECTRUM
##SAMPLE DESCRIPTION=Exported from NIST MS Search
##NAMES=HP
##CAS NAME=2H-Pyran-2,2-dicarboxylic acid, 3,6-dihydro-6-methyl-, diethyl es
ter
##MOLFORM=C12H18O5
##CAS REGISTRY NO=36749-08-3
##MP= -300
##BP= -300
##MW= 242
##$RETENTION INDEX=0
##$CONDENSED SPECTRUM=NO
##NPOINTS= 29
##XYDATA=(XY..XY) 1 
    30        140
    31        170
    65         40
    66         40
    67        326
    68        281
    69        129
    71         40
    74         62
    94         31
    95        999
    96         40
    97         49
   123        174
   125         49
   126        138
   127         35
   139         40
   140         40
   141         82
   150        107
   151         67
   153         62
   154        429
   155         60
   168         33
   169        398
   170         40
   242         31