##TITLE=Library Entry 18412
##JCAMP-DX=Revision 4.10 
##DATA TYPE=MASS SPECTRUM
##SAMPLE DESCRIPTION=RADIAN CORP
##NAMES=HP
##CAS NAME=Butane, 1,1,2-tribromo-
##MOLFORM=C4H7Br3
##CAS REGISTRY NO=3675-68-1
##MP= -300
##BP= -300
##MW= 292
##$RETENTION INDEX=0
##$CONDENSED SPECTRUM=NO
##NPOINTS= 57
##XYDATA=(XY..XY) 1 
    13          1
    14         23
    15         62
    25         29
    26        205
    27        798
    28        143
    29        339
    37         56
    38        121
    39        485
    40         40
    41         86
    42          2
    49         25
    50        117
    51        137
    52         55
    53        999
    54        103
    55        233
    56          5
    79        148
    80         67
    81        147
    82         66
    83          4
    92          2
    93         58
    94          2
    95         54
   104         16
   105         60
   106         25
   107        209
   108          4
   109        207
   117          5
   119         34
   121         29
   133        712
   135        747
   136         10
   158         15
   160         33
   162         14
   171          7
   173         15
   175          6
   184          8
   185          6
   186         28
   187          9
   188          6
   213         15
   215        271
   217        146