##TITLE=Library Entry 71605
##JCAMP-DX=Revision 4.10 
##DATA TYPE=MASS SPECTRUM
##SAMPLE DESCRIPTION=Japan AIST/NIMC Database- Spectrum MS-NW-5764
##NAMES=HP
##CAS NAME=4-Piperidinamine, 2,2,6,6-tetramethyl-
##MOLFORM=C9H20N2
##CAS REGISTRY NO=36768-62-4
##MP= -300
##BP= -300
##MW= 156
##$RETENTION INDEX=0
##$CONDENSED SPECTRUM=NO
##NPOINTS= 92
##XYDATA=(XY..XY) 1 
    14          2
    15         24
    16          2
    17          5
    18         30
    20          1
    26          3
    27         27
    28         57
    29         41
    30         40
    31          3
    32          5
    38          3
    39         49
    40         10
    41        112
    42        333
    43         93
    44        121
    45          7
    46          1
    49          1
    50          2
    51          4
    52          4
    53         12
    54          9
    55         47
    56         48
    57        100
    58        474
    59         19
    60          1
    62          1
    63          4
    64          1
    65          6
    66          4
    67         19
    68         12
    69          8
    70         20
    71         17
    72          8
    77          3
    78          1
    79          7
    80          6
    81         10
    82         33
    83         14
    84        128
    85         34
    86          6
    91          3
    92          2
    93          3
    94          4
    95          4
    96         11
    97          9
    98        999
    99        160
   100         10
   105          1
   106          3
   107         10
   108          9
   109          3
   110          2
   111          1
   112         14
   113          4
   120          1
   121          3
   122          8
   123          4
   124        145
   125         17
   126          1
   127          1
   136          2
   137          2
   138          1
   139         18
   140         18
   141        476
   142         69
   143          5
   156         50
   157          7