##TITLE=Library Entry 46921
##JCAMP-DX=Revision 4.10 
##DATA TYPE=MASS SPECTRUM
##SAMPLE DESCRIPTION=W.SUCROW BERLIN TECH UNIV., BERLIN, GERMANY, F.R.G.
##NAMES=HP
##CAS NAME=Benzoic acid, 4-(phenylazo)-, 2-(tetrahydro-2-oxo-3-furanyl)ethyl
 ester
##MOLFORM=C19H18N2O4
##CAS REGISTRY NO=36763-88-9
##MP= -300
##BP= -300
##MW= 338
##$RETENTION INDEX=0
##$CONDENSED SPECTRUM=NO
##NPOINTS= 87
##XYDATA=(XY..XY) 1 
    70        364
    71         16
    74         77
    75        169
    76        139
    77        999
    78         66
    79         10
    82        170
    83         78
    84          5
    86          7
    87          5
    95        219
    97         11
    99         21
   100         16
   102         13
   103        549
   104        166
   105        450
   106         34
   107          4
   113        142
   114         11
   115         15
   116         36
   117          8
   121         20
   123          5
   126         32
   127          9
   129          9
   133        331
   134         16
   135         59
   136         21
   145        138
   146          4
   147        121
   149         60
   150          8
   151          8
   152         64
   153         19
   157         37
   158          7
   162         57
   164         29
   165         41
   166          8
   176          7
   177          7
   178         20
   181         28
   182         22
   183        174
   185         33
   187         14
   188          6
   189         14
   195         64
   196         28
   199          8
   200          5
   201         17
   207         35
   209        111
   210         19
   212         37
   213         19
   226          7
   233        513
   234         52
   235          9
   238          8
   245         66
   246          8
   253          9
   257         28
   261         13
   263         12
   265         12
   277          7
   338        470
   339        106
   340         12