##TITLE=Library Entry 19981
##JCAMP-DX=Revision 4.10 
##DATA TYPE=MASS SPECTRUM
##SAMPLE DESCRIPTION=Chemical Concepts
##NAMES=HP
##CAS NAME=(Z)-3-Pentenoic acid, methyl ester
##MOLFORM=C6H10O2
##CAS REGISTRY NO=36781-66-5
##MP= -300
##BP= -300
##MW= 114
##$RETENTION INDEX=0
##$CONDENSED SPECTRUM=NO
##NPOINTS= 63
##XYDATA=(XY..XY) 1 
    25          2
    26         67
    27        398
    28         44
    29        489
    30         15
    31         21
    33          2
    36          1
    37         12
    38         28
    39        293
    40         23
    41         69
    42         69
    43         83
    44          7
    45         15
    48          0
    49          8
    50         45
    51         56
    52         25
    53        161
    54        236
    55        999
    56         73
    57         19
    58          4
    59        551
    60         14
    61          3
    62          0
    63          0
    65          0
    66          0
    67          1
    68          1
    69          7
    70          0
    71         49
    72        193
    73          8
    74         38
    75          1
    79          1
    81         18
    82        180
    83        130
    84          7
    85          6
    86          4
    87          4
    88          0
    97          1
    99         26
   100          1
   111          3
   112          0
   113          8
   114        395
   115         28
   116          2