##TITLE=Library Entry 33915
##JCAMP-DX=Revision 4.10 
##DATA TYPE=MASS SPECTRUM
##SAMPLE DESCRIPTION=A.A.Kutin, Moscow, Russia
##NAMES=HP
##CAS NAME=4(1H)-Pyrimidinone, 2,3-dihydro-2-thioxo-6-(trifluoromethyl)-
##MOLFORM=C5H3F3N2OS
##CAS REGISTRY NO=368-54-7
##MP= -300
##BP= -300
##MW= 196
##$RETENTION INDEX=0
##$CONDENSED SPECTRUM=NO
##NPOINTS= 96
##XYDATA=(XY..XY) 1 
    33         51
    34          6
    35          1
    36          3
    38         37
    40        272
    41         34
    42         67
    43         35
    44         38
    45         63
    46         48
    47         27
    48          1
    50         28
    51         22
    52         16
    53         20
    54          3
    55         12
    56         17
    59        233
    60         73
    61          7
    63         13
    65         13
    68        999
    69        118
    70         37
    71         22
    72         19
    73          7
    74         20
    75         55
    77         12
    78          0
    81          4
    82          7
    83         11
    84          8
    85          6
    86          9
    87          1
    88          5
    89         10
    90         42
    91         34
    93         21
    94          5
    96         35
    98         16
    99          6
   100          4
   101          1
   102          1
   103          1
   108         23
   109          3
   110          0
   113          4
   115          3
   116          1
   118          4
   120         10
   121         22
   123          4
   125          0
   126          4
   127          0
   129          0
   135          1
   136          8
   137         52
   138        204
   140         27
   141         14
   142          0
   143          0
   147          4
   148          7
   149         26
   150          1
   151          0
   163         38
   164          5
   167         12
   168         15
   169          3
   170          0
   177         32
   178          2
   179          1
   180          0
   196        580
   198         50
   199          0