##TITLE=Library Entry 69379
##JCAMP-DX=Revision 4.10 
##DATA TYPE=MASS SPECTRUM
##SAMPLE DESCRIPTION=R RYHAGE MS-LAB KAROLINSKA INSTITUTET STOCKHOLM SWEDEN
##NAMES=HP
##CAS NAME=L-Histidine, 3-methyl-
##MOLFORM=C7H11N3O2
##CAS REGISTRY NO=368-16-1
##MP= -300
##BP= -300
##MW= 169
##$RETENTION INDEX=0
##$CONDENSED SPECTRUM=NO
##NPOINTS= 87
##XYDATA=(XY..XY) 1 
    15         54
    16          8
    17         10
    18         24
    19          2
    25          2
    26         30
    27         70
    28        178
    29         25
    30         37
    32          5
    36          6
    37          5
    38         16
    39         55
    40         25
    41        105
    42        247
    43         28
    44         72
    45          9
    46          6
    47          2
    48          6
    49          2
    50          5
    51         12
    52         26
    53         19
    54        110
    55         38
    56         64
    57         10
    58          2
    60          2
    62          8
    63          2
    64          2
    65          6
    66         26
    67         24
    68        126
    69         20
    70          8
    71          2
    73          2
    74         13
    75          2
    77          2
    78          3
    79          5
    80         11
    81        224
    82         75
    83         81
    84          6
    91          2
    92          2
    93         10
    94          9
    95        717
    96        999
    97         76
    98          4
   104          2
   106          3
   107         19
   108         26
   109         17
   110          2
   119          2
   120          2
   121          6
   122          9
   123         41
   124        213
   125         49
   126          2
   134          2
   135          2
   149          2
   152          2
   154          2
   167          2
   169         15
   170          5