##TITLE=Library Entry 31497
##JCAMP-DX=Revision 4.10 
##DATA TYPE=MASS SPECTRUM
##SAMPLE DESCRIPTION=NIST Mass Spectrometry Data Center
##NAMES=HP
##CAS NAME=Ethene, (methylsulfonyl)-
##MOLFORM=C3H6O2S
##CAS REGISTRY NO=3680-02-2
##MP= -300
##BP= -300
##MW= 106
##$RETENTION INDEX=0
##$CONDENSED SPECTRUM=NO
##NPOINTS= 60
##XYDATA=(XY..XY) 1 
    13          1
    14          6
    15         52
    16          1
    25          9
    26         94
    27        696
    28          3
    29         37
    30          1
    31         21
    32          9
    33         11
    34          8
    35          3
    37          3
    38          5
    39         35
    40          3
    41         23
    42         18
    43        105
    44        271
    45        120
    46         55
    47         87
    48        314
    49         50
    50         27
    51          2
    56          4
    57         54
    58         40
    59         18
    60         13
    61        101
    62         13
    63        999
    64        270
    65        446
    66         15
    67         17
    68          1
    69          2
    71          1
    73          3
    74          3
    75          8
    76          1
    77         84
    78          4
    79         70
    80         55
    81          4
    82          2
    91        187
    92          5
    93          9
   106          1
   107          5