##TITLE=Library Entry 38304
##JCAMP-DX=Revision 4.10 
##DATA TYPE=MASS SPECTRUM
##SAMPLE DESCRIPTION=NIST Mass Spectrometry Data Center, 1994
##NAMES=HP
##CAS NAME=2-Tetrahydrofurfuryl isothiocyanate
##MOLFORM=C6H9NOS
##CAS REGISTRY NO=36810-87-4
##MP= -300
##BP= -300
##MW= 143
##$RETENTION INDEX=0
##$CONDENSED SPECTRUM=NO
##NPOINTS= 55
##XYDATA=(XY..XY) 1 
    14          6
    15         19
    26         20
    27        177
    28         52
    29        108
    30          7
    31         12
    32         14
    33          2
    37          6
    38         16
    39        130
    40         31
    41        328
    42         80
    43        650
    44         42
    45         58
    46         10
    47          4
    50          6
    51         12
    52          6
    53         25
    54         13
    55         49
    56          8
    57          8
    58         18
    59         17
    60          9
    61          2
    67          2
    68          4
    69          7
    70          2
    71        999
    72        202
    73         28
    74          9
    75          4
    78          2
    82          2
    83          4
    84          5
    85         11
    86          2
    98         10
    99          1
   101          5
   114          5
   143         96
   144          8
   145          4