##TITLE=Library Entry 8395
##JCAMP-DX=Revision 4.10 
##DATA TYPE=MASS SPECTRUM
##SAMPLE DESCRIPTION=NIST Mass Spectrometry Data Center
##NAMES=HP
##CAS NAME=3-Hexen-1-ol, acetate, (Z)-
##MOLFORM=C8H14O2
##CAS REGISTRY NO=3681-71-8
##MP= -300
##BP= -300
##MW= 142
##$RETENTION INDEX=1005
##$CONDENSED SPECTRUM=NO
##NPOINTS= 60
##XYDATA=(XY..XY) 1 
    14          9
    15         66
    16          1
    17          1
    18          2
    25          1
    26         11
    27        103
    28         29
    29         66
    30          4
    31          9
    37          3
    38         12
    39        165
    40         27
    41        212
    42         58
    43        999
    44         24
    45          8
    49          1
    50         11
    51         22
    52         12
    53         58
    54         85
    55         75
    56          7
    57          6
    58          2
    60          1
    61          6
    62          3
    63          5
    64          1
    65         28
    66         16
    67        846
    68         57
    69         27
    70          6
    71          2
    72          1
    73         39
    74          2
    77          8
    78          2
    79         21
    80          4
    81         69
    82        487
    83         40
    84          1
    86          1
    94          1
    97          4
    98          1
    99          1
   112          1