##TITLE=Library Entry 8389
##JCAMP-DX=Revision 4.10 
##DATA TYPE=MASS SPECTRUM
##SAMPLE DESCRIPTION=NIST Mass Spectrometry Data Center
##NAMES=HP
##CAS NAME=3-Hexen-1-ol, acetate, (E)-
##MOLFORM=C8H14O2
##CAS REGISTRY NO=3681-82-1
##MP= -300
##BP= -300
##MW= 142
##$RETENTION INDEX=1005
##$CONDENSED SPECTRUM=NO
##NPOINTS= 63
##XYDATA=(XY..XY) 1 
    14         10
    15         66
    16          2
    17          1
    18          2
    25          1
    26         11
    27        104
    28         30
    29         67
    30          4
    31         10
    32          1
    37          3
    38         12
    39        162
    40         27
    41        222
    42         59
    43        999
    44         25
    45          8
    49          1
    50         11
    51         23
    52         12
    53         60
    54         84
    55         76
    56          7
    57          7
    58          2
    59          1
    60          1
    61          5
    62          2
    63          6
    64          1
    65         28
    66         16
    67        869
    68         59
    69         34
    70          7
    71          2
    72          1
    73         38
    74          3
    77          8
    78          2
    79         23
    80          4
    81         70
    82        524
    83         42
    84          2
    85          1
    86          1
    94          1
    97          3
    98          1
    99          1
   112          1