##TITLE=Library Entry 50218
##JCAMP-DX=Revision 4.10 
##DATA TYPE=MASS SPECTRUM
##SAMPLE DESCRIPTION=NIST Mass Spectrometry Data Center
##NAMES=HP
##CAS NAME=3,7-Dimethyloct-6-en-1-yl tetradecanoate
##MOLFORM=C24H46O2
##CAS REGISTRY NO=3681-72-9
##MP= -300
##BP= -300
##MW= 366
##$RETENTION INDEX=2514
##$CONDENSED SPECTRUM=NO
##NPOINTS= 50
##XYDATA=(XY..XY) 1 
    27         27
    29         89
    39         49
    40         11
    41        540
    42         99
    43        425
    53         45
    54         25
    55        469
    56        105
    57        372
    58         25
    60         18
    65          9
    67        284
    68        151
    69        978
    70        105
    71        125
    72         11
    73         24
    79         33
    80        123
    81        999
    82        609
    83        303
    84         42
    85         48
    94         65
    95        661
    96        174
    97         63
    98         22
   101         10
   109        258
   110         75
   111         31
   123        756
   124         84
   129         12
   137         23
   138        591
   139         79
   140          8
   211         49
   212         10
   215          4
   229          7
   230          2