##TITLE=Library Entry 23096
##JCAMP-DX=Revision 4.10 
##DATA TYPE=MASS SPECTRUM
##SAMPLE DESCRIPTION=D.HENNEBERG, MAX-PLANCK INSTITUTE, MULHEIM, WEST GERMAN
Y
##NAMES=HP
##CAS NAME=Pentanoic acid, 3-methyl-2-oxo-, methyl ester
##MOLFORM=C7H12O3
##CAS REGISTRY NO=3682-42-6
##MP= -300
##BP= -300
##MW= 144
##$RETENTION INDEX=0
##$CONDENSED SPECTRUM=NO
##NPOINTS= 56
##XYDATA=(XY..XY) 1 
    23          0
    24          0
    25          3
    26         26
    27        162
    28         81
    29        561
    30         17
    31         15
    32          5
    33          2
    34          0
    35          1
    36          0
    37          6
    38          7
    39         88
    40         12
    41        465
    42         23
    43          9
    44          8
    45         11
    49          0
    50          4
    51          5
    52          1
    53         13
    54          5
    55         60
    56         60
    57        999
    58         42
    59         67
    60          4
    61          4
    65          0
    66          0
    67          1
    68          0
    69         17
    70          0
    71          1
    73          0
    74          0
    82          0
    83         10
    84         14
    85        265
    86         15
    87          1
    88          4
   101          1
   114          0
   144          6
   145          0