##TITLE=Library Entry 46997
##JCAMP-DX=Revision 4.10 
##DATA TYPE=MASS SPECTRUM
##SAMPLE DESCRIPTION=Chemical Concepts
##NAMES=HP
##CAS NAME=Benzoic acid, 2-(phenylazo)-
##MOLFORM=C13H10N2O2
##CAS REGISTRY NO=3682-56-2
##MP= -300
##BP= -300
##MW= 226
##$RETENTION INDEX=0
##$CONDENSED SPECTRUM=NO
##NPOINTS= 101
##XYDATA=(XY..XY) 1 
    26          1
    27         12
    28         13
    29          1
    31          2
    33          0
    36          6
    37         16
    39          4
    40         63
    41          5
    42          1
    43          3
    44          3
    45          6
    49          1
    50         54
    51        260
    52         20
    53          9
    54          1
    55          2
    56          1
    57          2
    60          1
    61          3
    63         26
    64         25
    65        175
    66          9
    67          2
    68          0
    69          1
    73          5
    74         14
    75         17
    76         41
    77        999
    79         45
    80          4
    81          1
    82          1
    83          1
    86          0
    87          1
    88          2
    89          2
    90          4
    91         20
    93         19
    94          4
    95          1
   101          1
   102          2
   103          2
   104         13
   105        337
   106         13
   107          0
   109          1
   115          6
   116          1
   119          5
   120          1
   121        200
   122          8
   123          1
   126          2
   127          5
   128          3
   129          1
   137          2
   139          1
   140          0
   141         11
   142          2
   149          7
   150          2
   151         13
   152         44
   153         33
   154          8
   155          2
   156          1
   163          1
   168          1
   169          2
   170          0
   179          0
   180          1
   181          3
   183         13
   184          1
   194          3
   198          9
   199          5
   209          2
   210          4
   226        219
   227         20
   228          4