##TITLE=Library Entry 84280
##JCAMP-DX=Revision 4.10 
##DATA TYPE=MASS SPECTRUM
##SAMPLE DESCRIPTION=Japan AIST/NIMC Database- Spectrum MS-IW-7011
##NAMES=HP
##CAS NAME=1,2-Diphenylethylene diacetate
##MOLFORM=C18H18O4
##CAS REGISTRY NO=3682-07-3
##MP= -300
##BP= -300
##MW= 298
##$RETENTION INDEX=0
##$CONDENSED SPECTRUM=NO
##NPOINTS= 75
##XYDATA=(XY..XY) 1 
    15          7
    27          1
    28          4
    29          1
    39          7
    41          1
    42          3
    43        587
    44         12
    45          3
    50          4
    51         21
    52          5
    53          1
    60          2
    62          1
    63          8
    64          3
    65          5
    74          1
    75          2
    76         11
    77         77
    78         11
    79         85
    80          6
    82          2
    87          1
    88          3
    89         25
    90         14
    91         18
    92          1
   102          5
   103          1
   105         66
   106         10
   107        999
   108        111
   109          7
   115          4
   118          4
   119          2
   120          1
   126          1
   127          1
   128          2
   133          1
   139          2
   149        868
   150         92
   151         11
   152         12
   153          2
   163          1
   164          2
   165         25
   166          7
   167         16
   168          3
   176          5
   177          6
   178         36
   179         41
   180         27
   181          5
   182          1
   192          3
   195          3
   196         20
   197         20
   198          2
   238         72
   239         18
   240          2