##TITLE=Library Entry 97224
##JCAMP-DX=Revision 4.10 
##DATA TYPE=MASS SPECTRUM
##SAMPLE DESCRIPTION=P.A. Leclercq, Lab. Instrum. Anal., Eindhoven Univ. Tec
hnol., Netherlands
##NAMES=HP
##CAS NAME=Benzenepropanoic acid, .alpha.-(hydroxyimino)-
##MOLFORM=C9H9NO3
##CAS REGISTRY NO=3682-17-5
##MP= -300
##BP= -300
##MW= 179
##$RETENTION INDEX=0
##$CONDENSED SPECTRUM=NO
##NPOINTS= 56
##XYDATA=(XY..XY) 1 
    46          6
    49         14
    50        142
    51        230
    52         43
    53         10
    54          3
    55         11
    56          7
    57         16
    58          8
    59          3
    60          6
    61         33
    62         70
    63        169
    64         64
    65        104
    66         10
    67          4
    69          6
    70          3
    71          6
    73         11
    74         37
    75         26
    76         24
    77        101
    78         24
    79          8
    83          3
    84          5
    85          8
    86         13
    87         19
    88         27
    89        315
    90        495
    91        225
    92         21
   102          3
   103          7
   104          4
   105          9
   106          3
   114          7
   115         14
   116        457
   117        999
   118        108
   119          6
   133          9
   143          6
   144          6
   163          6
   179         24