##TITLE=Library Entry 40730
##JCAMP-DX=Revision 4.10 
##DATA TYPE=MASS SPECTRUM
##SAMPLE DESCRIPTION=D.HENNEBERG, MAX-PLANCK INSTITUTE, MULHEIM, WEST GERMAN
Y
##NAMES=HP
##CAS NAME=Pentane, 3-methoxy-
##MOLFORM=C6H14O
##CAS REGISTRY NO=36839-67-5
##MP= -300
##BP= -300
##MW= 102
##$RETENTION INDEX=0
##$CONDENSED SPECTRUM=NO
##NPOINTS= 38
##XYDATA=(XY..XY) 1 
    25          0
    26          8
    27         79
    28         29
    29        100
    30          3
    31         22
    32          0
    33          8
    37          2
    38          2
    39         46
    40          6
    41        318
    42         40
    43        123
    44          3
    45        342
    46          7
    50          1
    51          1
    53          5
    54          1
    55         47
    56          4
    57         14
    58          3
    59         16
    67          0
    69          2
    70         15
    71         21
    72         29
    73        999
    74         43
    75          2
   101          2
   102          0