##TITLE=Library Entry 34199
##JCAMP-DX=Revision 4.10 
##DATA TYPE=MASS SPECTRUM
##SAMPLE DESCRIPTION=NIST Mass Spectrometry Data Center, 1990.
##NAMES=HP
##CAS NAME=2-Hexene, 4-methyl-, (E)-
##MOLFORM=C7H14
##CAS REGISTRY NO=3683-22-5
##MP= -300
##BP= -300
##MW= 98
##$RETENTION INDEX=657
##$CONDENSED SPECTRUM=NO
##NPOINTS= 30
##XYDATA=(XY..XY) 1 
    14         14
    15         27
    26         24
    27        168
    28        120
    29        110
    32         27
    38         26
    39        256
    41        740
    42         47
    43         30
    50         19
    51         36
    52         16
    53         87
    55        371
    56        116
    57         15
    63         13
    65         25
    66         12
    67         87
    69        999
    70        138
    77         11
    79         12
    83        107
    98        226
    99         19