##TITLE=Library Entry 32655
##JCAMP-DX=Revision 4.10 
##DATA TYPE=MASS SPECTRUM
##SAMPLE DESCRIPTION=G.A.M.S., PARIS, FRANCE.
##NAMES=HP
##CAS NAME=2H-Pyran, tetrahydro-4-methylene-
##MOLFORM=C6H10O
##CAS REGISTRY NO=36838-71-8
##MP= -300
##BP= -300
##MW= 98
##$RETENTION INDEX=0
##$CONDENSED SPECTRUM=NO
##NPOINTS= 71
##XYDATA=(XY..XY) 1 
    25          1
    26         20
    27        140
    28         86
    29         73
    30          6
    31         27
    32          2
    33          1
    34          0
    36          0
    37         11
    38         31
    39        280
    40        493
    41        217
    42        121
    43         35
    44          7
    45          2
    46          0
    47          0
    48          0
    49          2
    50         21
    51         31
    52         21
    53        375
    54         25
    55         28
    56          6
    57          5
    58          3
    59          0
    60          0
    61          2
    62          4
    63          8
    64          1
    65         36
    66         62
    67        999
    68        892
    69        101
    70        139
    71          8
    72          1
    73          0
    74          0
    75          0
    76          0
    77          3
    78          0
    79          3
    80          2
    81          4
    82          1
    83         36
    84          2
    85          0
    91          2
    92          1
    93          0
    94          0
    95          3
    96          2
    97          9
    98        487
    99         35
   100          3
   101          0