##TITLE=Library Entry 79114
##JCAMP-DX=Revision 4.10 
##DATA TYPE=MASS SPECTRUM
##SAMPLE DESCRIPTION=R.E.Ardrey ET AL.Pharmaceutical Mass Spectra,L.,1985
##NAMES=HP
##CAS NAME=Broxaldine
##MOLFORM=C17H11Br2NO2
##CAS REGISTRY NO=3684-46-6
##MP= -300
##BP= -300
##MW= 419
##$RETENTION INDEX=2686
##$CONDENSED SPECTRUM=NO
##NPOINTS= 33
##XYDATA=(XY..XY) 1 
    27         20
    29         30
    31         20
    39         20
    40         30
    41         20
    42         10
    43         20
    44         60
    50         20
    51         50
    52         10
    53         10
    55         10
    56         10
    57         20
    69         20
    70         10
    74         10
    75         10
    76         20
    77        230
    78         30
   101         10
   102         10
   104         10
   105        999
   106         70
   127         10
   128         40
   207         10
   288         10
   421         20