##TITLE=Library Entry 76487
##JCAMP-DX=Revision 4.10 
##DATA TYPE=MASS SPECTRUM
##SAMPLE DESCRIPTION=NIST Mass Spectrometry Data Center, 2010
##NAMES=HP
##CAS NAME=Ethoxy(dimethyl)isopropylsilane
##MOLFORM=C7H18OSi
##CAS REGISTRY NO=36850-66-5
##MP= -300
##BP= -300
##MW= 146
##$RETENTION INDEX=793
##$CONDENSED SPECTRUM=NO
##NPOINTS= 63
##XYDATA=(XY..XY) 1 
    15          1
    26          1
    27         11
    28          2
    29          7
    31          4
    38          1
    39          8
    40          1
    41         13
    42          5
    43         38
    44          4
    45         56
    46          4
    47         32
    48          2
    49          1
    51          1
    53          2
    54          1
    55          4
    56          1
    57          4
    58         23
    59        129
    60         16
    61         39
    62          3
    63          1
    66          1
    67          1
    69          1
    70          1
    71          4
    72          3
    73         75
    74         10
    75        359
    76         26
    77         14
    83          1
    85          6
    86          1
    87         11
    88          9
    89         34
    90          3
    91          1
    99          1
   101         14
   103        999
   104         94
   105         37
   106          2
   115          4
   129          1
   131         34
   132          4
   133          2
   146         14
   147          2
   148          1