##TITLE=Library Entry 76573
##JCAMP-DX=Revision 4.10 
##DATA TYPE=MASS SPECTRUM
##SAMPLE DESCRIPTION=V.G.Zaikin, Petrochem. Synth. Inst., Moscow
##NAMES=HP
##CAS NAME=Dimethylbutylsilyloxyethane
##MOLFORM=C8H20OSi
##CAS REGISTRY NO=36850-68-7
##MP= -300
##BP= -300
##MW= 160
##$RETENTION INDEX=0
##$CONDENSED SPECTRUM=NO
##NPOINTS= 73
##XYDATA=(XY..XY) 1 
    25          1
    26         33
    27        125
    28         26
    29        125
    31         44
    38          3
    39         47
    40          7
    41         58
    42         39
    43        221
    44         45
    45        412
    46         31
    47        185
    48          9
    49          7
    50          3
    51         12
    52         12
    53         22
    54         12
    55         68
    56         35
    57         38
    58        132
    59        759
    60         94
    61        536
    62         32
    64         19
    69         16
    70          5
    71         39
    72         41
    73        237
    74         48
    75        798
    76         84
    77         46
    78          5
    79         23
    81          6
    83          9
    85         24
    86         15
    87         75
    88         79
    89        838
    90        145
    91         65
    93         11
    95          9
    97          6
    99         21
   101         51
   102         39
   103        999
   104        502
   105        208
   106         11
   115         43
   116         17
   117         15
   133          9
   144          5
   145        661
   146         86
   147         32
   160         41
   161          5
   162          2