##TITLE=Library Entry 61632
##JCAMP-DX=Revision 4.10 
##DATA TYPE=MASS SPECTRUM
##SAMPLE DESCRIPTION=NIST Mass Spectrometry Data Center, 2010
##NAMES=HP
##CAS NAME=2-Phenylbutyryl chloride
##MOLFORM=C10H11ClO
##CAS REGISTRY NO=36854-57-6
##MP= -300
##BP= -300
##MW= 182
##$RETENTION INDEX=1032
##$CONDENSED SPECTRUM=NO
##NPOINTS= 81
##XYDATA=(XY..XY) 1 
    15          1
    26          3
    27         13
    28          4
    29          5
    35          1
    36          3
    37          2
    38          8
    39         46
    40          5
    41         53
    42          3
    43          1
    44          1
    45          1
    49          2
    50         26
    51         63
    52         14
    53          5
    55          4
    57          6
    58          7
    59          2
    61          5
    62         19
    63         60
    64         12
    65         48
    66          4
    70          5
    73          4
    74         13
    75         13
    76         13
    77         72
    78         48
    79         19
    80          1
    84          1
    85          2
    86          5
    87          6
    88          3
    89         65
    90         42
    91        999
    92         74
    93          3
    98          1
    99          4
   101          4
   102         19
   103         70
   104         73
   105          7
   112          2
   113          1
   114          2
   115         76
   116         16
   117         96
   118         37
   119        675
   120         64
   121          3
   125         25
   126          2
   127          9
   128          1
   131          2
   139          1
   146         30
   147         26
   148          3
   154          1
   182         78
   183          8
   184         25
   185          3