##TITLE=Library Entry 57374
##JCAMP-DX=Revision 4.10 
##DATA TYPE=MASS SPECTRUM
##SAMPLE DESCRIPTION=Institute of Organic Chemistry, Novosibirsk, USSR 1988
##NAMES=HP
##CAS NAME=2-O-Methyl-D-mannopyranosa
##MOLFORM=C7H14O6
##CAS REGISTRY NO=36864-61-6
##MP= -300
##BP= -300
##MW= 194
##$RETENTION INDEX=0
##$CONDENSED SPECTRUM=NO
##NPOINTS= 56
##XYDATA=(XY..XY) 1 
    26         15
    27         89
    28         44
    29        209
    30         27
    31        309
    32         23
    33         72
    39         32
    41         63
    42         64
    43        199
    44         66
    45        219
    47         23
    55         56
    58         39
    59        159
    60        119
    61        109
    69         47
    70         46
    71        179
    72         32
    73        159
    74        739
    75        149
    83         11
    85         95
    86         16
    87        999
    88         60
    89         11
    90          8
    91          7
    97          7
    98          6
    99         27
   100          7
   101         11
   103         13
   104          3
   111          3
   112          3
   113          3
   115         60
   116         72
   117         11
   127          1
   129          1
   130          8
   133         16
   145         31
   155          3
   163          3
   177          6