##TITLE=Library Entry 29565
##JCAMP-DX=Revision 4.10 
##DATA TYPE=MASS SPECTRUM
##SAMPLE DESCRIPTION=Chemical Concepts
##NAMES=HP
##CAS NAME=Butane, 1-chloro-4-ethoxy-
##MOLFORM=C6H13ClO
##CAS REGISTRY NO=36865-43-7
##MP= -300
##BP= -300
##MW= 136
##$RETENTION INDEX=914
##$CONDENSED SPECTRUM=NO
##NPOINTS= 91
##XYDATA=(XY..XY) 1 
    24          0
    25          1
    26         35
    27        240
    28          9
    29        309
    30          9
    31        638
    33          1
    34          0
    35          0
    36          1
    37          3
    38          7
    39         71
    40         48
    41        165
    42        144
    43        204
    44         22
    45        103
    46          6
    47          9
    48          0
    49         20
    50          3
    51          7
    52          1
    53         18
    54         15
    55        222
    56         10
    57          8
    58          6
    59        999
    60         33
    61         22
    62         12
    63         15
    64          4
    65          6
    66          0
    67          0
    69          1
    70         13
    71         27
    72         13
    73         11
    74          4
    75          3
    76          3
    77          6
    78          2
    79          1
    80          0
    83          1
    85         29
    86          1
    87          2
    88         15
    89          3
    90         16
    91         65
    92         10
    93         17
    94          0
    95          0
    99          0
   100          0
   101          5
   102          1
   103          0
   105          6
   107          7
   108          1
   109          2
   110          0
   111          0
   112          0
   115          1
   117          1
   121          3
   123          1
   124          0
   126          0
   135          1
   136         44
   137          4
   138         14
   139          0
   140          0