##TITLE=Library Entry 1783
##JCAMP-DX=Revision 4.10 
##DATA TYPE=MASS SPECTRUM
##SAMPLE DESCRIPTION=A.A.Kutin, Moscow, Russia
##NAMES=HP
##CAS NAME=Furan, 2-(3-imino-3-ethoxyprop-1-enyl)-
##MOLFORM=C9H11NO2
##CAS REGISTRY NO=36878-63-4
##MP= -300
##BP= -300
##MW= 165
##$RETENTION INDEX=0
##$CONDENSED SPECTRUM=NO
##NPOINTS= 94
##XYDATA=(XY..XY) 1 
    33          4
    36         30
    37        127
    38        114
    39        999
    40         75
    41         78
    42         45
    43         74
    44        182
    45         43
    46         15
    48          1
    50         77
    51        111
    52        146
    53        175
    54         60
    55         41
    56          8
    57          3
    58          0
    60         27
    61         39
    62        102
    63        321
    64        208
    65        889
    66        267
    67         82
    68         29
    69          6
    70          6
    71          2
    72          1
    73          2
    74          6
    75          8
    76         10
    77         38
    78         20
    80        316
    81        109
    83        334
    84         14
    85          1
    87          3
    88          5
    90         55
    91         72
    92        290
    93        395
    94        197
    95         27
    96         89
    97          7
    98          1
    99          1
   100          0
   102          3
   103          6
   104          5
   105          4
   106          4
   108        418
   109         91
   111         95
   112          5
   113          0
   115          0
   119        404
   120        302
   121        250
   122         32
   124         20
   125          1
   126          0
   127          0
   128          0
   131          0
   132          0
   133          0
   136        219
   137        146
   138         13
   139          1
   147          3
   148          5
   149          0
   150          2
   151          0
   165        306
   166         33
   167          2