##TITLE=Library Entry 66491
##JCAMP-DX=Revision 4.10 
##DATA TYPE=MASS SPECTRUM
##SAMPLE DESCRIPTION=Japan AIST/NIMC Database- Spectrum MS-NW-2364
##NAMES=HP
##CAS NAME=4,4'-(3,3'-Dinitro-4,4'-biphenylylenebisazo)diphenol
##MOLFORM=C24H16N6O6
##CAS REGISTRY NO=3687-26-1
##MP= -300
##BP= -300
##MW= 484
##$RETENTION INDEX=0
##$CONDENSED SPECTRUM=NO
##NPOINTS= 249
##XYDATA=(XY..XY) 1 
    14          2
    15          2
    16          5
    26          9
    27         17
    28        111
    29          6
    30         19
    31          1
    32          5
    36          2
    37          2
    38          6
    39         94
    40          7
    41         16
    42          6
    43         13
    44         50
    45          2
    46          1
    47          1
    50          7
    51         14
    52         67
    53         23
    54         11
    55         13
    56          6
    57          9
    58          1
    59          1
    60          4
    61          3
    62          5
    63         17
    64         20
    65        289
    66         19
    67          6
    68          4
    69          8
    70          6
    71          5
    72          1
    73          3
    74          7
    75          8
    76          5
    77          9
    78          9
    79         45
    80         17
    81         20
    82          6
    83          7
    84          8
    85          4
    86          3
    87          5
    88          6
    89          4
    90          2
    91          8
    92          8
    93        999
    94         73
    95          8
    96          4
    97          5
    98          4
    99          4
   100          9
   101          4
   102          4
   103          1
   104          2
   105          3
   106          4
   107         63
   108         21
   109         20
   110          4
   111          4
   112          4
   113          6
   114          5
   115          4
   116          4
   117          3
   118          1
   119          2
   120          3
   121        782
   122         59
   123          9
   124          3
   125          5
   126          7
   127          4
   128          3
   129          3
   130          2
   131          3
   132          2
   133          2
   134          1
   135          3
   136          2
   137          4
   138          9
   139          7
   140          8
   141          3
   142          2
   143          2
   144          1
   145          2
   146          1
   147          1
   148          1
   149          3
   150          7
   151          6
   152          9
   153          5
   154          4
   155          2
   156          1
   157          2
   158          1
   160          1
   161          1
   162          2
   163          3
   164          4
   165          7
   166          5
   167          4
   168          3
   169          1
   170          1
   171          1
   174          1
   175          1
   176          2
   177          2
   178          4
   179          3
   180          2
   181          3
   182          3
   183          3
   184          1
   185          2
   186          2
   187          2
   188          2
   189          3
   190          3
   191          2
   192          4
   193          3
   194          3
   195          3
   196          2
   197          1
   198          1
   199          2
   200          2
   201          2
   202          4
   203          3
   204          1
   205          1
   206          2
   207          4
   208          2
   210          9
   211          2
   212          1
   213          4
   214          3
   215          3
   216          3
   217          2
   218          2
   220          1
   221          1
   222          1
   224          1
   226          2
   227          2
   228          3
   229          3
   230          2
   231          2
   232          1
   235          4
   236          1
   240          1
   241          2
   242          3
   243          2
   244          2
   245          1
   253          1
   254          1
   255          2
   256          2
   257          2
   258          3
   259          2
   269          1
   270          1
   271          3
   272          2
   273          2
   284          1
   285          6
   286          4
   287          2
   288          1
   299          1
   300          2
   301          5
   302          3
   303          1
   312          1
   313          2
   314          6
   315          1
   317          1
   318          1
   328          1
   329          1
   332          2
   347          3
   348          1
   363          1
   379          2
   392          1
   420         35
   421          9
   422          2
   452         10
   453          3
   484         12
   485          4