##TITLE=Library Entry 6701
##JCAMP-DX=Revision 4.10 
##DATA TYPE=MASS SPECTRUM
##SAMPLE DESCRIPTION=H. Fales, LC, NHLBI, NIH, Bethesda, MD 20892
##NAMES=HP
##CAS NAME=D-Streptamine, O-2-amino-2-deoxy-.alpha.-D-glucopyranosyl-(1-4)-O
-(3-deoxy-4-C-methyl-3-(methylamino)-.beta.-L-arabinopyranosyl-(1-6))-2-deox
y-
##MOLFORM=C19H38N4O10
##CAS REGISTRY NO=36889-17-5
##MP= -300
##BP= -300
##MW= 482
##$RETENTION INDEX=0
##$CONDENSED SPECTRUM=NO
##NPOINTS= 138
##XYDATA=(XY..XY) 1 
    41        278
    42        588
    43        999
    44        737
    45        238
    46        101
    47          5
    49          5
    50         45
    51         66
    52         79
    53        142
    54        103
    55        149
    56        174
    57        187
    58        234
    59        230
    60        104
    61         29
    62         13
    63         32
    64         32
    65         63
    66         72
    67         95
    68        165
    69         87
    70        123
    71        178
    72        221
    73        250
    74        146
    75         19
    76         14
    77         50
    78         31
    79         47
    80        106
    81         58
    82         81
    83         65
    84        179
    85         75
    86        134
    87         80
    88         45
    89          9
    90          6
    91         29
    92         39
    93        115
    94        128
    95         65
    96         49
    97         41
    98         61
    99         32
   100         99
   101         50
   102         56
   103          7
   104         28
   105          5
   106         50
   107         27
   108         77
   109        125
   110        104
   111         47
   112         64
   113         43
   114         34
   115         10
   116          5
   117         20
   118        276
   119         31
   120         16
   121         24
   122         25
   123         41
   124         45
   125         48
   126         58
   127         41
   128         27
   129         23
   130        116
   131         41
   132         23
   133         20
   134         14
   135         12
   136         10
   137         13
   138         14
   139         14
   140         29
   141         65
   142         33
   143         17
   144         38
   145        124
   146         60
   147         28
   148         15
   149         26
   150          4
   152          5
   154         15
   155         10
   158         20
   159         25
   160        122
   161         31
   162         54
   163         99
   164         18
   172         16
   173         25
   174          5
   175          5
   176         22
   178         13
   186         11
   187         13
   188          5
   191        164
   192         16
   204         22
   205         23
   245         11
   246         47
   291         10
   304          6
   350          5
   352          6