##TITLE=Library Entry 35881
##JCAMP-DX=Revision 4.10 
##DATA TYPE=MASS SPECTRUM
##SAMPLE DESCRIPTION=H.GNICHTEL INST. OF ORG. CHEM., BERLIN, GERMANY, F.R.G.
##NAMES=HP
##CAS NAME=Diimidazo[1,5-b:1',5'-e][1,4,2,5]dioxadiazine, 3,3a,8,8a-tetrahyd
ro-1,3,3,3a,6,8,8,8a-octamethyl-
##MOLFORM=C14H24N4O2
##CAS REGISTRY NO=36896-12-5
##MP= -300
##BP= -300
##MW= 280
##$RETENTION INDEX=0
##$CONDENSED SPECTRUM=NO
##NPOINTS= 14
##XYDATA=(XY..XY) 1 
    39        250
    41        460
    42        540
    53        180
    69        999
    82        110
    83        140
    98        140
    99        820
   100        710
   125        140
   140        360
   141        290
   280        110