##TITLE=Library Entry 30843
##JCAMP-DX=Revision 4.10 
##DATA TYPE=MASS SPECTRUM
##SAMPLE DESCRIPTION=Japan AIST/NIMC Database- Spectrum MS-IW-5537
##NAMES=HP
##CAS NAME=1,3-Propanediol, 2-amino-1-(4-nitrophenyl)-, (R*,R*)-(.+/-.)-
##MOLFORM=C9H12N2O4
##CAS REGISTRY NO=3689-55-2
##MP= -300
##BP= -300
##MW= 212
##$RETENTION INDEX=0
##$CONDENSED SPECTRUM=NO
##NPOINTS= 99
##XYDATA=(XY..XY) 1 
    15          9
    17          3
    18         17
    27          6
    28         22
    29         10
    30         39
    31          8
    38          2
    39          9
    40          2
    41          6
    42        138
    43         30
    44          6
    50         11
    51         25
    52          9
    53          2
    54          1
    55          3
    57          1
    58          3
    59          9
    60        999
    61         34
    62          5
    63          9
    64          4
    65          9
    66          5
    67          1
    71          1
    72          1
    73          2
    74          4
    75          5
    76         10
    77         43
    78         26
    79          6
    80          1
    89         17
    90         22
    91         15
    92          9
    93          2
    94          4
    95          2
   102          2
   103          3
   104         10
   105         28
   106         70
   107          7
   108          1
   116         10
   117         57
   118         24
   119          5
   120          9
   121          6
   122          4
   123          3
   129          5
   130          4
   131          2
   132          2
   133          1
   134          4
   135         17
   136         82
   137         14
   138          1
   145          1
   146         17
   147          7
   148          2
   149          3
   150         22
   151         15
   152          9
   153         69
   154          6
   159          1
   160          1
   162          1
   163          2
   164          9
   165          6
   175          2
   176          5
   177          2
   181         75
   182          7
   193          1
   195          1
   212         11
   213          4