##TITLE=Library Entry 31637
##JCAMP-DX=Revision 4.10 
##DATA TYPE=MASS SPECTRUM
##SAMPLE DESCRIPTION=NIST Mass Spectrometry Data Center, 1994
##NAMES=HP
##CAS NAME=3,4-Difluoronitrobenzene
##MOLFORM=C6H3F2NO2
##CAS REGISTRY NO=369-34-6
##MP= -300
##BP= -300
##MW= 159
##$RETENTION INDEX=0
##$CONDENSED SPECTRUM=NO
##NPOINTS= 65
##XYDATA=(XY..XY) 1 
    16          9
    25          3
    26          8
    28          0
    30        414
    31        110
    32          1
    36          8
    37         58
    38         32
    39         26
    40          3
    44          9
    45          8
    46         30
    48          3
    49         19
    50        108
    51         82
    52          4
    55         10
    56         45
    57         70
    58          3
    60          8
    61         88
    62        188
    63        999
    64         64
    68        104
    69         55
    70          5
    73         25
    74         97
    75        125
    76         12
    77          4
    79          9
    80         18
    81         59
    82         11
    86          8
    87         38
    88          4
    91          6
    92         35
    93        111
    94         36
    95          3
    99         13
   100         23
   101        267
   102         15
   106          2
   107          2
   110          3
   113        854
   114         55
   127          3
   129        237
   130         13
   143         28
   159        648
   160         41
   161          4