##TITLE=Library Entry 33427
##JCAMP-DX=Revision 4.10 
##DATA TYPE=MASS SPECTRUM
##SAMPLE DESCRIPTION=NIST Mass Spectrometry Data Center, 1990.
##NAMES=HP
##CAS NAME=cis,cis-2,7-Nonadiene
##MOLFORM=C9H16
##CAS REGISTRY NO=36901-84-5
##MP= -300
##BP= -300
##MW= 124
##$RETENTION INDEX=901
##$CONDENSED SPECTRUM=NO
##NPOINTS= 35
##XYDATA=(XY..XY) 1 
    26         20
    27        169
    28         64
    29        151
    38         34
    39        374
    40         84
    41        718
    42         53
    43         17
    50         26
    51         62
    52         33
    53        207
    54         93
    55        316
    56         23
    63         16
    65         52
    67        726
    68        999
    69        269
    70         19
    77         35
    78         10
    79         62
    81        140
    82        124
    83         11
    91         14
    93         18
    95        296
    96         46
   109         22
   124         27