##TITLE=Library Entry 83837
##JCAMP-DX=Revision 4.10 
##DATA TYPE=MASS SPECTRUM
##SAMPLE DESCRIPTION=R.SELF FOOD RESEARCH INSTITUTE, NORWICH, UK
##NAMES=HP
##CAS NAME=Phenol, 4-(3-hydroxy-1-propenyl)-
##MOLFORM=C9H10O2
##CAS REGISTRY NO=3690-05-9
##MP= -300
##BP= -300
##MW= 150
##$RETENTION INDEX=0
##$CONDENSED SPECTRUM=NO
##NPOINTS= 88
##XYDATA=(XY..XY) 1 
    26         19
    27         90
    28         56
    29         83
    30         11
    31        123
    32         26
    33         12
    34          8
    37         11
    38         28
    39        148
    40         23
    41         51
    42         22
    43         72
    50         43
    51        103
    52         31
    53         30
    55        166
    56         17
    57         27
    58         24
    59         70
    60         40
    61         13
    62         26
    63         56
    64         20
    65        126
    66         40
    67         13
    68          9
    69         16
    70         10
    71         12
    73          9
    74         22
    75         43
    76         11
    77        190
    78         43
    79         36
    80          5
    81         12
    82          7
    83         24
    84          6
    85          5
    89         24
    90         10
    91         86
    92         11
    93         53
    94        400
    95         46
    96          6
    97          9
    98          9
   101         26
   102         13
   103         86
   104         19
   105         40
   106          8
   107        999
   108        110
   109         10
   111          6
   115         19
   116          5
   118         10
   119         33
   120         15
   121        143
   122         96
   123         25
   131         76
   132         30
   133         51
   134         26
   135          5
   147         50
   148         14
   149         50
   150        343
   151         33