##TITLE=Library Entry 56396
##JCAMP-DX=Revision 4.10 
##DATA TYPE=MASS SPECTRUM
##SAMPLE DESCRIPTION=A.A.Kutin, Moscow, Russia
##NAMES=HP
##CAS NAME=N4-Cyclohexylmorpholine-4-carbothioamide
##MOLFORM=C11H20N2OS
##CAS REGISTRY NO=36903-85-2
##MP= -300
##BP= -300
##MW= 228
##$RETENTION INDEX=0
##$CONDENSED SPECTRUM=NO
##NPOINTS= 157
##XYDATA=(XY..XY) 1 
    33          5
    34          6
    35          0
    36          1
    37          1
    38          5
    39        105
    40         68
    41        313
    42        129
    43        125
    44        259
    45         75
    46         10
    47          6
    48          3
    50          4
    51         11
    52         11
    53         63
    54         93
    55        313
    56        188
    57        143
    58         87
    59        100
    60        233
    61        114
    62         38
    63          7
    64          6
    65         10
    66          9
    67         64
    68         25
    69        125
    70         44
    71         52
    72         82
    73         40
    74         12
    75          8
    76         59
    77         57
    78         11
    79         43
    80         16
    81        112
    82         42
    83        103
    84         32
    85         89
    86        999
    87         83
    88        110
    89         47
    90         12
    91          8
    92          1
    93          3
    94          3
    95          3
    96         12
    97         36
    98        600
    99         45
   100         10
   101         43
   102         46
   103        100
   104         14
   105          8
   106          1
   107          1
   108          6
   109          5
   110         60
   111          8
   112         16
   113        160
   114         17
   115         33
   116          6
   117         47
   118         75
   119         76
   120          7
   121          4
   123          2
   124          2
   125          6
   126          3
   127          6
   128         12
   129          8
   130        142
   131         21
   132         12
   133          1
   134          0
   135          1
   136          1
   137          0
   138          1
   139          7
   140          6
   141         30
   142         18
   143          8
   144          3
   145         22
   146          6
   147         20
   148          1
   149          1
   151          3
   152          0
   153          4
   154          1
   155          9
   156          3
   157          7
   158          0
   159          1
   163          0
   165          1
   166          0
   167         12
   168          2
   169          5
   170          2
   171         35
   172          4
   173          1
   181          1
   182          8
   183         11
   184          6
   185         17
   186          1
   193          1
   195         87
   196         10
   197          3
   198          1
   199         17
   200          3
   201          0
   211          1
   213          1
   224          1
   226          6
   227         34
   228        516
   229         65
   230         28
   231          2