##TITLE=Library Entry 83818
##JCAMP-DX=Revision 4.10 
##DATA TYPE=MASS SPECTRUM
##SAMPLE DESCRIPTION=Exported from NIST MS Search
##NAMES=HP
##CAS NAME=Azulene, 1,2,3,5,6,7,8,8a-octahydro-1,4-dimethyl-7-(1-methylethen
yl)-, [1S-(1.alpha.,7.alpha.,8a.beta.)]-
##MOLFORM=C15H24
##CAS REGISTRY NO=3691-11-0
##MP= -300
##BP= -300
##MW= 204
##$RETENTION INDEX=1505
##$CONDENSED SPECTRUM=NO
##NPOINTS= 112
##XYDATA=(XY..XY) 1 
    15          5
    26         11
    27        159
    29        208
    37          6
    38          8
    39        254
    40         57
    41        636
    42         46
    43        155
    50         15
    51         61
    52         42
    53        270
    54         33
    55        472
    56         24
    57         34
    58          6
    59          8
    63         26
    64         18
    65        147
    66         61
    67        342
    68        100
    69        178
    70         15
    71         11
    72          9
    73          6
    74          7
    75         22
    76         12
    77        361
    78         97
    79        640
    80        145
    81        583
    82         75
    83         29
    84          8
    85          8
    87         11
    88          8
    89         20
    90         13
    91        552
    92        120
    93        972
    94        261
    95        500
    96         72
    97         20
   102         11
   103         44
   104         28
   105        566
   106        234
   107        999
   108        915
   109        316
   110         30
   111         10
   115         47
   116         24
   117         67
   118         20
   119        328
   120        131
   121        358
   122        122
   123        117
   124         14
   125          8
   127         11
   128         24
   129         22
   130         13
   131         50
   132         18
   133        312
   134        139
   135        472
   136         97
   137         10
   141          6
   142          5
   143          7
   144          6
   145         30
   146         18
   147        336
   148        298
   149         83
   150          8
   159         12
   160          9
   161        189
   162         56
   163         13
   175         42
   176         14
   188          5
   189        389
   190         58
   191          6
   202          7
   204        258
   205         45
   206          5