##TITLE=Library Entry 80749
##JCAMP-DX=Revision 4.10 
##DATA TYPE=MASS SPECTRUM
##SAMPLE DESCRIPTION=Chemical Concepts
##NAMES=HP
##CAS NAME=.alpha.-Guaiene
##MOLFORM=C15H24
##CAS REGISTRY NO=3691-12-1
##MP= -300
##BP= -300
##MW= 204
##$RETENTION INDEX=1439
##$CONDENSED SPECTRUM=NO
##NPOINTS= 100
##XYDATA=(XY..XY) 1 
    24          7
    26         23
    27        103
    28         15
    29        150
    38          5
    39        173
    40         28
    41        424
    42         28
    43        126
    44         10
    50         18
    51         56
    52         30
    53        166
    54         18
    55        351
    56         18
    57         51
    58         10
    63         18
    64         19
    65        119
    66         30
    67        323
    68         70
    69        157
    70         12
    71         15
    72         11
    73          9
    75          7
    76          8
    77        275
    78         72
    79        546
    80         81
    81        505
    82         51
    83         28
    87          7
    89          9
    91        509
    92         94
    93        749
    94        206
    95        391
    96         50
    97         10
   102          6
   103         34
   104         16
   105        999
   106        227
   107        772
   108        307
   109        174
   110         18
   115         51
   116         19
   117         72
   118         15
   119        358
   120        157
   121        327
   122        136
   123        190
   124         22
   127          9
   128         25
   129         23
   130         12
   131         75
   132         15
   133        471
   134         99
   135         99
   136         20
   141          9
   144          7
   145         40
   146         44
   147        703
   148        331
   149        138
   150         15
   159         17
   160          6
   161        203
   162         77
   163         16
   175         51
   176         14
   187          6
   189        299
   190         46
   203          5
   204        294
   205         54