##TITLE=Library Entry 89662
##JCAMP-DX=Revision 4.10 
##DATA TYPE=MASS SPECTRUM
##SAMPLE DESCRIPTION=Patti Price, Georgia Bureau of Investigation, Decatur,
 Georgia
##NAMES=HP
##CAS NAME=1H-Azepine-1-butanamide, hexahydro-.alpha.,.alpha.-diphenyl-
##MOLFORM=C22H28N2O
##CAS REGISTRY NO=3691-21-2
##MP= -300
##BP= -300
##MW= 336
##$RETENTION INDEX=0
##$CONDENSED SPECTRUM=NO
##NPOINTS= 90
##XYDATA=(XY..XY) 1 
    41         28
    42         61
    43          7
    44         52
    51          3
    54          4
    55         61
    56         18
    57          6
    58         62
    63          2
    65          3
    67          1
    68          4
    69          8
    70          8
    71          1
    73          1
    76          1
    77         18
    78          1
    79          1
    80          1
    81          2
    82         14
    83          5
    84         17
    90          1
    91         22
    92          1
    93          1
    96          7
    97          2
    98         33
    99          3
   102          1
   103         12
   104         15
   106          1
   109          1
   110         22
   111          1
   112        999
   113         83
   114          1
   115         18
   116          3
   117         12
   118          1
   120          1
   125          6
   126        349
   127         35
   128          1
   132          2
   133          1
   139          1
   140          1
   142          1
   152          2
   160          1
   164          4
   165         31
   166         15
   167          8
   172          1
   173          1
   177          1
   178         13
   179         10
   180          4
   182         11
   189          1
   190          1
   192          1
   193          4
   194          4
   206          1
   207          1
   208          1
   210          2
   211         43
   212          2
   218          1
   237          1
   238         17
   239          2
   281          1
   335          1
   336          1