##TITLE=Library Entry 34489
##JCAMP-DX=Revision 4.10 
##DATA TYPE=MASS SPECTRUM
##SAMPLE DESCRIPTION=Chemical Concepts
##NAMES=HP
##CAS NAME=Benzene, [(2,2-dimethylcyclopropyl)methyl]-
##MOLFORM=C12H16
##CAS REGISTRY NO=36939-18-1
##MP= -300
##BP= -300
##MW= 160
##$RETENTION INDEX=0
##$CONDENSED SPECTRUM=NO
##NPOINTS= 85
##XYDATA=(XY..XY) 1 
    27        169
    28         14
    29         74
    30          1
    37          5
    38         23
    39        291
    40         33
    41        870
    42         35
    43         33
    44          0
    49          1
    50         53
    51        139
    52         36
    53         72
    54         11
    55         27
    56         11
    57          1
    58          3
    61          5
    62         18
    63         69
    64         20
    65        183
    66         15
    67         63
    68        134
    69        999
    70         55
    71          4
    73          1
    74         15
    75         16
    76         19
    77        106
    78        113
    79         22
    80          2
    81          2
    82         21
    83          1
    85          1
    86          3
    87          5
    88          2
    89         38
    90         13
    91        595
    92        250
    93         17
    98          1
    99          1
   101          4
   102         26
   103         89
   104        651
   105         77
   106          4
   113          3
   114          3
   115        126
   116         35
   117        315
   118         39
   119         63
   120          7
   126          1
   127         13
   128         37
   129         25
   130         17
   131         16
   132          1
   139          1
   141          6
   142          2
   143          9
   144          1
   145         30
   146          3
   160         63
   161          8