##TITLE=Library Entry 46262
##JCAMP-DX=Revision 4.10 
##DATA TYPE=MASS SPECTRUM
##SAMPLE DESCRIPTION=Chemical Concepts
##NAMES=HP
##CAS NAME=N-(5-Chloro-2-pyridyl)phthalimide
##MOLFORM=C13H7ClN2O2
##CAS REGISTRY NO=36935-88-3
##MP= -300
##BP= -300
##MW= 258
##$RETENTION INDEX=0
##$CONDENSED SPECTRUM=NO
##NPOINTS= 143
##XYDATA=(XY..XY) 1 
    33          5
    35         24
    36         98
    37        209
    38        229
    39        247
    40         66
    41         70
    42         17
    43         33
    44         90
    45         23
    47         41
    50        759
    51        167
    52         72
    53         49
    54          9
    55         29
    57         19
    60         22
    61         21
    62         40
    63         70
    64        201
    65        285
    66         72
    67         14
    68          8
    69         11
    70         18
    73        186
    74        197
    75        195
    76        999
    79          5
    81          4
    82          2
    83          9
    85         23
    86          6
    87          9
    88          7
    89          5
    90         14
    91         14
    92         40
    93        124
    94          9
    95          2
    97          8
    98         11
    99         27
   101        209
   102         48
   104        494
   105         46
   108          1
   109          2
   110          2
   112         66
   113         12
   114         20
   115         13
   116          6
   117          2
   118          1
   119          3
   121         53
   122          6
   123          1
   124          1
   126         20
   128        556
   129         46
   130        202
   132          5
   134          1
   135          1
   137          1
   138          2
   139          3
   140         11
   141          4
   146          2
   148         63
   149        306
   150         26
   151          3
   152          5
   154         10
   155          5
   156          3
   157          3
   158          2
   163          1
   165          3
   167         12
   168          7
   169          2
   171          3
   172          1
   174          1
   175          1
   176          1
   177          1
   179         52
   180          5
   187          1
   188          1
   189          1
   194          1
   195          5
   196          8
   197          3
   201          3
   202         22
   203          9
   204          9
   205          3
   206          1
   213          7
   214         15
   215          4
   216          7
   217          1
   218          1
   223         16
   224          4
   225          1
   230        253
   231         46
   232         76
   233         13
   234          2
   248          2
   254          1
   257         38
   258        167
   259         33
   260         56
   261          8
   262          1