##TITLE=Library Entry 53759
##JCAMP-DX=Revision 4.10 
##DATA TYPE=MASS SPECTRUM
##SAMPLE DESCRIPTION=Div. of Experiment Therapeutics WRAIR, WRAMC, Washingto
n DC 20307
##NAMES=HP
##CAS NAME=4-Piperidyl-4'-chlorophenyl carbinol
##MOLFORM=C12H16ClNO
##CAS REGISTRY NO=36938-75-7
##MP= -300
##BP= -300
##MW= 225
##$RETENTION INDEX=0
##$CONDENSED SPECTRUM=NO
##NPOINTS= 122
##XYDATA=(XY..XY) 1 
    42        663
    43        666
    44        311
    46        196
    47          0
    49          1
    51        191
    53        125
    55        880
    56        693
    57        119
    58         14
    59          2
    60          5
    62         11
    63         35
    65         27
    67         49
    68         62
    69         32
    70         19
    71          9
    74         37
    75         82
    77        488
    78         40
    80         90
    82        146
    84        999
    85        329
    86         34
    87          4
    89         21
    91         21
    92          1
    94          9
    95          5
    96          8
    97          4
    99          9
   101         12
   102          9
   103         15
   105         31
   106          9
   107          5
   111         50
   113        124
   114         25
   115         66
   116         15
   117         12
   118          2
   120          2
   123          1
   125         47
   127         31
   128         20
   129         13
   130          7
   131          5
   133         14
   134         10
   135          1
   136          1
   138          4
   139         47
   141        111
   143         60
   145         78
   146         12
   147          1
   149          5
   151         10
   152          9
   153          7
   154         11
   155          3
   156          4
   157          0
   158          1
   161          0
   162          3
   163          4
   164          3
   165          5
   168        137
   169         18
   170         25
   171          7
   172          3
   173          0
   174          3
   175          0
   177          2
   178          5
   180         30
   181          4
   182          9
   183          1
   189          0
   190          2
   191          6
   192          4
   193          2
   194          2
   196          3
   197          3
   198          0
   199          1
   204          0
   207          3
   208         58
   209          6
   210          9
   211          1
   224         19
   225        299
   226         32
   227        102
   228         11
   229          1