##TITLE=Library Entry 3312
##JCAMP-DX=Revision 4.10 
##DATA TYPE=MASS SPECTRUM
##SAMPLE DESCRIPTION=Chemical Concepts
##NAMES=HP
##CAS NAME=Cyclopropane, 1,1-dimethyl-2-(2-propenyl)-
##MOLFORM=C8H14
##CAS REGISTRY NO=36939-15-8
##MP= -300
##BP= -300
##MW= 110
##$RETENTION INDEX=0
##$CONDENSED SPECTRUM=NO
##NPOINTS= 64
##XYDATA=(XY..XY) 1 
    27        200
    28         45
    29         82
    30          3
    31          0
    32          1
    37          4
    38         17
    39        285
    40         51
    41        999
    42         48
    43         82
    44          3
    45          1
    46          3
    47          0
    48          7
    49          1
    50         15
    51         34
    52         14
    53        114
    54        158
    55        127
    56        155
    57          8
    59          0
    60          0
    61          1
    62          3
    63         10
    64          2
    65         29
    66         70
    67        282
    68         82
    69        775
    70         42
    71          0
    74          1
    75          0
    76          0
    77         29
    78          6
    79         27
    80         13
    81         62
    82         30
    83          3
    84          0
    85          0
    89          0
    91         12
    92          1
    93         13
    94          2
    95        155
    96         12
    97          0
   108          0
   109          1
   110         21
   111          1