##TITLE=Library Entry 49669
##JCAMP-DX=Revision 4.10 
##DATA TYPE=MASS SPECTRUM
##SAMPLE DESCRIPTION=R.L.FOLTZ BATTELLE COLUMBUS LAB., COLUMBUS, OHIO, USA
##NAMES=HP
##CAS NAME=2-Azabicyclo[2.2.2]oct-5-ene-2-carboxylic acid, ethyl ester
##MOLFORM=C10H15NO2
##CAS REGISTRY NO=3693-69-4
##MP= -300
##BP= -300
##MW= 181
##$RETENTION INDEX=0
##$CONDENSED SPECTRUM=NO
##NPOINTS= 51
##XYDATA=(XY..XY) 1 
    43         37
    44         16
    45          6
    47          7
    50         88
    51         26
    52         27
    53        124
    54         31
    55         32
    56         25
    57         12
    59          5
    62         57
    65         55
    67         52
    68         32
    69         28
    74         16
    77         79
    78         38
    79        207
    80        999
    81        183
    82         36
    85         91
    90          8
    91         22
    93        317
    94         17
    96         32
   101          6
   102          8
   103         10
   106         13
   108        170
   109          9
   124        633
   125         54
   136         87
   140         75
   141         29
   142         15
   152        472
   153        946
   154         59
   169         17
   180          9
   181        268
   182         80
   183          8