##TITLE=Library Entry 78894
##JCAMP-DX=Revision 4.10 
##DATA TYPE=MASS SPECTRUM
##SAMPLE DESCRIPTION=NIST Mass Spectrometry Data Center, 1994
##NAMES=HP
##CAS NAME=p-Methylbenzyl isothiocyanate
##MOLFORM=C9H9NS
##CAS REGISTRY NO=3694-46-0
##MP= -300
##BP= -300
##MW= 163
##$RETENTION INDEX=0
##$CONDENSED SPECTRUM=NO
##NPOINTS= 80
##XYDATA=(XY..XY) 1 
     4          1
    14          2
    15          7
    18          1
    26          8
    27         63
    28         14
    29          2
    32         14
    37          7
    38         18
    39         93
    40         10
    41         10
    44          9
    45         17
    46          1
    47          1
    50         55
    51        103
    52         31
    53         30
    54          3
    55          1
    58         18
    59          8
    60          2
    61          8
    62         24
    63         60
    64         17
    65         43
    66          5
    67          6
    69          2
    70          6
    71          5
    72         13
    73          3
    74         14
    75         15
    76         20
    77        187
    78         69
    79        170
    80         46
    83          1
    84          2
    85          2
    86          4
    87          4
    89         26
    90         10
    91         30
    92          2
   101          3
   102         18
   103        112
   104          2
   105        999
   106         84
   107          4
   108          1
   116         19
   117          5
   118          3
   121          8
   122          1
   128          2
   129          1
   130          4
   131          9
   132          1
   134          3
   135          6
   148          7
   161          1
   163         85
   164          9
   165          4