##TITLE=Library Entry 109594
##JCAMP-DX=Revision 4.10 
##DATA TYPE=MASS SPECTRUM
##SAMPLE DESCRIPTION=NIST Mass Spectrometry Data Center, 1994
##NAMES=HP
##CAS NAME=Benzene, 1-chloro-4-(isothiocyanatomethyl)-
##MOLFORM=C8H6ClNS
##CAS REGISTRY NO=3694-45-9
##MP= -300
##BP= -300
##MW= 183
##$RETENTION INDEX=0
##$CONDENSED SPECTRUM=NO
##NPOINTS= 84
##XYDATA=(XY..XY) 1 
    14          1
    26          7
    27         15
    28         17
    32         24
    35          4
    36          5
    37         23
    38         36
    39         99
    40         12
    41          3
    43          6
    44         28
    45         31
    46          3
    47          5
    48          3
    49         20
    50         82
    51         63
    52          8
    58         28
    59          6
    60         16
    61         34
    62         69
    63        163
    64         34
    65         17
    69          5
    70         15
    71         14
    72         29
    73         67
    74         61
    75         61
    76         16
    77         18
    78          2
    82          1
    84          6
    85         16
    86         19
    87         20
    88          1
    89        266
    90         71
    91          8
    93          4
    94          1
    96          3
    97          6
    99         71
   100          5
   101         23
   102          7
   103          5
   104          3
   111          6
   112          2
   114          3
   116         24
   117          2
   119          7
   120          8
   121          7
   122          1
   123          9
   124          1
   125        999
   126         81
   127        312
   128         25
   138          1
   148          4
   151          4
   155         12
   157          4
   183        110
   184         12
   185         40
   186          5
   187          2