##TITLE=Library Entry 67772
##JCAMP-DX=Revision 4.10 
##DATA TYPE=MASS SPECTRUM
##SAMPLE DESCRIPTION=NIST Mass Spectrometry Data Center
##NAMES=HP
##CAS NAME=2-Isopropylimidazole
##MOLFORM=C6H10N2
##CAS REGISTRY NO=36947-68-9
##MP= -300
##BP= -300
##MW= 110
##$RETENTION INDEX=0
##$CONDENSED SPECTRUM=NO
##NPOINTS= 55
##XYDATA=(XY..XY) 1 
    12          1
    13          3
    14         12
    15         56
    16          1
    18          1
    25          2
    26         23
    27         99
    28        121
    29         28
    30          3
    36          1
    37         18
    38         43
    39        150
    40         96
    41        181
    42        213
    43         24
    44          1
    46          4
    47         14
    49          2
    50         11
    51         18
    52         31
    53         24
    54         81
    55         29
    56          2
    63          1
    64          5
    65          6
    66         17
    67         29
    68         92
    69        101
    70          5
    75          1
    78          2
    79          1
    80          5
    81         17
    82         21
    83          3
    93         39
    95        999
    96         60
    97          1
   106          1
   107          7
   109        122
   110        201
   111         13