##TITLE=Library Entry 109274
##JCAMP-DX=Revision 4.10 
##DATA TYPE=MASS SPECTRUM
##SAMPLE DESCRIPTION=NIST Mass Spectrometry Data Center, 1994
##NAMES=HP
##CAS NAME=Isothiocyanic acid, m-chlorobenzyl ester
##MOLFORM=C8H6ClNS
##CAS REGISTRY NO=3694-58-4
##MP= -300
##BP= -300
##MW= 183
##$RETENTION INDEX=0
##$CONDENSED SPECTRUM=NO
##NPOINTS= 90
##XYDATA=(XY..XY) 1 
     4          4
    18          4
    26          8
    27         17
    32         11
    34          1
    35          4
    36          4
    37         27
    38         44
    39        116
    40         12
    41          4
    43          7
    44         23
    45         34
    46          3
    47          4
    48          2
    49         21
    50         91
    51         75
    52          9
    58         30
    59         10
    60         15
    61         35
    62         76
    63        199
    64         37
    65         18
    69          7
    70         17
    71         13
    72         36
    73         70
    74         57
    75         79
    76         17
    77         21
    78          3
    79          1
    82          2
    84          9
    85         20
    86         21
    87         21
    88          1
    89        336
    90         77
    91         10
    92          3
    93          3
    94          2
    96          4
    97          7
    99         96
   100          8
   101         29
   102          9
   103          4
   104          4
   111          8
   112          2
   113          2
   114          4
   116         43
   117          5
   119          7
   120          8
   121          7
   122          2
   123         11
   124          2
   125        999
   126         81
   127        321
   128         22
   138          2
   148          3
   150          2
   151          9
   153          3
   155         11
   157          4
   183        230
   184         25
   185         88
   186          9
   187          4