##TITLE=Library Entry 1007
##JCAMP-DX=Revision 4.10 
##DATA TYPE=MASS SPECTRUM
##SAMPLE DESCRIPTION=Japan AIST/NIMC Database- Spectrum MS-NW-2994
##NAMES=HP
##CAS NAME=L-Alanine, N-glycyl-
##MOLFORM=C5H10N2O3
##CAS REGISTRY NO=3695-73-6
##MP= -300
##BP= -300
##MW= 146
##$RETENTION INDEX=0
##$CONDENSED SPECTRUM=NO
##NPOINTS= 66
##XYDATA=(XY..XY) 1 
    12          2
    13          2
    14          6
    15         21
    16          4
    17         23
    18        115
    25          4
    26         24
    27         64
    28        153
    29         45
    30        999
    31         56
    32          2
    36          1
    37          2
    38          5
    39          9
    40         17
    41         30
    42         54
    43         28
    44        199
    45         19
    46          1
    51          5
    52          9
    53          9
    54         16
    55         15
    56         20
    57         34
    58          3
    59          1
    65          2
    66          2
    67          7
    68          2
    69          2
    70         13
    71          5
    72          2
    73          5
    74          4
    81          5
    82          5
    83          2
    84          1
    85         84
    86          5
    88          6
    94          1
    99          3
   100          5
   101          7
   102          1
   103         22
   104          1
   110          5
   111          2
   113          2
   118          2
   128         19
   129          2
   146         10