##TITLE=Library Entry 78884
##JCAMP-DX=Revision 4.10 
##DATA TYPE=MASS SPECTRUM
##SAMPLE DESCRIPTION=NIST Mass Spectrometry Data Center, 1994
##NAMES=HP
##CAS NAME=3-Methylbenzyl isothiocyanate
##MOLFORM=C9H9NS
##CAS REGISTRY NO=3696-66-0
##MP= -300
##BP= -300
##MW= 163
##$RETENTION INDEX=0
##$CONDENSED SPECTRUM=NO
##NPOINTS= 82
##XYDATA=(XY..XY) 1 
    14          0
    15          6
    26          8
    27         71
    28         11
    29          2
    32         15
    34          1
    37         10
    38         30
    39        137
    40         16
    41         13
    44         10
    45         22
    46          2
    50         55
    51        114
    52         36
    53         32
    54          3
    55          1
    58         26
    59         10
    60          3
    61         12
    62         33
    63         81
    64         19
    65         57
    66          9
    67          7
    68          2
    69          4
    70          7
    71          6
    72         18
    73          4
    74         18
    75         16
    76         26
    77        215
    78         80
    79        210
    80         48
    82          7
    83          1
    84          1
    85          3
    86          5
    87          5
    88          4
    89         33
    90         10
    91         29
    92          3
    95          1
    96          2
    98          2
   101          3
   102         21
   103        114
   104          1
   105        999
   106         86
   107          4
   116         25
   117          6
   118          3
   121          7
   128          2
   129          1
   130          6
   131          7
   132          1
   134          5
   135          7
   136          2
   148          5
   163        162
   164         18
   165          9