##TITLE=Library Entry 54182
##JCAMP-DX=Revision 4.10 
##DATA TYPE=MASS SPECTRUM
##SAMPLE DESCRIPTION=Exported from NIST MS Search
##NAMES=HP
##CAS NAME=3-Azabicyclo[3.3.1]nonan-9-ol, 3-methyl-6-(1-pyrrolidinyl)-, (exo
,anti)-
##MOLFORM=C13H24N2O
##CAS REGISTRY NO=36969-15-0
##MP= -300
##BP= -300
##MW= 224
##$RETENTION INDEX=0
##$CONDENSED SPECTRUM=NO
##NPOINTS= 77
##XYDATA=(XY..XY) 1 
    36         17
    37         22
    38         26
    39        251
    40         66
    41        618
    42        673
    43        291
    44        640
    45         35
    52         57
    53         97
    54        170
    55        136
    56        227
    57        103
    58        194
    59        317
    60         22
    78         66
    79        225
    80         79
    81         94
    82        236
    83        123
    84        999
    85         66
    86         26
    87         15
    90         59
    91         26
    92         48
    93        359
    94        105
    95        370
    96        242
    97        145
    99        172
   100         13
   107        209
   108        198
   109        161
   110        829
   111        143
   112         72
   113         17
   121         39
   122         22
   123         66
   124         37
   125        150
   126         37
   127        105
   128         19
   134         44
   135        280
   136        298
   137         55
   138        141
   139         24
   140         35
   147         13
   148         17
   149         19
   150         53
   151         13
   152        185
   153        172
   154        746
   155        247
   156         17
   180         17
   221         19
   222         17
   223         61
   224        172
   225         30