##TITLE=Library Entry 48328
##JCAMP-DX=Revision 4.10 
##DATA TYPE=MASS SPECTRUM
##SAMPLE DESCRIPTION=Japan AIST/NIMC Database- Spectrum MS-NW-7451
##NAMES=HP
##CAS NAME=Dipyrithione
##MOLFORM=C10H8N2O2S2
##CAS REGISTRY NO=3696-28-4
##MP= -300
##BP= -300
##MW= 252
##$RETENTION INDEX=0
##$CONDENSED SPECTRUM=NO
##NPOINTS= 166
##XYDATA=(XY..XY) 1 
    14          1
    15          1
    16          1
    18          2
    25          1
    26         13
    27         38
    28         37
    29          3
    30          7
    32          6
    33          1
    34          1
    36          1
    37          9
    38         21
    39        134
    40         11
    41          4
    42         13
    43          1
    44         13
    45         45
    46          3
    47          3
    48         11
    49          6
    50         39
    51        186
    52         73
    53          6
    54          9
    55         37
    56          3
    57         24
    58          9
    59          3
    60          5
    61          2
    62          3
    63         12
    64         17
    65          4
    66         14
    67         23
    68          5
    69         72
    70         72
    71         26
    72          6
    73          2
    74          1
    75          5
    76          8
    77          5
    78        999
    79        103
    80          7
    81          6
    82         18
    83         70
    84         15
    85         22
    86          2
    87          1
    89          1
    90          1
    92          1
    93          6
    94          4
    95         44
    96         28
    97          5
    98         36
    99          4
   100          3
   101          1
   103          2
   104          1
   105          1
   107          2
   108          1
   109          4
   110         60
   111         27
   112          5
   113          1
   114          1
   115          1
   116          1
   117          4
   118         12
   119          2
   120          1
   122          1
   125          1
   126        116
   127        110
   128         14
   129         11
   130          8
   131          5
   132          1
   133          2
   134          1
   135          1
   136          3
   140          3
   141         18
   142        243
   143         27
   144         25
   145          2
   146          2
   148          1
   149          2
   150          1
   155         17
   156         43
   157          5
   158        139
   159         12
   160         15
   161          3
   162          1
   164          1
   165          2
   166          1
   167          1
   168          1
   169          1
   170          1
   171          9
   172         62
   173         22
   174          7
   175         10
   176          4
   177          1
   181          2
   185          1
   186          1
   187        124
   188         41
   189         26
   190          4
   191         13
   192          2
   193          1
   203          3
   204          4
   205          1
   206          1
   207          1
   208          1
   218          1
   219          3
   220         50
   221          8
   222          5
   236          7
   237          1
   251          9
   252          2
   253          6
   254          1