##TITLE=Library Entry 8818
##JCAMP-DX=Revision 4.10 
##DATA TYPE=MASS SPECTRUM
##SAMPLE DESCRIPTION=M. PECHAL, SHOE & LEATHER RES. INST., GOTTWALDOV, CZ
##NAMES=HP
##CAS NAME=1-Hydroxy-3-methyl-2-butanone
##MOLFORM=C5H10O2
##CAS REGISTRY NO=36960-22-2
##MP= -300
##BP= -300
##MW= 102
##$RETENTION INDEX=0
##$CONDENSED SPECTRUM=NO
##NPOINTS= 33
##XYDATA=(XY..XY) 1 
    15         28
    17         30
    18        156
    26         21
    27        179
    28        186
    29         70
    30         15
    31        162
    32         17
    38         13
    39         88
    40         24
    41        285
    42         44
    43        999
    44         39
    45        101
    51         12
    53         19
    55         30
    57         53
    58         22
    59         17
    66         14
    67         19
    69         42
    70         60
    71        516
    72         25
    84         33
    87         14
   102         12