##TITLE=Library Entry 469
##JCAMP-DX=Revision 4.10 
##DATA TYPE=MASS SPECTRUM
##SAMPLE DESCRIPTION=Exported from NIST MS Search
##NAMES=HP
##CAS NAME=2-Pentenoic acid, 3-(bromomethyl)-4,4-dimethyl-, ethyl ester, (Z)
-
##MOLFORM=C10H17BrO2
##CAS REGISTRY NO=36976-65-5
##MP= -300
##BP= -300
##MW= 248
##$RETENTION INDEX=0
##$CONDENSED SPECTRUM=NO
##NPOINTS= 16
##XYDATA=(XY..XY) 1 
    27        380
    29        999
    39        430
    41        789
    43        440
    55        330
    57        659
    95        380
   109        220
   123        250
   127        380
   155        539
   203        180
   205        210
   248        120
   250        120