##TITLE=Library Entry 3133
##JCAMP-DX=Revision 4.10 
##DATA TYPE=MASS SPECTRUM
##SAMPLE DESCRIPTION=NIST Mass Spectrometry Data Center, 1994
##NAMES=HP
##CAS NAME=n-Dodecylmethyl sulfide
##MOLFORM=C13H28S
##CAS REGISTRY NO=3698-89-3
##MP= -300
##BP= -300
##MW= 216
##$RETENTION INDEX=1620
##$CONDENSED SPECTRUM=NO
##NPOINTS= 88
##XYDATA=(XY..XY) 1 
    14          5
    15         15
    27        243
    28         59
    29        400
    30         11
    32          0
    39        186
    41        999
    42        196
    43        673
    44         26
    45         76
    46         42
    47        125
    48        259
    49        139
    50         15
    51         14
    52          9
    53         74
    54        113
    55        811
    56        444
    57        421
    58         23
    59         29
    60          9
    61        835
    62        110
    63         49
    64          6
    65         12
    66          6
    67        140
    68        183
    69        636
    70        431
    71        170
    72          9
    73         14
    74         19
    75        137
    76         42
    77         14
    79         20
    81         58
    82        163
    83        477
    84        237
    85         99
    86          6
    87         30
    88          5
    89         36
    90          6
    95         17
    96         66
    97        325
    98        113
    99         15
   101          8
   103        209
   104         15
   105         12
   110         27
   111        152
   112         70
   113          8
   117         35
   124         11
   125         52
   126         25
   131          9
   139         12
   140         36
   145          6
   159          5
   168         26
   187         14
   201        810
   202        122
   203         50
   204          6
   215         83
   216        398
   217         67
   218         19