##TITLE=Library Entry 6405
##JCAMP-DX=Revision 4.10 
##DATA TYPE=MASS SPECTRUM
##SAMPLE DESCRIPTION=GAZ DE FRANCE D.E.T.N., B.P. 33, LA PLAINE ST. DENIS, F
RANCE
##NAMES=HP
##CAS NAME=Octane, 1-(propylthio)-
##MOLFORM=C11H24S
##CAS REGISTRY NO=3698-93-9
##MP= -300
##BP= -300
##MW= 188
##$RETENTION INDEX=1382
##$CONDENSED SPECTRUM=NO
##NPOINTS= 80
##XYDATA=(XY..XY) 1 
    26         13
    27        322
    29        414
    30         15
    39        175
    40        137
    41        770
    42        570
    43        999
    44         77
    45         81
    46         55
    47        227
    48         37
    49         33
    53        377
    54        377
    55        570
    56        414
    57        259
    58         20
    59         22
    60         60
    61        386
    62         15
    63         20
    64          6
    65          6
    66          6
    67         48
    68         64
    69         63
    70        355
    71         95
    72          5
    73         20
    74         44
    75         81
    76        446
    77        157
    78         24
    79         11
    81         13
    82         55
    83        141
    84        184
    85         20
    87         33
    88          6
    89        424
    90         51
    91         31
    97         24
   101         13
   102          6
   103        102
   104         13
   105          4
   108         15
   110          4
   111         17
   112        162
   113         13
   114          4
   115          6
   117         26
   131         40
   145        733
   146         82
   147         37
   150         15
   159         69
   160          7
   161          2
   173         67
   174          7
   187         13
   188        386
   189         48
   190         13