##TITLE=Library Entry 9986
##JCAMP-DX=Revision 4.10 
##DATA TYPE=MASS SPECTRUM
##SAMPLE DESCRIPTION=NIST Mass Spectrometry Data Center, 1990.
##NAMES=HP
##CAS NAME=Cyclopropylmethanol acetate
##MOLFORM=C6H10O2
##CAS REGISTRY NO=36982-54-4
##MP= -300
##BP= -300
##MW= 114
##$RETENTION INDEX=0
##$CONDENSED SPECTRUM=NO
##NPOINTS= 43
##XYDATA=(XY..XY) 1 
    15         23
    26         18
    27         65
    28         12
    29         38
    32          2
    37         11
    38         32
    39        224
    40         64
    41        304
    42          2
    43        999
    44         30
    45         51
    50         17
    51         25
    52         14
    53        126
    54         12
    55         22
    56         12
    57         41
    58        145
    60         19
    61         20
    62          6
    63         10
    65         27
    67        297
    68        233
    69        160
    70          6
    71        141
    72         20
    84         11
    85         44
    86        305
    87         47
    95         12
    99         11
   100         55
   113         11