##TITLE=Library Entry 31220
##JCAMP-DX=Revision 4.10 
##DATA TYPE=MASS SPECTRUM
##SAMPLE DESCRIPTION=Japan AIST/NIMC Database- Spectrum MS-NW-4894
##NAMES=HP
##CAS NAME=Methyl n-octyl sulfide
##MOLFORM=C9H20S
##CAS REGISTRY NO=3698-95-1
##MP= -300
##BP= -300
##MW= 160
##$RETENTION INDEX=1217
##$CONDENSED SPECTRUM=NO
##NPOINTS= 121
##XYDATA=(XY..XY) 1 
    14          2
    15         16
    26         13
    27        264
    28         34
    29        342
    30          8
    31          4
    32          8
    33          1
    34          3
    35         51
    36          1
    37          3
    38          6
    39        154
    40         26
    41        727
    42        419
    43        799
    44         26
    45         68
    46         52
    47        122
    48        382
    49        164
    50         21
    51         14
    52          5
    53         46
    54         54
    55        762
    56        849
    57        540
    58         25
    59         26
    60         25
    61        999
    62        151
    63         54
    64          8
    65          6
    66          4
    67         57
    68        149
    69        700
    70        711
    71        287
    72         15
    73         11
    74         15
    75        160
    76         51
    77         11
    78          3
    79          6
    80          2
    81         17
    82         93
    83        420
    84        429
    85         76
    86          4
    87         21
    88          4
    89         51
    90          8
    91          8
    92          1
    93          2
    94          9
    95          6
    96          3
    97         54
    98         11
    99          9
   100          1
   101          7
   102          1
   103        127
   104          9
   105          9
   106          1
   107          2
   108          1
   109          3
   110          6
   111         18
   112        148
   113         22
   114          1
   115          2
   117         23
   118          3
   119          4
   120          1
   121          1
   123          1
   125          1
   126          4
   127          5
   128          1
   129          2
   131         24
   132          3
   133          2
   139          1
   140          2
   141          4
   142          1
   143          4
   144          7
   145        563
   146         65
   147         33
   148          3
   159         61
   160        627
   161         71
   162         33
   163          3