##TITLE=Library Entry 44869
##JCAMP-DX=Revision 4.10 
##DATA TYPE=MASS SPECTRUM
##SAMPLE DESCRIPTION=Exported from NIST MS Search
##NAMES=HP
##CAS NAME=1,2,4-Thiadiazole-5(2H)-thione, 3-methyl-
##MOLFORM=C3H4N2S2
##CAS REGISTRY NO=36988-21-3
##MP= -300
##BP= -300
##MW= 132
##$RETENTION INDEX=0
##$CONDENSED SPECTRUM=NO
##NPOINTS= 15
##XYDATA=(XY..XY) 1 
    42        719
    46        100
    47        130
    59        120
    64        350
    66         50
    72         50
    73         40
    74        999
    76         50
    77         90
    91        220
   132        799
   133         40
   134         70