##TITLE=Library Entry 1175
##JCAMP-DX=Revision 4.10 
##DATA TYPE=MASS SPECTRUM
##SAMPLE DESCRIPTION=NIST Mass Spectrometry Data Center
##NAMES=HP
##CAS NAME=1,3-Dichloro-4,6-dinitrobenzene
##MOLFORM=C6H2Cl2N2O4
##CAS REGISTRY NO=3698-83-7
##MP= -300
##BP= -300
##MW= 236
##$RETENTION INDEX=0
##$CONDENSED SPECTRUM=NO
##NPOINTS= 125
##XYDATA=(XY..XY) 1 
    12          1
    16          9
    18          3
    25          3
    28          1
    30        999
    35          9
    36         15
    37         55
    38         20
    39          2
    44          1
    46         55
    47         15
    48          6
    49         23
    50         23
    51          6
    52          2
    53         22
    54          1
    55          1
    60         18
    61         57
    62         58
    63         17
    64          4
    65          3
    71         10
    72         36
    73        106
    74        305
    75         34
    76          9
    77          2
    84         94
    85         17
    86         49
    87         25
    88         18
    89          4
    90          2
    92          1
    94          6
    95          6
    96         18
    97        137
    98         21
    99         46
   100          6
   102          1
   103          1
   105          1
   106          1
   107         14
   108        101
   109        228
   110         76
   111         78
   112         16
   113         32
   114          8
   115         11
   116          2
   118          6
   119          6
   120         14
   121          5
   122          9
   123         14
   124          6
   125         15
   126          2
   127          5
   132         37
   133          9
   134         26
   135          4
   136          5
   138          7
   140         17
   141         65
   142         11
   143         62
   144        170
   145         41
   146        105
   147         15
   148         42
   149          4
   150         22
   151          2
   152          7
   158          1
   159          2
   160         16
   161         10
   162         12
   163          6
   164          2
   165          1
   173          2
   174          5
   175          7
   176         10
   177          4
   178          6
   179          1
   180          1
   189          1
   190          2
   192          1
   206         65
   207          5
   208         47
   209          2
   210          7
   220          8
   222          5
   236        170
   237         15
   238        112
   239          8
   240         17
   241          1