##TITLE=Library Entry 28152
##JCAMP-DX=Revision 4.10 
##DATA TYPE=MASS SPECTRUM
##SAMPLE DESCRIPTION=Dr. Jiri Zamecnik, DCIEM, North York, Canada, GP Librar
y
##NAMES=HP
##CAS NAME=Pholedrine
##MOLFORM=C10H15NO
##CAS REGISTRY NO=370-14-9
##MP= -300
##BP= -300
##MW= 165
##$RETENTION INDEX=0
##$CONDENSED SPECTRUM=NO
##NPOINTS= 24
##XYDATA=(XY..XY) 1 
    39         30
    41         25
    42         77
    43         40
    53         18
    56         83
    58        999
    65         15
    75         13
    77         65
    78         15
    91         13
   105          6
   107         75
   108         10
   119          3
   120          4
   133          7
   134          5
   135          9
   148          4
   149          5
   150         11
   164          5