##TITLE=Library Entry 85993
##JCAMP-DX=Revision 4.10 
##DATA TYPE=MASS SPECTRUM
##SAMPLE DESCRIPTION=Exported from NIST MS Search
##NAMES=HP
##CAS NAME=Benzene, 1-fluoro-4-(2-phenylethyl)-
##MOLFORM=C14H13F
##CAS REGISTRY NO=370-76-3
##MP= -300
##BP= -300
##MW= 200
##$RETENTION INDEX=0
##$CONDENSED SPECTRUM=NO
##NPOINTS= 35
##XYDATA=(XY..XY) 1 
    39         34
    41          7
    50         12
    51         35
    52          7
    57         18
    62          7
    63         32
    64          5
    65        105
    66          5
    75         16
    76          6
    77         25
    78          8
    83         83
    84          5
    89         24
    90          6
    91        833
    92         69
   101         21
   102          8
   103         16
   104         10
   107         19
   108          6
   109        999
   110         80
   120          6
   121         11
   122         14
   200        424
   201         68
   202          3