##TITLE=Library Entry 16274
##JCAMP-DX=Revision 4.10 
##DATA TYPE=MASS SPECTRUM
##SAMPLE DESCRIPTION=K.L.STUART UNIV. OF THE WEST INDIES, KINGSTON, JAMAICA
##NAMES=HP
##CAS NAME=Phenol, 4-[2-(methylamino)ethyl]-
##MOLFORM=C9H13NO
##CAS REGISTRY NO=370-98-9
##MP= -300
##BP= -300
##MW= 151
##$RETENTION INDEX=1450
##$CONDENSED SPECTRUM=NO
##NPOINTS= 9
##XYDATA=(XY..XY) 1 
    15          1
    28          2
    44        999
    77          6
    91          2
   107         15
   108         13
   121          4
   151         22