##TITLE=Library Entry 12792
##JCAMP-DX=Revision 4.10 
##DATA TYPE=MASS SPECTRUM
##SAMPLE DESCRIPTION=NIST Mass Spectrometry Data Center, 1994
##NAMES=HP
##CAS NAME=Isopropyl N-(3-trifluoromethylphenyl)carbamate
##MOLFORM=C11H12F3NO2
##CAS REGISTRY NO=370-56-9
##MP= -300
##BP= -300
##MW= 247
##$RETENTION INDEX=0
##$CONDENSED SPECTRUM=NO
##NPOINTS= 129
##XYDATA=(XY..XY) 1 
    12          1
    13          1
    14          6
    15         62
    16          3
    17          1
    18          4
    19         14
    20          2
    25          1
    26         13
    27        171
    28         27
    29         26
    31         26
    32          1
    33          1
    37         15
    38         34
    39        110
    40         23
    41        277
    42          1
    43        999
    44         44
    45        181
    46          6
    47          1
    49          1
    50         20
    51         17
    52         11
    53          1
    54          1
    55          0
    56          2
    57         19
    58          4
    59         34
    60          2
    61          8
    62         19
    63         66
    64         38
    65         17
    66          2
    69         28
    70          4
    73          1
    74          1
    75         33
    76          7
    77          2
    79          1
    80          1
    81          6
    82          5
    83         26
    84          5
    86          0
    87          5
    88         19
    89          6
    90         21
    91         20
    92          4
    93          3
    94          4
    95         19
    96          2
    99          5
   100          5
   101          2
   102          2
   106          2
   107          3
   108          5
   109         24
   110          3
   111         19
   112          8
   113         48
   114         46
   115          5
   116          1
   118          1
   119          5
   120         18
   121          2
   122          1
   125         11
   126          3
   127          1
   129          1
   132         15
   133         26
   134          5
   135          1
   137          6
   139         25
   140         42
   141         14
   142         23
   143          3
   144          1
   145         44
   146          3
   148          2
   159         35
   160         63
   161        372
   162         30
   163          1
   168         30
   169          3
   174          2
   184          2
   186         28
   187         92
   188        102
   189          9
   202          0
   205         59
   206          6
   228         21
   229          2
   247         93
   248         11
   249          1