##TITLE=Library Entry 7500
##JCAMP-DX=Revision 4.10 
##DATA TYPE=MASS SPECTRUM
##SAMPLE DESCRIPTION=Div. of Experiment Therapeutics WRAIR, WRAMC, Washingto
n DC 20307
##NAMES=HP
##CAS NAME=S-2-[5.alpha.-Cholestan-3.alpha.-ylamino]ethyl hydrogen thiosulfa
te
##MOLFORM=C29H53NO3S2
##CAS REGISTRY NO=37018-34-1
##MP= -300
##BP= -300
##MW= 527
##$RETENTION INDEX=0
##$CONDENSED SPECTRUM=NO
##NPOINTS= 189
##XYDATA=(XY..XY) 1 
    41        478
    43        999
    44        283
    45         36
    46          5
    48        354
    49          3
    50         27
    51          8
    53         59
    55        626
    56        414
    57        431
    58         44
    59         30
    60          7
    61        168
    64        503
    65         27
    66         10
    67        260
    68         25
    69        399
    70        273
    71        185
    72         14
    73          2
    74         11
    75          5
    76         84
    77        111
    78        102
    79        188
    81        459
    82        157
    83        181
    84         64
    85         34
    86          8
    88         74
    90         33
    91        137
    93        189
    95        375
    96         60
    97         78
    98         38
    99         14
   100          7
   101         33
   102         11
   103         19
   104          5
   105        120
   107        203
   108         49
   109        196
   110         24
   111         39
   112         17
   114         88
   116        268
   117         35
   118         19
   119         58
   120         25
   121         83
   122         18
   123         87
   124         17
   125          9
   127        214
   129         78
   130         35
   131         27
   133         76
   134          5
   135        113
   136         16
   137         33
   138          9
   139         15
   140         16
   141          2
   142         94
   143         17
   144         11
   145         34
   146          8
   147         56
   148         13
   149         57
   150          4
   151         30
   152         11
   153         18
   154         31
   155          2
   156          2
   157          5
   158          3
   159         14
   160         66
   161         53
   162         16
   163         29
   164         17
   165         24
   166         24
   167          7
   168          6
   169          2
   170          2
   171          4
   173         16
   174          2
   175         20
   176         10
   177         15
   178         18
   179         22
   180         12
   181         16
   182          5
   183          2
   187         11
   189         14
   190          5
   191          2
   192          3
   193         11
   201         13
   203         15
   204          5
   205          4
   207          2
   215         27
   216         12
   217         13
   218          2
   219          2
   230          4
   231          5
   232          7
   233          3
   243          2
   245         66
   246         18
   247          6
   257         10
   259          2
   260          6
   261          5
   272          9
   274          4
   286          5
   287          5
   289          2
   315          2
   316          5
   330          4
   344          2
   355         12
   356          2
   369          9
   370         30
   371         13
   386         14
   387          5
   395          2
   397          5
   398         31
   399         12
   400        623
   401        185
   402         28
   414          8
   428          6
   432          7
   439         10
   441         40
   442         20
   443        165
   444         55
   445         42
   446         20
   447         14
   448         12
   449          2