##TITLE=Library Entry 12722
##JCAMP-DX=Revision 4.10 
##DATA TYPE=MASS SPECTRUM
##SAMPLE DESCRIPTION=J. PLIMMER- U. KLINGEBIEL
##NAMES=HP
##CAS NAME=1,3,5-Triazine-2,4-diamine, 6-chloro-N-propyl-
##MOLFORM=C6H10ClN5
##CAS REGISTRY NO=37019-16-2
##MP= -300
##BP= -300
##MW= 187
##$RETENTION INDEX=0
##$CONDENSED SPECTRUM=NO
##NPOINTS= 57
##XYDATA=(XY..XY) 1 
    41        338
    42        182
    43        999
    44        104
    45         26
    52         26
    53         65
    54         52
    55        325
    56        104
    57        182
    58        130
    62         52
    67         52
    68        312
    69        156
    70         52
    71        104
    73         52
    77         26
    78         26
    79         26
    81         65
    82         26
    83         65
    84         26
    85         52
    87         52
    91        182
    93         78
    94         26
    95         52
    96         26
    97         52
    98         26
   104        130
   105         39
   106         52
   109         26
   110         91
   111         26
   119         26
   123         26
   130         26
   135         39
   138         26
   145        273
   146         26
   147         91
   158        675
   159        130
   160        195
   161         39
   172        156
   174         52
   187        169
   189         52