##TITLE=Library Entry 114699
##JCAMP-DX=Revision 4.10 
##DATA TYPE=MASS SPECTRUM
##SAMPLE DESCRIPTION=Div. of Experiment Therapeutics WRAIR, WRAMC, Washingto
n DC 20307
##NAMES=HP
##CAS NAME=S-2-[Tetrahydrothiopyran-4-ylamino]ethyl thiosulfuric acid
##MOLFORM=C7H15NO3S3
##CAS REGISTRY NO=37018-42-1
##MP= -300
##BP= -300
##MW= 257
##$RETENTION INDEX=0
##$CONDENSED SPECTRUM=NO
##NPOINTS= 142
##XYDATA=(XY..XY) 1 
    41        229
    42        190
    43        282
    44        196
    45        393
    46        146
    47        227
    48        448
    49         11
    50         40
    51         20
    52         24
    53         68
    54        127
    55        253
    56        575
    58        139
    59        310
    60        111
    61        271
    62         16
    64        913
    65         82
    66         55
    67        275
    68         81
    69         56
    70        391
    71         61
    72         61
    73        126
    74         26
    76         98
    77         26
    78         40
    79         14
    80         26
    82        101
    84        136
    85        200
    86         24
    87         52
    88        307
    89         77
    90         28
    91         14
    93         27
    94         14
    95          4
    96         32
    97         33
    98          8
    99        151
   100        265
   101        256
   102         47
   103         25
   105         17
   110         16
   111          8
   112         23
   113          4
   114         45
   115         34
   116        138
   117        120
   118         35
   119         13
   120          9
   121          3
   124         18
   125          4
   126         18
   127         14
   128         37
   130        999
   131         73
   132         51
   133         14
   134         10
   135          4
   136         13
   138          9
   139          3
   140         13
   142         29
   143         17
   144        130
   145         10
   146         16
   147          9
   148         54
   149         42
   150          8
   151          3
   152          5
   154         14
   156          9
   157          4
   158          9
   159         18
   160         12
   161         14
   162          8
   167          4
   168         25
   169         13
   170          4
   171         19
   172         16
   173         15
   174         13
   175         18
   176         74
   177        116
   178         41
   179         17
   180          4
   181          3
   186         11
   188          4
   192         10
   197         23
   199         17
   200          4
   201         41
   202          5
   203          3
   207         26
   208          6
   209        304
   210         25
   211         57
   213          4
   217          0
   219          0
   223          4
   224          3
   240          3
   241         21
   257          8
   258          4