##TITLE=Library Entry 2794
##JCAMP-DX=Revision 4.10 
##DATA TYPE=MASS SPECTRUM
##SAMPLE DESCRIPTION=Vladimir Zaikin, TIPS RAS, Moscow, Russia
##NAMES=HP
##CAS NAME=E-7-Tetradecenol
##MOLFORM=C14H28O
##CAS REGISTRY NO=37011-95-3
##MP= -300
##BP= -300
##MW= 212
##$RETENTION INDEX=1663
##$CONDENSED SPECTRUM=NO
##NPOINTS= 96
##XYDATA=(XY..XY) 1 
    30         55
    31        248
    36         30
    37         30
    38         60
    39        428
    40        115
    41        999
    42        265
    43        468
    44        188
    45         40
    49          8
    50         40
    51         60
    52         38
    53        160
    54        470
    55        945
    56        260
    57        231
    58         25
    59         11
    60          6
    61          7
    62          7
    63         15
    64          6
    65         50
    66         97
    67        790
    68        500
    69        495
    70        162
    71         95
    72         12
    73         25
    75         11
    77         68
    78         28
    79        121
    80         69
    81        540
    82        592
    83        250
    84         70
    85         40
    86          6
    87          8
    91         32
    93         40
    94         35
    95        335
    96        340
    97        112
    98         41
    99         12
   101          4
   102          4
   103          4
   105          8
   106          4
   107         20
   108         17
   109        150
   110        125
   111         45
   112         17
   113          6
   115          5
   117          5
   118          2
   119          6
   121         17
   122          9
   123         58
   124         50
   125         10
   126          6
   127          2
   128          3
   129         17
   135          8
   137         28
   138         40
   139          8
   147          5
   149          5
   151          8
   152         10
   163          5
   165          5
   166         12
   193          3
   194         38
   195          3