##TITLE=Library Entry 54638
##JCAMP-DX=Revision 4.10 
##DATA TYPE=MASS SPECTRUM
##SAMPLE DESCRIPTION=LAC, NIDDK, NIH, Bethesda, MD 20892
##NAMES=HP
##CAS NAME=7-[2-Tertahydropyranyloxy]-1-heptyne
##MOLFORM=C12H20O2
##CAS REGISTRY NO=37011-86-2
##MP= -300
##BP= -300
##MW= 196
##$RETENTION INDEX=0
##$CONDENSED SPECTRUM=NO
##NPOINTS= 77
##XYDATA=(XY..XY) 1 
    41        423
    43        261
    44         11
    45         15
    47          5
    49          2
    51         31
    53        141
    55        288
    56        326
    57        115
    59         13
    61          1
    62          2
    63          1
    65         16
    67        378
    68         31
    69         16
    71         14
    73          2
    74          7
    77         25
    78         24
    79         75
    80         14
    81         61
    83         37
    84         31
    85        999
    86         11
    87          0
    91         19
    93         51
    95        174
    97         22
    98         20
   100         21
   101        187
   102          2
   103          1
   105          3
   107          7
   109         11
   111         18
   112         15
   113          2
   115         13
   117          1
   119          1
   121          1
   122          0
   123          7
   125         21
   126          3
   127          0
   128          0
   131          0
   133          0
   135          1
   137          3
   138          2
   139          3
   140          1
   141          0
   149          1
   151          4
   152          1
   153          1
   163          0
   165          0
   167          1
   181          2
   182          0
   195          0
   196          1
   197          0