##TITLE=Library Entry 8329
##JCAMP-DX=Revision 4.10 
##DATA TYPE=MASS SPECTRUM
##SAMPLE DESCRIPTION=Div. of Experiment Therapeutics WRAIR, WRAMC, Washingto
n DC 20307
##NAMES=HP
##CAS NAME=Thiosulfuric acid (H2S2O3), S-[2-[(tetrahydro-1,1-dioxido-3-thien
yl)amino]ethyl] ester
##MOLFORM=C6H13NO5S3
##CAS REGISTRY NO=37018-35-2
##MP= -300
##BP= -300
##MW= 275
##$RETENTION INDEX=0
##$CONDENSED SPECTRUM=NO
##NPOINTS= 184
##XYDATA=(XY..XY) 1 
    41        251
    42        347
    43        999
    44         91
    45        303
    46         77
    48        632
    50         90
    51         57
    53        284
    54        181
    55        410
    56        469
    57         36
    58        127
    59        138
    60        147
    61        130
    62         51
    64        964
    65         60
    66         48
    68         70
    69         91
    70         89
    71         33
    72         33
    73         25
    74         13
    76         42
    77         37
    78         22
    80         30
    81         23
    82         29
    83          5
    84         22
    85         24
    86         10
    87         48
    89        255
    90         15
    91         14
    92         12
    93         13
    94          9
    96         20
    97          6
    98         11
    99         10
   101         30
   102         28
   103         34
   104          6
   105          7
   106          9
   107          2
   108          5
   109         39
   110          3
   111         13
   112         11
   113          8
   115         33
   116         12
   118         62
   119         60
   120          9
   121          7
   124         30
   125         11
   126          9
   127         16
   128         10
   129          8
   130          9
   131          7
   133         18
   136        170
   137         27
   138          6
   139          4
   140          1
   141          7
   142          6
   143          5
   144          5
   145          1
   146          6
   148        491
   149         16
   150         46
   151          3
   152         10
   153          4
   154          3
   156          8
   157          7
   158         11
   159          2
   160          7
   161          3
   162         29
   163          4
   164          4
   165          3
   166          2
   168          7
   169          3
   170         15
   171          7
   172         11
   173          5
   174          3
   175          1
   176          4
   177          2
   178          3
   179          1
   180          3
   181          2
   182          1
   183          6
   184          2
   185          3
   186          5
   188          2
   189          2
   190          1
   191          7
   192          1
   193          3
   194         16
   195         12
   196         29
   197          6
   198          4
   199          0
   200          2
   201          1
   202          1
   203          1
   204          1
   205          1
   206          6
   207          4
   208          1
   209          2
   210          1
   211          2
   212          1
   213          1
   214          1
   215          0
   216          1
   217          1
   218          1
   219          5
   220          2
   221          0
   222          2
   224          5
   225          9
   226          5
   227         11
   228          3
   229          1
   230          1
   233          1
   235          1
   236          1
   237          0
   238          1
   239          2
   241          2
   242          1
   243          0
   256          1
   257          5
   259          2
   260          0
   274          0
   275          2
   276          1