##TITLE=Library Entry 33786
##JCAMP-DX=Revision 4.10 
##DATA TYPE=MASS SPECTRUM
##SAMPLE DESCRIPTION=Div. of Experiment Therapeutics WRAIR, WRAMC, Washingto
n DC 20307
##NAMES=HP
##CAS NAME=3-Tetrahydrothiopyran-4-yl]-2-oxazolidinone-S,S-dioxide
##MOLFORM=C8H13NO4S
##CAS REGISTRY NO=37018-14-7
##MP= -300
##BP= -300
##MW= 219
##$RETENTION INDEX=0
##$CONDENSED SPECTRUM=NO
##NPOINTS= 67
##XYDATA=(XY..XY) 1 
    41        533
    42        260
    43         46
    44         48
    45         23
    47         15
    48          7
    49         26
    51         26
    53         35
    54        345
    55        290
    56         83
    57          9
    58          3
    59          8
    60          1
    61          1
    63         16
    65         34
    68        999
    69         66
    70         18
    71          6
    72          1
    73          1
    75          1
    77          2
    78          5
    80         24
    82        295
    83        219
    84         21
    86         25
    88         41
    89          1
    90          3
    94         13
    96        124
    97         12
    99          8
   100         17
   105          2
   106          1
   108          7
   110         22
   112         49
   113          5
   114         15
   115          2
   119          2
   124          1
   127        604
   128         10
   129          1
   131          1
   133          8
   134          3
   140          8
   144          1
   154          4
   164          1
   175         42
   176          3
   191          5
   219         16
   220          1