##TITLE=Library Entry 18732
##JCAMP-DX=Revision 4.10 
##DATA TYPE=MASS SPECTRUM
##SAMPLE DESCRIPTION=Div. of Experiment Therapeutics WRAIR, WRAMC, Washingto
n DC 20307
##NAMES=HP
##CAS NAME=3-[Tetrahydro-3-thienyl]-2-oxazolidinone-S,S-dioxide
##MOLFORM=C7H11NO4S
##CAS REGISTRY NO=37018-13-6
##MP= -300
##BP= -300
##MW= 205
##$RETENTION INDEX=0
##$CONDENSED SPECTRUM=NO
##NPOINTS= 49
##XYDATA=(XY..XY) 1 
    41        198
    42        244
    43         34
    44         26
    45         22
    46          4
    47          2
    48         16
    49          8
    51         23
    54        999
    55        173
    56         37
    57         10
    58          6
    59          5
    61          0
    63          6
    64          3
    65         12
    68         65
    69        775
    70         26
    71          5
    73          0
    78          5
    80          9
    82         67
    84          9
    86         31
    87          8
    88          7
    91          2
    94          2
    96          9
    97          5
    98          1
   100         11
   105          1
   113        636
   114         26
   115          2
   119         14
   126         31
   140          0
   141          0
   161         56
   163          2
   205          8