##TITLE=Library Entry 59805
##JCAMP-DX=Revision 4.10 
##DATA TYPE=MASS SPECTRUM
##SAMPLE DESCRIPTION=Chemical Concepts
##NAMES=HP
##CAS NAME=4-(p-Toluenesulfonamido)benzoic acid
##MOLFORM=C14H13NO4S
##CAS REGISTRY NO=37028-85-6
##MP= -300
##BP= -300
##MW= 291
##$RETENTION INDEX=0
##$CONDENSED SPECTRUM=NO
##NPOINTS= 80
##XYDATA=(XY..XY) 1 
    34          5
    35          7
    36         26
    37         18
    38         79
    39         88
    40         41
    41         96
    42         17
    43         40
    44         98
    45         43
    46          7
    48         34
    50         60
    51         67
    52         60
    53         50
    54         13
    55         15
    56          3
    58          3
    60          8
    61         16
    62         65
    63        192
    64        123
    65        439
    66         38
    67         13
    68          5
    69          9
    70          4
    71          6
    73          4
    74         13
    75         10
    76          8
    77         43
    78         17
    79         17
    80         23
    81         63
    82          9
    86          9
    88          7
    89         44
    91        999
    92        138
    93         14
    97          3
   103          5
   105          4
   107         28
   108        106
   109         12
   111          3
   115          7
   116          6
   119        220
   120        112
   121         16
   128          5
   136         60
   137         84
   138         11
   139         27
   140          7
   155        168
   156         12
   157          9
   161         11
   167          9
   180          4
   182         13
   226          9
   227         11
   291        106
   292         24
   293          6