##TITLE=Library Entry 19907
##JCAMP-DX=Revision 4.10 
##DATA TYPE=MASS SPECTRUM
##SAMPLE DESCRIPTION=Chemical Concepts
##NAMES=HP
##CAS NAME=1-Butene, 3-butoxy-
##MOLFORM=C8H16O
##CAS REGISTRY NO=37027-60-4
##MP= -300
##BP= -300
##MW= 128
##$RETENTION INDEX=0
##$CONDENSED SPECTRUM=NO
##NPOINTS= 56
##XYDATA=(XY..XY) 1 
    25          0
    26         28
    27        332
    29        491
    30         11
    31         29
    37          2
    38          9
    39        209
    40         22
    41        391
    42         37
    43        299
    44         18
    45        109
    46          2
    49          0
    50          9
    51         18
    52          8
    53         68
    54         61
    55        999
    56        163
    57        839
    58         32
    59          4
    65          0
    67          2
    68          3
    69         27
    70         11
    71         44
    72        266
    73        148
    74          7
    75          1
    79          0
    81          1
    82          1
    83          6
    84          1
    85         18
    86          0
    95          2
    97          0
    99         49
   100          3
   101          8
   102          0
   113        167
   114         13
   115          0
   127          0
   128          1
   129          0