##TITLE=Library Entry 55877
##JCAMP-DX=Revision 4.10 
##DATA TYPE=MASS SPECTRUM
##SAMPLE DESCRIPTION=Patti Price, Georgia Bureau of Investigation, Decatur,
 Georgia
##NAMES=HP
##CAS NAME=Bamethan
##MOLFORM=C12H19NO2
##CAS REGISTRY NO=3703-79-5
##MP= -300
##BP= -300
##MW= 209
##$RETENTION INDEX=1735
##$CONDENSED SPECTRUM=NO
##NPOINTS= 67
##XYDATA=(XY..XY) 1 
    43         36
    44        332
    50          3
    51         15
    52          5
    53         10
    54          2
    55         16
    56         16
    57         83
    58          7
    60          2
    65         36
    67          5
    68          3
    69          1
    70          6
    71          1
    72          1
    73          3
    74          2
    75          2
    76          2
    77         91
    78          9
    79          4
    81          2
    83          2
    84         16
    86        999
    87         72
    88          5
    89          3
    91         20
    93         10
    94         10
    95         34
    96          2
   100          7
   103          4
   104          1
   105          2
   107         33
   108         22
   109          2
   116          1
   118          2
   119         10
   120         16
   121         34
   122          4
   123         45
   124          1
   131          1
   133          8
   134          6
   135          3
   136          5
   146          4
   147          4
   148         34
   150          1
   162          3
   190          4
   191         10
   192          1
   209          4