##TITLE=Library Entry 64486
##JCAMP-DX=Revision 4.10 
##DATA TYPE=MASS SPECTRUM
##SAMPLE DESCRIPTION=NIST Mass Spectrometry Data Center, 1994
##NAMES=HP
##CAS NAME=Ethyl 5-benzyloxyindole-2-carboxylate
##MOLFORM=C18H17NO3
##CAS REGISTRY NO=37033-95-7
##MP= -300
##BP= -300
##MW= 295
##$RETENTION INDEX=0
##$CONDENSED SPECTRUM=NO
##NPOINTS= 56
##XYDATA=(XY..XY) 1 
    26          2
    27         21
    29         24
    38          8
    39         69
    40          8
    41         19
    44          8
    50         43
    51         61
    52         28
    53         13
    62         19
    63         43
    64         16
    65        153
    75         40
    76         81
    77         35
    78          6
    87          7
    88         12
    89         30
    90          6
    91        999
    92         72
   101         11
   102        144
   103         52
   104          6
   105         14
   114         26
   115         10
   130        246
   131         81
   132          9
   158        558
   159         91
   165         14
   176         30
   190          7
   194          9
   204        738
   205         87
   206         11
   220          9
   221          8
   222         26
   223          8
   248          6
   249         69
   250         71
   251         14
   295        840
   296        170
   297         16