##TITLE=Library Entry 71105
##JCAMP-DX=Revision 4.10 
##DATA TYPE=MASS SPECTRUM
##SAMPLE DESCRIPTION=Chemical Concepts
##NAMES=HP
##CAS NAME=Boroxin, tris(triethylmethyl)-
##MOLFORM=C21H45B3O3
##CAS REGISTRY NO=3703-27-3
##MP= -300
##BP= -300
##MW= 378
##$RETENTION INDEX=0
##$CONDENSED SPECTRUM=NO
##NPOINTS= 133
##XYDATA=(XY..XY) 1 
    25         14
    27         62
    29        153
    30          4
    31          2
    36          0
    39         26
    40          3
    41        291
    42         39
    43        314
    44          2
    51          6
    52          8
    53         40
    54         51
    55        330
    56        120
    57        462
    58         15
    59          1
    65         10
    66         17
    67         87
    68         71
    69        973
    70         98
    71         24
    77          5
    78          5
    79         16
    80         21
    81         65
    82         67
    83        123
    84         16
    85         25
    93         10
    94         20
    95         43
    96         50
    97        124
    98        999
    99         90
   100          4
   102          5
   103         15
   105          4
   106          5
   107         10
   108         19
   109         44
   110         75
   111        110
   112         37
   113         58
   114          3
   117          4
   119          6
   120          6
   121         14
   122         18
   123         36
   124         42
   125         56
   126          3
   133          8
   134         21
   135         40
   136         26
   137         63
   138        122
   139        144
   140         10
   146          3
   147          4
   148          4
   149         11
   150         24
   151         44
   152         28
   153         41
   163          5
   164         15
   165         36
   166         70
   167         84
   168          7
   176          3
   177          9
   178         33
   179         65
   180        108
   181        130
   182         11
   191          7
   192         17
   193         32
   194         41
   195         47
   196          7
   201          3
   205          6
   206         17
   207         19
   208         20
   209         20
   219          3
   220          9
   221         18
   222         22
   223         26
   224          3
   225          5
   235          8
   236         19
   237         21
   238          3
   246          3
   247         19
   248         51
   249         68
   250         34
   251         30
   252          3
   276         15
   277        137
   278        476
   279        594
   280        103
   281         10
   292          4
   293          4