##TITLE=Library Entry 71248
##JCAMP-DX=Revision 4.10 
##DATA TYPE=MASS SPECTRUM
##SAMPLE DESCRIPTION=NIST Mass Spectrometry Data Center, 1998.
##NAMES=HP
##CAS NAME=Cloperastine
##MOLFORM=C20H24ClNO
##CAS REGISTRY NO=3703-76-2
##MP= -300
##BP= -300
##MW= 329
##$RETENTION INDEX=2402
##$CONDENSED SPECTRUM=NO
##NPOINTS= 98
##XYDATA=(XY..XY) 1 
    15          1
    27          3
    28          7
    29          6
    30          8
    39          7
    40          1
    41         54
    42         51
    43          9
    44         29
    45          2
    50          3
    51          7
    52          1
    53          3
    54          8
    55         64
    56         24
    57          5
    58          2
    62          1
    63          4
    64          1
    65          2
    67          4
    68          6
    69         22
    70         27
    71          2
    73          1
    74          1
    75          5
    76          2
    77         12
    78          2
    79          1
    80          1
    81          1
    82          6
    83          8
    84         19
    85        158
    86         10
    87          2
    88          1
    89          5
    90          1
    91          2
    94          1
    96         22
    98        999
    99         79
   100          3
   101          1
   102          1
   103          1
   105          5
   106          1
   110          2
   111          6
   112          5
   113         88
   114          8
   115          5
   116          1
   119          1
   125          2
   126          2
   127          2
   128          3
   137          1
   138          1
   139         11
   140          1
   141          2
   149          1
   150          1
   151          2
   152          4
   153          2
   154          1
   162          1
   163         11
   164         13
   165        133
   166         72
   167         11
   168          1
   178          1
   181          1
   186          1
   199          4
   200          1
   201         22
   202          4
   203          7
   204          1