##TITLE=Library Entry 42345
##JCAMP-DX=Revision 4.10 
##DATA TYPE=MASS SPECTRUM
##SAMPLE DESCRIPTION=Chemical Concepts
##NAMES=HP
##CAS NAME=Trisilane, octamethyl-
##MOLFORM=C8H24Si3
##CAS REGISTRY NO=3704-44-7
##MP= -300
##BP= -300
##MW= 204
##$RETENTION INDEX=0
##$CONDENSED SPECTRUM=NO
##NPOINTS= 117
##XYDATA=(XY..XY) 1 
    26          1
    27          0
    29         13
    30          1
    31         13
    33          0
    39          0
    40          0
    41          0
    42          3
    43         78
    44         19
    45        210
    46         11
    47          6
    50          0
    51          0
    53          6
    54          1
    55         12
    56          1
    57         11
    58         10
    59         83
    60          6
    61          2
    66          0
    67          1
    69         12
    70          3
    71         10
    72          6
    73        999
    74         78
    75         32
    76          1
    77          0
    81          3
    82          1
    83          7
    84          3
    85         17
    86          4
    87          6
    88          2
    89          1
    91          0
    93          0
    95          1
    96          0
    97          3
    98          0
    99         28
   100          5
   101         72
   102          9
   103          9
   104          1
   105          0
   107          0
   109          0
   111          1
   113         13
   114          3
   115         96
   116        422
   117         68
   118         30
   119          3
   120          0
   121          0
   123          0
   125          1
   126          0
   127          1
   129         38
   130         15
   131        668
   132         99
   133         49
   134          5
   135          1
   139          0
   141          0
   143          0
   145         27
   146          4
   147          3
   148          0
   149          0
   153          0
   155          0
   157          2
   158          0
   159          2
   160          0
   161          0
   169          0
   171          2
   172          0
   173         11
   174          3
   175          2
   176          0
   185          0
   187         13
   188          3
   189        137
   190         31
   191         16
   192          2
   193          0
   203          0
   204        202
   205         48
   206         27
   207          4