##TITLE=Library Entry 5326
##JCAMP-DX=Revision 4.10 
##DATA TYPE=MASS SPECTRUM
##SAMPLE DESCRIPTION=A.A.Kutin, Moscow, Russia
##NAMES=HP
##CAS NAME=Quinolin-6(7H)-one, 1,2,3,4,8,8a-hexahydro-1,4-ethano-
##MOLFORM=C11H15NO
##CAS REGISTRY NO=37040-84-9
##MP= -300
##BP= -300
##MW= 177
##$RETENTION INDEX=0
##$CONDENSED SPECTRUM=NO
##NPOINTS= 121
##XYDATA=(XY..XY) 1 
    33          5
    34         11
    38         27
    39        362
    40        186
    41        442
    42        999
    43        233
    44        160
    45         14
    47         10
    49          1
    50         37
    51         99
    52         84
    53        130
    54        113
    55        186
    56        104
    57         51
    58         21
    60         35
    61         11
    62         14
    63         48
    64         28
    65        177
    66        133
    67        102
    68        117
    69         40
    70         45
    71         13
    72          1
    73          2
    74          5
    75          7
    77        224
    78         90
    79        199
    80        111
    81         50
    82         93
    83         17
    84          8
    85          2
    86          2
    89         11
    91        270
    92         99
    93        190
    94         84
    95         51
    96         24
    97          6
    98          3
    99         11
   100          1
   101          0
   103         20
   104         25
   105         55
   106        150
   107        160
   108        115
   109         18
   110         24
   111          3
   112          2
   114          2
   115          7
   116          6
   117         22
   118         33
   119         41
   120        320
   121        355
   122         86
   123         12
   124         10
   125          1
   126          3
   127         13
   128          6
   129          3
   130          8
   131          8
   132         22
   133         36
   134        432
   135         67
   136         22
   137          2
   138          1
   139          0
   143          5
   144          2
   145          6
   146         19
   148        354
   149        646
   150         80
   151          5
   152          1
   154          2
   156          0
   158          2
   160          8
   161          2
   162         22
   163          2
   166          0
   167          4
   171          6
   172          3
   173          6
   174          6
   176         98
   177        854
   178        109
   179          8