##TITLE=Library Entry 32506
##JCAMP-DX=Revision 4.10 
##DATA TYPE=MASS SPECTRUM
##SAMPLE DESCRIPTION=Japan AIST/NIMC Database- Spectrum MS-NW-5346
##NAMES=HP
##CAS NAME=3-Octyne, 7-methyl-
##MOLFORM=C9H16
##CAS REGISTRY NO=37050-06-9
##MP= -300
##BP= -300
##MW= 124
##$RETENTION INDEX=0
##$CONDENSED SPECTRUM=NO
##NPOINTS= 95
##XYDATA=(XY..XY) 1 
    14          3
    15         32
    25          1
    26         20
    27        297
    28         14
    29        312
    30          9
    31          1
    37         11
    38         37
    39        387
    40         97
    41        867
    42         94
    43        310
    44         14
    45         18
    46          2
    49          4
    50         46
    51        105
    52         60
    53        341
    54         61
    55        351
    56        192
    57        294
    58         19
    59         10
    60          9
    61          6
    62         15
    63         37
    64          9
    65        105
    66         61
    67        999
    68        285
    69        174
    70         34
    71         19
    72         10
    73          9
    74         12
    75          5
    76          2
    77         81
    78         21
    79        164
    80         34
    81        474
    82        187
    83        103
    84         26
    85         14
    86          5
    87          4
    88          2
    89          2
    90          1
    91         46
    92          9
    93         49
    94         19
    95        599
    96        139
    97         29
    98          9
    99         10
   100          2
   101          2
   102          1
   103          2
   104          1
   105         12
   106          2
   107         34
   108          6
   109        746
   110         67
   111         27
   112          4
   113          3
   114          2
   115          2
   117          1
   119          3
   120          2
   121          4
   122          4
   123        141
   124         27
   125         14
   126          2