##TITLE=Library Entry 32919
##JCAMP-DX=Revision 4.10 
##DATA TYPE=MASS SPECTRUM
##SAMPLE DESCRIPTION=JACSAT, 99(2) 532(1977); C. DJERASSI, STAMFORD UNIVERSI
TY, USA
##NAMES=HP
##CAS NAME=3,4-Nonadiene
##MOLFORM=C9H16
##CAS REGISTRY NO=37050-03-6
##MP= -300
##BP= -300
##MW= 124
##$RETENTION INDEX=0
##$CONDENSED SPECTRUM=NO
##NPOINTS= 31
##XYDATA=(XY..XY) 1 
    39        190
    40         50
    41        350
    42         40
    43         40
    51         40
    52         30
    53        170
    54         80
    55        190
    56         30
    65         60
    66         30
    67        999
    68        110
    69         20
    77         50
    79        130
    80         10
    81        220
    82        720
    83         50
    91         10
    92         30
    95        140
    96         10
   105          0
   107          0
   109         10
   123          0
   124          0