##TITLE=Library Entry 37125
##JCAMP-DX=Revision 4.10 
##DATA TYPE=MASS SPECTRUM
##SAMPLE DESCRIPTION=A.S.Moskovkin,I.M.Karnaukh, Russian Center on Disaster
 Medicine
##NAMES=HP
##CAS NAME=4-Amino-4-cyano-1,2.5-trimethylpiperidine
##MOLFORM=C9H17N3
##CAS REGISTRY NO=37059-45-3
##MP= -300
##BP= -300
##MW= 167
##$RETENTION INDEX=0
##$CONDENSED SPECTRUM=NO
##NPOINTS= 97
##XYDATA=(XY..XY) 1 
    37          2
    38          6
    39         56
    40         33
    41        180
    42        550
    43        190
    44        270
    45          6
    50          3
    51          9
    52         12
    53         36
    54         81
    55         87
    56        250
    57        250
    58        470
    59         22
    62          2
    63          2
    64          2
    65          9
    66         14
    67         22
    68         84
    69         28
    70        999
    71        150
    72         39
    73          2
    76          1
    77         10
    78          7
    79         12
    80         17
    81         44
    82        120
    83         82
    84        130
    85         19
    86          1
    91          9
    92          5
    93          9
    94         21
    95         19
    96         39
    97         56
    98         66
    99         24
   100          1
   103          3
   104          6
   105          4
   106          7
   107          7
   108         28
   109         29
   110         28
   111          8
   112          7
   115          2
   116          2
   117          6
   118          9
   119          7
   120          3
   121          5
   122         11
   123         25
   124         22
   125        320
   126         34
   127          2
   131          2
   132          2
   133          8
   134          2
   135        120
   136         13
   137          5
   138          4
   139         67
   140         82
   141          9
   146          2
   149          8
   150         31
   151         44
   152        320
   153         43
   154          3
   166          7
   167        100
   168         11
   169          1