##TITLE=Library Entry 32317
##JCAMP-DX=Revision 4.10 
##DATA TYPE=MASS SPECTRUM
##SAMPLE DESCRIPTION=S.A. Rang et al., IR & MS of Unsatd. Hydrocarbons, 1977
##NAMES=HP
##CAS NAME=3,4-Octadiene, 7-methyl-
##MOLFORM=C9H16
##CAS REGISTRY NO=37050-05-8
##MP= -300
##BP= -300
##MW= 124
##$RETENTION INDEX=0
##$CONDENSED SPECTRUM=NO
##NPOINTS= 40
##XYDATA=(XY..XY) 1 
    15         63
    26         40
    27        444
    29        222
    39        606
    41        597
    42         63
    43        328
    50         55
    51        147
    52         80
    53        343
    54         60
    55        232
    56         49
    57         20
    63         47
    65        147
    66         62
    67        999
    68        152
    69         89
    70         12
    77        137
    78         40
    79        318
    80         48
    81        475
    82        265
    83         18
    85         43
    93         36
    94         17
    95        360
   107         19
   108          5
   109        172
   110         14
   124         45
   125          4