##TITLE=Library Entry 33057
##JCAMP-DX=Revision 4.10 
##DATA TYPE=MASS SPECTRUM
##SAMPLE DESCRIPTION=Chemical Concepts
##NAMES=HP
##CAS NAME=3a,7a-Epoxy-1H-inden-1-one, hexahydro-
##MOLFORM=C9H12O2
##CAS REGISTRY NO=37079-31-5
##MP= -300
##BP= -300
##MW= 152
##$RETENTION INDEX=0
##$CONDENSED SPECTRUM=NO
##NPOINTS= 107
##XYDATA=(XY..XY) 1 
    26         22
    27        139
    28         70
    29         35
    30          1
    31          3
    33          1
    34          3
    36          0
    37          4
    38         17
    39        220
    40         88
    41        199
    42         95
    43         61
    44          5
    45          3
    46          5
    47          6
    48          6
    49          2
    50         20
    51         46
    52         27
    53        131
    54        310
    55        266
    56         31
    57         24
    58          3
    59          1
    60          1
    61          2
    62          6
    63         14
    64          4
    65         35
    66         50
    67        999
    68        278
    69         71
    70         15
    71          4
    73          2
    74          5
    75          3
    76          2
    77         52
    78         28
    79        123
    80        124
    81        191
    82        342
    83         54
    84         18
    85          2
    86          1
    87          0
    89          1
    90          1
    91         37
    92         24
    93         24
    94         14
    95        149
    96        404
    97        100
    98         13
    99          1
   101          1
   102          2
   103          3
   104          1
   105         14
   106         10
   107         29
   108         11
   109         57
   110        123
   111         45
   112          4
   115          2
   116          1
   117          2
   118          1
   119          3
   120          1
   121          4
   122          2
   123         79
   124        272
   125         22
   126          1
   130          2
   132          1
   133          1
   134          6
   135         10
   136          9
   137         18
   138          2
   150          1
   151         10
   152        333
   153         32
   154          3