##TITLE=Library Entry 73038
##JCAMP-DX=Revision 4.10 
##DATA TYPE=MASS SPECTRUM
##SAMPLE DESCRIPTION=A.S.Moskovkin,I.M.Karnaukh, Russian Center on Disaster
 Medicine
##NAMES=HP
##CAS NAME=1-Morpholino-2-(p-toluenesulfonyl)aminoethane
##MOLFORM=C13H20N2O3S
##CAS REGISTRY NO=37075-67-5
##MP= -300
##BP= -300
##MW= 284
##$RETENTION INDEX=0
##$CONDENSED SPECTRUM=NO
##NPOINTS= 137
##XYDATA=(XY..XY) 1 
    39         26
    40          8
    41         69
    42        170
    43         87
    44         47
    45         20
    46          3
    48          8
    50          5
    51         10
    52          4
    53          4
    54         17
    55         41
    56        280
    57         55
    58         13
    59          3
    60         13
    61          3
    62          3
    63         13
    64         18
    65         80
    66          6
    67          6
    68          9
    69         28
    70         76
    71         33
    72         27
    73         12
    74          2
    75          1
    76          2
    77          9
    78          4
    79          6
    80          2
    81          5
    82          6
    83         11
    84         10
    85         16
    86         23
    87          6
    88          1
    89         15
    90         13
    91        250
    92         33
    93          4
    94          1
    95          5
    96          4
    97         11
    98         50
    99         22
   100        999
   101        180
   102         11
   103          2
   104          2
   105         17
   106          6
   107          4
   108          4
   109          3
   110          2
   111          5
   112          8
   113          6
   114          3
   115          2
   116          1
   117          2
   118          8
   119          3
   120          2
   121          2
   122          1
   123          4
   124          5
   125          3
   126          1
   127          6
   128          7
   129          4
   130          1
   131          1
   132          2
   133          2
   135          1
   137          1
   138          1
   139          6
   140          3
   141          2
   143          1
   146          1
   149          9
   150          1
   151          1
   153          1
   155         36
   156          4
   157          2
   160          4
   161          1
   165          1
   167          3
   169          1
   171          1
   177          1
   181          1
   183          6
   184          3
   185          1
   190          2
   191          1
   197          3
   198          2
   211          1
   218          1
   219          1
   224          1
   225          1
   239          1
   252          1
   253          1
   255         41
   256          7
   257          2
   283          3
   284          7
   285          1