##TITLE=Library Entry 11053
##JCAMP-DX=Revision 4.10 
##DATA TYPE=MASS SPECTRUM
##SAMPLE DESCRIPTION=Philip Morris R&D
##NAMES=HP
##CAS NAME=7,8-Epoxy-.alpha.-ionone
##MOLFORM=C13H20O2
##CAS REGISTRY NO=37079-64-4
##MP= -300
##BP= -300
##MW= 208
##$RETENTION INDEX=1474
##$CONDENSED SPECTRUM=NO
##NPOINTS= 132
##XYDATA=(XY..XY) 1 
    40         35
    41        393
    42         22
    43        999
    44         27
    45         12
    50          6
    51         38
    52         22
    53        132
    54         14
    55        187
    56         33
    57         73
    58          6
    59         10
    61          2
    62          1
    63          9
    64          3
    65         66
    66         27
    67        131
    68         30
    69        152
    70         15
    71         61
    72          3
    73         11
    74         30
    75          2
    76          1
    77        151
    78         32
    79        340
    80        327
    81        578
    82        117
    83         33
    84          6
    85        289
    86         14
    87         29
    88          2
    89          2
    90          1
    91        173
    92         79
    93        235
    94         50
    95        456
    96         52
    97         40
    98         13
    99          4
   102          0
   103          8
   104          3
   105        110
   106         31
   107        289
   108         60
   109        625
   110         98
   111         19
   112          6
   113          3
   115          7
   116          3
   117         10
   118          3
   119        115
   120         24
   121        128
   122        185
   123        193
   124         22
   125         11
   126          4
   127          2
   128          2
   129          2
   130          1
   131         15
   132          6
   133         26
   134         58
   135        280
   136         43
   137        128
   138         19
   139         11
   140          4
   141          3
   142          3
   143          0
   144          0
   145          4
   146          3
   147        196
   148         26
   149          8
   150         10
   151         19
   152         35
   153          5
   155          1
   156          2
   157         10
   158          1
   159          6
   160          1
   161          8
   162          2
   163          5
   164          4
   165        227
   166         28
   167          2
   172          1
   174          1
   175         29
   176          4
   177          4
   179          3
   180          0
   190          8
   191          2
   192          2
   193          6
   208          9
   209          1