##TITLE=Library Entry 63794
##JCAMP-DX=Revision 4.10 
##DATA TYPE=MASS SPECTRUM
##SAMPLE DESCRIPTION=Div. of Experiment Therapeutics WRAIR, WRAMC, Washingto
n DC 20307
##NAMES=HP
##CAS NAME=Malononitrile, 2-phenylcyclohexylidene-
##MOLFORM=C15H14N2
##CAS REGISTRY NO=37071-35-5
##MP= -300
##BP= -300
##MW= 222
##$RETENTION INDEX=0
##$CONDENSED SPECTRUM=NO
##NPOINTS= 102
##XYDATA=(XY..XY) 1 
    41        336
    42         49
    43         20
    47          4
    49          6
    51        594
    52        135
    53         98
    55        319
    56         13
    57          5
    58          3
    62         20
    63        286
    64         33
    65        275
    67        124
    68        590
    69         33
    71         13
    74         51
    75         88
    77        397
    78        201
    79         69
    81        109
    82         22
    83          5
    84         26
    86         29
    87         33
    89        134
    91        999
    92        101
    93         10
    95          2
    96         10
    97          5
    98          8
    99         10
   100         15
   102        118
   103        121
   104        141
   105         66
   106         20
   110          7
   111          7
   113         56
   115        527
   117        678
   118        162
   119         17
   120         14
   123          2
   125         11
   126         87
   127        110
   128        101
   129        107
   130         38
   131        243
   132         18
   137          4
   139         78
   140        153
   141         49
   142         42
   143         48
   144         32
   145         16
   150          1
   152        162
   153        148
   154        118
   155        108
   156         46
   157         44
   158          6
   164         13
   165        102
   166        110
   167         61
   168         66
   169         10
   177         43
   179         74
   180         41
   181         92
   182         20
   190         27
   194        483
   195         62
   196         11
   204         35
   205         31
   207         82
   208          3
   221         12
   222        841
   223        178
   224         22