##TITLE=Library Entry 23430
##JCAMP-DX=Revision 4.10 
##DATA TYPE=MASS SPECTRUM
##SAMPLE DESCRIPTION=V.Zaikin,Topchiev Inst.Petrochem.Synth.,Moscow
##NAMES=HP
##CAS NAME=Dichloroacetic acid 2-methylpropyl ester
##MOLFORM=C6H10Cl2O2
##CAS REGISTRY NO=37079-08-6
##MP= -300
##BP= -300
##MW= 184
##$RETENTION INDEX=1030
##$CONDENSED SPECTRUM=NO
##NPOINTS= 46
##XYDATA=(XY..XY) 1 
    26         14
    27         66
    28         12
    29        181
    31          8
    35          8
    36         48
    38         16
    39         81
    40         14
    41        380
    42         50
    43        311
    44         10
    47          9
    48         31
    49         12
    50         13
    55         51
    56        293
    57        999
    58         38
    59         19
    73         11
    76        118
    77         14
    82          6
    83        220
    84          7
    85        138
    87         23
   106         10
   107          6
   110         15
   111         56
   112         14
   113         51
   114          5
   115         16
   129          8
   141         16
   142        164
   143         39
   144        102
   145         20
   146         17