##TITLE=Library Entry 59182
##JCAMP-DX=Revision 4.10 
##DATA TYPE=MASS SPECTRUM
##SAMPLE DESCRIPTION=Div. of Experiment Therapeutics WRAIR, WRAMC, Washingto
n DC 20307
##NAMES=HP
##CAS NAME=2,4-Diamino-7-benzyl-5,6,7,8-tetrahydropyrido[4',3',4,5]thieno[2,
3-d]pyrimidine
##MOLFORM=C16H17N5S
##CAS REGISTRY NO=37071-32-2
##MP= -300
##BP= -300
##MW= 311
##$RETENTION INDEX=0
##$CONDENSED SPECTRUM=NO
##NPOINTS= 98
##XYDATA=(XY..XY) 1 
    41        157
    42        320
    43        943
    44        254
    45        222
    49         15
    50        213
    51        431
    52        158
    53         96
    55         60
    57         50
    58         65
    59         46
    60         86
    61         70
    62         58
    63        120
    64         86
    65        251
    66         43
    67         49
    68         92
    69        123
    70         86
    71         33
    74         52
    75         15
    76        115
    77        572
    78        155
    79         81
    80         31
    81         46
    82         52
    85         50
    89         82
    90         75
    91        999
    92         96
    93         17
    94        111
    95         81
    96         54
    97         15
   103         53
   104         69
   105        592
   106        134
   107         76
   108         17
   109         15
   117         16
   118         50
   120         53
   121         98
   122        289
   123         71
   124         53
   126         15
   132         52
   134         63
   135         51
   137         32
   138         82
   142         35
   147         67
   148         69
   149         79
   150        144
   151        109
   160         15
   161         30
   162         50
   166         15
   175        152
   176        133
   177         50
   178         91
   179         57
   191        162
   192        602
   193        203
   194         85
   205         54
   206         68
   217        297
   218        101
   219         99
   220        317
   221         92
   222         15
   233         44
   234         59
   235         83
   310        215
   311        377
   312         63