##TITLE=Library Entry 78703
##JCAMP-DX=Revision 4.10 
##DATA TYPE=MASS SPECTRUM
##SAMPLE DESCRIPTION=Japan AIST/NIMC Database- Spectrum MS-NW-2358
##NAMES=HP
##CAS NAME=2-(Methylsulfonyl)acetophenone
##MOLFORM=C9H10O3S
##CAS REGISTRY NO=3708-04-1
##MP= -300
##BP= -300
##MW= 198
##$RETENTION INDEX=0
##$CONDENSED SPECTRUM=NO
##NPOINTS= 68
##XYDATA=(XY..XY) 1 
    14          4
    15         28
    16          3
    17          1
    18          3
    26          1
    27          9
    28         21
    29          1
    32         18
    34          1
    37          2
    38          5
    39         28
    40          3
    41          8
    42          9
    43          7
    44         13
    45          5
    46          2
    47          2
    48          4
    49          1
    50         31
    51        103
    52          8
    53          1
    55          1
    56          1
    57          1
    61          2
    62          6
    63         14
    64          5
    65         46
    66          3
    73          6
    74          9
    75          7
    76         13
    77        318
    78         31
    79         22
    81          1
    89          9
    90          5
    91         80
    92          8
    94          1
   102          4
   103          4
   104          3
   105        999
   106         73
   107          6
   118          2
   119          4
   120          6
   121          3
   122          1
   135          4
   150          2
   182          2
   183          3
   198         46
   199          5
   200          2