##TITLE=Library Entry 22030
##JCAMP-DX=Revision 4.10 
##DATA TYPE=MASS SPECTRUM
##SAMPLE DESCRIPTION=Chemical Concepts
##NAMES=HP
##CAS NAME=2(3H)-Furanone, dihydro-3,3-dimethyl-
##MOLFORM=C6H10O2
##CAS REGISTRY NO=3709-08-8
##MP= -300
##BP= -300
##MW= 114
##$RETENTION INDEX=0
##$CONDENSED SPECTRUM=NO
##NPOINTS= 42
##XYDATA=(XY..XY) 1 
    26         15
    27        139
    28         61
    29        103
    30          9
    31          4
    37         11
    38         27
    39        221
    40         47
    41        509
    42        108
    43         85
    44          3
    45          1
    49          3
    50         15
    51         16
    52          5
    53         31
    54         15
    55        338
    56        999
    57         76
    58         14
    59          6
    60          3
    67          4
    69         13
    70        170
    71         26
    72          1
    83          2
    84          2
    85          1
    86         12
    98          1
    99          5
   113          2
   114         34
   115          8
   116          1