##TITLE=Library Entry 92462
##JCAMP-DX=Revision 4.10 
##DATA TYPE=MASS SPECTRUM
##SAMPLE DESCRIPTION=Exported from NIST MS Search
##NAMES=HP
##CAS NAME=Butyric acid, 4,4'-diselenobis[2,2-dimethyl-
##MOLFORM=C12H22O4Se2
##CAS REGISTRY NO=3709-10-2
##MP= -300
##BP= -300
##MW= 390
##$RETENTION INDEX=0
##$CONDENSED SPECTRUM=NO
##NPOINTS= 120
##XYDATA=(XY..XY) 1 
    26          5
    27          5
    28         16
    29         65
    31         20
    38          1
    39          6
    40         10
    41        266
    42         28
    43        108
    44          6
    45         80
    51          5
    53         30
    54          5
    55        108
    56         16
    57        158
    58          5
    59        503
    60         20
    65          3
    66          1
    67         50
    68         11
    69         33
    70         38
    71         10
    73         33
    78          1
    79          1
    80         10
    81          5
    82          5
    83         21
    85         11
    87         53
    88         25
    89          3
    90          3
    91         11
    92          6
    93         16
    94         13
    95         16
    96          1
    97         11
    99          1
   100          1
   101         41
   102          3
   103          3
   104          3
   105         10
   106          5
   107         16
   108          6
   109         13
   111          5
   113          3
   114          1
   115        999
   116         70
   117          8
   121          3
   133          5
   135          8
   145          6
   146          8
   147         20
   148         11
   149         28
   150         20
   151          6
   152          3
   153          1
   154          1
   155          3
   156          8
   157          5
   158         15
   159          1
   160         20
   161          3
   162          5
   173          3
   174          3
   175          6
   176         10
   177          1
   178         18
   179          1
   180          3
   195          3
   224          3
   225          3
   226          6
   227          3
   228         11
   229          1
   230         15
   232          5
   252          3
   254          8
   255          5
   256         11
   257          1
   258         15
   260          3
   373          3
   384          6
   385          3
   386         11
   387          6
   388         16
   389          3
   390         21
   391          1
   392          5