##TITLE=Library Entry 88273
##JCAMP-DX=Revision 4.10 
##DATA TYPE=MASS SPECTRUM
##SAMPLE DESCRIPTION=Japan AIST/NIMC Database- Spectrum MS-NW- 998
##NAMES=HP
##CAS NAME=p-Fluoroaniline
##MOLFORM=C6H6FN
##CAS REGISTRY NO=371-40-4
##MP= -300
##BP= -300
##MW= 111
##$RETENTION INDEX=996
##$CONDENSED SPECTRUM=NO
##NPOINTS= 69
##XYDATA=(XY..XY) 1 
    26          3
    27          5
    28         11
    29          1
    31         17
    32          2
    33          5
    36          2
    37         10
    38         14
    39         23
    40          7
    41         25
    42          3
    44          5
    45         10
    46          2
    48          3
    49          4
    50         12
    51         12
    52         26
    53          5
    54          9
    55         35
    56         14
    57         66
    58         10
    59          3
    60          2
    61         10
    62         13
    63         33
    64         63
    65         24
    66          4
    67          4
    68          4
    69          4
    70          5
    71          2
    72          8
    73          1
    74          5
    75          9
    76          3
    78          3
    80          4
    81         16
    82         16
    83        182
    84        300
    85         28
    86          1
    88          1
    89          4
    90          8
    91         38
    92          7
    93          1
    94         10
    95          7
    96          4
   108          2
   109          7
   110         60
   111        999
   112         68
   113          2