##TITLE=Library Entry 36526
##JCAMP-DX=Revision 4.10 
##DATA TYPE=MASS SPECTRUM
##SAMPLE DESCRIPTION=Exported from NIST MS Search
##NAMES=HP
##CAS NAME=Methane, thiobis[trifluoro-
##MOLFORM=C2F6S
##CAS REGISTRY NO=371-78-8
##MP= -300
##BP= -300
##MW= 170
##$RETENTION INDEX=0
##$CONDENSED SPECTRUM=NO
##NPOINTS= 27
##XYDATA=(XY..XY) 1 
    12         12
    19          7
    31         68
    32         47
    33          1
    34          2
    44          8
    50         32
    51         13
    63        149
    64          3
    65          7
    66          1
    69        999
    70         11
    82        104
    83          2
    84          5
   101         23
   102          1
   103          2
   151         30
   152          1
   153          2
   170        256
   171          8
   172         12