##TITLE=Library Entry 50600
##JCAMP-DX=Revision 4.10 
##DATA TYPE=MASS SPECTRUM
##SAMPLE DESCRIPTION=Exported from NIST MS Search
##NAMES=HP
##CAS NAME=Cyclohexane, 1-chloro-1-fluoro-
##MOLFORM=C6H10ClF
##CAS REGISTRY NO=371-89-1
##MP= -300
##BP= -300
##MW= 136
##$RETENTION INDEX=0
##$CONDENSED SPECTRUM=NO
##NPOINTS= 22
##XYDATA=(XY..XY) 1 
    39         80
    41        250
    53        100
    54        170
    55        230
    59        190
    67        150
    69         80
    72        619
    73        120
    79        210
    80        350
    81        999
    82        120
    85        420
    99        190
   100        669
   101        809
   116        100
   118         40
   136         20
   138          7