##TITLE=Library Entry 1530
##JCAMP-DX=Revision 4.10 
##DATA TYPE=MASS SPECTRUM
##SAMPLE DESCRIPTION=Exported from NIST MS Search
##NAMES=HP
##CAS NAME=Ethanol, 2-fluoro-
##MOLFORM=C2H5FO
##CAS REGISTRY NO=371-62-0
##MP= -300
##BP= -300
##MW= 64
##$RETENTION INDEX=494
##$CONDENSED SPECTRUM=NO
##NPOINTS= 35
##XYDATA=(XY..XY) 1 
    12          1
    13          4
    14         14
    15         65
    16          2
    17         22
    18        102
    19         11
    25          3
    26         13
    27         68
    28         25
    29         76
    30         12
    31        999
    32         19
    33         25
    34          1
    35          3
    36          1
    37          1
    38          4
    39          2
    40          1
    41          4
    42         17
    43         78
    44         24
    45         39
    46         21
    47         22
    48          3
    63         20
    64        142
    65          7