##TITLE=Library Entry 89494
##JCAMP-DX=Revision 4.10 
##DATA TYPE=MASS SPECTRUM
##SAMPLE DESCRIPTION=Chemical Concepts
##NAMES=HP
##CAS NAME=Phenol, 4-fluoro-
##MOLFORM=C6H5FO
##CAS REGISTRY NO=371-41-5
##MP= -300
##BP= -300
##MW= 112
##$RETENTION INDEX=955
##$CONDENSED SPECTRUM=NO
##NPOINTS= 73
##XYDATA=(XY..XY) 1 
    26         21
    27         21
    29         26
    30          1
    31         85
    33          6
    34          0
    36          5
    37         37
    38         50
    39         64
    40          4
    41          5
    42          4
    43          4
    44          2
    45          5
    46          4
    47          1
    48          3
    49         16
    50         43
    51         30
    52          4
    53         39
    54          0
    55         13
    56         86
    57        193
    58         43
    59          2
    60         10
    61         34
    62         37
    63         88
    64        154
    65         26
    66          7
    67          3
    68          8
    69         10
    70          9
    71          3
    72          1
    73         31
    74         15
    75         19
    76          1
    77          1
    78          1
    79          4
    80          5
    81         35
    82         26
    83        309
    84        228
    85         13
    86          8
    87          1
    90          3
    91          8
    92          5
    93          3
    94         13
    95          7
    96          2
    97          2
   108          1
   110          2
   111         22
   112        999
   113         63
   114          2