##TITLE=Library Entry 22162
##JCAMP-DX=Revision 4.10 
##DATA TYPE=MASS SPECTRUM
##SAMPLE DESCRIPTION=A.A.Kutin, Moscow, Russia
##NAMES=HP
##CAS NAME=Cyclohexylidenecyanoacetic acid
##MOLFORM=C9H11NO2
##CAS REGISTRY NO=37107-50-9
##MP= -300
##BP= -300
##MW= 165
##$RETENTION INDEX=0
##$CONDENSED SPECTRUM=NO
##NPOINTS= 121
##XYDATA=(XY..XY) 1 
    33          0
    34          0
    36          3
    37          7
    38         21
    39        133
    40         35
    41        141
    42         85
    43        254
    44         23
    45         40
    46          1
    47          0
    48          0
    49          1
    50         13
    51         34
    52         36
    53         50
    54         36
    55        133
    56        999
    57         40
    58          6
    60          8
    61          2
    62          4
    63         14
    64         22
    65         41
    66         39
    67         66
    68         47
    69         16
    70         75
    71          7
    73          5
    74          1
    75          3
    76          8
    77         37
    78         25
    79         48
    80         50
    81         49
    82         19
    83         28
    84          2
    85          2
    86          4
    87          5
    88          1
    89          5
    90          4
    91         42
    92         21
    93         85
    94         20
    95          4
    96          6
    97          3
    98         20
    99        131
   100         21
   101          1
   102          3
   103          5
   104         17
   105          7
   106         21
   107         11
   108         11
   109         41
   110          6
   111         42
   112          3
   113          0
   114          0
   115          0
   116          3
   117          3
   118         31
   119         57
   120         62
   121         86
   122         24
   123          5
   124          7
   125          1
   126          0
   127          0
   128          1
   129          0
   130          0
   132          7
   133          4
   134          0
   135          1
   136         24
   137         73
   138          7
   139          0
   140          0
   142          0
   143          0
   144          0
   146         17
   147         30
   148          8
   149          1
   150         11
   151          1
   152          0
   162          0
   163          0
   164          8
   165         81
   166          9
   167          1
   169          0