##TITLE=Library Entry 2626
##JCAMP-DX=Revision 4.10 
##DATA TYPE=MASS SPECTRUM
##SAMPLE DESCRIPTION=CONTINENTAL OIL CO., PONCA CITY, OKLA, USA
##NAMES=HP
##CAS NAME=1,7-Octadiene
##MOLFORM=C8H14
##CAS REGISTRY NO=3710-30-3
##MP= -300
##BP= -300
##MW= 110
##$RETENTION INDEX=765
##$CONDENSED SPECTRUM=NO
##NPOINTS= 68
##XYDATA=(XY..XY) 1 
    13          2
    14          8
    15         38
    16          0
    24          0
    25          2
    26         40
    27        319
    28         74
    29        159
    30          3
    36          0
    37         12
    38         34
    39        476
    40         75
    41        999
    42         66
    43         27
    44          1
    49          2
    50         20
    51         38
    52         18
    53        136
    54        600
    55        189
    56         41
    57          2
    61          1
    62          4
    63          9
    64          2
    65         24
    66         36
    67        525
    68        227
    69         97
    70          6
    71          0
    74          0
    75          1
    76          1
    77         17
    78          5
    79         35
    80         10
    81        192
    82        268
    83         18
    84          0
    89          0
    90          0
    91          8
    92          8
    93          8
    94         13
    95        103
    96         10
    97          1
    98          0
   103          0
   105          0
   107          0
   108          0
   109          4
   110          5
   111          0