##TITLE=Library Entry 20849
##JCAMP-DX=Revision 4.10 
##DATA TYPE=MASS SPECTRUM
##SAMPLE DESCRIPTION=Exported from NIST MS Search
##NAMES=HP
##CAS NAME=1,2-Heptanediol
##MOLFORM=C7H16O2
##CAS REGISTRY NO=3710-31-4
##MP= -300
##BP= -300
##MW= 132
##$RETENTION INDEX=1065
##$CONDENSED SPECTRUM=NO
##NPOINTS= 81
##XYDATA=(XY..XY) 1 
    14          1
    15         29
    16          1
    17          5
    18         25
    19         11
    26          5
    27         95
    28         28
    29        205
    30          9
    31        115
    32         11
    33          6
    38          3
    39         59
    40          9
    41        349
    42         43
    43        275
    44         64
    45         81
    46          3
    47          4
    50          2
    51          4
    52          1
    53         15
    54         10
    55        999
    56         73
    57        161
    58         18
    59         32
    60         24
    61        192
    62          5
    63          2
    65          2
    66          1
    67         19
    68          8
    69         95
    70         13
    71         22
    72          7
    73         16
    74          3
    75         10
    76          2
    77          2
    79          2
    81         22
    82         17
    83        999
    84         67
    85          9
    86         16
    87         34
    88          3
    89          5
    95          8
    96          5
    97         10
    98          1
    99          6
   100         37
   101        392
   102         27
   103          3
   114          1
   115          6
   116          1
   117          8
   118          1
   128          1
   129          1
   130          1
   131          2
   132          1
   133          1