##TITLE=Library Entry 81226
##JCAMP-DX=Revision 4.10 
##DATA TYPE=MASS SPECTRUM
##SAMPLE DESCRIPTION=Patti Price, Georgia Bureau of Investigation, Decatur,
 Georgia
##NAMES=HP
##CAS NAME=Bentiromide
##MOLFORM=C23H20N2O5
##CAS REGISTRY NO=37106-97-1
##MP= -300
##BP= -300
##MW= 404
##$RETENTION INDEX=0
##$CONDENSED SPECTRUM=NO
##NPOINTS= 71
##XYDATA=(XY..XY) 1 
    38          7
    39         30
    40          5
    41         17
    42         10
    43         18
    44         50
    50         13
    51         62
    52         17
    53         17
    55         13
    57          5
    63         13
    64         12
    65         59
    66          6
    67          4
    68          3
    73          5
    75          6
    76         20
    77        500
    78         45
    79         24
    80         10
    81         11
    82          6
    90         15
    91         44
    92         21
    93          8
    94         11
   103          5
   104         16
   105        999
   106         85
   107        267
   108         35
   118          6
   119         26
   120        208
   121         28
   122         73
   123          8
   133         11
   136         17
   137        117
   138         87
   139         10
   146         21
   147        804
   148         88
   161        148
   162         19
   174          3
   175         22
   176         38
   224          4
   239         26
   240         84
   241         14
   254          3
   280         12
   282        116
   283        497
   284         84
   285         13
   298         35
   299          5
   404         11