##TITLE=Library Entry 3255
##JCAMP-DX=Revision 4.10 
##DATA TYPE=MASS SPECTRUM
##SAMPLE DESCRIPTION=Exported from NIST MS Search
##NAMES=HP
##CAS NAME=1,6-Octadiene
##MOLFORM=C8H14
##CAS REGISTRY NO=3710-41-6
##MP= -300
##BP= -300
##MW= 110
##$RETENTION INDEX=0
##$CONDENSED SPECTRUM=NO
##NPOINTS= 83
##XYDATA=(XY..XY) 1 
    12          1
    13          1
    14          2
    15         22
    24          5
    25          1
    26         28
    27        351
    28         77
    29        343
    30          8
    31          1
    32          1
    35          1
    36          1
    37         10
    38         26
    39        442
    40         71
    41        999
    42         66
    43         27
    44         31
    45          1
    46          1
    47          1
    48          1
    49          3
    50         22
    51         44
    52         20
    53        187
    54        471
    55        539
    56         56
    57          2
    58          1
    59          2
    60          2
    61          2
    62          4
    63         10
    64          2
    65         25
    66         49
    67        388
    68        705
    69        241
    70         13
    71          1
    73          1
    74          2
    75          2
    76          1
    77         19
    78          4
    79         30
    80         15
    81        286
    82         88
    83          5
    84          1
    85          1
    86          1
    87          1
    88          1
    90          1
    91          7
    92          1
    93          5
    94          1
    95         69
    96          6
    97          1
   103          1
   104          1
   105          1
   106          1
   107          1
   108          1
   109          3
   110          7
   111          1