##TITLE=Library Entry 40719
##JCAMP-DX=Revision 4.10 
##DATA TYPE=MASS SPECTRUM
##SAMPLE DESCRIPTION=Chemical Concepts
##NAMES=HP
##CAS NAME=Propanoic acid, 2-(1-ethoxyethoxy)-, ethyl ester
##MOLFORM=C9H18O4
##CAS REGISTRY NO=37101-80-7
##MP= -300
##BP= -300
##MW= 190
##$RETENTION INDEX=1442
##$CONDENSED SPECTRUM=NO
##NPOINTS= 69
##XYDATA=(XY..XY) 1 
    26          8
    27         65
    28         36
    29        161
    30          3
    31          8
    39          1
    40          3
    41          5
    42          3
    43         83
    44         40
    45        699
    46         13
    47         12
    51          0
    53          0
    54          0
    55         43
    56         20
    57          4
    58          1
    59          2
    61          8
    63          0
    69          0
    71          7
    72         21
    73        999
    74         54
    75          8
    76          0
    77          0
    84          0
    87          9
    88          0
    89          9
    91          1
    99          1
   100          0
   101         50
   102        104
   103         11
   104          0
   105          0
   106          0
   115          3
   116          0
   117         70
   118          4
   119          2
   131          1
   134          2
   135          0
   144          0
   145        158
   146         20
   147          4
   148          0
   149          1
   160          0
   161          0
   173          0
   174          0
   175         15
   176          0
   177          0
   189          2
   190          0