##TITLE=Library Entry 44592
##JCAMP-DX=Revision 4.10 
##DATA TYPE=MASS SPECTRUM
##SAMPLE DESCRIPTION=James Little,Eastman Chem.Co.,Kingsport,TN
##NAMES=HP
##CAS NAME=Diethylhydroxylamine
##MOLFORM=C4H11NO
##CAS REGISTRY NO=3710-84-7
##MP= -300
##BP= -300
##MW= 89
##$RETENTION INDEX=0
##$CONDENSED SPECTRUM=NO
##NPOINTS= 25
##XYDATA=(XY..XY) 1 
    27        227
    29        383
    30         40
    31         19
    40         17
    41         55
    42        267
    43         25
    44         84
    46        829
    55          9
    56         61
    57          9
    58         16
    59         14
    60         60
    70         10
    72         11
    73          6
    74        999
    75         39
    87         18
    88         59
    89        337
    90         35