##TITLE=Library Entry 84491
##JCAMP-DX=Revision 4.10 
##DATA TYPE=MASS SPECTRUM
##SAMPLE DESCRIPTION=Chemical Concepts
##NAMES=HP
##CAS NAME=1-(4-Hydroxyphenyl)-2-(3-hydroxyphenyl)ethane
##MOLFORM=C14H14O2
##CAS REGISTRY NO=37116-80-6
##MP= -300
##BP= -300
##MW= 214
##$RETENTION INDEX=0
##$CONDENSED SPECTRUM=NO
##NPOINTS= 69
##XYDATA=(XY..XY) 1 
    35         16
    36         63
    38         21
    39         33
    41         18
    43         43
    51         11
    52         12
    53         36
    55         34
    56          9
    57         53
    58          4
    60          2
    63          7
    65         14
    66          3
    67          8
    69         26
    70          4
    71         21
    73          4
    77        163
    78         27
    79         25
    81         21
    82         10
    83         17
    84          7
    85         19
    89          5
    91         20
    92          2
    95          8
    96          3
    97         16
    98          5
   103          4
   105         11
   107        999
   108         88
   109         15
   110          3
   111          7
   113          6
   115         10
   119          6
   120          7
   121          2
   125          4
   127          5
   131          4
   133          3
   136          2
   152          6
   153          3
   165          9
   167          5
   169          4
   178          0
   179          2
   181          4
   191          1
   195          5
   197          5
   213          2
   214        181
   215         23
   216          2