##TITLE=Library Entry 71271
##JCAMP-DX=Revision 4.10 
##DATA TYPE=MASS SPECTRUM
##SAMPLE DESCRIPTION=Japan AIST/NIMC Database- Spectrum MS-IW-6992
##NAMES=HP
##CAS NAME=Levoglucosenone
##MOLFORM=C6H6O3
##CAS REGISTRY NO=37112-31-5
##MP= -300
##BP= -300
##MW= 126
##$RETENTION INDEX=1070
##$CONDENSED SPECTRUM=NO
##NPOINTS= 94
##XYDATA=(XY..XY) 1 
    12          2
    13          6
    14         22
    15         51
    16          2
    17          2
    18          7
    24          2
    25         15
    26        108
    27        251
    28        114
    29        322
    30         20
    31        113
    32          6
    36          8
    37         66
    38        128
    39        727
    40        199
    41        362
    42        409
    43        192
    44        111
    45          8
    46          1
    48          2
    49         17
    50         68
    51         96
    52        256
    53        688
    54         62
    55        125
    56         13
    57         18
    58          2
    59          1
    60          1
    61          3
    62          3
    63          3
    64          1
    65          3
    66          9
    67         16
    68        682
    69        200
    70        343
    71         32
    72          3
    73          1
    74          1
    75          1
    76          3
    77          5
    78          2
    79          9
    80         64
    81        258
    82         17
    83          4
    84          2
    85          4
    86          1
    87          1
    89          1
    91          2
    92          1
    93          1
    94          2
    95        136
    96        811
    97        501
    98        999
    99         56
   100          6
   101          1
   103          2
   104          2
   105          1
   107          6
   108          3
   109          8
   110          3
   111          1
   121          3
   122          4
   123          2
   124          1
   125          2
   126         37
   127          3