##TITLE=Library Entry 1482
##JCAMP-DX=Revision 4.10 
##DATA TYPE=MASS SPECTRUM
##SAMPLE DESCRIPTION=ATLAS OF MASS SPECTRA OF ORGANIC COMPOUNDS, V. A. KOPTY
UG, ED.
##NAMES=HP
##CAS NAME=Hydrazine, 1,2-bis(1-methylethyl)-
##MOLFORM=C6H16N2
##CAS REGISTRY NO=3711-34-0
##MP= -300
##BP= -300
##MW= 116
##$RETENTION INDEX=803
##$CONDENSED SPECTRUM=NO
##NPOINTS= 28
##XYDATA=(XY..XY) 1 
    27        175
    28         56
    29         46
    30        146
    31        999
    32        107
    39         73
    40         19
    41        252
    42        179
    43        764
    44        226
    45         13
    56         93
    57         35
    58        468
    59        444
    60         18
    72         12
    73        513
    74         38
    85         12
    99         11
   101        640
   102         48
   115         14
   116        640
   117         75