##TITLE=Library Entry 77934
##JCAMP-DX=Revision 4.10 
##DATA TYPE=MASS SPECTRUM
##SAMPLE DESCRIPTION=Institute of Organic Chemistry, Novosibirsk, USSR 1988
##NAMES=HP
##CAS NAME=4,4-Dimethyl-2-phenyl-5,6-dihydro-4H-1,3-oxazine
##MOLFORM=C12H15NO
##CAS REGISTRY NO=37139-43-8
##MP= -300
##BP= -300
##MW= 189
##$RETENTION INDEX=0
##$CONDENSED SPECTRUM=NO
##NPOINTS= 121
##XYDATA=(XY..XY) 1 
    12         18
    13          5
    14         69
    15         42
    16          2
    17        120
    18        283
    19          3
    25          9
    26         48
    27        135
    28        163
    29        122
    30        101
    31         23
    32         36
    36          2
    37          2
    38          5
    39         54
    40          7
    41        146
    42         45
    43        137
    44         81
    45         16
    46          6
    50         27
    51         65
    52          9
    53         14
    54         10
    55         84
    56         71
    57        106
    58         15
    59          6
    62          1
    63          3
    64          5
    65          8
    66          4
    67         30
    68         17
    69         57
    70         95
    71         57
    72          5
    73         18
    74          8
    75         13
    76         41
    77        270
    78         22
    79         10
    80          4
    81         23
    82         18
    83         38
    84         26
    85         35
    86          3
    87          9
    91         12
    92          4
    93         11
    94          8
    95         21
    96         16
    97         35
    98         13
    99         11
   101          3
   102          6
   103         54
   104         63
   105        999
   106         73
   107         10
   108          2
   109         15
   110         11
   111         19
   112         11
   113          8
   114          2
   115          4
   117          4
   119          5
   121          7
   122          4
   123         10
   124          5
   125         11
   126          5
   127          7
   128          2
   129          7
   131          2
   132          2
   133          4
   135          5
   136          4
   137          7
   138          3
   139          6
   140          3
   141          5
   143          2
   144          5
   145          4
   146          6
   147          3
   160          3
   161          9
   174         80
   175         11
   188         15
   189        187
   190         22
   191          1