##TITLE=Library Entry 53177
##JCAMP-DX=Revision 4.10 
##DATA TYPE=MASS SPECTRUM
##SAMPLE DESCRIPTION=V.G.Zaikin, TIPS RAS, Moscow, Russia
##NAMES=HP
##CAS NAME=Cyclohexanecarboxylic acid, 2-methylpropyl ester
##MOLFORM=C11H20O2
##CAS REGISTRY NO=37139-85-8
##MP= -300
##BP= -300
##MW= 184
##$RETENTION INDEX=0
##$CONDENSED SPECTRUM=NO
##NPOINTS= 65
##XYDATA=(XY..XY) 1 
    26          8
    27         75
    28         18
    29        159
    31          5
    36          4
    38          4
    39        130
    40         28
    41        465
    42         45
    43         82
    44         77
    45         10
    50          6
    51         19
    52          8
    53         59
    54         58
    55        551
    56        611
    57        368
    58         17
    60         19
    61         11
    65          7
    66          6
    67         94
    68         87
    69         48
    70          4
    71          4
    73        119
    74          4
    77         12
    79         19
    80          6
    81         87
    82         55
    83        999
    84         71
    85          6
    86         17
    87         14
    91          5
    93         29
    95          5
    97          4
    99         27
   100          6
   109          6
   110         58
   111        554
   112         41
   113         15
   127          6
   128        128
   129        767
   130         61
   131          6
   141          9
   142          1
   169          2
   183          2
   184          2