##TITLE=Library Entry 76987
##JCAMP-DX=Revision 4.10 
##DATA TYPE=MASS SPECTRUM
##SAMPLE DESCRIPTION=V.G.Zaikin, TIPS RAS, Moscow, Russia
##NAMES=HP
##CAS NAME=Cyclohexanecarboxylic acid, 2-phenylethyl ester
##MOLFORM=C15H20O2
##CAS REGISTRY NO=37139-88-1
##MP= -300
##BP= -300
##MW= 232
##$RETENTION INDEX=0
##$CONDENSED SPECTRUM=NO
##NPOINTS= 60
##XYDATA=(XY..XY) 1 
    26          3
    27         68
    28          7
    29         58
    39         81
    40          9
    41        199
    42         33
    43         75
    44         45
    45          5
    50         15
    51         37
    52         15
    53         39
    54         45
    55        378
    56         54
    57         39
    58          2
    60         31
    61          5
    63          8
    65         28
    66          5
    67         85
    68         44
    69         65
    70         26
    71         12
    73         57
    74          5
    77         52
    78         29
    79         49
    80          7
    81         49
    82         42
    83        441
    84         54
    85         17
    86          7
    87          9
    91         49
    92         11
    93          4
    95         15
    96         15
    97         41
    98         91
    99         18
   103         31
   104        999
   105        169
   106          9
   111         86
   112         21
   113          3
   128         31
   129         39