##TITLE=Library Entry 56675
##JCAMP-DX=Revision 4.10 
##DATA TYPE=MASS SPECTRUM
##SAMPLE DESCRIPTION=Drug Lab
##NAMES=HP
##CAS NAME=Clenbuterol
##MOLFORM=C12H18Cl2N2O
##CAS REGISTRY NO=37148-27-9
##MP= -300
##BP= -300
##MW= 276
##$RETENTION INDEX=0
##$CONDENSED SPECTRUM=NO
##NPOINTS= 139
##XYDATA=(XY..XY) 1 
    41        145
    42         49
    43         16
    44          5
    49          2
    50          4
    51         10
    52         15
    53          6
    54          8
    55         21
    56         47
    57        290
    58         29
    59          3
    60          2
    61          4
    62         14
    63         28
    64         11
    65         23
    66          5
    68          3
    69          2
    70         56
    71         49
    72         20
    73         16
    74          6
    75         16
    76          6
    77         12
    78          5
    82          3
    84          5
    86        999
    87         61
    88          7
    89         18
    90         63
    91         18
    92         21
    93         15
    96          3
    97          8
    98          5
    99         37
   100         13
   101         13
   102         11
   103          4
   104         11
   105          3
   106          3
   109          2
   111          5
   112          3
   113          3
   114          6
   115          3
   116          5
   117          9
   118          3
   119          2
   120          4
   123          6
   124         29
   125         16
   126         37
   127        292
   128         31
   129         91
   130         11
   131          9
   132         10
   133         12
   134          2
   135          5
   136          2
   137          2
   138         13
   139          5
   140         22
   141          5
   142          6
   150          3
   151         14
   152          7
   153         10
   154         33
   155         14
   156         11
   157          6
   158          2
   159          2
   160         15
   161         26
   162         33
   163         17
   164         18
   165         12
   166         30
   167          9
   168         13
   169          5
   170          2
   172          2
   174         38
   175          6
   176         27
   177          5
   178          8
   179          2
   185          2
   186         10
   187         45
   188         59
   189         49
   190        155
   191         35
   192         81
   193         17
   194         14
   195          3
   201          8
   202          6
   203          9
   204          4
   205          4
   207          3
   208          3
   243         76
   244         11
   245         50
   246          7
   247         10
   258          2
   276          3
   278          2