##TITLE=Library Entry 44212
##JCAMP-DX=Revision 4.10 
##DATA TYPE=MASS SPECTRUM
##SAMPLE DESCRIPTION=NIST Mass Spectrometry Data Center
##NAMES=HP
##CAS NAME=3,4-Dihydroxyphenylacetic Acid, 3TMS derivative
##MOLFORM=C17H32O4Si3
##CAS REGISTRY NO=37148-62-2
##MP= -300
##BP= -300
##MW= 384
##$RETENTION INDEX=1836
##$CONDENSED SPECTRUM=NO
##NPOINTS= 204
##XYDATA=(XY..XY) 1 
    15          1
    27          1
    29          4
    31          2
    39          1
    42          2
    43         24
    44         23
    45        183
    46         13
    47         21
    48          1
    49          1
    50          1
    51          3
    52          1
    53          2
    55          5
    56          1
    57          8
    58         12
    59         24
    60          4
    61         11
    62          1
    63          2
    64          1
    65          2
    66          1
    67          1
    69          2
    70          4
    71          7
    73        999
    74        132
    75        198
    76         15
    77         17
    78          6
    79          2
    81          1
    82          1
    83          5
    84          1
    85          3
    86          1
    87          3
    88          1
    89          8
    90          3
    91         14
    92          2
    93          2
    95          3
    96          1
    97          2
    98          1
    99          4
   101          2
   102          4
   103         17
   104         69
   105         21
   106          2
   107          2
   109          2
   111          1
   113          1
   115         11
   116          3
   117         14
   118          6
   119         24
   120          4
   121          5
   122          1
   123          2
   128          1
   129          2
   131         25
   132          5
   133         43
   134          6
   135         21
   136          3
   137          3
   141          1
   143          2
   144          1
   145          5
   147         73
   148         16
   149         79
   150         12
   151          7
   152          1
   153          2
   157          1
   159          3
   160          2
   161         14
   162          6
   163         36
   164          7
   165          6
   166          1
   167          1
   173          1
   174          1
   175          4
   176          3
   177         26
   179        734
   180        130
   181         42
   182          4
   183          1
   184          1
   189          2
   190          1
   191          9
   192          6
   193         41
   194          7
   195          8
   196          2
   197          1
   203          1
   204          1
   205          3
   206         13
   207         13
   208          4
   209         24
   210          5
   211          3
   217          1
   219          3
   220          1
   221          7
   222          3
   223         14
   224          4
   225         23
   226          5
   227          2
   233          2
   234          1
   235          6
   237        220
   238         50
   239         22
   240          3
   241          1
   249          3
   251         31
   252         13
   253         43
   254         10
   255          4
   256          1
   263          1
   265         69
   267        650
   268        187
   269         74
   270         12
   271          2
   279          1
   281         49
   282         12
   283          6
   284          1
   294         10
   295          4
   296          4
   297          1
   309          2
   310          1
   311          1
   312          1
   313          1
   324          1
   325          1
   340         55
   341         19
   342          9
   343          2
   353          1
   355          5
   356          2
   357          1
   367          1
   369        209
   370         70
   371         33
   372          7
   373          2
   384        869
   385        374
   386        180
   387         42
   388         10
   389          2