##TITLE=Library Entry 43307
##JCAMP-DX=Revision 4.10 
##DATA TYPE=MASS SPECTRUM
##SAMPLE DESCRIPTION=S. MARKEY UNIV. OF COLO. MED. CTR., DENVER, COLORADO, U
SA
##NAMES=HP
##CAS NAME=Homovanillic Acid, 2TMS derivative
##MOLFORM=C15H26O4Si2
##CAS REGISTRY NO=37148-61-1
##MP= -300
##BP= -300
##MW= 326
##$RETENTION INDEX=1785
##$CONDENSED SPECTRUM=NO
##NPOINTS= 90
##XYDATA=(XY..XY) 1 
    17        149
    20         64
    27          7
    29          9
    38         12
    39         23
    40         67
    41         76
    43         33
    44         42
    45        141
    46          7
    47         29
    51         10
    55          9
    57         16
    58         23
    59         66
    61         15
    65          6
    69          6
    72          9
    73        999
    74         84
    75        179
    76         16
    77         37
    78          5
    79          4
    89         27
    91         17
    93         21
    95          9
   100          6
   103          6
   104         25
   105         18
   106          5
   107          4
   117         16
   119          7
   133         13
   135         17
   140         17
   147         31
   148         19
   149         50
   150         15
   161          6
   162         23
   163         54
   164         18
   165          7
   166          4
   177         12
   178         25
   179        216
   180         35
   181         11
   192          6
   193         21
   194         11
   206         48
   207         32
   208          7
   209        338
   210         62
   211         16
   221         12
   223          3
   236          7
   237         36
   238         10
   252         41
   253         12
   267        191
   268         50
   269         12
   282         27
   283         10
   296         90
   297         21
   298         11
   311        226
   312         49
   313         19
   325          8
   326        329
   327         78
   328         33