##TITLE=Library Entry 15093
##JCAMP-DX=Revision 4.10 
##DATA TYPE=MASS SPECTRUM
##SAMPLE DESCRIPTION=Chuck Anderson, Aldrich Chemical Co.
##NAMES=HP
##CAS NAME=2-Propanamine, 1-methoxy-
##MOLFORM=C4H11NO
##CAS REGISTRY NO=37143-54-7
##MP= -300
##BP= -300
##MW= 89
##$RETENTION INDEX=931
##$CONDENSED SPECTRUM=NO
##NPOINTS= 43
##XYDATA=(XY..XY) 1 
    14          2
    15         40
    16          1
    17          2
    18        134
    19          0
    25          0
    26          5
    27         29
    28         64
    29         51
    30         39
    31          8
    32          0
    33          2
    37          9
    38          3
    39         16
    40          9
    41         50
    42        100
    43         41
    44        999
    45         65
    46          1
    47          0
    52          0
    53          0
    54          1
    55          1
    56         21
    57          6
    58         13
    59          4
    70          0
    71          5
    72          2
    73          2
    74         15
    75          0
    88          1
    89          3
    90          4