##TITLE=Library Entry 4204
##JCAMP-DX=Revision 4.10 
##DATA TYPE=MASS SPECTRUM
##SAMPLE DESCRIPTION=Div. of Experiment Therapeutics WRAIR, WRAMC, Washingto
n DC 20307
##NAMES=HP
##CAS NAME=1-Propanesulfonic acid, 3-chloro-, 3,5-dichloro-2,6-dimethyl-4-py
ridyl ester
##MOLFORM=C10H12Cl3NO3S
##CAS REGISTRY NO=37169-07-6
##MP= -300
##BP= -300
##MW= 331
##$RETENTION INDEX=0
##$CONDENSED SPECTRUM=NO
##NPOINTS= 148
##XYDATA=(XY..XY) 1 
    41        999
    42        139
    43         27
    44          3
    45         25
    47         16
    48         22
    49         86
    50         35
    51         88
    52         24
    53         29
    54         23
    55         20
    57         15
    58          8
    59         25
    61         26
    62         13
    63         31
    64         22
    65         67
    66         17
    67         22
    69          3
    71          3
    72          6
    73         28
    74          3
    75         45
    76        280
    77         74
    78         80
    79         32
    80          5
    81         28
    82          5
    83         43
    84          2
    85         29
    86         23
    87         23
    88          8
    89          9
    90          7
    91          7
    92         22
    93         16
    94          2
    96         32
    97          5
    98          3
    99          6
   100          5
   101         24
   102          4
   103          9
   104          1
   106          1
   107          2
   109          5
   110          0
   111          2
   112          4
   113          4
   114          6
   115          8
   116          3
   117          1
   118          8
   120         14
   121         12
   123         73
   124          2
   125          7
   126          5
   127         10
   128         26
   129         10
   130         11
   131          3
   132          1
   135          1
   137          1
   138          2
   140          2
   141         58
   142          3
   143         20
   145          1
   148          0
   149          2
   150          3
   151          1
   152          2
   154          5
   155          6
   156         91
   157          4
   158         31
   159        173
   161         70
   162         12
   163          6
   164          6
   165          2
   166          1
   173          8
   174          5
   175          4
   176          5
   178          3
   190         19
   191        567
   192        522
   193        485
   194        371
   195         95
   196         69
   197          5
   199          1
   204          0
   206          1
   215          3
   217          2
   228          1
   230          3
   232         56
   233          7
   234         39
   235          4
   236          6
   240          3
   242          5
   244          2
   254          1
   256          2
   258          1
   264          1
   266          3
   268          4
   270          2
   314          1
   316          1
   317          1
   330          1
   331          2
   332          0