##TITLE=Library Entry 78741
##JCAMP-DX=Revision 4.10 
##DATA TYPE=MASS SPECTRUM
##SAMPLE DESCRIPTION=Div. of Experiment Therapeutics WRAIR, WRAMC, Washingto
n DC 20307
##NAMES=HP
##CAS NAME=Benzoic acid 3,5-dichloro-2,6-dimethyl-4-pyridyl ester
##MOLFORM=C14H11Cl2NO2
##CAS REGISTRY NO=37169-06-5
##MP= -300
##BP= -300
##MW= 295
##$RETENTION INDEX=0
##$CONDENSED SPECTRUM=NO
##NPOINTS= 81
##XYDATA=(XY..XY) 1 
    41          5
    42         33
    43          4
    44          0
    47          6
    48          1
    49         17
    50         31
    51        128
    52         12
    53          4
    54          3
    55          2
    57          1
    61          4
    62          4
    63          8
    64          2
    65          4
    66          2
    67          7
    69          0
    71          0
    72          1
    73          8
    74          7
    75         10
    76         24
    77        392
    78         23
    79          2
    80          2
    81          1
    83          1
    84          8
    85         12
    86         12
    87          6
    88          6
    89          1
    90          3
    91          1
    92          2
    97          2
    99          4
   100          1
   101          2
   102          1
   105        999
   106         69
   107          4
   109          1
   111          1
   115          1
   120          1
   121          7
   123          6
   125          2
   126          2
   127          4
   128          1
   129          0
   133          1
   135          1
   139          2
   149          2
   155          0
   161          1
   162          4
   163          0
   164          2
   193          0
   221          0
   260          7
   261          0
   262          3
   294          0
   295         23
   296          4
   297         16
   299          2