##TITLE=Library Entry 67385
##JCAMP-DX=Revision 4.10 
##DATA TYPE=MASS SPECTRUM
##SAMPLE DESCRIPTION=NIST Mass Spectrometry Data Center
##NAMES=HP
##CAS NAME=2-Penten-1-ol, 2-methyl-5-(2-methyl-3-methylenebicyclo[2.2.1]hept
-2-yl)-, [1S-[1.alpha.,2.alpha.(E),4.alpha.]]-
##MOLFORM=C15H24O
##CAS REGISTRY NO=37172-32-0
##MP= -300
##BP= -300
##MW= 220
##$RETENTION INDEX=1741
##$CONDENSED SPECTRUM=NO
##NPOINTS= 104
##XYDATA=(XY..XY) 1 
    27         14
    29         28
    30          1
    31         10
    38          1
    39         56
    40         10
    41        111
    42          8
    43        122
    44          6
    45          6
    50          3
    51         14
    52          7
    53         43
    54          5
    55         73
    56          6
    57         21
    58          2
    62          1
    63          7
    64          3
    65         51
    66         19
    67         93
    68         10
    69         34
    70          9
    71          7
    77        136
    78         27
    79        253
    80         29
    81         64
    82          6
    83         10
    84         11
    89          2
    91        154
    92         28
    93        244
    94        999
    95        101
    96          7
    97          8
    98          6
   102          2
   103          9
   104          3
   105         63
   106         32
   107         72
   108         13
   109         14
   110          3
   115          7
   116          3
   117         15
   118          6
   119         45
   120         17
   121        100
   122        408
   123         52
   124          3
   125          2
   129          3
   130          3
   131         15
   133         38
   134         37
   135         24
   136          4
   137          3
   138          1
   139          2
   145         11
   146          5
   147         22
   148          4
   149          3
   150          2
   151          3
   152          7
   153          2
   156          1
   159         13
   160          3
   161         22
   162          3
   173          6
   174          5
   175          1
   177          2
   187          7
   188          4
   189         54
   190          7
   192          1
   202          8
   203          2
   220          1