##TITLE=Library Entry 31940
##JCAMP-DX=Revision 4.10 
##DATA TYPE=MASS SPECTRUM
##SAMPLE DESCRIPTION=V.A.Korolev, Moscow, Russia
##NAMES=HP
##CAS NAME=Benzaldehyde, 3-nitro-, oxime, (Z)-
##MOLFORM=C7H6N2O3
##CAS REGISTRY NO=3717-30-4
##MP= -300
##BP= -300
##MW= 166
##$RETENTION INDEX=0
##$CONDENSED SPECTRUM=NO
##NPOINTS= 52
##XYDATA=(XY..XY) 1 
    30         57
    37         44
    38        110
    39        687
    40        318
    41         25
    42         13
    43         19
    44        282
    46         47
    49         15
    50        640
    51        305
    52         89
    53        118
    55         11
    61         12
    62        101
    63        324
    64        163
    65        999
    66         65
    73         10
    74        189
    75        544
    76        649
    77        177
    78         10
    81         79
    89         65
    90         47
    91        232
    92        106
    93         47
   102        245
   103        336
   104         37
   109         69
   118         33
   119        505
   120        128
   122         10
   131          5
   139        158
   140         15
   148         40
   149        383
   150         36
   165          8
   166        878
   167         76
   168          8