##TITLE=Library Entry 35185
##JCAMP-DX=Revision 4.10 
##DATA TYPE=MASS SPECTRUM
##SAMPLE DESCRIPTION=Dennis Rohrbaugh, CBDCOM/ERDEC, Edgewood, MD
##NAMES=HP
##CAS NAME=Bis(trifluoromethyl)tetrasulfane
##MOLFORM=C2F6S4
##CAS REGISTRY NO=372-07-6
##MP= -300
##BP= -300
##MW= 266
##$RETENTION INDEX=0
##$CONDENSED SPECTRUM=NO
##NPOINTS= 24
##XYDATA=(XY..XY) 1 
    50         22
    51         23
    64        876
    66         80
    68          2
    69        999
    70         11
    82         82
    83         41
    85          3
    96         66
    98          5
   101         98
   114          6
   133        260
   134          4
   135         29
   165        299
   167         50
   197         43
   199          3
   266        205
   267          8
   268         35