##TITLE=Library Entry 32401
##JCAMP-DX=Revision 4.10 
##DATA TYPE=MASS SPECTRUM
##SAMPLE DESCRIPTION=Exported from NIST MS Search
##NAMES=HP
##CAS NAME=Cyclohexane, fluoro-
##MOLFORM=C6H11F
##CAS REGISTRY NO=372-46-3
##MP= -300
##BP= -300
##MW= 102
##$RETENTION INDEX=735
##$CONDENSED SPECTRUM=NO
##NPOINTS= 79
##XYDATA=(XY..XY) 1 
    14          1
    15         10
    16          1
    19          1
    20         22
    24          1
    25          1
    26         28
    27        188
    28        115
    29         68
    30          4
    31          6
    32          4
    33         36
    34          1
    35          1
    36          3
    37          8
    38         21
    39        215
    40         43
    41        524
    42        142
    43         88
    44          5
    45         11
    46         62
    47         31
    48          2
    49          4
    50         25
    51         48
    52         17
    53         80
    54        388
    55        194
    56        259
    57         28
    58          4
    59        202
    60         41
    61         13
    62          3
    63          6
    64          1
    65         13
    66         15
    67        999
    68         57
    69         37
    70          5
    71          4
    72         17
    73         48
    74         51
    75          4
    76          1
    77         16
    78          6
    79         22
    80          5
    81         85
    82        266
    83         21
    84          2
    85          5
    86          1
    87          4
    88          1
    95          1
    96          1
    97          2
    98          1
    99          1
   100          1
   101          3
   102         24
   103          2