##TITLE=Library Entry 88274
##JCAMP-DX=Revision 4.10 
##DATA TYPE=MASS SPECTRUM
##SAMPLE DESCRIPTION=Japan AIST/NIMC Database- Spectrum MS-NW-1008
##NAMES=HP
##CAS NAME=Benzenamine, 3-fluoro-
##MOLFORM=C6H6FN
##CAS REGISTRY NO=372-19-0
##MP= -300
##BP= -300
##MW= 111
##$RETENTION INDEX=993
##$CONDENSED SPECTRUM=NO
##NPOINTS= 74
##XYDATA=(XY..XY) 1 
    15          1
    25          1
    26          5
    27          8
    28         25
    29          3
    30          1
    31         21
    32          2
    33          7
    36          3
    37         20
    38         32
    39         48
    40         12
    41         43
    42          7
    43          6
    44          6
    45         11
    46          3
    48          4
    49          5
    50         19
    51         18
    52         39
    53          6
    54          9
    55         24
    56         12
    57         86
    58         12
    59          4
    60          3
    61         17
    62         23
    63         56
    64         99
    65         41
    66          7
    67          5
    68          7
    69          7
    70         11
    71          6
    72         16
    73          3
    74          7
    75         16
    76          5
    77          1
    78          5
    80          7
    81         17
    82         17
    83        205
    84        319
    85         35
    86          2
    88          2
    89          4
    90         14
    91         51
    92          9
    93          2
    94         12
    95          8
    96          8
   108          2
   109          8
   110         58
   111        999
   112         66
   113          2