##TITLE=Library Entry 90872
##JCAMP-DX=Revision 4.10 
##DATA TYPE=MASS SPECTRUM
##SAMPLE DESCRIPTION=Japan AIST/NIMC Database- Spectrum MS-NW-5902
##NAMES=HP
##CAS NAME=Benzene, 1,3-difluoro-
##MOLFORM=C6H4F2
##CAS REGISTRY NO=372-18-9
##MP= -300
##BP= -300
##MW= 114
##$RETENTION INDEX=643
##$CONDENSED SPECTRUM=NO
##NPOINTS= 68
##XYDATA=(XY..XY) 1 
    15          1
    20          1
    25          1
    26          4
    27          4
    28          2
    29          4
    31         33
    32          2
    33          1
    36          4
    37         24
    38         25
    39         20
    40          1
    42          1
    43         12
    44          5
    45         10
    46          2
    47          3
    48          2
    49          9
    50         77
    51         13
    52          1
    55          2
    56         10
    57         82
    58          3
    59          3
    60          3
    61         21
    62         25
    63        207
    64         31
    65          1
    67          1
    68         37
    69         23
    70         33
    71          2
    72          1
    73          7
    74         23
    75         44
    76          4
    79          2
    80          3
    81         34
    82          3
    83          9
    86          2
    87          7
    88        128
    89          7
    92          8
    93         14
    94         39
    95         25
    96          2
    99          1
   111          2
   112          6
   113         30
   114        999
   115         66
   116          2