##TITLE=Library Entry 70066
##JCAMP-DX=Revision 4.10 
##DATA TYPE=MASS SPECTRUM
##SAMPLE DESCRIPTION=NIST Mass Spectrometry Data Center, 1990.
##NAMES=HP
##CAS NAME=Pyridine, 3-fluoro-
##MOLFORM=C5H4FN
##CAS REGISTRY NO=372-47-4
##MP= -300
##BP= -300
##MW= 97
##$RETENTION INDEX=0
##$CONDENSED SPECTRUM=NO
##NPOINTS= 55
##XYDATA=(XY..XY) 1 
    12          3
    13          3
    16          1
    17          2
    18          4
    19          3
    24          2
    25         12
    26         32
    27         14
    28         31
    31         48
    32          4
    33          4
    35          1
    36         11
    37         44
    38         61
    39        123
    40         11
    41          1
    43          3
    44         66
    45          9
    46         18
    48         11
    49         51
    50        159
    51        120
    52         41
    53          6
    55          2
    56         10
    57         54
    58          3
    62          4
    63          5
    64          8
    65          1
    68         57
    69        123
    70        648
    71         96
    72          4
    74          4
    75         24
    76         83
    77         61
    78         25
    93          3
    94          3
    96        129
    97        999
    98         59
    99          2