##TITLE=Library Entry 36683
##JCAMP-DX=Revision 4.10 
##DATA TYPE=MASS SPECTRUM
##SAMPLE DESCRIPTION=E.I. DUPONT DE NEMOURS & CO., WILMINGTON, DELAWARE
##NAMES=HP
##CAS NAME=Disulfide, bis(trifluoromethyl)
##MOLFORM=C2F6S2
##CAS REGISTRY NO=372-64-5
##MP= -300
##BP= -300
##MW= 202
##$RETENTION INDEX=0
##$CONDENSED SPECTRUM=NO
##NPOINTS= 43
##XYDATA=(XY..XY) 1 
    19          3
    31         57
    32         87
    34          3
    44          9
    45          0
    46          0
    50         28
    51         16
    53          0
    63         54
    64        197
    65          5
    66         22
    68          0
    69        999
    70         10
    76         13
    77          0
    78          1
    82         44
    83          3
    84          2
    95         39
    96          1
    97          3
   101         36
   102          0
   103          2
   114        151
   115          4
   116         13
   133        178
   134          4
   135         15
   183        106
   184          4
   185          9
   202        396
   203          9
   204         35
   205          0
   206          0