##TITLE=Library Entry 89512
##JCAMP-DX=Revision 4.10 
##DATA TYPE=MASS SPECTRUM
##SAMPLE DESCRIPTION=Japan AIST/NIMC Database- Spectrum MS-IW-2227
##NAMES=HP
##CAS NAME=Phenol, 3-fluoro-
##MOLFORM=C6H5FO
##CAS REGISTRY NO=372-20-3
##MP= -300
##BP= -300
##MW= 112
##$RETENTION INDEX=0
##$CONDENSED SPECTRUM=NO
##NPOINTS= 69
##XYDATA=(XY..XY) 1 
    25          1
    26          3
    27          7
    28          7
    29          8
    31         22
    32          5
    33          3
    36          2
    37         14
    38         27
    39         38
    40          3
    41          4
    42          5
    43          2
    44          4
    45          7
    46          2
    48          1
    49          6
    50         19
    51         14
    52          1
    53         20
    54          1
    55          8
    56         42
    57        112
    58         26
    59          1
    60          3
    61         15
    62         20
    63         76
    64        122
    65         16
    66          7
    67          1
    68          9
    69          9
    70          6
    71          4
    72          3
    73         48
    74         10
    75         14
    76          1
    77          1
    79          2
    80          3
    81         25
    82         16
    83        234
    84        235
    85         12
    86          9
    87          1
    91          1
    92          9
    93          3
    94         12
    95          8
    97          5
   110          3
   111         15
   112        999
   113         67
   114          4