##TITLE=Library Entry 33954
##JCAMP-DX=Revision 4.10 
##DATA TYPE=MASS SPECTRUM
##SAMPLE DESCRIPTION=Japan AIST/NIMC Database- Spectrum MS-NW-2715
##NAMES=HP
##CAS NAME=Butanoic acid, 4,4,4-trifluoro-3-oxo-, ethyl ester
##MOLFORM=C6H7F3O3
##CAS REGISTRY NO=372-31-6
##MP= -300
##BP= -300
##MW= 184
##$RETENTION INDEX=0
##$CONDENSED SPECTRUM=NO
##NPOINTS= 104
##XYDATA=(XY..XY) 1 
    12          5
    13         14
    14         27
    15         66
    16          3
    18          1
    19         11
    20          4
    24          3
    25          9
    26         40
    27        231
    28         57
    29        705
    30         16
    31        243
    32          9
    33         15
    36          1
    37          2
    39          3
    40          9
    41        122
    42        143
    43        249
    44         56
    45        295
    46         44
    47          8
    49          1
    50         17
    51         16
    52          2
    53          9
    55          4
    56          3
    57          3
    58          1
    59          7
    60          9
    61          7
    62          2
    63         17
    64         12
    67          3
    68          7
    69        999
    70         26
    71         11
    72          1
    73          9
    74          3
    75         10
    76          1
    77          1
    78          5
    79          1
    82          6
    83         29
    84          1
    86          5
    87        375
    88         12
    89         53
    90          2
    91         42
    92          9
    93          3
    94          2
    95          1
    97         50
    98          1
    99          2
   107          7
   109          2
   110          1
   111         14
   112         12
   113          1
   115        548
   116         29
   117          5
   119         24
   120          9
   121          1
   122          4
   123          1
   137          9
   138         24
   139        643
   140         28
   141          4
   153          1
   156         30
   157         36
   158          1
   163          8
   164          1
   165          1
   169          4
   181          3
   184         71
   185          6
   186          1