##TITLE=Library Entry 45020
##JCAMP-DX=Revision 4.10 
##DATA TYPE=MASS SPECTRUM
##SAMPLE DESCRIPTION=RADIAN CORP
##NAMES=HP
##CAS NAME=Hexanoyl fluoride
##MOLFORM=C6H11FO
##CAS REGISTRY NO=372-80-5
##MP= -300
##BP= -300
##MW= 118
##$RETENTION INDEX=0
##$CONDENSED SPECTRUM=NO
##NPOINTS= 67
##XYDATA=(XY..XY) 1 
    15         20
    26         45
    27        303
    29        181
    30          4
    31          4
    33         46
    37         15
    38         45
    39        448
    40         64
    41        867
    42        296
    43        379
    44         20
    45         25
    46         15
    47        317
    48          9
    49         13
    50         30
    51         51
    52         15
    53         80
    54         44
    55        413
    56        328
    57        813
    58         44
    59         71
    60         33
    61        187
    62        737
    63        144
    64          6
    65         11
    66          3
    67         17
    68         14
    69        197
    70        152
    71         28
    72         12
    73         30
    74          8
    75        999
    76         86
    77         10
    79          7
    80         73
    81         11
    83         68
    84          4
    85        132
    86          8
    87          4
    88          9
    89        485
    90        461
    91         24
    97         22
    98         19
    99         28
   100         88
   101          7
   103          5
   118          3