##TITLE=Library Entry 35088
##JCAMP-DX=Revision 4.10 
##DATA TYPE=MASS SPECTRUM
##SAMPLE DESCRIPTION=Japan AIST/NIMC Database- Spectrum MS-NW- 373
##NAMES=HP
##CAS NAME=L-Ornithine, N5-(aminocarbonyl)-
##MOLFORM=C6H13N3O3
##CAS REGISTRY NO=372-75-8
##MP= -300
##BP= -300
##MW= 175
##$RETENTION INDEX=0
##$CONDENSED SPECTRUM=NO
##NPOINTS= 76
##XYDATA=(XY..XY) 1 
    12          4
    15         23
    16        105
    17        149
    18        157
    26         19
    27         68
    28        269
    29         78
    30        447
    31         19
    37          5
    38         10
    39         71
    40         22
    41        142
    42        142
    43        537
    44        347
    45         22
    46          4
    51          9
    52         13
    53         17
    54         48
    55         38
    56        623
    57        136
    58        290
    59         14
    60         11
    61          6
    66          6
    67         11
    68         85
    69        999
    70        282
    71         17
    73          6
    74          8
    75         16
    80          5
    81          5
    82         24
    83         18
    84          9
    85         67
    86         57
    87         14
    95          6
    96          9
    97         70
    98         16
    99         10
   100         10
   101         20
   103          6
   109          9
   110          9
   111         48
   112         25
   113         31
   114         95
   115         12
   129          5
   136          4
   137          6
   138         18
   139         43
   140         39
   141          6
   147          4
   157          7
   174          4
   175         10
   176          8