##TITLE=Library Entry 2571
##JCAMP-DX=Revision 4.10 
##DATA TYPE=MASS SPECTRUM
##SAMPLE DESCRIPTION=NIST Mass Spectrometry Data Center, 1992
##NAMES=HP
##CAS NAME=Acetic acid, cyano-
##MOLFORM=C3H3NO2
##CAS REGISTRY NO=372-09-8
##MP= -300
##BP= -300
##MW= 85
##$RETENTION INDEX=0
##$CONDENSED SPECTRUM=NO
##NPOINTS= 32
##XYDATA=(XY..XY) 1 
    12         58
    13         24
    14         26
    15         15
    16         55
    17         16
    18         18
    24         10
    25         22
    26         49
    28         13
    29         25
    36         11
    38        171
    39        195
    40        531
    41        999
    42         55
    43         11
    44        834
    45        442
    46          9
    51          8
    52          7
    53          8
    67         23
    68        121
    69          7
    74          0
    77         10
    79          6
    85         55