##TITLE=Library Entry 20399
##JCAMP-DX=Revision 4.10 
##DATA TYPE=MASS SPECTRUM
##SAMPLE DESCRIPTION=Japan AIST/NIMC Database- Spectrum MS-NW-2967
##NAMES=HP
##CAS NAME=Cyclobutylcarboxylic acid
##MOLFORM=C5H8O2
##CAS REGISTRY NO=3721-95-7
##MP= -300
##BP= -300
##MW= 100
##$RETENTION INDEX=977
##$CONDENSED SPECTRUM=NO
##NPOINTS= 64
##XYDATA=(XY..XY) 1 
    12          2
    13          2
    14          6
    15         13
    16          1
    17          3
    18         10
    19          1
    24          1
    25          8
    26        148
    27        493
    28        472
    29        318
    30          9
    31         15
    32          5
    36          3
    37         13
    38         19
    39        203
    40         20
    41        173
    42         17
    43        168
    44        142
    45        148
    46          9
    47          2
    48          1
    49          8
    50         32
    51         34
    52         12
    53        116
    54        227
    55        999
    56        215
    57         71
    58        154
    59          6
    60         24
    61          1
    67          2
    68          1
    69          6
    70          2
    71         38
    72        224
    73        501
    74         18
    75          3
    81         23
    82        182
    83         38
    84          2
    85         53
    86          3
    97          1
    98          1
    99        109
   100        183
   101         10
   102          1