##TITLE=Library Entry 58424
##JCAMP-DX=Revision 4.10 
##DATA TYPE=MASS SPECTRUM
##SAMPLE DESCRIPTION=V.G.Zaikin, Petrochem. Synth. Inst., Moscow
##NAMES=HP
##CAS NAME=Butyric acid, dodecyl ester
##MOLFORM=C16H32O2
##CAS REGISTRY NO=3724-61-6
##MP= -300
##BP= -300
##MW= 256
##$RETENTION INDEX=1780
##$CONDENSED SPECTRUM=NO
##NPOINTS= 67
##XYDATA=(XY..XY) 1 
    25          3
    26          9
    27        115
    28         42
    29        165
    30          5
    31          5
    36          7
    38          7
    39         75
    40         18
    41        398
    42        161
    43        889
    44         34
    45         14
    53         27
    54         65
    55        415
    56        335
    57        439
    58         45
    60         61
    61         17
    66         12
    67         65
    68        122
    69        369
    70        355
    71        978
    72         58
    73         33
    79          7
    81         33
    82        139
    83        361
    84        249
    85        108
    86         39
    87         27
    88         91
    89        999
    90         49
    95         16
    96         55
    97        275
    98        154
    99         45
   101         18
   109          7
   110         27
   111        137
   112         75
   113         16
   115         12
   124          9
   125         59
   126         57
   127          7
   139         24
   140        109
   141         13
   144         39
   145          3
   168        139
   169         17
   213         15