##TITLE=Library Entry 2154
##JCAMP-DX=Revision 4.10 
##DATA TYPE=MASS SPECTRUM
##SAMPLE DESCRIPTION=Chemical Concepts
##NAMES=HP
##CAS NAME=Methyl 3-butenoate
##MOLFORM=C5H8O2
##CAS REGISTRY NO=3724-55-8
##MP= -300
##BP= -300
##MW= 100
##$RETENTION INDEX=702
##$CONDENSED SPECTRUM=NO
##NPOINTS= 50
##XYDATA=(XY..XY) 1 
    25          8
    26         42
    27         74
    28         32
    29         87
    30         15
    31         22
    32          2
    33          2
    35          1
    36          5
    37         54
    38        104
    39        648
    40         83
    41        999
    42         91
    43         40
    44          5
    45         18
    46          0
    47          0
    49          1
    50          4
    51          2
    52          1
    53          7
    54          4
    55         36
    56         37
    57          8
    58         94
    59        452
    60          9
    61          1
    63          0
    66          0
    67          1
    68         15
    69        153
    70          7
    71          8
    72        116
    73          4
    74          6
    85          2
    98          0
    99         13
   100        174
   101          8