##TITLE=Library Entry 51048
##JCAMP-DX=Revision 4.10 
##DATA TYPE=MASS SPECTRUM
##SAMPLE DESCRIPTION=Exported from NIST MS Search
##NAMES=HP
##CAS NAME=1H-3a,7-Methanoazulene, octahydro-1,4,9,9-tetramethyl-, (1.alpha.
,3a.alpha.,4.beta.,7.alpha.,8a.beta.)-
##MOLFORM=C15H26
##CAS REGISTRY NO=3724-42-3
##MP= -300
##BP= -300
##MW= 206
##$RETENTION INDEX=1552
##$CONDENSED SPECTRUM=NO
##NPOINTS= 118
##XYDATA=(XY..XY) 1 
    25          8
    27        232
    28         60
    29        300
    30          8
    31         60
    38          8
    39        264
    40         50
    41        813
    42        150
    43        288
    44         30
    45         30
    50         12
    51         60
    52         34
    53        220
    54         40
    55        499
    56        140
    57        160
    58         12
    59         40
    63         20
    64          6
    65        108
    66         40
    67        352
    68         80
    69        410
    70         26
    71         16
    74         28
    75         10
    77        250
    78         60
    79        360
    80         80
    81        629
    82        999
    83        172
    84         28
    85         10
    86         24
    89         14
    91        332
    92         54
    93        420
    94        160
    95        639
    96        160
    97         60
    98         14
   102          4
   103         32
   104         14
   105        168
   106         40
   107        693
   108        204
   109        484
   110        196
   111         36
   112         10
   115         40
   116         16
   117         40
   118         14
   119         80
   120         48
   121        372
   122        619
   123        368
   124        100
   125         34
   128         20
   129         20
   130          6
   131         20
   132         12
   133         56
   134         20
   135        334
   136        100
   137         44
   138         16
   145         16
   146          4
   147         44
   148         16
   149        174
   150        240
   151         54
   152         12
   159         20
   160          6
   161         40
   162         40
   163        691
   164        120
   165         20
   175         20
   176          4
   177         70
   178         20
   189         50
   190          8
   191        420
   192         60
   193         12
   202         14
   203          8
   204         50
   205         20
   206        679
   207        108
   208         16