##TITLE=Library Entry 71279
##JCAMP-DX=Revision 4.10 
##DATA TYPE=MASS SPECTRUM
##SAMPLE DESCRIPTION=Exported from NIST MS Search
##NAMES=HP
##CAS NAME=1H-Imidazole-2-methanol
##MOLFORM=C4H6N2O
##CAS REGISTRY NO=3724-26-3
##MP= -300
##BP= -300
##MW= 98
##$RETENTION INDEX=0
##$CONDENSED SPECTRUM=NO
##NPOINTS= 21
##XYDATA=(XY..XY) 1 
    40        120
    41        320
    42        200
    43        130
    44        140
    53        170
    54         80
    55        130
    57        130
    67        130
    68        100
    69        260
    70        100
    71         60
    80         70
    81        210
    95         80
    96         50
    97        780
    98        999
    99         90