##TITLE=Library Entry 65339
##JCAMP-DX=Revision 4.10 
##DATA TYPE=MASS SPECTRUM
##SAMPLE DESCRIPTION=LAC, NIDDK, NIH, Bethesda, MD 20892
##NAMES=HP
##CAS NAME=3-Pyridinepropionic acid
##MOLFORM=C8H9NO2
##CAS REGISTRY NO=3724-19-4
##MP= -300
##BP= -300
##MW= 151
##$RETENTION INDEX=0
##$CONDENSED SPECTRUM=NO
##NPOINTS= 97
##XYDATA=(XY..XY) 1 
    41         23
    42        100
    43         43
    44          1
    45        224
    46          0
    47         25
    48          3
    49         60
    50        273
    51        583
    52        308
    53        212
    54         41
    55         67
    56         15
    57         16
    58          2
    59          3
    60          6
    61         15
    62         39
    63        134
    64         62
    65        590
    66         48
    67         35
    68         10
    69         14
    70          6
    71          8
    72          1
    73         21
    74         27
    75         28
    76         39
    77        269
    78        286
    79        293
    80         83
    81         13
    82          6
    83          7
    84         19
    85          5
    86         11
    87          1
    88          3
    89          1
    90          3
    91          3
    92        999
    93         92
    94         10
    95         13
    96          6
    97          7
    98          6
    99          1
   100          1
   101          0
   102          4
   104        231
   105        726
   106        708
   107        158
   108         38
   109          5
   110          1
   111          5
   113          0
   114          0
   116          1
   117          0
   118          0
   119          1
   120          3
   121          1
   122          8
   123         21
   124          7
   125          1
   126          1
   127          0
   130          1
   132         36
   133        384
   134         92
   135         15
   136          3
   148          1
   149          1
   150          5
   151        692
   152        194
   153         18
   154          1