##TITLE=Library Entry 34898
##JCAMP-DX=Revision 4.10 
##DATA TYPE=MASS SPECTRUM
##SAMPLE DESCRIPTION=Chemical Concepts
##NAMES=HP
##CAS NAME=Cyclooctanecarboxylic acid, methyl ester
##MOLFORM=C10H18O2
##CAS REGISTRY NO=3724-54-7
##MP= -300
##BP= -300
##MW= 170
##$RETENTION INDEX=0
##$CONDENSED SPECTRUM=NO
##NPOINTS= 98
##XYDATA=(XY..XY) 1 
    26          8
    27        178
    28         33
    29        201
    30         14
    31         20
    33          9
    38         13
    39        334
    40         50
    41        685
    42        104
    43        103
    44          7
    45         34
    46          3
    50         15
    51         22
    52         16
    53        126
    54        117
    55        718
    56         57
    57         45
    58          4
    59        155
    60          8
    61          9
    62          3
    63          4
    65         23
    66         18
    67        234
    68        107
    69        999
    70         69
    71         30
    72         14
    73         21
    74        293
    75         39
    76          4
    77         22
    78         13
    79         67
    80         34
    81        228
    82        157
    83         71
    84        153
    85         48
    86          5
    87        521
    88        127
    89          7
    91         22
    92         11
    93         14
    94        101
    95        115
    96        451
    97        142
    98         20
    99         27
   100         30
   101        111
   102         19
   103          3
   105          6
   107          7
   109         97
   110        113
   111        192
   112         25
   113        490
   114         98
   115         35
   116         16
   120         22
   121          9
   122          3
   123         59
   124          5
   125          4
   127        115
   128         40
   129          8
   137         12
   138        337
   139        140
   140         13
   141         44
   142          4
   144          2
   155         22
   169          5
   170        103
   171         11