##TITLE=Library Entry 5072
##JCAMP-DX=Revision 4.10 
##DATA TYPE=MASS SPECTRUM
##SAMPLE DESCRIPTION=Div. of Experiment Therapeutics WRAIR, WRAMC, Washingto
n DC 20307
##NAMES=HP
##CAS NAME=1,4-Bis[2-mercaptoethyl]piperazine-2,5-dione
##MOLFORM=C8H14N2O2S2
##CAS REGISTRY NO=3724-86-5
##MP= -300
##BP= -300
##MW= 234
##$RETENTION INDEX=0
##$CONDENSED SPECTRUM=NO
##NPOINTS= 154
##XYDATA=(XY..XY) 1 
    41         86
    42        999
    43        207
    44        213
    45         87
    46         24
    47         96
    49          7
    50          0
    51          0
    52          4
    53          2
    54         40
    55         35
    56        236
    57         42
    58         46
    59        117
    60        104
    61        281
    62         12
    63         12
    64          0
    65          0
    66          0
    67          1
    68          3
    69          7
    70         25
    71         72
    72          9
    73         17
    74          5
    75         35
    76          2
    77          2
    78          0
    79          0
    80          0
    81          0
    82          1
    83          6
    84         13
    85         18
    86         15
    87         13
    88        129
    90        135
    91          7
    92          5
    93          1
    94          0
    95          0
    96          0
    97          3
    98          8
    99         23
   100          4
   102        508
   103         28
   104         26
   105          1
   106          0
   107          0
   108          0
   109          0
   110          0
   111          3
   112          3
   113         26
   114         38
   115        184
   116         23
   117         12
   118         10
   119          1
   120          1
   121          0
   122          0
   123          0
   124          0
   125          3
   126          2
   127         27
   128          2
   129          8
   130          8
   131         16
   132          1
   133          1
   134          0
   135          0
   136          0
   137          0
   138          0
   139          2
   140          5
   141         69
   142          5
   143          5
   144          6
   145          2
   146          1
   147          1
   148          0
   149          0
   150          0
   151          0
   152          0
   153          0
   154          0
   155          1
   156          1
   157          6
   159         30
   160          2
   161          1
   162          0
   163          0
   164          0
   165          0
   166          0
   167          0
   168          0
   169          2
   170          0
   171          1
   173          4
   174         14
   175         61
   176          5
   177          3
   186          2
   187         30
   188          2
   189          1
   190          0
   199          0
   200          1
   201          7
   202          1
   203          0
   215          0
   216          1
   217          1
   218          0
   219          0
   230          0
   232          0
   233          0
   234        427
   235         72
   236         43
   237          6