##TITLE=Library Entry 32220
##JCAMP-DX=Revision 4.10 
##DATA TYPE=MASS SPECTRUM
##SAMPLE DESCRIPTION=Japan AIST/NIMC Database- Spectrum MS-NW-3630
##NAMES=HP
##CAS NAME=1,2,3,4-Cyclopentanetetracarboxylic acid
##MOLFORM=C9H10O8
##CAS REGISTRY NO=3724-52-5
##MP= -300
##BP= -300
##MW= 246
##$RETENTION INDEX=0
##$CONDENSED SPECTRUM=NO
##NPOINTS= 79
##XYDATA=(XY..XY) 1 
    12          1
    13          1
    14          2
    15          5
    16          2
    17         22
    18         95
    25          4
    26         29
    27         60
    28         38
    29         16
    31         13
    32         15
    33         18
    36          2
    37         18
    38         46
    39        173
    40         62
    41         57
    42          6
    43          8
    44         16
    45         48
    46          7
    47         12
    49          3
    50         11
    51         20
    52          3
    53         11
    54          4
    55         26
    56          2
    57          2
    60          2
    61          8
    62         10
    63         20
    64          9
    65        100
    66        999
    67        222
    68         21
    69          3
    70          1
    71          1
    77          1
    79          6
    81          6
    82         68
    83         31
    84          7
    86          2
    92          6
    93         31
    94         42
    95          4
    97         12
    99          6
   109          1
   110        295
   111         68
   112         52
   113          4
   128          1
   137          3
   138        140
   139         12
   140          1
   155          1
   156          7
   165          1
   166          9
   167          1
   183          1
   184          6
   211          2