##TITLE=Library Entry 50285
##JCAMP-DX=Revision 4.10 
##DATA TYPE=MASS SPECTRUM
##SAMPLE DESCRIPTION=Exported from NIST MS Search
##NAMES=HP
##CAS NAME=Cyclohexane, 1,3-dibromo-
##MOLFORM=C6H10Br2
##CAS REGISTRY NO=3725-17-5
##MP= -300
##BP= -300
##MW= 240
##$RETENTION INDEX=0
##$CONDENSED SPECTRUM=NO
##NPOINTS= 19
##XYDATA=(XY..XY) 1 
    39         10
    41         30
    53         20
    54         20
    55         20
    67         35
    77         20
    78         25
    79        140
    80        100
    81        999
    82         80
   119         10
   121         10
   161        125
   163        115
   240          9
   242         17
   244          9