##TITLE=Library Entry 20699
##JCAMP-DX=Revision 4.10 
##DATA TYPE=MASS SPECTRUM
##SAMPLE DESCRIPTION=D.HENNEBERG, MAX-PLANCK INSTITUTE, MULHEIM, WEST GERMAN
Y
##NAMES=HP
##CAS NAME=Cyclopentane, 1-ethyl-3-methyl-
##MOLFORM=C8H16
##CAS REGISTRY NO=3726-47-4
##MP= -300
##BP= -300
##MW= 112
##$RETENTION INDEX=791
##$CONDENSED SPECTRUM=NO
##NPOINTS= 74
##XYDATA=(XY..XY) 1 
    23          0
    24          1
    25          1
    26          8
    27        144
    28         68
    29        145
    30          3
    32         20
    35          1
    37          2
    38          5
    39        165
    40         21
    41        510
    42        288
    43        107
    44          2
    46          0
    47          0
    50          4
    51         13
    52          7
    53         48
    54         36
    55        999
    56        429
    57        132
    58          5
    60          1
    62          1
    63          4
    64          1
    65         11
    66          3
    67        141
    68         25
    69        138
    70        274
    71         36
    72          2
    74          2
    75          1
    77          6
    78          3
    79         12
    80          0
    81         23
    82        308
    83        816
    84        279
    85         21
    86          1
    89          1
    90          0
    91          1
    93          0
    94          1
    95          2
    96          3
    97         43
    98          3
    99          1
   101          0
   103          0
   104          0
   105          0
   106          0
   108          0
   110          0
   111          1
   112         63
   113          5
   114          1