##TITLE=Library Entry 32182
##JCAMP-DX=Revision 4.10 
##DATA TYPE=MASS SPECTRUM
##SAMPLE DESCRIPTION=James Little,Eastman Chem.Co.,Kingsport,TN
##NAMES=HP
##CAS NAME=4,7-Methano-1H-indenol, hexahydro-
##MOLFORM=C10H14O
##CAS REGISTRY NO=37275-49-3
##MP= -300
##BP= -300
##MW= 150
##$RETENTION INDEX=0
##$CONDENSED SPECTRUM=NO
##NPOINTS= 80
##XYDATA=(XY..XY) 1 
    37          1
    39        106
    40         21
    41         63
    42          9
    43         20
    44          6
    45          1
    50         18
    51         57
    52         23
    53         59
    54         21
    55         85
    56         17
    57         30
    58          2
    60          1
    61          1
    62          7
    63         28
    66        999
    67        284
    68         23
    69         13
    70         15
    71          5
    72          1
    74          5
    75          4
    77        248
    78        182
    79        212
    80         66
    81         44
    82         75
    83        264
    84         47
    85          7
    86          1
    87          2
    89         10
    90          2
    91        362
    92         51
    93         59
    94         19
    95         22
    96         11
    97          1
   101          1
   102          7
   103         43
   104        126
   105        127
   106        125
   107         30
   108         39
   109         31
   110          2
   115         31
   117        334
   118         27
   119         27
   120          3
   121         20
   122         11
   123          1
   126          1
   127          2
   128          5
   129          5
   131         50
   132        141
   133         14
   135         11
   136          1
   150        212
   151         21
   152          2