##TITLE=Library Entry 19848
##JCAMP-DX=Revision 4.10 
##DATA TYPE=MASS SPECTRUM
##SAMPLE DESCRIPTION=D.HENNEBERG, MAX-PLANCK INSTITUTE, MULHEIM, WEST GERMAN
Y
##NAMES=HP
##CAS NAME=Cyclopentane, 1-methyl-2-propyl-
##MOLFORM=C9H18
##CAS REGISTRY NO=3728-57-2
##MP= -300
##BP= -300
##MW= 126
##$RETENTION INDEX=899
##$CONDENSED SPECTRUM=NO
##NPOINTS= 72
##XYDATA=(XY..XY) 1 
    21          0
    23          0
    24          1
    25          1
    26          8
    27        199
    28          7
    29        172
    30          4
    31          0
    32          2
    33          0
    34          0
    36          1
    37          1
    38          6
    39        170
    40         33
    41        585
    42        338
    43        280
    44          0
    46          1
    47          0
    48          0
    50          7
    51         16
    52          9
    53         61
    54         59
    55        999
    56        780
    57        132
    58          4
    61          0
    62          1
    63          2
    65         13
    66          8
    67        134
    68         46
    69        341
    70        418
    71         67
    72          2
    73          0
    77         54
    78          1
    79         10
    80          2
    81         28
    82        232
    83        583
    84        282
    85         39
    86          1
    91          1
    93          0
    95          4
    96         32
    97        263
    98        128
    99          8
   100          0
   103          0
   108          0
   111         15
   112          0
   124          0
   125          0
   126        176
   127         19