##TITLE=Library Entry 69826
##JCAMP-DX=Revision 4.10 
##DATA TYPE=MASS SPECTRUM
##SAMPLE DESCRIPTION=NIST Mass Spectrometry Data Center, 1990.
##NAMES=HP
##CAS NAME=Cyclohexane, 1-ethyl-2-methyl-
##MOLFORM=C9H18
##CAS REGISTRY NO=3728-54-9
##MP= -300
##BP= -300
##MW= 126
##$RETENTION INDEX=919
##$CONDENSED SPECTRUM=NO
##NPOINTS= 39
##XYDATA=(XY..XY) 1 
    27         79
    28         16
    29         85
    32          3
    39        141
    40         36
    41        296
    42         83
    43         70
    44          4
    50          8
    51         21
    52         11
    53         73
    54          4
    55        831
    56        164
    57         30
    63          6
    65         20
    66         10
    67         76
    68         45
    69        237
    70         69
    71         10
    77         20
    79         17
    81         50
    82         15
    83         50
    84         26
    91          5
    96        203
    97        999
    98         83
   111         16
   126         91
   127          8