##TITLE=Library Entry 49388
##JCAMP-DX=Revision 4.10 
##DATA TYPE=MASS SPECTRUM
##SAMPLE DESCRIPTION=Chemical Concepts
##NAMES=HP
##CAS NAME=Boron, trifluoro(methanamine)-, (t-4)-
##MOLFORM=CH5BF3N
##CAS REGISTRY NO=373-56-8
##MP= -300
##BP= -300
##MW= 99
##$RETENTION INDEX=0
##$CONDENSED SPECTRUM=NO
##NPOINTS= 53
##XYDATA=(XY..XY) 1 
    26          7
    27         47
    28        310
    29         48
    30        629
    31        256
    32          8
    33          1
    34          0
    36          0
    37          0
    38          0
    39          1
    40          2
    41          1
    42          0
    43          1
    44          4
    45         31
    46         91
    47          1
    48         49
    49        216
    50          0
    51          0
    52          0
    55          1
    56          5
    57         15
    58         56
    59         13
    60         47
    61          1
    63          0
    64          1
    65          7
    66          1
    67          1
    68          5
    69          0
    74          0
    75          8
    76         29
    77         28
    78         99
    79        284
    80        999
    81         16
    82          0
    83          0
    85          0
    91          0
    99          0