##TITLE=Library Entry 5859
##JCAMP-DX=Revision 4.10 
##DATA TYPE=MASS SPECTRUM
##SAMPLE DESCRIPTION=Exported from NIST MS Search
##NAMES=HP
##CAS NAME=Hexane, 1-fluoro-
##MOLFORM=C6H13F
##CAS REGISTRY NO=373-14-8
##MP= -300
##BP= -300
##MW= 104
##$RETENTION INDEX=657
##$CONDENSED SPECTRUM=NO
##NPOINTS= 59
##XYDATA=(XY..XY) 1 
     2         14
    14         36
    15         92
    16         10
    20          3
    25          3
    26         78
    27        672
    28        147
    29        630
    30         15
    31         10
    32          9
    33        158
    34          2
    36          2
    37         13
    38         34
    39        352
    40         65
    41        797
    42        677
    43        999
    44         36
    45         21
    46         40
    47        215
    48          5
    49          2
    50         17
    51         32
    52          9
    53         49
    54         41
    55        552
    56        557
    57        224
    58         12
    59         99
    60         15
    61         30
    62          3
    63          4
    65          5
    66          2
    68          7
    69        280
    70         22
    71         26
    72          4
    73         11
    74         45
    75         58
    76          3
    77          1
    81          1
    83          6
    84         35
    85          3