##TITLE=Library Entry 55149
##JCAMP-DX=Revision 4.10 
##DATA TYPE=MASS SPECTRUM
##SAMPLE DESCRIPTION=R.W.CRAWFORD UNIV. OF CALIFORNIA, LIVERMORE, CALIFORNIA
, USA
##NAMES=HP
##CAS NAME=Silane, trifluoromethyl-
##MOLFORM=CH3F3Si
##CAS REGISTRY NO=373-74-0
##MP= -300
##BP= -300
##MW= 100
##$RETENTION INDEX=0
##$CONDENSED SPECTRUM=NO
##NPOINTS= 50
##XYDATA=(XY..XY) 1 
     2          2
    12         13
    13         22
    14         40
    15         98
    16          2
    19          2
    20          0
    26          0
    27          0
    28         28
    29          2
    30          0
    31          6
    32          9
    33         92
    34          1
    35          0
    37          0
    38          0
    40          2
    41          2
    42          1
    43          0
    44          5
    45          0
    47        195
    48         10
    49          7
    50          5
    52          1
    59          0
    60          1
    66         65
    67         15
    68          2
    78          1
    79          7
    80        126
    81        304
    82         21
    83          9
    85        999
    86         50
    87         33
    98         17
    99         35
   100        142
   101          9
   102          4