##TITLE=Library Entry 20127
##JCAMP-DX=Revision 4.10 
##DATA TYPE=MASS SPECTRUM
##SAMPLE DESCRIPTION=NIST Mass Spectrometry Data Center
##NAMES=HP
##CAS NAME=Palmitoleic acid
##MOLFORM=C16H30O2
##CAS REGISTRY NO=373-49-9
##MP= -300
##BP= -300
##MW= 254
##$RETENTION INDEX=1951
##$CONDENSED SPECTRUM=NO
##NPOINTS= 178
##XYDATA=(XY..XY) 1 
    15          1
    26          3
    27         68
    28         16
    29        134
    30          5
    31          8
    36          2
    37          1
    38          3
    39        119
    40         23
    41        587
    42        120
    43        374
    44         13
    45         83
    46          2
    47          2
    50          3
    51         11
    52         10
    53        103
    54        237
    55        999
    56        305
    57        202
    58         33
    59         32
    60        135
    61         13
    62          1
    63          2
    64          1
    65         32
    66         21
    67        290
    68        189
    69        648
    70        240
    71        100
    72          8
    73        146
    74         14
    75          3
    76          1
    77         30
    78         10
    79         80
    80         35
    81        245
    82        200
    83        461
    84        292
    85         71
    86         10
    87         57
    88          7
    89          1
    91         29
    92          6
    93         34
    94         37
    95        166
    96        251
    97        376
    98        239
    99         47
   100         50
   101         67
   102          9
   103          2
   104          1
   105         17
   106          7
   107         28
   108         28
   109        103
   110        159
   111        171
   112         81
   113         38
   114         86
   115         37
   116          8
   117          3
   118          2
   119         32
   120         11
   121         30
   122         21
   123        110
   124         89
   125         78
   126         34
   127         57
   128         17
   129         23
   130          4
   131          2
   132          1
   133         30
   134         26
   135         25
   136         15
   137         65
   138         63
   139         40
   140         14
   141         21
   142          4
   143          7
   144          3
   145          1
   146          1
   147         24
   148         19
   149         16
   150          9
   151         45
   152         61
   153         24
   154          7
   155         10
   156          3
   157          4
   158          7
   159          1
   161         14
   162          6
   163          6
   164          4
   165         26
   166         15
   167          9
   168          2
   169          4
   170          1
   171          5
   172          4
   173          1
   175          9
   176          3
   177          2
   178          2
   179         17
   180          7
   181          5
   182          3
   183          2
   184          1
   185          2
   186          2
   189          5
   190          2
   192         33
   193         22
   194         33
   195          7
   196          1
   197          1
   199          1
   203          1
   207         12
   208          6
   209          1
   211          3
   212          1
   213          1
   218          7
   219          2
   221          2
   225          1
   236         73
   237         16
   238          2
   254         18
   255          4