##TITLE=Library Entry 32796
##JCAMP-DX=Revision 4.10 
##DATA TYPE=MASS SPECTRUM
##SAMPLE DESCRIPTION=S.A. Rang et al., IR & MS of Unsatd. Hydrocarbons, 1977
##NAMES=HP
##CAS NAME=6-C14H26
##MOLFORM=C14H26
##CAS REGISTRY NO=3730-08-3
##MP= -300
##BP= -300
##MW= 194
##$RETENTION INDEX=1401
##$CONDENSED SPECTRUM=NO
##NPOINTS= 119
##XYDATA=(XY..XY) 1 
    15          2
    24          0
    25          2
    26         17
    27        246
    28         18
    29        443
    30         13
    31          1
    37          1
    38          5
    39        166
    40         40
    41        714
    42         98
    43        480
    44         16
    45          1
    49          0
    50          7
    51         30
    52         67
    53        172
    54        892
    55        714
    56        123
    57        124
    58         12
    59          2
    60          3
    61          0
    62          1
    63          6
    64          3
    65         59
    66         66
    67        999
    68        394
    69        375
    70         42
    71         20
    72          4
    73          2
    74          0
    75          1
    76          1
    77         74
    78         21
    79        139
    80         60
    81        964
    82        468
    83          7
    84         21
    85          7
    86          1
    87          0
    89          0
    90          0
    91         38
    92          7
    93         42
    94         24
    95        732
    96        234
    97         60
    98          7
    99          2
   100          2
   101          0
   102          0
   103          1
   104          0
   105          5
   106          1
   107         12
   108          9
   109        277
   110        147
   111         25
   112          3
   113          1
   114          3
   115          1
   116          0
   117          1
   119          1
   121          4
   122          3
   123        137
   124         47
   125          6
   126          1
   127          1
   128          2
   129          1
   135          1
   136          1
   137         50
   138         15
   139         11
   140          1
   141          1
   142          1
   149          0
   151         66
   152         32
   153          4
   154          0
   156          0
   165         20
   166          3
   167          1
   168          0
   179          3
   180          0
   193          0
   194          8
   195          3