##TITLE=Library Entry 29923
##JCAMP-DX=Revision 4.10 
##DATA TYPE=MASS SPECTRUM
##SAMPLE DESCRIPTION=Japan AIST/NIMC Database- Spectrum MS-IW- 619
##NAMES=HP
##CAS NAME=2-Hexanol, 2,5-dimethyl-, (S)-
##MOLFORM=C8H18O
##CAS REGISTRY NO=3730-60-7
##MP= -300
##BP= -300
##MW= 130
##$RETENTION INDEX=857
##$CONDENSED SPECTRUM=NO
##NPOINTS= 52
##XYDATA=(XY..XY) 1 
    15          5
    18          1
    26          1
    27         27
    28          7
    29         46
    30          1
    31         57
    38          1
    39         28
    40          5
    41        150
    42         14
    43         96
    44          3
    45         22
    48          1
    49         12
    50          2
    51          2
    52          1
    53          9
    54          2
    55        189
    56        146
    57        116
    58         35
    59        999
    60         35
    61          2
    65          1
    67          6
    68          9
    69        103
    70         17
    71         24
    72          1
    73          4
    77          1
    79          1
    81          3
    83          2
    84          1
    95          2
    97        133
    98          9
   111          3
   112         23
   113          9
   114          1
   115         77
   116          6