##TITLE=Library Entry 49617
##JCAMP-DX=Revision 4.10 
##DATA TYPE=MASS SPECTRUM
##SAMPLE DESCRIPTION=Japan AIST/NIMC Database- Spectrum MS-NW-5719
##NAMES=HP
##CAS NAME=2-Pyridinemethanamine
##MOLFORM=C6H8N2
##CAS REGISTRY NO=3731-51-9
##MP= -300
##BP= -300
##MW= 108
##$RETENTION INDEX=1054
##$CONDENSED SPECTRUM=NO
##NPOINTS= 75
##XYDATA=(XY..XY) 1 
    14          2
    15          4
    16          4
    18          1
    24          1
    25          3
    26         30
    27         73
    28        145
    29         25
    30        578
    31          9
    32          4
    34          1
    36          2
    37         17
    38         30
    39         75
    40         13
    41         16
    42          8
    43          3
    44          7
    46          1
    48          2
    49         15
    50         79
    51        150
    52        292
    53        173
    54         24
    55          7
    56          2
    57          1
    58          1
    59          2
    60          3
    61          7
    62         11
    63         23
    64         18
    65         44
    66          9
    67          9
    68          1
    69          1
    70          1
    71          1
    72          1
    74          3
    75         11
    76         16
    77         18
    78        124
    79        701
    80        999
    81         60
    82          3
    84          4
    85          1
    87          1
    90          2
    91          6
    92         22
    93         32
    94          5
    96          1
   103          3
   104         35
   105         47
   106          9
   107        490
   108        832
   109         62
   110          3