##TITLE=Library Entry 69714
##JCAMP-DX=Revision 4.10 
##DATA TYPE=MASS SPECTRUM
##SAMPLE DESCRIPTION=Japan AIST/NIMC Database- Spectrum MS-NW-2385
##NAMES=HP
##CAS NAME=1-Azabicyclo[2.2.2]octan-3-one
##MOLFORM=C7H11NO
##CAS REGISTRY NO=3731-38-2
##MP= -300
##BP= -300
##MW= 125
##$RETENTION INDEX=0
##$CONDENSED SPECTRUM=NO
##NPOINTS= 61
##XYDATA=(XY..XY) 1 
    13          1
    14          9
    15         87
    16          1
    17          2
    18          7
    25          2
    26         20
    27        131
    28         85
    29         64
    30         23
    31          1
    39        149
    40         33
    41        450
    42        933
    43        320
    44         39
    46          4
    47         16
    48          2
    49          2
    50         10
    51         17
    52         10
    53         36
    54        156
    55        398
    56        127
    57         21
    58          2
    61          1
    62          2
    63          3
    64          1
    65          8
    66          6
    67         34
    68        279
    69        407
    70         35
    71          2
    77          2
    78          1
    79          3
    80          9
    81          6
    82        273
    83         16
    93          2
    94          9
    95          6
    96        411
    97        999
    98         67
    99          2
   124          1
   125        232
   126         18
   127          2