##TITLE=Library Entry 49389
##JCAMP-DX=Revision 4.10 
##DATA TYPE=MASS SPECTRUM
##SAMPLE DESCRIPTION=NIST Mass Spectrometry Data Center, 1990.
##NAMES=HP
##CAS NAME=4-(Aminomethyl)pyridine
##MOLFORM=C6H8N2
##CAS REGISTRY NO=3731-53-1
##MP= -300
##BP= -300
##MW= 108
##$RETENTION INDEX=1130
##$CONDENSED SPECTRUM=NO
##NPOINTS= 47
##XYDATA=(XY..XY) 1 
    13          4
    14          4
    15          4
    16          1
    24          2
    25          7
    26         45
    27         75
    28        275
    29         72
    30        552
    31         14
    32          1
    36          5
    37         30
    38         53
    39         89
    40         31
    41         25
    42          7
    48          4
    49         35
    50        161
    51        222
    52        196
    53        117
    54         40
    55         11
    61          9
    62         24
    63         39
    64         28
    65         43
    66          7
    67          7
    75         14
    76         15
    77         13
    78         76
    79        305
    80        999
    81         52
    92         11
   105         12
   107        177
   108         84
   109          6