##TITLE=Library Entry 16060
##JCAMP-DX=Revision 4.10 
##DATA TYPE=MASS SPECTRUM
##SAMPLE DESCRIPTION=R.C. DOUGHERTY
##NAMES=HP
##CAS NAME=Phosphorodiamidothioic chloride, tetramethyl-
##MOLFORM=C4H12ClN2PS
##CAS REGISTRY NO=3732-81-8
##MP= -300
##BP= -300
##MW= 186
##$RETENTION INDEX=0
##$CONDENSED SPECTRUM=NO
##NPOINTS= 22
##XYDATA=(XY..XY) 1 
    28        120
    30         40
    40         30
    41         40
    42        390
    43        100
    44        999
    45         60
    60        170
    63        120
    76         50
    99         40
   107         50
   108         50
   110        530
   112        200
   119         40
   142         70
   144         30
   151        280
   186        125
   188         45