##TITLE=Library Entry 38438
##JCAMP-DX=Revision 4.10 
##DATA TYPE=MASS SPECTRUM
##SAMPLE DESCRIPTION=NIST Mass Spectrometry Data Center, 1990.
##NAMES=HP
##CAS NAME=3,4,4-Trimethyl-1-penten-3-ol
##MOLFORM=C8H16O
##CAS REGISTRY NO=3732-61-4
##MP= -300
##BP= -300
##MW= 128
##$RETENTION INDEX=0
##$CONDENSED SPECTRUM=NO
##NPOINTS= 48
##XYDATA=(XY..XY) 1 
    14         12
    15         24
    26         13
    27        111
    28          4
    29         97
    31         16
    39        190
    40         40
    41        413
    42          4
    43        762
    44         23
    45         18
    50         27
    51         52
    52         24
    53        109
    54         27
    55        199
    56         55
    57        494
    58         23
    59         17
    63          8
    65         26
    67        197
    68         25
    69         46
    70          8
    71        999
    72        456
    73         22
    77         41
    78         11
    79         41
    80         15
    81         21
    82          7
    83         50
    84         12
    91         20
    93         32
    95        275
    96         21
   101         39
   110         59
   113         15