##TITLE=Library Entry 62562
##JCAMP-DX=Revision 4.10 
##DATA TYPE=MASS SPECTRUM
##SAMPLE DESCRIPTION=V.A.Korolev, Moscow, Russia
##NAMES=HP
##CAS NAME=1-[(4-Methylbenzene)sulfonyl]-3-[2-nitroethenyl]indole
##MOLFORM=C17H14N2O4S
##CAS REGISTRY NO=373392-59-7
##MP= -300
##BP= -300
##MW= 342
##$RETENTION INDEX=0
##$CONDENSED SPECTRUM=NO
##NPOINTS= 137
##XYDATA=(XY..XY) 1 
    30        111
    37          7
    38         38
    39        318
    40         35
    41         80
    42          3
    43          7
    44         20
    45         19
    46          8
    48          8
    50         78
    51        149
    52         38
    53         17
    54          2
    55          5
    57          3
    61         15
    62        106
    63        278
    64        122
    65        689
    66         40
    67         13
    68          4
    69          6
    70          2
    71          4
    73          5
    74         43
    75         88
    76         81
    77         85
    78         28
    79         15
    80          2
    82          1
    85          5
    86         33
    87         78
    88        193
    89        225
    91        999
    92        214
    93          8
    95          2
    98          2
    99          4
   100          7
   101         56
   102        184
   103         57
   104         34
   105          8
   106          2
   107          7
   108          7
   109          2
   110          2
   111         10
   113        223
   114        216
   115         76
   116         61
   117         12
   118          1
   119          3
   120          4
   121          3
   123          2
   126          2
   127          9
   128         49
   129         71
   130        107
   131         21
   132         73
   133          9
   139         64
   140        411
   141         76
   142         17
   143         12
   144          7
   145          5
   146          4
   151          1
   152          3
   155        938
   156        103
   157         67
   158          6
   159          6
   160         29
   161          2
   165          3
   170        147
   171         33
   172          4
   176          2
   177          1
   178          3
   186          2
   187         34
   188         15
   189         10
   190          4
   191          3
   202          8
   203          4
   204          9
   205          2
   206          1
   209          9
   215          3
   216          9
   217          8
   218          4
   228          5
   229          3
   230         13
   231          4
   234          1
   235          1
   273          2
   291          1
   295         40
   296          7
   297          2
   299          8
   300          1
   342        245
   343         47
   344         14
   345          1