##TITLE=Library Entry 54459
##JCAMP-DX=Revision 4.10 
##DATA TYPE=MASS SPECTRUM
##SAMPLE DESCRIPTION=R.E.Ardrey ET AL.Pharmaceutical Mass Spectra,L.,1985
##NAMES=HP
##CAS NAME=Metazocine
##MOLFORM=C15H21NO
##CAS REGISTRY NO=3734-52-9
##MP= -300
##BP= -300
##MW= 231
##$RETENTION INDEX=1920
##$CONDENSED SPECTRUM=NO
##NPOINTS= 98
##XYDATA=(XY..XY) 1 
    27         50
    29         30
    30        100
    31        250
    39         60
    40         10
    41         80
    42        430
    43         30
    44        180
    51         40
    52         10
    53         30
    54         10
    55         30
    56         40
    57         30
    58         80
    59        510
    60         20
    63         20
    65         30
    67         10
    68         20
    69         10
    70         90
    71         60
    72         60
    77         60
    78         20
    79         20
    82         60
    83         40
    84        999
    85         60
    86         40
    89         10
    91         40
    93         10
    94         10
    96         60
    97         20
    98         20
   100         20
   102         10
   103         20
   105         20
   107         30
   108         50
   110         30
   115         70
   116         30
   117         20
   121         20
   122         10
   124        560
   125         50
   127         40
   128         50
   129         30
   130         10
   131         60
   132         20
   133         20
   134         10
   141         30
   144         50
   145         90
   146         40
   147         60
   148         40
   157         70
   158         80
   159        140
   160        100
   161        130
   162         20
   171         20
   172         60
   173         80
   174        130
   175         30
   176         10
   185         10
   186         10
   187         10
   188         10
   189         20
   200         10
   202         80
   203         10
   214         10
   216        470
   217         70
   230        230
   231        620
   232        110
   233         10