##TITLE=Library Entry 88603
##JCAMP-DX=Revision 4.10 
##DATA TYPE=MASS SPECTRUM
##SAMPLE DESCRIPTION=CATALOGUE OF MASS SPECTRA OF PESTICIDES, APRIL, 1975; J
. FREUDENTHAL & L. G. GRAMBERG, NAT'L INST. OF PUBLIC HEALTH, THE NETHERLAND
S
##NAMES=HP
##CAS NAME=Phosphorothioic acid, S-[2-[(1-cyano-1-methylethyl)amino]-2-oxoet
hyl] O,O-diethyl ester
##MOLFORM=C10H19N2O4PS
##CAS REGISTRY NO=3734-95-0
##MP= -300
##BP= -300
##MW= 294
##$RETENTION INDEX=1767
##$CONDENSED SPECTRUM=NO
##NPOINTS= 91
##XYDATA=(XY..XY) 1 
    13         39
    15        121
    18         17
    27        240
    29        466
    31         16
    35        100
    39         28
    41        156
    42         68
    45        175
    46         74
    47         92
    48         20
    49         20
    55         15
    58         27
    59         84
    60        105
    61        256
    62        227
    63         30
    64         21
    65        416
    66         25
    68        455
    69         82
    75         14
    76         25
    79         30
    80         27
    81        714
    82        566
    83        349
    84         24
    85         31
    89         26
    91        261
    92         28
    93        483
    94         52
    96         42
    97        470
    98         45
    99         38
   103         14
   109        664
   110        393
   111        999
   112         74
   113         76
   114        180
   115        156
   116         32
   117         17
   119         10
   121         25
   123         15
   124         14
   125        263
   126        256
   127         55
   137         68
   138        992
   139         72
   140        271
   141         84
   142        292
   143         97
   144         22
   153         99
   154        194
   155         65
   156        287
   157         53
   158         22
   165         16
   169        132
   170        397
   171         41
   172         17
   182         15
   183         37
   184        240
   185         23
   197         20
   198        318
   199         35
   200         12
   211         20
   278         10