##TITLE=Library Entry 32205
##JCAMP-DX=Revision 4.10 
##DATA TYPE=MASS SPECTRUM
##SAMPLE DESCRIPTION=ACCUSTANDARD Chemicals / NIST MS Data Center.
##NAMES=HP
##CAS NAME=4,7-Methano-1H-indene, 4,5,6,7,8,8-hexachloro-3a,4,7,7a-tetrahydr
o-
##MOLFORM=C10H6Cl6
##CAS REGISTRY NO=3734-48-3
##MP= -300
##BP= -300
##MW= 336
##$RETENTION INDEX=1781
##$CONDENSED SPECTRUM=NO
##NPOINTS= 235
##XYDATA=(XY..XY) 1 
    13          0
    15          0
    17          0
    18          1
    25          0
    26          5
    27         17
    28         23
    29          0
    32          6
    35          3
    36          3
    37          6
    38         12
    39         62
    40         34
    41          3
    44          0
    47          4
    49          8
    50         15
    51         19
    52          3
    53          1
    55          0
    56          0
    60          5
    61         13
    62         13
    63         15
    66        999
    67         54
    68          2
    71          3
    72          4
    73         17
    74         16
    75         15
    76          2
    77          4
    78          1
    79          2
    80          6
    81          2
    82          2
    83          6
    84         12
    85         17
    86         11
    87          7
    88          1
    89          2
    90          0
    91          1
    92          0
    94          2
    95          8
    96         10
    97         23
    98         27
    99         17
   100         40
   101         75
   102         25
   103         29
   104          3
   106          5
   107          8
   108         15
   109         21
   110          7
   111          9
   112          1
   113          4
   114          6
   115         23
   116         23
   117         16
   118          6
   119         17
   120         11
   121         12
   122          6
   123          9
   124          5
   125         10
   126         16
   127          1
   130         11
   131          6
   132         15
   133         16
   134         10
   135         24
   136          5
   137         15
   138          2
   139          2
   141         17
   143         20
   144          3
   145          9
   146          2
   147          4
   148          3
   149          7
   150          1
   151          2
   153          1
   154          1
   155          3
   156          1
   157          5
   158          3
   159          9
   160         31
   161         16
   162         11
   163          4
   165         11
   167         13
   168          2
   169          8
   170          6
   171          3
   172          3
   173          0
   174          0
   177          0
   178          1
   179          2
   180          1
   181          3
   182          2
   183          7
   184          3
   185          4
   186          1
   187          0
   188          0
   189          0
   190          1
   191          6
   192          2
   193          6
   194         12
   195         14
   196         34
   197         10
   198         21
   199          3
   200          3
   201          3
   202          1
   203          6
   204          5
   205          5
   206          5
   207          2
   208          2
   213          0
   214          2
   215          1
   216          4
   217          6
   218          3
   219          6
   220          1
   221          1
   222          0
   225          1
   226          1
   227          3
   228          2
   229          6
   230         40
   231         15
   232         40
   233         13
   234         16
   235         47
   236         14
   237         68
   238         16
   239         46
   240         10
   241         15
   242          4
   243          2
   244          1
   248          7
   250         11
   251          2
   252          7
   253          3
   254          2
   255          3
   256          0
   257          1
   261          1
   263          3
   264          2
   265         14
   266         10
   267         18
   268         10
   269         10
   270         26
   271          0
   272         43
   273          0
   274         34
   275          2
   276         17
   277          1
   278          4
   280          0
   301         12
   303         21
   304          4
   305         13
   306          1
   307          3
   308          0
   309          0
   336         23
   338         42
   339          6
   340         32
   341          4
   342         15
   343          1
   344          3
   345          0
   346          0