##TITLE=Library Entry 109404
##JCAMP-DX=Revision 4.10 
##DATA TYPE=MASS SPECTRUM
##SAMPLE DESCRIPTION=J. SHAW, BORRISTON RESEARCH, ROCKVILLE, MD, USA
##NAMES=HP
##CAS NAME=Aminoparathion
##MOLFORM=C10H16NO3PS
##CAS REGISTRY NO=3735-01-1
##MP= -300
##BP= -300
##MW= 261
##$RETENTION INDEX=1885
##$CONDENSED SPECTRUM=NO
##NPOINTS= 159
##XYDATA=(XY..XY) 1 
    12          3
    13          2
    14         15
    15         66
    16          9
    17         29
    18        101
    19          6
    26         87
    27        501
    28        320
    29        756
    30         43
    31         20
    32         15
    33          6
    34         11
    35          5
    36          1
    37          4
    38         21
    39        136
    40         16
    41         55
    42         28
    43         41
    44         22
    45         61
    46          9
    47         65
    48          8
    49          3
    50         17
    51         46
    52        148
    53        325
    54         92
    55         18
    56          4
    57          6
    58          5
    59          8
    60         12
    61         14
    62         18
    63         66
    64         39
    65        358
    66         34
    67         16
    68          9
    69          6
    70          4
    71          3
    72          1
    73          1
    74          3
    75          5
    76          9
    77         20
    78         25
    79         44
    80        576
    81        150
    82         16
    83          5
    84          4
    85          3
    88          1
    89          2
    90          7
    91         47
    92         56
    93        177
    94         27
    95          7
    97        579
    98         11
    99         28
   103          3
   104          6
   105          7
   106         19
   108        849
   109        970
   110         65
   111         13
   112          8
   113          2
   114          3
   115          5
   117          4
   118          8
   119         16
   120         42
   121         49
   122         88
   124        330
   125        999
   126         80
   127         48
   128          3
   132          1
   133          1
   134          5
   136        117
   137         70
   138         48
   139         11
   140         33
   141          4
   142          2
   143          1
   148          2
   149          2
   150         17
   152         70
   153        110
   154         15
   155         19
   156          6
   164          4
   165          6
   166          3
   168          8
   169          1
   170          4
   171         17
   172          2
   180          1
   182          1
   184         12
   185          1
   187         46
   188          7
   189          3
   198          1
   199          3
   200          7
   201          1
   205        147
   206          9
   207          6
   214          1
   215          5
   216          4
   218         18
   219          1
   228          1
   229          1
   233         90
   234          8
   235          4
   246         10
   247          3
   261        337
   262         42
   263         17
   264          1