##TITLE=Library Entry 46321
##JCAMP-DX=Revision 4.10 
##DATA TYPE=MASS SPECTRUM
##SAMPLE DESCRIPTION=F.I.ONUSKA CANADA CENTRE FOR INLAND WATERS, ONTARIO, CA
NADA
##NAMES=HP
##CAS NAME=Carbamodithioic acid, dimethyl-, methyl ester
##MOLFORM=C4H9NS2
##CAS REGISTRY NO=3735-92-0
##MP= -300
##BP= -300
##MW= 135
##$RETENTION INDEX=1082
##$CONDENSED SPECTRUM=NO
##NPOINTS= 28
##XYDATA=(XY..XY) 1 
    34         82
    38        111
    41         79
    42        146
    43        128
    44        255
    55         68
    56         80
    57        106
    58         23
    59         20
    60         25
    61         28
    69         50
    71         71
    72         59
    73        106
    76        999
    83         40
    85         38
    88        847
    90         35
    91         88
   109         20
   111         22
   120          6
   121          6
   135        407