##TITLE=Library Entry 35135
##JCAMP-DX=Revision 4.10 
##DATA TYPE=MASS SPECTRUM
##SAMPLE DESCRIPTION=J.B.WESTMORE, DEPT. CHEM., UNIV., WINNIPEG, MANITOBA, C
ANADA
##NAMES=HP
##CAS NAME=6H-Furo[2',3':4,5]oxazolo[3,2-a]pyrimidin-6-one, 2,3,3a,9a-tetrah
ydro-3-hydroxy-2-(hydroxymethyl)-, [2R-(2.alpha.,3.beta.,3a.beta.,9a.beta.)]
-
##MOLFORM=C9H10N2O5
##CAS REGISTRY NO=3736-77-4
##MP= -300
##BP= -300
##MW= 226
##$RETENTION INDEX=0
##$CONDENSED SPECTRUM=NO
##NPOINTS= 75
##XYDATA=(XY..XY) 1 
    51         50
    52        140
    53        330
    54        350
    55        600
    56        250
    57        680
    58        100
    59        130
    60        140
    61        130
    63         40
    66         40
    67        210
    68        460
    69        999
    70        530
    71        330
    72         60
    73        370
    74         50
    75         50
    79         40
    80         70
    81        130
    82        220
    83        130
    84        220
    85        320
    86         80
    87         40
    91         80
    93         50
    94         60
    95        310
    96        540
    97        180
    98        140
    99         30
   108         60
   109        120
   110         70
   111         70
   112        570
   113        300
   114         60
   115        340
   116         30
   121         40
   122         30
   123         30
   124         60
   125         40
   126         30
   133         30
   135         30
   136         50
   137        620
   138         80
   139         40
   140         80
   141         90
   149         50
   152         40
   163         40
   165         40
   167        180
   168         30
   177        110
   178         50
   179         60
   180         40
   195         90
   226        130
   227         30