##TITLE=Library Entry 15663
##JCAMP-DX=Revision 4.10 
##DATA TYPE=MASS SPECTRUM
##SAMPLE DESCRIPTION=Japan AIST/NIMC Database- Spectrum MS-NW- 648
##NAMES=HP
##CAS NAME=Calconcarboxylic acid
##MOLFORM=C21H14N2O7S
##CAS REGISTRY NO=3737-95-9
##MP= -300
##BP= -300
##MW= 438
##$RETENTION INDEX=0
##$CONDENSED SPECTRUM=NO
##NPOINTS= 348
##XYDATA=(XY..XY) 1 
    12         17
    13          2
    14          6
    15         10
    16         45
    17          5
    18         18
    24          4
    25          2
    26         14
    27         57
    28        366
    29         20
    30          7
    31         10
    32         31
    33          3
    34          8
    35          3
    36         23
    37          4
    38          8
    39         35
    40          9
    41         54
    42         18
    43         40
    44        999
    45         14
    46          5
    47          1
    48        207
    49          3
    50         18
    51         18
    52         10
    53         11
    54         14
    55         43
    56         21
    57         35
    58          6
    59          3
    60         10
    61          5
    62         11
    63         22
    64        456
    65         12
    66         23
    67         21
    68         12
    69         25
    70         14
    71         17
    72          7
    73          9
    74          9
    75         10
    76         13
    77         18
    78         12
    79         13
    80         39
    81         17
    82         11
    83         19
    84         12
    85         10
    86          5
    87          9
    88          9
    89         12
    90          5
    91         21
    92         10
    93         14
    94         10
    95         12
    96         10
    97         18
    98         16
    99          6
   100          6
   101          9
   102         16
   103          9
   104         12
   105         16
   106          8
   107          9
   108          8
   109          9
   110          6
   111          8
   112          8
   113         19
   114         33
   115         71
   116         20
   117          9
   118          7
   119          9
   120          6
   121          8
   122          5
   123          6
   124          3
   125          5
   126         11
   127          9
   128         11
   129         18
   130         15
   131         12
   132          6
   133          6
   134          5
   135          5
   136          3
   137          6
   138          4
   139          4
   140          7
   141         11
   142         28
   143          9
   144        127
   145         17
   146          7
   147          5
   148          3
   149          5
   150          4
   151          3
   152          4
   153          5
   154          4
   155          7
   156          6
   157          5
   158          5
   159          6
   160          8
   161          4
   162          2
   163          3
   164          3
   165          6
   166          3
   167          5
   168          4
   169         19
   170         24
   171          9
   172          5
   173          3
   174          7
   175          3
   176          5
   177          2
   178          3
   179          3
   180          3
   181          4
   182          4
   183          4
   184          3
   185          5
   186          5
   187          5
   188         12
   189          5
   190          2
   191          1
   192          3
   193          3
   194          4
   195          4
   196          5
   197          4
   198          5
   199          4
   200          5
   201          4
   202          6
   203          3
   204          3
   205          3
   206          3
   207          2
   208          3
   209          2
   210          2
   211          4
   212          4
   213          8
   214          4
   215          3
   216          2
   217          2
   218          2
   219          3
   220          2
   221          3
   222          2
   223          3
   224          7
   225          4
   226         13
   227          7
   228          6
   229          3
   230          2
   231          3
   232          2
   233          1
   234          2
   235          2
   236          2
   237          5
   238          4
   239          9
   240          4
   241          3
   242          2
   243          2
   244          2
   245          2
   246          2
   247          2
   248          3
   249          1
   250          3
   251          2
   252          3
   253          5
   254          7
   255         12
   256          7
   257          4
   258          2
   259          2
   260          1
   261          1
   262          1
   263          2
   264          2
   265          2
   266          3
   267          4
   268         22
   269          9
   270          9
   271          4
   272          2
   273          1
   274          1
   275          1
   276          1
   277          1
   278          2
   279          2
   280          3
   281          3
   282         10
   283         14
   284         26
   285          9
   286          4
   287          2
   288          2
   289          1
   290          1
   291          1
   292          1
   293          4
   294          5
   295          5
   296         12
   297          9
   298          9
   299          3
   300          5
   301          2
   302          2
   305          1
   306          1
   307          1
   308          2
   309          5
   310         16
   311         36
   312         40
   313         12
   314          5
   315          2
   316          2
   318          1
   320          1
   321          1
   322          1
   323          2
   324          1
   325          2
   326          5
   327          6
   328         11
   329          4
   330          3
   331          1
   336          3
   337          3
   338          3
   339          2
   340          2
   341          3
   342          3
   343          2
   344          2
   348          1
   351          1
   352          1
   353          1
   354          2
   355          3
   356          1
   357          2
   358          2
   359          1
   368          1
   369          1
   370          2
   371          1
   372          3
   373          1
   374          2
   377          1
   381          1
   384          1
   385          1
   388          1
   389          1
   394          1
   395          1
   408          2
   410          1
   422          1