##TITLE=Library Entry 24652
##JCAMP-DX=Revision 4.10 
##DATA TYPE=MASS SPECTRUM
##SAMPLE DESCRIPTION=Exported from NIST MS Search
##NAMES=HP
##CAS NAME=Pentanamide, N-1H-purin-6-yl-
##MOLFORM=C10H13N5O
##CAS REGISTRY NO=37385-06-1
##MP= -300
##BP= -300
##MW= 219
##$RETENTION INDEX=0
##$CONDENSED SPECTRUM=NO
##NPOINTS= 146
##XYDATA=(XY..XY) 1 
    36         19
    37        131
    38         16
    39         49
    40        236
    41        412
    42        697
    43        131
    44        296
    45        950
    46         98
    47          8
    50         27
    51         27
    52         24
    53        104
    54         76
    55        225
    56        120
    57        999
    58         76
    59         22
    60         44
    61          5
    63          5
    64          5
    65         46
    66         35
    67         76
    68         33
    69        118
    70         65
    71        142
    72          5
    73         24
    74          5
    76          5
    77         24
    78         24
    79         24
    80         24
    81         54
    82         44
    83         76
    84         30
    85        181
    86         19
    87          8
    91         54
    92         33
    93         24
    94         16
    95         33
    96         46
    97         44
    98         27
    99         19
   101          8
   103          8
   104          5
   105         27
   106          8
   107         22
   108        178
   109         33
   110         24
   111         41
   112         24
   113         19
   115         16
   116          5
   117         24
   118          5
   119         87
   120         22
   121         16
   122          8
   123         19
   124          8
   125         24
   126          8
   127          8
   128         13
   129         19
   130          8
   131         30
   132          5
   133         19
   134         33
   135        846
   136         90
   137         19
   138          8
   141          8
   143          8
   144          8
   145          8
   146          8
   147          8
   148          8
   149          8
   151          8
   152          8
   153          8
   154          8
   155          8
   157          5
   158          5
   159         19
   161         16
   162         49
   163         22
   164          8
   165         19
   166          5
   167          5
   169          8
   170          8
   171          8
   173          8
   174          8
   175          8
   176         24
   177         27
   178          5
   180          5
   182          8
   183          8
   184          8
   188          5
   189          5
   190          5
   191         27
   192          5
   193          5
   202         11
   203          8
   204         19
   205         30
   208          5
   211          5
   217          5
   218         49
   219        695
   220        104
   221         11