##TITLE=Library Entry 83114
##JCAMP-DX=Revision 4.10 
##DATA TYPE=MASS SPECTRUM
##SAMPLE DESCRIPTION=Japan AIST/NIMC Database- Spectrum MS-IW-5232
##NAMES=HP
##CAS NAME=Acetanilide, N-((dimethylcarbamoyl)methyl)-
##MOLFORM=C12H16N2O2
##CAS REGISTRY NO=3738-06-5
##MP= -300
##BP= -300
##MW= 220
##$RETENTION INDEX=0
##$CONDENSED SPECTRUM=NO
##NPOINTS= 52
##XYDATA=(XY..XY) 1 
    15          6
    27          2
    28          1
    30          1
    39          3
    41          1
    42          7
    43         66
    44         10
    45          3
    46          5
    50          3
    51         15
    52          2
    56          2
    57          4
    58          5
    63          1
    64          1
    65          4
    72         68
    73          3
    74          1
    75          1
    76          2
    77         60
    78         10
    79         15
    80          1
    85          1
    86          2
    91          3
    93          6
   104         28
   105         25
   106        999
   107         84
   108          3
   118          2
   133          2
   148         29
   149          3
   175          8
   176         98
   177         14
   178        247
   179         28
   180          2
   205          1
   220        112
   221         18
   222          2