##TITLE=Library Entry 87208
##JCAMP-DX=Revision 4.10 
##DATA TYPE=MASS SPECTRUM
##SAMPLE DESCRIPTION=A.A.Kutin, Moscow, Russia
##NAMES=HP
##CAS NAME=2(1H)Pyrimidinone,1-methyl-
##MOLFORM=C5H6N2O
##CAS REGISTRY NO=3739-81-9
##MP= -300
##BP= -300
##MW= 110
##$RETENTION INDEX=0
##$CONDENSED SPECTRUM=NO
##NPOINTS= 54
##XYDATA=(XY..XY) 1 
    36          4
    37         27
    38         63
    39         97
    40        224
    41        135
    42        601
    43         20
    44         14
    45          1
    49          0
    50          8
    51         70
    52        166
    53         60
    54        188
    55        145
    56         57
    57         13
    58          4
    63          3
    64          6
    65          5
    66         70
    67         33
    68        109
    69         29
    70          4
    71          0
    74          0
    76          1
    77          5
    79         10
    80         22
    81        313
    82        606
    83         30
    84          2
    91          0
    93          2
    94          7
    95         19
    96          2
    97          0
    98          1
    99          0
   103          0
   105          0
   106          0
   108          2
   109        439
   110        999
   111         66
   112          6