##TITLE=Library Entry 3113
##JCAMP-DX=Revision 4.10 
##DATA TYPE=MASS SPECTRUM
##SAMPLE DESCRIPTION=CARL DJERASSI DEPT OF CHEM STANFORD UNIV STANFORD CALIF
 94305
##NAMES=HP
##CAS NAME=Butane, 1-(2-propenyloxy)-
##MOLFORM=C7H14O
##CAS REGISTRY NO=3739-64-8
##MP= -300
##BP= -300
##MW= 114
##$RETENTION INDEX=0
##$CONDENSED SPECTRUM=NO
##NPOINTS= 24
##XYDATA=(XY..XY) 1 
    26         20
    27        100
    28         50
    29        250
    30         20
    31         30
    39        130
    40         20
    41        999
    42         70
    43        150
    53         10
    54         10
    55         10
    56        100
    57        300
    58        790
    59         30
    71         70
    72         10
    85         20
    99          1
   113          1
   114          1