##TITLE=Library Entry 70503
##JCAMP-DX=Revision 4.10 
##DATA TYPE=MASS SPECTRUM
##SAMPLE DESCRIPTION=ASES Database, Dalian Institute, P.R. China
##NAMES=HP
##CAS NAME=1-Isopropyl-pyrimidin-2(1H)-one
##MOLFORM=C7H10N2O
##CAS REGISTRY NO=3739-86-4
##MP= -300
##BP= -300
##MW= 138
##$RETENTION INDEX=0
##$CONDENSED SPECTRUM=NO
##NPOINTS= 11
##XYDATA=(XY..XY) 1 
    43        378
    54        149
    68        437
    80         88
    82        127
    95        278
    96        247
    97        999
   123        409
   137         89
   138        926