##TITLE=Library Entry 40918
##JCAMP-DX=Revision 4.10 
##DATA TYPE=MASS SPECTRUM
##SAMPLE DESCRIPTION=Chemical Concepts
##NAMES=HP
##CAS NAME=2-Hydroxy-2-methylbutyric acid
##MOLFORM=C5H10O3
##CAS REGISTRY NO=3739-30-8
##MP= -300
##BP= -300
##MW= 118
##$RETENTION INDEX=925
##$CONDENSED SPECTRUM=NO
##NPOINTS= 46
##XYDATA=(XY..XY) 1 
    26         21
    27        127
    28          7
    29        167
    30          5
    31         83
    37          3
    38          5
    39         55
    40          7
    41         62
    42         35
    43        450
    44         38
    45        141
    46          5
    47         31
    50          8
    51         10
    52          3
    53         22
    54          7
    55        458
    56         34
    57        120
    58         11
    59          3
    60          4
    61         27
    69          5
    71         10
    72         10
    73        999
    74         55
    75         17
    82          4
    83          2
    85          7
    88          7
    89         68
    90         20
    91          2
    99          3
   100          3
   101          3
   103         10