##TITLE=Library Entry 16676
##JCAMP-DX=Revision 4.10 
##DATA TYPE=MASS SPECTRUM
##SAMPLE DESCRIPTION=NIST Mass Spectrometry Data Center
##NAMES=HP
##CAS NAME=1,1,1-Trifluoro-2-propanol
##MOLFORM=C3H5F3O
##CAS REGISTRY NO=374-01-6
##MP= -300
##BP= -300
##MW= 114
##$RETENTION INDEX=0
##$CONDENSED SPECTRUM=NO
##NPOINTS= 54
##XYDATA=(XY..XY) 1 
    12          3
    13          9
    14         35
    15        127
    17          3
    19        224
    20          1
    24          1
    25          6
    26         39
    27        238
    29        310
    30         12
    31         60
    33         13
    36          1
    37          1
    38          1
    41          6
    42         40
    43        193
    45        999
    46         38
    47        174
    48          4
    49         53
    50         25
    51        142
    52          2
    55          4
    56          3
    57          2
    60          4
    63         10
    64          4
    65         11
    67         33
    69         97
    70          1
    73          1
    74          1
    75         38
    76          5
    77         21
    78          5
    79         75
    80          9
    91          2
    93          2
    95         22
    96          2
    99         84
   100          2
   113          2