##TITLE=Library Entry 2234
##JCAMP-DX=Revision 4.10 
##DATA TYPE=MASS SPECTRUM
##SAMPLE DESCRIPTION=THE M.W. KELLOGG CO., JERSEY CITY, N.J., USA
##NAMES=HP
##CAS NAME=1-Propene, 3,3,3-trifluoro-2-methyl-
##MOLFORM=C4H5F3
##CAS REGISTRY NO=374-00-5
##MP= -300
##BP= -300
##MW= 110
##$RETENTION INDEX=0
##$CONDENSED SPECTRUM=NO
##NPOINTS= 66
##XYDATA=(XY..XY) 1 
    24          3
    25         14
    26         52
    27         76
    28         20
    29          6
    31        113
    32         10
    36         16
    37        124
    38        193
    39        838
    40        101
    41        999
    42         34
    43          2
    44         15
    45         29
    46         46
    47          4
    48          1
    49          8
    50         42
    51         59
    52          2
    55          6
    56         19
    57         51
    58          7
    59        101
    60         86
    61          3
    62          0
    63          4
    64        211
    65        185
    66          5
    68          8
    69        186
    70         10
    71         18
    72          1
    74          3
    75         72
    76         15
    77         85
    78          2
    81          0
    82         11
    83          6
    87          4
    88         20
    89         60
    90        134
    91        199
    92          8
    93          2
    94          1
    95        308
    96         10
   106          0
   107          2
   108          2
   109         28
   110        528
   111         23