##TITLE=Library Entry 36280
##JCAMP-DX=Revision 4.10 
##DATA TYPE=MASS SPECTRUM
##SAMPLE DESCRIPTION=A.Pleshkova, Nesmeyanov Inst.Org.Elem.Cpds, Moscow
##NAMES=HP
##CAS NAME=Cyclohexane, undecafluoro(nonafluorobutyl)-
##MOLFORM=C10F20
##CAS REGISTRY NO=374-60-7
##MP= -300
##BP= -300
##MW= 500
##$RETENTION INDEX=0
##$CONDENSED SPECTRUM=NO
##NPOINTS= 40
##XYDATA=(XY..XY) 1 
    31         39
    50        125
    51          2
    69        999
    70         12
   100        135
   101          5
   112         18
   119        353
   120          7
   124         13
   131        395
   132         13
   143         47
   150          8
   155         13
   162         62
   163          2
   169        308
   170          9
   181        210
   182          6
   193         49
   194          5
   212          3
   219        142
   220          2
   231        111
   232          2
   235          3
   243         61
   244          2
   269          1
   281        119
   282          2
   331         96
   332          4
   335          1
   381         18
   481          8