##TITLE=Library Entry 11181
##JCAMP-DX=Revision 4.10 
##DATA TYPE=MASS SPECTRUM
##SAMPLE DESCRIPTION=V.A.Korolev, Moscow, Russia
##NAMES=HP
##CAS NAME=2-Amino-6-(morpholin-4-yl)-3H-pyrimidin-4-one
##MOLFORM=C8H12N4O2
##CAS REGISTRY NO=37409-97-5
##MP= -300
##BP= -300
##MW= 196
##$RETENTION INDEX=0
##$CONDENSED SPECTRUM=NO
##NPOINTS= 85
##XYDATA=(XY..XY) 1 
    34          5
    36          2
    38         14
    39         71
    40        257
    41        234
    42        274
    43        999
    44        300
    45         62
    46          5
    51          8
    52         58
    53         79
    54        116
    55        140
    56        173
    57         34
    58         45
    60         26
    62          7
    65         10
    66         24
    67         87
    68        363
    69        212
    70        288
    71         17
    72         68
    78          3
    79          8
    80         11
    81         25
    82         25
    83        169
    84         45
    85         12
    86        194
    87          6
    88          2
    92          5
    93          6
    94         14
    95         23
    96         24
    97         32
    98          6
    99          6
   100          6
   107         16
   108          3
   109         49
   110         71
   111        980
   112         73
   113          4
   122          3
   123         58
   124         11
   125         54
   126         11
   136          4
   137         30
   138        165
   139        423
   140         46
   141          4
   149          4
   150          5
   151        235
   152         79
   153        113
   154          7
   165        392
   166        177
   167         42
   168         24
   169          3
   179          4
   181         28
   182          4
   195         50
   196        329
   197         32
   198          5