##TITLE=Library Entry 6544
##JCAMP-DX=Revision 4.10 
##DATA TYPE=MASS SPECTRUM
##SAMPLE DESCRIPTION=Chuck Anderson, Aldrich Chemical Co.
##NAMES=HP
##CAS NAME=3,4-Dihydro-6-methyl-2H-pyran-2-one
##MOLFORM=C6H8O2
##CAS REGISTRY NO=3740-59-8
##MP= -300
##BP= -300
##MW= 112
##$RETENTION INDEX=1585
##$CONDENSED SPECTRUM=NO
##NPOINTS= 79
##XYDATA=(XY..XY) 1 
    12          0
    13          1
    14          9
    15         53
    16          0
    19          0
    20          0
    24          0
    25          2
    26         27
    27        141
    28         29
    29         28
    30          0
    31          7
    32          1
    33          1
    34          2
    35          0
    36          2
    37         28
    38         63
    39        306
    40         63
    41        247
    42        528
    43        999
    44         24
    45          5
    46          0
    47          0
    48          0
    49          4
    50         17
    51         16
    52          5
    53         33
    54          5
    55        465
    56         20
    57          2
    58         16
    59          0
    60          0
    61          3
    62          4
    63          5
    64          0
    65          9
    66          9
    67         22
    68         11
    69        190
    70         39
    71        110
    72          4
    73          0
    74          0
    75          0
    77          0
    79          0
    81          1
    82          2
    83         24
    84        224
    85         11
    86          0
    93          0
    94          0
    95          5
    96          0
    97         36
    98          1
    99          0
   110          0
   111          8
   112        465
   113         31
   114          2