##TITLE=Library Entry 34284
##JCAMP-DX=Revision 4.10 
##DATA TYPE=MASS SPECTRUM
##SAMPLE DESCRIPTION=S.A. Rang et al., IR & MS of Unsatd. Hydrocarbons, 1977
##NAMES=HP
##CAS NAME=Cyclopentane, pentyl-
##MOLFORM=C10H20
##CAS REGISTRY NO=3741-00-2
##MP= -300
##BP= -300
##MW= 140
##$RETENTION INDEX=1037
##$CONDENSED SPECTRUM=NO
##NPOINTS= 88
##XYDATA=(XY..XY) 1 
    15          7
    16          2
    24          0
    25          3
    26         22
    27        197
    28        164
    29        307
    30          7
    31          1
    37          2
    38          4
    39        197
    40         41
    41        990
    42        276
    43        369
    44         12
    45          2
    48          0
    49          1
    50          4
    51          9
    52          7
    53         82
    54        109
    55        846
    56        507
    57        181
    58         11
    59          1
    60          0
    62          0
    63          2
    64          0
    65         17
    66         20
    67        261
    68        984
    69        999
    70        507
    71         76
    72          4
    73          1
    77         10
    78          3
    79         17
    80          6
    81         28
    82        192
    83        476
    84        261
    85         46
    86          3
    87          0
    88          0
    90          0
    91          4
    92          0
    93          3
    94          2
    95          9
    96         41
    97        246
    98        131
    99         12
   100          1
   105          0
   107          1
   108          1
   109          2
   110         14
   111        126
   112        120
   113         10
   114          1
   121          1
   123          0
   125          2
   126          1
   127          1
   136          1
   137          0
   138          1
   139          2
   140        131
   141         14
   142          1