##TITLE=Library Entry 636
##JCAMP-DX=Revision 4.10 
##DATA TYPE=MASS SPECTRUM
##SAMPLE DESCRIPTION=Exported from NIST MS Search
##NAMES=HP
##CAS NAME=1,3,2-Dioxathiolane, 2-oxide
##MOLFORM=C2H4O3S
##CAS REGISTRY NO=3741-38-6
##MP= -300
##BP= -300
##MW= 108
##$RETENTION INDEX=0
##$CONDENSED SPECTRUM=NO
##NPOINTS= 24
##XYDATA=(XY..XY) 1 
    26         23
    27         23
    28         67
    29        999
    30         78
    31         18
    32         49
    42         56
    43        462
    44        289
    48        285
    49         23
    50        249
    52         12
    64        123
    65        289
    66         12
    67         12
    78        955
    79         23
   107         12
   108        289
   109         12
   110         12