##TITLE=Library Entry 79913
##JCAMP-DX=Revision 4.10 
##DATA TYPE=MASS SPECTRUM
##SAMPLE DESCRIPTION=J.S. DAVIDSON, DEP. CHEM., N.E. LONDON POLYTECH., LONDO
N, U.
##NAMES=HP
##CAS NAME=3-Benzamido-5-phenyl-1,2,4-triazole
##MOLFORM=C15H12N4O
##CAS REGISTRY NO=37419-88-8
##MP= -300
##BP= -300
##MW= 264
##$RETENTION INDEX=0
##$CONDENSED SPECTRUM=NO
##NPOINTS= 22
##XYDATA=(XY..XY) 1 
    39         30
    50         50
    51        140
    52         20
    63         20
    74         10
    75         20
    76         60
    77        600
    78         60
    91         10
   103         90
   104         80
   105        999
   106        130
   187         10
   235         10
   236         50
   237         20
   263         40
   264        430
   265         70