##TITLE=Library Entry 32336
##JCAMP-DX=Revision 4.10 
##DATA TYPE=MASS SPECTRUM
##SAMPLE DESCRIPTION=Exported from NIST MS Search
##NAMES=HP
##CAS NAME=Vinylcyclopentane
##MOLFORM=C7H12
##CAS REGISTRY NO=3742-34-5
##MP= -300
##BP= -300
##MW= 96
##$RETENTION INDEX=718
##$CONDENSED SPECTRUM=NO
##NPOINTS= 70
##XYDATA=(XY..XY) 1 
    12          1
    13          2
    14          7
    15         36
    16          1
    24          1
    25          3
    26         47
    27        254
    28         66
    29         58
    30          1
    31          1
    32          1
    36          2
    37         14
    38         39
    39        375
    40         82
    41        253
    42         49
    43          5
    44          2
    45          3
    46          2
    48          1
    49          3
    50         24
    51         44
    52         24
    53        161
    54        298
    55        162
    56          9
    57          1
    60          1
    61          4
    62          8
    63         14
    64          2
    65         34
    66         72
    67        999
    68        324
    69         20
    70          1
    73          1
    74          1
    75          1
    76          1
    77         18
    78          4
    79         23
    80          4
    81        172
    82         11
    83          1
    85          1
    86          1
    87          1
    89          1
    90          1
    91          6
    92          1
    93          2
    94          1
    95         34
    96        111
    97          8
    98          1