##TITLE=Library Entry 7895
##JCAMP-DX=Revision 4.10 
##DATA TYPE=MASS SPECTRUM
##SAMPLE DESCRIPTION=James Little,Eastman Chem.Co.,Kingsport,TN
##NAMES=HP
##CAS NAME=Acetic acid isopropylidene-hydrazide
##MOLFORM=C5H10N2O
##CAS REGISTRY NO=3742-63-0
##MP= -300
##BP= -300
##MW= 114
##$RETENTION INDEX=1267
##$CONDENSED SPECTRUM=NO
##NPOINTS= 31
##XYDATA=(XY..XY) 1 
    27         89
    29         65
    30        190
    39        171
    40         60
    41        226
    42        154
    43        999
    44         32
    53          9
    54         94
    55        506
    56        117
    57        980
    58         35
    69         28
    70         15
    71        123
    72        754
    73         59
    77         11
    83          7
    84          9
    85          8
    91         37
    97          7
    99        608
   100         39
   105         19
   114        550
   115         38