##TITLE=Library Entry 49979
##JCAMP-DX=Revision 4.10 
##DATA TYPE=MASS SPECTRUM
##SAMPLE DESCRIPTION=S.A. Rang et al., IR & MS of Unsatd. Hydrocarbons, 1977
##NAMES=HP
##CAS NAME=4-Ethylcyclohexene
##MOLFORM=C8H14
##CAS REGISTRY NO=3742-42-5
##MP= -300
##BP= -300
##MW= 110
##$RETENTION INDEX=850
##$CONDENSED SPECTRUM=NO
##NPOINTS= 62
##XYDATA=(XY..XY) 1 
    15          3
    25          0
    26          7
    27        153
    28         15
    29         88
    30          1
    37          1
    38          6
    39        214
    40         24
    41        318
    42         15
    43         12
    45          1
    46          0
    49          0
    50         10
    51         34
    52         21
    53        138
    54        472
    55        125
    56         27
    57          1
    62          1
    63          6
    64          1
    65         35
    66         29
    67        275
    68        125
    69        104
    70          5
    71          0
    74          0
    75          2
    76          1
    77         67
    78         14
    79        150
    80         47
    81        999
    82        184
    83          7
    84          0
    89          1
    90          0
    91         15
    92          2
    93          7
    94          3
    95        125
    96         10
    97          0
   106          0
   107          0
   108          0
   109          8
   110        191
   111         13
   112          0