##TITLE=Library Entry 48460
##JCAMP-DX=Revision 4.10 
##DATA TYPE=MASS SPECTRUM
##SAMPLE DESCRIPTION=Exported from NIST MS Search
##NAMES=HP
##CAS NAME=1,3,5-Triazine, hexahydro-1,3,5-tris[(trichloromethyl)thio]-
##MOLFORM=C6H6Cl9N3S3
##CAS REGISTRY NO=37424-91-2
##MP= -300
##BP= -300
##MW= 531
##$RETENTION INDEX=0
##$CONDENSED SPECTRUM=NO
##NPOINTS= 186
##XYDATA=(XY..XY) 1 
    20         10
    26         13
    27         83
    28        182
    29         24
    30         81
    31          2
    32         75
    33         14
    34          7
    35        130
    36        749
    37         42
    38        258
    39         12
    40         31
    41         80
    42        549
    43         42
    44        195
    45         41
    46         27
    47         65
    48          6
    49         49
    50          5
    51         12
    52          4
    53         13
    54         21
    55         13
    56         22
    57         17
    58         10
    59         41
    60         25
    61         23
    62         17
    63          5
    64         13
    67         12
    68          5
    69         34
    70          6
    71          5
    72         40
    73          4
    74         29
    75          7
    76        147
    77          6
    78         16
    79        999
    80         24
    81        330
    82          5
    83         31
    84         29
    85          7
    86         14
    87         38
    88         17
    89          5
    92         15
    93         12
    96          6
    99         10
   100          3
   101          7
   107         11
   108          5
   109         17
   110         67
   111          8
   112         44
   113          4
   114        405
   115         15
   116        275
   117        178
   118         57
   119        165
   120          3
   121         53
   122          7
   123          7
   135         16
   137         14
   139          7
   141          2
   142        452
   143         19
   144        309
   145         12
   146         63
   147          2
   148          3
   149         70
   150          3
   151         67
   152          3
   153         24
   155          3
   170          1
   171         78
   172         10
   173         22
   174          4
   175          2
   176          1
   177        361
   178         31
   179        370
   180          3
   181         13
   182         10
   183         18
   184         14
   186         17
   188          8
   190          2
   204         50
   205          4
   206         60
   207          5
   208         26
   209          1
   210          6
   219          1
   221         12
   223          5
   226         10
   228         12
   230          0
   231          2
   232          2
   233          5
   235          3
   237          5
   239          4
   242          7
   244          9
   246          5
   249          0
   251          5
   253          5
   255          1
   263          1
   287          2
   289          4
   291          2
   319         20
   321         33
   323         22
   325          8
   327          1
   346          1
   348          2
   350          2
   354         60
   356        114
   358         97
   360         47
   362         13
   364          2
   366          0
   381          8
   383         16
   385         15
   387          7
   389          2
   414         12
   416         26
   418         21
   420         11
   422          3
   496          1
   498          3
   500          4
   502          2
   504          1
   531          0
   533          0
   535          0
   537          0
   539          0