##TITLE=Library Entry 72261
##JCAMP-DX=Revision 4.10 
##DATA TYPE=MASS SPECTRUM
##SAMPLE DESCRIPTION=Chemical Concepts
##NAMES=HP
##CAS NAME=Cyclohexanol, 1-ethyl-, acetate
##MOLFORM=C10H18O2
##CAS REGISTRY NO=3742-81-2
##MP= -300
##BP= -300
##MW= 170
##$RETENTION INDEX=0
##$CONDENSED SPECTRUM=NO
##NPOINTS= 72
##XYDATA=(XY..XY) 1 
    26          6
    27         71
    29        137
    30          6
    31          9
    36          5
    39         69
    40         19
    41        192
    42         47
    43        376
    44         25
    45         20
    50          4
    51         13
    52          9
    53         50
    54         49
    55        187
    56         20
    57        136
    58         12
    59          8
    60         11
    65         17
    66         19
    67        172
    68         79
    69        187
    70         32
    71         25
    72        114
    73         20
    74          4
    77         25
    78          9
    79         51
    80         71
    81        677
    82        173
    83         32
    84         10
    85        192
    86         39
    87          5
    91         13
    93         10
    94          9
    95        149
    96         17
    97         13
    98         43
    99        999
   100        113
   101         10
   102          6
   107          5
   108          6
   109         24
   110        654
   111        192
   112         18
   113         27
   114          4
   123          8
   127          6
   128         66
   129          8
   140          5
   141        266
   142         38
   143          6