##TITLE=Library Entry 83729
##JCAMP-DX=Revision 4.10 
##DATA TYPE=MASS SPECTRUM
##SAMPLE DESCRIPTION=S.A. Rang et al., IR & MS of Unsatd. Hydrocarbons, 1977
##NAMES=HP
##CAS NAME=1-Hexen-3-yne, 2,5,5-trimethyl-
##MOLFORM=C9H14
##CAS REGISTRY NO=37439-53-5
##MP= -300
##BP= -300
##MW= 122
##$RETENTION INDEX=0
##$CONDENSED SPECTRUM=NO
##NPOINTS= 43
##XYDATA=(XY..XY) 1 
    15         58
    26         18
    27        173
    39        345
    41        294
    42         16
    50         62
    51        165
    52         60
    53        165
    55         49
    56         13
    62         26
    63         88
    64         22
    65        257
    66         33
    67        114
    68         12
    69         25
    74         25
    75         25
    76         10
    77        240
    78         65
    79        443
    80         36
    81         17
    89         16
    90         17
    91        924
    92        179
    93         49
    94         12
   103         22
   105        229
   106         49
   107        999
   108         90
   119         10
   121         32
   122        344
   123         34