##TITLE=Library Entry 78773
##JCAMP-DX=Revision 4.10 
##DATA TYPE=MASS SPECTRUM
##SAMPLE DESCRIPTION=A.A.Kutin, Moscow, Russia
##NAMES=HP
##CAS NAME=Benzamide, N-(2-hydroxyphenyl)-
##MOLFORM=C13H11NO2
##CAS REGISTRY NO=3743-70-2
##MP= -300
##BP= -300
##MW= 213
##$RETENTION INDEX=0
##$CONDENSED SPECTRUM=NO
##NPOINTS= 54
##XYDATA=(XY..XY) 1 
    36         11
    37         11
    38         45
    39         69
    40         20
    41         15
    42          6
    43         11
    44         11
    45         15
    50        151
    51        309
    52        112
    53        102
    54         21
    55          6
    57          0
    62          9
    63         42
    64         17
    65         13
    66          3
    68          0
    69          0
    73          5
    74         30
    75         29
    77        715
    78         71
    80        125
    81          9
    83          0
    89          0
    90          1
    91          2
    92          3
   102          0
   105        999
   106         54
   107          1
   108         15
   109          3
   115          1
   122         20
   128          0
   143          0
   166          0
   167          2
   194          0
   195         48
   196          4
   211          0
   213        125
   214         13