##TITLE=Library Entry 46418
##JCAMP-DX=Revision 4.10 
##DATA TYPE=MASS SPECTRUM
##SAMPLE DESCRIPTION=Asinex Ltd, Moscow, Russia
##NAMES=HP
##CAS NAME=6H-Indeno[1,2-b]pyrido[3,2-E]pyrazin-6-one, 3-chloro-
##MOLFORM=C14H6ClN3O
##CAS REGISTRY NO=37436-55-8
##MP= -300
##BP= -300
##MW= 267
##$RETENTION INDEX=0
##$CONDENSED SPECTRUM=NO
##NPOINTS= 96
##XYDATA=(XY..XY) 1 
    37         22
    38         52
    39        225
    40         31
    41          0
    43         21
    44         53
    47          3
    49         28
    50        543
    51        349
    52         83
    53          8
    57          0
    60        242
    61         77
    62        255
    63        133
    64        111
    65          5
    72          1
    73         42
    74        163
    75        433
    76        999
    77         90
    78          1
    83          0
    84         18
    85         36
    86         38
    87         73
    88         99
    89         16
    90          0
    97          0
    98         20
    99         47
   100         49
   101        121
   102        205
   103         26
   104          3
   109          1
   110        121
   111        167
   112         68
   113         83
   114         76
   115          3
   123          4
   124          8
   125         17
   126         88
   127         10
   128         50
   129        126
   130        180
   131          9
   134          1
   135          0
   137        107
   138          8
   139         44
   140         15
   149          2
   150         21
   151         18
   152        120
   153         53
   154         24
   175          0
   176         21
   177        269
   178         36
   179          0
   187          0
   202          1
   203         15
   204        525
   205        106
   206          1
   212         24
   213          6
   214          4
   215          0
   238         26
   239        423
   240         62
   241        129
   242         13
   266          0
   267        688
   268        104
   269        207
   270         31