##TITLE=Library Entry 99191
##JCAMP-DX=Revision 4.10 
##DATA TYPE=MASS SPECTRUM
##SAMPLE DESCRIPTION=A.A.Kutin, Moscow, Russia
##NAMES=HP
##CAS NAME=Benzoxazol, 2,3-dihydro-2-thioxo-3-(4-methylbenzoyl)-
##MOLFORM=C15H11NO2S
##CAS REGISTRY NO=37442-06-1
##MP= -300
##BP= -300
##MW= 269
##$RETENTION INDEX=0
##$CONDENSED SPECTRUM=NO
##NPOINTS= 81
##XYDATA=(XY..XY) 1 
    33          0
    34          1
    36          0
    37          7
    38         20
    39         85
    40         29
    41         24
    42          2
    43          8
    44         12
    45         21
    47          0
    49          0
    50         20
    51         37
    52         13
    53          4
    54          0
    55          5
    56          2
    57          5
    58          1
    59          1
    60          1
    61          4
    62         17
    63         59
    64         31
    65        159
    66          9
    67          1
    68          0
    69          8
    70          9
    71          3
    72          3
    73          0
    74          3
    75          4
    76          5
    77          7
    78         13
    79          5
    81          0
    82          1
    83          2
    84          1
    85          1
    86          1
    87          1
    88          1
    89         31
    90         25
    91        329
    92         30
    93          2
    94          1
    95          9
    96         10
    97          2
   106          0
   107          0
   119        999
   120         87
   121          8
   122         38
   123          4
   124          2
   125          0
   135          1
   136          3
   149          2
   150          9
   151         14
   152          2
   153          1
   154          0
   180          0
   269          5
   270          0