##TITLE=Library Entry 4398
##JCAMP-DX=Revision 4.10 
##DATA TYPE=MASS SPECTRUM
##SAMPLE DESCRIPTION=Exported from NIST MS Search
##NAMES=HP
##CAS NAME=1,2,4,5-Tetrazine, 1,4-dihydro-3,6-dimethyl-
##MOLFORM=C4H8N4
##CAS REGISTRY NO=37454-64-1
##MP= -300
##BP= -300
##MW= 112
##$RETENTION INDEX=0
##$CONDENSED SPECTRUM=NO
##NPOINTS= 21
##XYDATA=(XY..XY) 1 
    25          9
    26         95
    27        160
    28        360
    29         30
    30         19
    38         15
    39         30
    40         80
    41        150
    42        999
    43         80
    44         27
    55         14
    56         56
    57         13
    69         55
    70         23
    83         20
    84        280
    85         19