##TITLE=Library Entry 32963
##JCAMP-DX=Revision 4.10 
##DATA TYPE=MASS SPECTRUM
##SAMPLE DESCRIPTION=Chemical Concepts
##NAMES=HP
##CAS NAME=Octahydropentalen-1-ol
##MOLFORM=C8H14O
##CAS REGISTRY NO=37465-25-1
##MP= -300
##BP= -300
##MW= 126
##$RETENTION INDEX=0
##$CONDENSED SPECTRUM=NO
##NPOINTS= 59
##XYDATA=(XY..XY) 1 
    26          8
    27        124
    28         19
    29        113
    30          6
    31         43
    38          8
    39        165
    40         38
    41        291
    42         47
    43         58
    44         28
    45         20
    50         12
    51         33
    52         16
    53         81
    54        133
    55        147
    56         24
    57        295
    58        230
    59         19
    63          9
    65         46
    66         89
    67        999
    68        149
    69        137
    70        102
    71         17
    74          3
    77         60
    78         26
    79        206
    80        427
    81        117
    82        596
    83        217
    84         26
    85         29
    91         37
    92          6
    93        173
    94         20
    95         71
    96         13
    97        128
    98         53
    99          4
   105          6
   107         16
   108        316
   109         29
   111          9
   125          5
   126         44
   127          3