##TITLE=Library Entry 24015
##JCAMP-DX=Revision 4.10 
##DATA TYPE=MASS SPECTRUM
##SAMPLE DESCRIPTION=NIST Mass Spectrometry Data Center, 1994
##NAMES=HP
##CAS NAME=n-Dodecyl thioglycolate
##MOLFORM=C14H28O2S
##CAS REGISTRY NO=3746-39-2
##MP= -300
##BP= -300
##MW= 260
##$RETENTION INDEX=0
##$CONDENSED SPECTRUM=NO
##NPOINTS= 96
##XYDATA=(XY..XY) 1 
    14          4
    15          9
    18          2
    27        130
    28         45
    29        311
    30          8
    31         15
    33          5
    39        102
    41        623
    42        209
    43        911
    44         37
    45         49
    46         73
    47        310
    48         10
    49         15
    51          5
    53         37
    54         52
    55        477
    56        218
    57        999
    58         43
    59          4
    60          4
    61         13
    63          3
    64          3
    65          7
    66          7
    67         56
    68         48
    69        263
    70        153
    71        522
    72         30
    73          3
    74         55
    75         71
    76          5
    77         12
    79          7
    81         26
    82         81
    83        174
    84         99
    85        279
    86         18
    87          6
    88          3
    92        227
    93        116
    94         14
    95         14
    96         35
    97        133
    98         51
    99         58
   100          5
   101          4
   102          2
   105          5
   109          4
   110         21
   111         75
   112         31
   113         32
   114          3
   115          4
   123          2
   124          8
   125         33
   126         14
   127         11
   129          3
   130          3
   138          4
   139          9
   140         22
   141          2
   143          4
   157          3
   166          6
   168         37
   169          7
   171          2
   201         35
   202          6
   203          2
   213         38
   214          5
   260         22
   261          4