##TITLE=Library Entry 16234
##JCAMP-DX=Revision 4.10 
##DATA TYPE=MASS SPECTRUM
##SAMPLE DESCRIPTION=Japan AIST/NIMC Database- Spectrum MS-IW-2116
##NAMES=HP
##CAS NAME=N-Acetylglycylalanine methylamide
##MOLFORM=C8H15N3O3
##CAS REGISTRY NO=37460-19-8
##MP= -300
##BP= -300
##MW= 201
##$RETENTION INDEX=0
##$CONDENSED SPECTRUM=NO
##NPOINTS= 73
##XYDATA=(XY..XY) 1 
    14          2
    15         42
    16          1
    26          3
    27         13
    28         63
    29         13
    30        323
    31         35
    32         36
    39          2
    40          4
    41         10
    42         50
    43        186
    44        999
    45         49
    46          2
    52          1
    53          1
    54          4
    55         23
    56         20
    57         53
    58        111
    59         10
    60         23
    68          3
    69          6
    70         20
    71          5
    72        198
    73        122
    74          6
    75          2
    82          1
    83          7
    84          4
    85         58
    86         41
    87         52
    88          4
    97          2
    99          7
   100        165
   101         22
   102          6
   103          3
   111          2
   112          2
   113          2
   114          1
   115          1
   116          5
   124          2
   125          2
   126          3
   127         10
   128          4
   129         83
   130          7
   140          4
   141          1
   142          1
   143        372
   144        246
   145         17
   146          1
   155          2
   170          2
   171          1
   183          4
   201          3