##TITLE=Library Entry 73661
##JCAMP-DX=Revision 4.10 
##DATA TYPE=MASS SPECTRUM
##SAMPLE DESCRIPTION=A.A.Kutin, Moscow, Russia
##NAMES=HP
##CAS NAME=Propanamide, 2-hydroximino-3-(4-morpholyl)-N-(4-methylphenyl)-
##MOLFORM=C14H19N3O3
##CAS REGISTRY NO=37466-59-4
##MP= -300
##BP= -300
##MW= 277
##$RETENTION INDEX=0
##$CONDENSED SPECTRUM=NO
##NPOINTS= 100
##XYDATA=(XY..XY) 1 
    33         16
    34         11
    40         60
    41        157
    42        206
    43        144
    44        141
    45         28
    49          3
    50         21
    51         51
    52         43
    53         56
    54         82
    55         77
    56        284
    57        125
    58         36
    63         23
    64         23
    65         60
    66         16
    67         39
    68         77
    69         80
    70         87
    71         29
    72         46
    75          3
    76         44
    77        165
    78         85
    79         89
    80         32
    81         17
    82         23
    83         34
    84         34
    86        424
    87         40
    88         25
    89         21
    91        147
    92          9
    95         38
    96         43
    97         91
    98         91
   100        999
   103          5
   104         53
   105        176
   106        246
   107        160
   108         38
   110          2
   111          7
   113         79
   115         22
   116         12
   117         25
   118         20
   120         16
   123         25
   125        492
   126        160
   127         87
   128          6
   129          9
   130         46
   131         84
   132        111
   133         87
   134         33
   141          3
   143         44
   145         45
   146         45
   147         46
   148          3
   151         15
   153        352
   154         27
   158          4
   159         63
   160        109
   161         27
   172          3
   173         24
   175        279
   176         29
   178         37
   189          2
   192         25
   244          2
   260        869
   261        110
   262         11
   277         92
   278          5