##TITLE=Library Entry 24329
##JCAMP-DX=Revision 4.10 
##DATA TYPE=MASS SPECTRUM
##SAMPLE DESCRIPTION=Chemical Concepts
##NAMES=HP
##CAS NAME=2,4-Dimethyl-heptane-3,5-dione
##MOLFORM=C9H16O2
##CAS REGISTRY NO=37484-68-7
##MP= -300
##BP= -300
##MW= 156
##$RETENTION INDEX=1112
##$CONDENSED SPECTRUM=NO
##NPOINTS= 70
##XYDATA=(XY..XY) 1 
    26         13
    27        146
    28         81
    29        279
    30          6
    31          5
    37          1
    38          4
    39         62
    40          9
    41        167
    42         24
    43        824
    44         29
    45          9
    50          2
    51          3
    52          1
    53         15
    54          3
    55         40
    56         38
    57        999
    58         37
    59          6
    63          2
    64          1
    65          4
    66          1
    67         38
    68          5
    69         15
    70         14
    71        632
    72         36
    73          2
    77          2
    79          3
    80          0
    81         15
    82         16
    83         14
    84          3
    85        108
    86        142
    87         10
    91          1
    95          6
    97          1
    98          1
    99          8
   100        197
   101         10
   102          0
   105          1
   109          3
   111          1
   112          2
   113        261
   114         16
   115          1
   127         36
   128         11
   129          1
   133          0
   138          1
   141          1
   156        181
   157         20
   158          1