##TITLE=Library Entry 77859
##JCAMP-DX=Revision 4.10 
##DATA TYPE=MASS SPECTRUM
##SAMPLE DESCRIPTION=Chemical Concepts
##NAMES=HP
##CAS NAME=Cyclopenta[cd]pentalene-1,1,2,2-tetracarbonitrile, 2a,4a,6a,6b-te
trahydro-
##MOLFORM=C14H8N4
##CAS REGISTRY NO=37496-14-3
##MP= -300
##BP= -300
##MW= 232
##$RETENTION INDEX=0
##$CONDENSED SPECTRUM=NO
##NPOINTS= 107
##XYDATA=(XY..XY) 1 
    26         11
    27         43
    29          8
    30          1
    31         22
    33          3
    37         10
    38         30
    39        114
    40         11
    41         10
    42          1
    43          4
    45          2
    49          3
    50         60
    51        133
    52         78
    53         10
    55          3
    56          1
    57          3
    61          9
    62         25
    63         56
    64         27
    65         28
    66          6
    73          3
    74         16
    75         40
    76         57
    77         81
    78        126
    79         11
    85          2
    86          5
    87         14
    88         23
    89         25
    90          7
    91          8
    98          2
    99         12
   100         17
   101         21
   102         43
   103        128
   104        999
   105        118
   106          5
   111          3
   112          6
   113         15
   114         23
   115         13
   116          6
   117          2
   121          1
   123          3
   124          6
   125         14
   126         15
   127         13
   128         13
   129          5
   130          2
   131          7
   137          1
   138          7
   139         10
   140         44
   141         19
   142          7
   143          2
   150          7
   151         22
   152         43
   153         16
   154          6
   155          3
   163          2
   164          2
   165         13
   166          6
   167          9
   168          4
   176          5
   177         21
   178         39
   179         30
   180         10
   181          3
   190          4
   191          2
   192          1
   203          2
   204         29
   205         24
   206         12
   207          2
   215          3
   216          1
   231         20
   232        209
   233         40
   234          4