##TITLE=Library Entry 109249
##JCAMP-DX=Revision 4.10 
##DATA TYPE=MASS SPECTRUM
##SAMPLE DESCRIPTION=N S. WULFSON
##NAMES=HP
##CAS NAME=2(1H)-Pyridinone, 4-hydroxy-6-methyl-
##MOLFORM=C6H7NO2
##CAS REGISTRY NO=3749-51-7
##MP= -300
##BP= -300
##MW= 125
##$RETENTION INDEX=0
##$CONDENSED SPECTRUM=NO
##NPOINTS= 22
##XYDATA=(XY..XY) 1 
    51         40
    52         60
    53         50
    54         50
    55        110
    56         20
    57         10
    66         30
    67         40
    68        140
    69        150
    79         10
    80         30
    83         40
    84        770
    85         50
    95         20
    96        180
    97        210
    98         30
   125        999
   126         90