##TITLE=Library Entry 35032
##JCAMP-DX=Revision 4.10 
##DATA TYPE=MASS SPECTRUM
##SAMPLE DESCRIPTION=Japan AIST/NIMC Database- Spectrum MS-NW-3860
##NAMES=HP
##CAS NAME=Undecanol-5
##MOLFORM=C11H24O
##CAS REGISTRY NO=37493-70-2
##MP= -300
##BP= -300
##MW= 172
##$RETENTION INDEX=1376
##$CONDENSED SPECTRUM=NO
##NPOINTS= 74
##XYDATA=(XY..XY) 1 
    15          6
    17          2
    18          7
    26          5
    27        121
    28         19
    29        186
    30          7
    31         48
    32          4
    38          2
    39         63
    40         11
    41        360
    42         63
    43        283
    44         71
    45         77
    46          2
    50          1
    51          4
    52          2
    53         19
    54         20
    55        795
    56        111
    57        114
    58         49
    59         12
    60          1
    65          3
    66          2
    67         23
    68         22
    69        999
    70        118
    71         28
    72          5
    73          4
    77          2
    79          2
    81         11
    82          9
    83         39
    84         32
    85         23
    86         54
    87        610
    88         35
    89          2
    95          3
    96         15
    97        619
    98         57
    99          3
   100          3
   101          5
   110          2
   111         12
   112          6
   113         12
   114         13
   115        229
   116         19
   117          1
   125          5
   126          5
   128          1
   129          3
   141          1
   154         39
   155          5
   170          1
   171          6