##TITLE=Library Entry 36291
##JCAMP-DX=Revision 4.10 
##DATA TYPE=MASS SPECTRUM
##SAMPLE DESCRIPTION=Chemical Concepts
##NAMES=HP
##CAS NAME=Nonafluoro-1-bromobutane
##MOLFORM=C4BrF9
##CAS REGISTRY NO=375-48-4
##MP= -300
##BP= -300
##MW= 298
##$RETENTION INDEX=0
##$CONDENSED SPECTRUM=NO
##NPOINTS= 54
##XYDATA=(XY..XY) 1 
    31        347
    36          1
    43          6
    50        145
    51          2
    55          9
    62         22
    69        999
    70         22
    74         24
    75          1
    79         48
    81         76
    82          1
    85          9
    86          1
    91          9
    93         89
    94          2
   100        377
   101          6
   105          1
   110         21
   112         43
   113          1
   119        423
   120          6
   122          2
   124          3
   129        522
   131        686
   132         13
   141          4
   143          3
   150         16
   153          1
   155          1
   160         24
   162         24
   169         15
   179         45
   181         44
   182          1
   191        113
   193        111
   194          3
   219        660
   220         35
   229          2
   231          2
   279          2
   281          2
   298          2
   300          2