##TITLE=Library Entry 74714
##JCAMP-DX=Revision 4.10 
##DATA TYPE=MASS SPECTRUM
##SAMPLE DESCRIPTION=Exported from NIST MS Search
##NAMES=HP
##CAS NAME=Butane, 1,1,2,3,4,4-hexachloro-1,2,3,4-tetrafluoro-
##MOLFORM=C4Cl6F4
##CAS REGISTRY NO=375-43-9
##MP= -300
##BP= -300
##MW= 334
##$RETENTION INDEX=0
##$CONDENSED SPECTRUM=NO
##NPOINTS= 152
##XYDATA=(XY..XY) 1 
    28         60
    31         54
    32         17
    35          9
    36          4
    37          3
    40          1
    43          1
    47         25
    48          2
    49          8
    50          2
    55         13
    59          2
    62          2
    63          2
    64          3
    65          1
    66         19
    67          1
    68          6
    69         46
    70          1
    71          7
    72          1
    73          2
    74         18
    75          1
    78         12
    79          1
    80          4
    82         24
    83          1
    84         16
    85        214
    86          7
    87         70
    88          1
    90         15
    91          1
    92          5
    93         20
    94          7
    96          5
    97         10
    98          6
    99          2
   100          1
   101        999
   102         14
   103        635
   104          8
   105        105
   106          6
   107          1
   108          2
   109         51
   110          2
   111         17
   113          8
   115          5
   116          5
   117        155
   118          3
   119        152
   120          2
   121         50
   123          6
   124          1
   125         20
   126          1
   127         13
   128          1
   129          5
   131          3
   132         74
   133          8
   134         48
   135         49
   136          8
   137         16
   140          2
   141          2
   142          1
   143          2
   144          1
   145          1
   147          2
   148         13
   149          1
   150         13
   151        297
   152         11
   153        191
   154          5
   155         32
   156          1
   159          4
   161          2
   163         62
   164          8
   165         40
   166          9
   167        154
   168          8
   169        210
   170          6
   171         68
   172          3
   173          7
   175          3
   177          2
   179         47
   181         45
   183         35
   185         36
   187         13
   189          3
   193          2
   194          3
   195          1
   196          4
   197          9
   198          4
   199          8
   200          5
   201          3
   202          2
   204          1
   206          1
   213          6
   214          4
   215          7
   217          3
   228          5
   230          5
   232          9
   234         10
   236          5
   238          1
   247          4
   249          6
   251          4
   253          1
   264          1
   267          2
   268          1
   299         13
   301         21
   303         14
   305          5
   307          1