##TITLE=Library Entry 608
##JCAMP-DX=Revision 4.10 
##DATA TYPE=MASS SPECTRUM
##SAMPLE DESCRIPTION=G.O.PRITCHARD UNIV.OF CALIFORNIA SANTA BARBARA CALIFORN
IA USA
##NAMES=HP
##CAS NAME=Butanal, heptafluoro-
##MOLFORM=C4HF7O
##CAS REGISTRY NO=375-02-0
##MP= -300
##BP= -300
##MW= 198
##$RETENTION INDEX=0
##$CONDENSED SPECTRUM=NO
##NPOINTS= 27
##XYDATA=(XY..XY) 1 
    12          7
    13          4
    15         27
    19          1
    20          2
    24          2
    25          1
    28         31
    29        999
    31        147
    32         17
    43          4
    44          7
    50         29
    51        151
    63          4
    69        303
    78          1
    79         13
    81          7
    82          5
   100        126
   101          5
   119         20
   131         22
   150         59
   169         20