##TITLE=Library Entry 37873
##JCAMP-DX=Revision 4.10 
##DATA TYPE=MASS SPECTRUM
##SAMPLE DESCRIPTION=C.Kaiser ET AL.J.Mass.Spectrom.,32,336(1997)
##NAMES=HP
##CAS NAME=Endo-3-acetamidocamphor
##MOLFORM=C11H19NO
##CAS REGISTRY NO=3750-49-0
##MP= -300
##BP= -300
##MW= 181
##$RETENTION INDEX=0
##$CONDENSED SPECTRUM=NO
##NPOINTS= 8
##XYDATA=(XY..XY) 1 
    55         10
    67          7
    68         10
    70        999
    71         35
   153         84
   154          6
   181          2