##TITLE=Library Entry 84179
##JCAMP-DX=Revision 4.10 
##DATA TYPE=MASS SPECTRUM
##SAMPLE DESCRIPTION=Exported from NIST MS Search
##NAMES=HP
##CAS NAME=Acetic acid, (1-methyl-2(1H)-pyridinylidene)-, ethyl ester
##MOLFORM=C10H13NO2
##CAS REGISTRY NO=37515-50-7
##MP= -300
##BP= -300
##MW= 179
##$RETENTION INDEX=0
##$CONDENSED SPECTRUM=NO
##NPOINTS= 18
##XYDATA=(XY..XY) 1 
    63         50
    65         60
    77        170
    78        260
    79        110
    91         60
    92         70
   104         70
   106        300
   107        999
   108        130
   118         50
   119         40
   122         50
   134        799
   135        130
   179        669
   180         80