##TITLE=Library Entry 45263
##JCAMP-DX=Revision 4.10 
##DATA TYPE=MASS SPECTRUM
##SAMPLE DESCRIPTION=A.A.Kutin, Moscow, Russia
##NAMES=HP
##CAS NAME=2-Mercaptoethanol, TMS derivative
##MOLFORM=C5H14OSSi
##CAS REGISTRY NO=37515-85-8
##MP= -300
##BP= -300
##MW= 150
##$RETENTION INDEX=0
##$CONDENSED SPECTRUM=NO
##NPOINTS= 77
##XYDATA=(XY..XY) 1 
    34         10
    35         20
    36          2
    37          1
    38          0
    39          4
    40          0
    41          7
    42         26
    43        133
    44         38
    45        279
    46         31
    47        145
    48          8
    49          5
    50          1
    51          3
    52          1
    53         10
    54          3
    55         15
    56          5
    57         17
    58         77
    59        115
    60        376
    61        113
    62         23
    63          6
    64          0
    65          0
    66          0
    67          3
    69          0
    70          3
    71          9
    73        642
    75        999
    76         78
    77         60
    78          3
    79          3
    80          0
    85          2
    87          5
    88         16
    89          5
    91        182
    92         16
    93         25
    94          1
    95          1
    99          0
   101         22
   103        199
   104         21
   105         11
   106          1
   107          1
   115          0
   117         13
   119         50
   120          4
   121          4
   122          0
   132          0
   133          1
   135        206
   136         22
   137         17
   138          1
   139          0
   149          1
   150          9
   151          1
   152          0