##TITLE=Library Entry 80843
##JCAMP-DX=Revision 4.10 
##DATA TYPE=MASS SPECTRUM
##SAMPLE DESCRIPTION=NIST Mass Spectrometry Data Center, 1994
##NAMES=HP
##CAS NAME=3-(3-Methylphenyl)propionic acid
##MOLFORM=C10H12O2
##CAS REGISTRY NO=3751-48-2
##MP= -300
##BP= -300
##MW= 164
##$RETENTION INDEX=0
##$CONDENSED SPECTRUM=NO
##NPOINTS= 68
##XYDATA=(XY..XY) 1 
    26          7
    27         63
    28         15
    29         10
    31          8
    32          1
    37          3
    38         17
    39        124
    40         15
    41         47
    42         11
    43          6
    44          1
    45         67
    46          2
    50         39
    51         89
    52         30
    53         30
    55         11
    58         20
    60          6
    61          5
    62         23
    63         68
    64         19
    65        115
    66         10
    67          4
    72          3
    73          4
    74         14
    75         15
    76          3
    77        206
    78         74
    79        129
    80          9
    81         12
    86          6
    87          7
    89         39
    91        212
    92         82
    93         30
    94          3
   101          4
   102         23
   103        106
   104          3
   105        999
   106         83
   107         19
   108          2
   115         73
   117        162
   118        529
   119        190
   120         19
   121          9
   131         11
   145          7
   146          6
   147          7
   164        352
   165         40
   166          3