##TITLE=Library Entry 83214
##JCAMP-DX=Revision 4.10 
##DATA TYPE=MASS SPECTRUM
##SAMPLE DESCRIPTION=Japan AIST/NIMC Database- Spectrum MS-NW-7460
##NAMES=HP
##CAS NAME=4-Decylaniline
##MOLFORM=C16H27N
##CAS REGISTRY NO=37529-30-9
##MP= -300
##BP= -300
##MW= 233
##$RETENTION INDEX=0
##$CONDENSED SPECTRUM=NO
##NPOINTS= 63
##XYDATA=(XY..XY) 1 
    27         10
    28         10
    29         19
    30          3
    39          9
    40          1
    41         24
    42          4
    43         17
    44          2
    50          1
    51          3
    52          3
    53          4
    54          3
    55          9
    56          2
    57          4
    63          2
    64          1
    65          7
    66          3
    67          2
    69          2
    71          1
    76          1
    77         21
    78         10
    79         12
    80          4
    89          3
    90          1
    91          7
    92          8
    93          9
    94          5
    95          1
   102          1
   103          3
   104          5
   105          6
   106        999
   107         86
   108          4
   115          2
   117          3
   118          6
   119         15
   120         10
   121          1
   130          2
   131          1
   132          9
   133          3
   134          1
   144          1
   147          1
   148          1
   231          1
   232          1
   233        137
   234         25
   235          3