##TITLE=Library Entry 82835
##JCAMP-DX=Revision 4.10 
##DATA TYPE=MASS SPECTRUM
##SAMPLE DESCRIPTION=NIST Mass Spectrometry Data Center, 1994
##NAMES=HP
##CAS NAME=p-Nonylaniline
##MOLFORM=C15H25N
##CAS REGISTRY NO=37529-29-6
##MP= -300
##BP= -300
##MW= 219
##$RETENTION INDEX=0
##$CONDENSED SPECTRUM=NO
##NPOINTS= 76
##XYDATA=(XY..XY) 1 
    15          1
    17          0
    18          2
    27         48
    28         25
    29         67
    30          8
    32          0
    37          0
    39         32
    40          6
    41         84
    42         12
    43         46
    44          1
    50          1
    51          9
    52          8
    53         12
    54          7
    55         14
    56          2
    57          7
    58          0
    62          0
    63          4
    64          2
    65         17
    66          8
    67          4
    68          0
    69          1
    70          0
    71          1
    75          0
    77         50
    78         23
    79         32
    80          9
    81          0
    89          5
    90          2
    91         12
    92         10
    93         14
    94          5
    95          0
   101          0
   102          1
   103          6
   104          9
   105          0
   106        999
   107         85
   108          4
   115          3
   116          1
   117          5
   118         12
   119         26
   120         12
   121          1
   128          0
   129          0
   130          3
   131          2
   132          9
   133          2
   134          1
   144          0
   146          0
   147          0
   217          0
   219         65
   220         11
   221          1