##TITLE=Library Entry 44666
##JCAMP-DX=Revision 4.10 
##DATA TYPE=MASS SPECTRUM
##SAMPLE DESCRIPTION=ASES Database, Dalian Institute, P.R. China
##NAMES=HP
##CAS NAME=2,4-Dimethyl-6-phenyl-3-thioxo-5-oxo-2,3,4,5-tetrahydro-1,2,4-tri
azine
##MOLFORM=C11H11N3OS
##CAS REGISTRY NO=37526-27-5
##MP= -300
##BP= -300
##MW= 233
##$RETENTION INDEX=0
##$CONDENSED SPECTRUM=NO
##NPOINTS= 23
##XYDATA=(XY..XY) 1 
    41        297
    43        331
    45        260
    50        249
    51        279
    63        251
    69        833
    72        240
    73        318
    74        999
    75        150
    76        280
    77        361
    89        211
   103        209
   104        372
   118         80
   131        201
   132        550
   159         59
   160         50
   200         50
   233        340