##TITLE=Library Entry 83153
##JCAMP-DX=Revision 4.10 
##DATA TYPE=MASS SPECTRUM
##SAMPLE DESCRIPTION=Chuck Anderson, Aldrich Chemical Co.
##NAMES=HP
##CAS NAME=p-Heptylaniline
##MOLFORM=C13H21N
##CAS REGISTRY NO=37529-27-4
##MP= -300
##BP= -300
##MW= 191
##$RETENTION INDEX=0
##$CONDENSED SPECTRUM=NO
##NPOINTS= 56
##XYDATA=(XY..XY) 1 
    26          0
    27         12
    28          7
    29         13
    30          3
    36          3
    38          1
    39         10
    40          1
    41         16
    42          3
    43         10
    44          0
    50          1
    51          4
    52          4
    53          5
    54          3
    55          4
    57          0
    63          3
    64          1
    65         11
    66          5
    67          2
    76          0
    77         40
    78         16
    79         17
    80          4
    89          4
    90          1
    91         10
    92         10
    93         11
    94          3
   102          1
   103          4
   104          8
   106        999
   107         74
   108          3
   115          2
   116          1
   117          5
   118         10
   119         16
   120          6
   121          0
   130          2
   131          1
   132         10
   133          1
   191        103
   192         13
   193          0