##TITLE=Library Entry 60360
##JCAMP-DX=Revision 4.10 
##DATA TYPE=MASS SPECTRUM
##SAMPLE DESCRIPTION=NIST Mass Spectrometry Data Center
##NAMES=HP
##CAS NAME=Benzyl angelate
##MOLFORM=C12H14O2
##CAS REGISTRY NO=37526-87-7
##MP= -300
##BP= -300
##MW= 190
##$RETENTION INDEX=1446
##$CONDENSED SPECTRUM=NO
##NPOINTS= 58
##XYDATA=(XY..XY) 1 
    26          3
    27         36
    29         55
    30          2
    31          2
    38          7
    39         91
    40          9
    41         29
    42          5
    50         18
    51         53
    52         15
    53         42
    54         27
    55        265
    56         16
    59          3
    62          8
    63         28
    64         10
    65        128
    66          8
    69         22
    74          4
    75          3
    76          3
    77         53
    78          9
    79         36
    80          3
    82         29
    83        303
    84         26
    89         34
    90         26
    91        999
    92         83
   104          3
   105          9
   107         34
   108          5
   112          4
   116          5
   117         12
   129          9
   130          3
   131          9
   144         18
   145         42
   146          5
   157          3
   171          1
   172         65
   173          6
   175          2
   190         14
   191          2