##TITLE=Library Entry 95158
##JCAMP-DX=Revision 4.10 
##DATA TYPE=MASS SPECTRUM
##SAMPLE DESCRIPTION=TAT 0057
##NAMES=HP
##CAS NAME=2-Propenal, 2-methyl-3-(4-nitrophenyl)-
##MOLFORM=C10H9NO3
##CAS REGISTRY NO=37524-18-8
##MP= -300
##BP= -300
##MW= 191
##$RETENTION INDEX=0
##$CONDENSED SPECTRUM=NO
##NPOINTS= 67
##XYDATA=(XY..XY) 1 
    27         40
    29         70
    30         60
    37         20
    38         40
    39        230
    40         60
    41         40
    43         30
    44         20
    50        140
    51        170
    52         40
    53         30
    55         20
    61         30
    62        100
    63        240
    64         50
    65        160
    66         20
    68         20
    69         20
    74         80
    75         90
    76         60
    77        180
    78         70
    79         50
    85         20
    86         50
    87         50
    88         40
    89        160
    90         50
    91        310
    92         40
    93         50
   101         20
   102         80
   103         60
   104         20
   105         60
   106         10
   113         40
   114         70
   115        999
   116        530
   117        310
   118         40
   127         20
   130         30
   131         20
   132         20
   133         50
   144        550
   145        240
   146         60
   147         10
   161         30
   162         20
   174        800
   175        100
   176         20
   190         90
   191        210
   192         23