##TITLE=Library Entry 14151
##JCAMP-DX=Revision 4.10 
##DATA TYPE=MASS SPECTRUM
##SAMPLE DESCRIPTION=CARL DJERASSI DEPT OF CHEM STANFORD UNIV STANFORD CALIF
 94305
##NAMES=HP
##CAS NAME=5.alpha.-Pregn-16-en-20-one
##MOLFORM=C21H32O
##CAS REGISTRY NO=3752-04-3
##MP= -300
##BP= -300
##MW= 300
##$RETENTION INDEX=0
##$CONDENSED SPECTRUM=NO
##NPOINTS= 134
##XYDATA=(XY..XY) 1 
    36         10
    37         10
    38         10
    39        100
    40        120
    41        330
    42         30
    43        999
    44         40
    45         30
    48         10
    50         10
    51         20
    52         10
    53         90
    54         30
    55        270
    56         20
    57         40
    63         10
    64         10
    65         40
    66         20
    67        230
    68         40
    69         60
    70         10
    71         20
    77        110
    78         30
    79        150
    80         20
    81        210
    82         20
    83         50
    85         20
    86         10
    91        150
    92         40
    93        220
    94         30
    95        170
    96         10
    97         30
    98         10
    99         10
   100         10
   103         10
   104         10
   105        120
   106         20
   107        160
   108         40
   109        210
   110         30
   111         60
   112         10
   114         10
   115         30
   116         10
   117         40
   118         10
   119         70
   120         20
   121        160
   122         30
   123         50
   124         10
   128         20
   129         20
   130         10
   131         50
   132         10
   133         70
   134         20
   135        160
   136         30
   137         40
   138         10
   141         10
   142         10
   143         10
   145         30
   146         10
   147        150
   148         30
   149        110
   150         20
   151         10
   157         10
   159         30
   160         10
   161        150
   162         20
   163         80
   164         10
   171         10
   173         20
   174         10
   175         70
   176         10
   177         20
   178         10
   185         10
   187         20
   188         10
   189         90
   190         40
   191         20
   192         10
   199         10
   201         20
   202         20
   203         40
   204         10
   215         10
   216         10
   217         10
   229         10
   241         10
   243         10
   255         10
   257        430
   258         80
   259         10
   267         80
   268         20
   271         10
   285        190
   286         40
   287         10
   300        220
   301         50
   302         20