##TITLE=Library Entry 22707
##JCAMP-DX=Revision 4.10 
##DATA TYPE=MASS SPECTRUM
##SAMPLE DESCRIPTION=ASES Database, Dalian Institute, P.R. China
##NAMES=HP
##CAS NAME=2-Methyl-3-methoxy-6-phenyl-5-oxo-2,5-dihydro-1,2,4-triazine
##MOLFORM=C11H11N3O2
##CAS REGISTRY NO=37526-38-8
##MP= -300
##BP= -300
##MW= 217
##$RETENTION INDEX=0
##$CONDENSED SPECTRUM=NO
##NPOINTS= 17
##XYDATA=(XY..XY) 1 
    43         80
    50         98
    51        130
    56        999
    63        140
    76        219
    77        199
    83        341
    84        559
    89         80
    99        700
   103        200
   104        119
   114        330
   131         60
   132         69
   217        220