##TITLE=Library Entry 60361
##JCAMP-DX=Revision 4.10 
##DATA TYPE=MASS SPECTRUM
##SAMPLE DESCRIPTION=NIST Mass Spectrometry Data Center
##NAMES=HP
##CAS NAME=Benzyl tiglate
##MOLFORM=C12H14O2
##CAS REGISTRY NO=37526-88-8
##MP= -300
##BP= -300
##MW= 190
##$RETENTION INDEX=1498
##$CONDENSED SPECTRUM=NO
##NPOINTS= 81
##XYDATA=(XY..XY) 1 
    13          1
    17          1
    18          1
    26         12
    27        153
    28         29
    29        141
    30          2
    37          5
    38         26
    39        221
    40         20
    41         36
    42          3
    43         18
    44          2
    50         48
    51        116
    52         35
    53         77
    54         39
    55        385
    56         31
    57          2
    61          2
    62         15
    63         54
    64         20
    65        213
    66         13
    67          2
    69         15
    70          3
    71          1
    75          5
    76          9
    77         96
    78         23
    79         78
    80          6
    83        547
    84         55
    85          4
    87          1
    89         66
    91        999
    92         86
    93          3
    99          2
   103          1
   105         23
   107         66
   108          8
   112          4
   115          3
   116          3
   117         22
   118          3
   121          9
   122          1
   128          5
   129         45
   130          9
   131         16
   132          1
   134          2
   143          9
   145        252
   146         33
   147         18
   148          1
   157         21
   158          2
   161          3
   172        212
   173         27
   174          3
   175         11
   176          1
   190         39
   191          6