##TITLE=Library Entry 58094
##JCAMP-DX=Revision 4.10 
##DATA TYPE=MASS SPECTRUM
##SAMPLE DESCRIPTION=ASES Database, Dalian Institute, P.R. China
##NAMES=HP
##CAS NAME=2-Methyl-3-methylthio-6-phenyl-5-oxo-2,5-dihydro-1,2,4-triazine
##MOLFORM=C11H11N3OS
##CAS REGISTRY NO=37526-34-4
##MP= -300
##BP= -300
##MW= 233
##$RETENTION INDEX=0
##$CONDENSED SPECTRUM=NO
##NPOINTS= 16
##XYDATA=(XY..XY) 1 
    43        181
    45        168
    46        148
    47        161
    50        238
    51        249
    56        347
    63        197
    76        247
    77        248
    88        999
   103        239
   104        199
   130        588
   186         50
   233        179