##TITLE=Library Entry 86391
##JCAMP-DX=Revision 4.10 
##DATA TYPE=MASS SPECTRUM
##SAMPLE DESCRIPTION=Exported from NIST MS Search
##NAMES=HP
##CAS NAME=1H-Pyrrol-1-yloxy, 3-[[(2,5-dioxo-1-pyrrolidinyl)oxy]carbonyl]-2,
5-dihydro-2,2,5,5-tetramethyl-
##MOLFORM=C13H17N2O5
##CAS REGISTRY NO=37558-29-5
##MP= -300
##BP= -300
##MW= 281
##$RETENTION INDEX=0
##$CONDENSED SPECTRUM=NO
##NPOINTS= 122
##XYDATA=(XY..XY) 1 
    12          6
    13          1
    14         10
    15         58
    16          9
    17         10
    18         64
    19         10
    24          2
    25          6
    26         58
    27        197
    28        389
    29        110
    30         48
    31         13
    32          4
    37          6
    38         14
    39        200
    40         48
    41        417
    42        109
    43        266
    44        114
    45        149
    46          9
    50         16
    51         64
    52         36
    53        130
    54         24
    55        192
    56        130
    57         21
    58         21
    59         17
    60          2
    62          5
    63         13
    64          6
    65         82
    66         40
    67         35
    68         36
    69         53
    70         26
    71          2
    72          1
    73          9
    74          2
    75          2
    76          1
    77        136
    78         29
    79        144
    80         34
    81        154
    82         38
    83         33
    84         12
    86          5
    87          8
    91        106
    92         21
    93        149
    94         62
    95         20
    96         20
    97          8
    98          8
    99         24
   100          4
   103          4
   105         12
   106         12
   107         66
   108        113
   109        999
   110        105
   111         26
   112          4
   114          1
   115          4
   116          2
   119          2
   120          6
   121         24
   122         46
   123         10
   124         29
   125         12
   126         33
   127          4
   134         10
   135         34
   136        693
   137        594
   138         66
   139         53
   140          5
   148          2
   149          2
   150         72
   151         58
   152        233
   153         45
   154         16
   155          2
   166         17
   167        366
   168         69
   169          8
   182          5
   184          5
   251         13
   252          2
   267         16
   268          2
   281        397
   282         72
   283          9