##TITLE=Library Entry 50316
##JCAMP-DX=Revision 4.10 
##DATA TYPE=MASS SPECTRUM
##SAMPLE DESCRIPTION=D.HENNEBERG, MAX-PLANCK INSTITUTE, MULHEIM, WEST GERMAN
Y
##NAMES=HP
##CAS NAME=Cyclopentanecarboxylic acid, 3-methylene-, methyl ester
##MOLFORM=C8H12O2
##CAS REGISTRY NO=37575-80-7
##MP= -300
##BP= -300
##MW= 140
##$RETENTION INDEX=0
##$CONDENSED SPECTRUM=NO
##NPOINTS= 99
##XYDATA=(XY..XY) 1 
    26          8
    27         58
    28         25
    29         20
    30          0
    31          3
    32          0
    33          6
    37          0
    38          1
    39         74
    40         18
    41        117
    42          8
    43         21
    44          4
    45          8
    47          0
    49          0
    50          3
    51         14
    52         17
    53        111
    54         30
    55         74
    56          4
    57          4
    58          3
    59         40
    60          2
    61          5
    62          0
    63          0
    64          0
    65         23
    66         21
    67         26
    68          9
    69         13
    70          0
    71          3
    72          1
    73          0
    74          2
    75          1
    76          0
    77         74
    78         18
    79        382
    80        560
    81        999
    82         69
    83         14
    84          2
    85          8
    86          1
    87         36
    88          3
    89          0
    90          0
    91          7
    92          1
    93         15
    94          2
    95          4
    96          0
    97         18
    98          6
    99          1
   100          2
   101          0
   103          0
   105          2
   106          0
   107         17
   108         31
   109        119
   110         11
   111          8
   112         28
   113          3
   114          0
   115          3
   119          0
   121          4
   122          0
   123          4
   124          0
   125         53
   126          3
   127          3
   128          0
   129          0
   137          2
   138          0
   139          4
   140         38
   141          4
   142          0