##TITLE=Library Entry 15792
##JCAMP-DX=Revision 4.10 
##DATA TYPE=MASS SPECTRUM
##SAMPLE DESCRIPTION=NIST Mass Spectrometry Data Center, 1994
##NAMES=HP
##CAS NAME=(1S,2R)-(+)-Norephedrine
##MOLFORM=C9H13NO
##CAS REGISTRY NO=37577-28-9
##MP= -300
##BP= -300
##MW= 151
##$RETENTION INDEX=0
##$CONDENSED SPECTRUM=NO
##NPOINTS= 76
##XYDATA=(XY..XY) 1 
    14          1
    15         21
    16          0
    17          0
    18        116
    19          0
    26          4
    27         41
    28         26
    29         26
    30         13
    31          2
    37          1
    38          6
    39         29
    40          6
    41         11
    42         52
    43          1
    44        999
    45         40
    46          0
    50         27
    51         67
    52         19
    53         13
    54          2
    55          4
    56          2
    57          3
    59          2
    61          1
    62          6
    63         14
    64          3
    65          8
    66          2
    67          0
    68          0
    72          0
    73          1
    74          7
    75          4
    76          0
    77        142
    78         36
    79         86
    80          6
    81          0
    85          0
    86          1
    87          1
    89          9
    90          5
    91         15
    92          1
    93          1
   102          1
   103          2
   105         28
   106          6
   107         23
   108          4
   115          4
   117         11
   118         10
   119          3
   120          0
   130          1
   131          0
   132          3
   133          2
   134          2
   135          0
   136          0
   152          0