##TITLE=Library Entry 58070
##JCAMP-DX=Revision 4.10 
##DATA TYPE=MASS SPECTRUM
##SAMPLE DESCRIPTION=R. RYHAGE KAROLINSKA INSTITUTET, STOCKHOLM
##NAMES=HP
##CAS NAME=Heneicosanoic acid, 2,3-dimethyl-, methyl ester
##MOLFORM=C24H48O2
##CAS REGISTRY NO=37577-58-5
##MP= -300
##BP= -300
##MW= 368
##$RETENTION INDEX=0
##$CONDENSED SPECTRUM=NO
##NPOINTS= 145
##XYDATA=(XY..XY) 1 
    18          2
    27          5
    28          2
    29         16
    39          5
    41         44
    42          7
    43         78
    44          3
    53          4
    54          4
    55         64
    56         30
    57         85
    58          4
    59         25
    67         13
    68         10
    69        100
    70         31
    71         78
    72          6
    73         20
    74         25
    75          8
    77          2
    79          5
    80          2
    81         18
    82         11
    83         94
    84         16
    85         55
    86          4
    87         31
    88        999
    89         72
    90          8
    91          2
    93          3
    94          2
    95         18
    96         10
    97         75
    98         13
    99          5
   100          2
   101         40
   102         13
   107          4
   109         10
   110          5
   111         39
   112         16
   113         16
   114          7
   115        490
   116         39
   117          4
   119         11
   121          4
   123          7
   124          4
   125         21
   126          8
   127         13
   128          2
   129         15
   130          2
   135          3
   137          4
   138          3
   139         10
   140          4
   141          9
   143         15
   144          3
   151          3
   153          6
   154          2
   155          7
   157         18
   158          4
   163          2
   165          2
   167          5
   168          3
   169          6
   171         27
   172          4
   181          4
   182          2
   183          5
   185          7
   195          3
   197          5
   199          7
   209          3
   211          4
   213          8
   214          2
   223          3
   224          2
   225          4
   227         11
   228          3
   237          2
   239          4
   241         11
   242          3
   253          3
   255          8
   256          2
   269          6
   270          3
   278          2
   279          4
   280          5
   281          4
   283          7
   284          3
   297         31
   298          9
   308          4
   309         30
   310          8
   311        180
   312         43
   313          6
   321          3
   325          2
   335          3
   336          4
   337         30
   338          8
   339          9
   340          4
   353         43
   354         12
   355          2
   367         11
   368        380
   369        110
   370         16
   371          2