##TITLE=Library Entry 49283
##JCAMP-DX=Revision 4.10 
##DATA TYPE=MASS SPECTRUM
##SAMPLE DESCRIPTION=Chemical Concepts
##NAMES=HP
##CAS NAME=1,2-Cyclopentanedicarboxylic acid, 4-methylene-, dimethyl ester,
 trans-
##MOLFORM=C10H14O4
##CAS REGISTRY NO=37575-81-8
##MP= -300
##BP= -300
##MW= 198
##$RETENTION INDEX=0
##$CONDENSED SPECTRUM=NO
##NPOINTS= 103
##XYDATA=(XY..XY) 1 
    25          6
    27         60
    28          7
    29         13
    30          3
    31          6
    33          4
    37          1
    38          6
    39         72
    40         17
    41         36
    42          4
    43          8
    44          3
    45         20
    46          0
    47          1
    49          0
    50         12
    51         37
    52         28
    53         49
    54         10
    55         42
    56          3
    57          1
    58          1
    59        167
    60          5
    61          4
    62          1
    63          5
    64          1
    65         15
    66          6
    67         23
    68          9
    69          5
    70          0
    71          3
    74          1
    75         12
    76          3
    77        153
    78        180
    79        999
    80        122
    81         17
    82          4
    83          3
    84          1
    85          2
    87          5
    88          1
    89          1
    90          0
    91          8
    92          1
    93         11
    94          2
    95         13
    96          7
    97          5
    98          2
    99          1
   100          0
   101          0
   104          1
   105         17
   106         45
   107        163
   108         15
   109          8
   110         71
   111         25
   112          2
   113          5
   114          1
   116          3
   121          2
   122          1
   123         13
   124          2
   125          1
   132          0
   133          1
   134          1
   135          1
   136          3
   137         42
   138        648
   139         98
   140          9
   141          0
   165          0
   166         52
   167        174
   168         18
   169          1
   198         67
   199          8
   200          1