##TITLE=Library Entry 49285
##JCAMP-DX=Revision 4.10 
##DATA TYPE=MASS SPECTRUM
##SAMPLE DESCRIPTION=Chemical Concepts
##NAMES=HP
##CAS NAME=2-Cyclopentene-1,2-dicarboxylic acid, 3-methyl-, dimethyl ester
##MOLFORM=C10H14O4
##CAS REGISTRY NO=37575-79-4
##MP= -300
##BP= -300
##MW= 198
##$RETENTION INDEX=0
##$CONDENSED SPECTRUM=NO
##NPOINTS= 121
##XYDATA=(XY..XY) 1 
    25          1
    26         15
    27         88
    28         35
    29         50
    30         13
    31         27
    33          3
    35          1
    36          0
    37          3
    38         15
    39        119
    40         17
    41         79
    42          5
    43         25
    44         44
    45         30
    46          1
    47          2
    48          0
    49          2
    50         36
    51         87
    52         51
    53         89
    54         13
    55         81
    56          5
    57          4
    58          3
    59        250
    60          6
    61          4
    62          6
    63         18
    64          6
    65         42
    66         14
    67         91
    68          9
    69          6
    71          7
    73          1
    74          5
    75         33
    76          5
    77        261
    78        139
    79        999
    80        155
    81         49
    82          4
    83          3
    85          7
    86          0
    87          0
    88          0
    89          0
    91         14
    92          3
    93         18
    94          3
    95         21
    96          8
    97          3
    98          1
    99          2
   103          2
   104          1
   105         23
   106         52
   107        446
   108         46
   109         14
   110         71
   111         80
   112          7
   113         17
   114          3
   115          1
   117          8
   118          1
   121          0
   122          0
   123          5
   124          6
   125          3
   126          1
   127          1
   131          2
   132          1
   133          3
   134          1
   135          1
   136          1
   137         15
   138        480
   139        343
   140         32
   141          3
   145          1
   146          0
   149          0
   151          1
   152          2
   153          1
   155          0
   158          1
   159          2
   162          0
   163          1
   164          0
   165          1
   166        146
   167         23
   168          2
   180          0
   198          0
   199          1