##TITLE=Library Entry 49290
##JCAMP-DX=Revision 4.10 
##DATA TYPE=MASS SPECTRUM
##SAMPLE DESCRIPTION=Chemical Concepts
##NAMES=HP
##CAS NAME=1,2-Cyclopentanedicarboxylic acid, 4-methylene-, dimethyl ester,
 cis-
##MOLFORM=C10H14O4
##CAS REGISTRY NO=37589-17-6
##MP= -300
##BP= -300
##MW= 198
##$RETENTION INDEX=0
##$CONDENSED SPECTRUM=NO
##NPOINTS= 99
##XYDATA=(XY..XY) 1 
    25          9
    27         83
    28         10
    29         18
    30          3
    31          9
    33          4
    37          1
    38          8
    39         76
    40         17
    41         45
    42          5
    43          8
    44          4
    45         22
    46          0
    47          1
    49          0
    50         12
    51         37
    52         33
    53         51
    54         10
    55         47
    56          3
    57          1
    59        178
    60          5
    61          3
    62          1
    63          4
    64          1
    65         12
    66          6
    67         25
    68          8
    69          6
    70          0
    71          4
    72          0
    73          0
    74          1
    75         12
    76          3
    77        136
    78        175
    79        999
    80        112
    81         18
    82          4
    83          2
    84          1
    85          3
    87          4
    88          1
    89          0
    91          5
    92          1
    93          9
    94          1
    95          8
    96          6
    97          5
    98          1
    99          1
   101          0
   104          0
   105          9
   106         34
   107         96
   108          9
   109          4
   110         56
   111         23
   112          2
   113          8
   114          2
   115          3
   116          1
   121          1
   122          0
   123          6
   124          1
   125          1
   132          0
   133          1
   134          0
   136          2
   137         19
   138        539
   139         50
   140          4
   165          0
   166        105
   167        192
   168         19
   169          2
   198          1