##TITLE=Library Entry 36518
##JCAMP-DX=Revision 4.10 
##DATA TYPE=MASS SPECTRUM
##SAMPLE DESCRIPTION=Japan AIST/NIMC Database- Spectrum MS-IW- 46
##NAMES=HP
##CAS NAME=Perfluoroeicosane
##MOLFORM=C20F42
##CAS REGISTRY NO=37589-57-4
##MP= -300
##BP= -300
##MW= 1038
##$RETENTION INDEX=0
##$CONDENSED SPECTRUM=NO
##NPOINTS= 65
##XYDATA=(XY..XY) 1 
    31          9
    50          3
    69        999
    70         15
    81          3
    93          9
   100         71
   101          1
   112          4
   119        355
   120          7
   124          1
   131        414
   132         12
   143          7
   150          5
   155          1
   162         12
   169        574
   170         17
   181        173
   182          7
   193          9
   200          1
   212          1
   219        484
   220         19
   231        139
   232          7
   243          3
   250          1
   269        285
   270         14
   281         85
   282          5
   300          1
   319        156
   320          9
   331         46
   332          3
   350          1
   369         72
   370          5
   381         26
   382          2
   419         33
   420          2
   431         14
   432          1
   469         15
   470          1
   481          9
   519          9
   520          1
   531          5
   569          6
   581          3
   619          4
   631          2
   669          3
   681          2
   719          2
   731          1
   769          1
   931          5