##TITLE=Library Entry 27572
##JCAMP-DX=Revision 4.10 
##DATA TYPE=MASS SPECTRUM
##SAMPLE DESCRIPTION=NIST Mass Spectrometry Data Center
##NAMES=HP
##CAS NAME=Estra-1,3,5(10)-triene-3,17-diol (17.beta.)-, 17-propanoate
##MOLFORM=C21H28O3
##CAS REGISTRY NO=3758-34-7
##MP= -300
##BP= -300
##MW= 328
##$RETENTION INDEX=0
##$CONDENSED SPECTRUM=NO
##NPOINTS= 159
##XYDATA=(XY..XY) 1 
    26         12
    27         35
    28         54
    29        303
    31          7
    39         28
    40         15
    41        108
    43         62
    51         15
    53         52
    55        162
    56         12
    57        999
    58         52
    63         12
    64          6
    65         31
    66         15
    67         66
    68          7
    69         34
    71         17
    72          6
    74          8
    75         19
    77         84
    78         23
    79         90
    81         84
    82         10
    83         68
    85          8
    86          7
    89         12
    90          5
    91        126
    92         33
    93        115
    94         23
    95         61
    96         10
    98          8
   101          9
   102         11
   103         43
   104         20
   105        106
   106         19
   107        225
   108         41
   109         46
   110          5
   111          7
   114          7
   115        139
   116         54
   117         74
   118          8
   119         38
   120         44
   121         75
   122         18
   123          9
   127        114
   128         79
   129         36
   130         12
   131        170
   132         97
   133        493
   134         98
   135         12
   139         11
   141         71
   142         23
   143         19
   144        177
   145        297
   146        575
   147        252
   148         30
   150         18
   151          8
   152         18
   153         24
   154          5
   155         17
   157        244
   158        206
   159        558
   160        395
   161         62
   163          6
   165         24
   166         12
   167         11
   168          5
   170         56
   171        101
   172        490
   173        147
   174         19
   177         10
   178         15
   179          5
   181         28
   182          5
   183         64
   184         40
   185         71
   186         29
   187         13
   189          5
   194          8
   195          8
   196         12
   197        104
   198         34
   199         54
   200         21
   201          6
   205          6
   209         13
   210          7
   211        131
   212         40
   213        219
   214         47
   215         30
   216          4
   222          6
   223          8
   225        245
   226        147
   227         25
   228         14
   237         18
   238          7
   239         57
   240         17
   243         10
   252          7
   253         79
   254         77
   255         29
   256          6
   257          8
   267          5
   269          5
   271         37
   272         10
   281          6
   300          5
   325          7
   327          7
   328        949
   329        240
   330         26