##TITLE=Library Entry 6053
##JCAMP-DX=Revision 4.10 
##DATA TYPE=MASS SPECTRUM
##SAMPLE DESCRIPTION=V.G.Zaikin, Petrochem. Synth. Inst., Moscow
##NAMES=HP
##CAS NAME=Trichloroacetic acid, hexyl ester
##MOLFORM=C8H13Cl3O2
##CAS REGISTRY NO=37587-86-3
##MP= -300
##BP= -300
##MW= 246
##$RETENTION INDEX=1359
##$CONDENSED SPECTRUM=NO
##NPOINTS= 48
##XYDATA=(XY..XY) 1 
    26         19
    27        179
    28         34
    29        191
    30          5
    35         10
    36         25
    37          8
    38         16
    39        142
    40         31
    41        379
    42        191
    43        999
    44         47
    47         41
    49         11
    51          9
    52          7
    53         18
    54         15
    55        217
    56        330
    57         98
    58         10
    61          3
    63         11
    65          3
    67         11
    68          6
    69         75
    70          5
    82         58
    83         29
    84         41
    85         89
    86          8
    87          5
   110         23
   111          3
   112         18
   113          2
   114          3
   117         53
   118          5
   119         61
   120          5
   121         18