##TITLE=Library Entry 62375
##JCAMP-DX=Revision 4.10 
##DATA TYPE=MASS SPECTRUM
##SAMPLE DESCRIPTION=NIST Mass Spectrometry Data Center, 1994
##NAMES=HP
##CAS NAME=4,4'-Dipentylazoxybenzene
##MOLFORM=C22H30N2O
##CAS REGISTRY NO=37592-87-3
##MP= -300
##BP= -300
##MW= 338
##$RETENTION INDEX=0
##$CONDENSED SPECTRUM=NO
##NPOINTS= 148
##XYDATA=(XY..XY) 1 
    17          1
    18          9
    27        104
    28         22
    29        290
    30          6
    32          4
    39         69
    41        335
    42         20
    43        156
    44          5
    50         12
    51         43
    52         14
    53         21
    54          6
    55         73
    56          7
    57         48
    58          2
    62          3
    63         24
    64         21
    65        117
    66         12
    67         29
    68          2
    69         40
    70          4
    71         17
    75          4
    76         13
    77        177
    78        103
    79        130
    80         15
    81         17
    82          2
    89         87
    90        196
    91        999
    92         92
    93         53
    94          7
    95         12
   102         14
   103         68
   104         67
   105        136
   106         59
   107         41
   108          9
   115         42
   116         20
   117         50
   118         27
   119         19
   120         14
   121          9
   127          5
   128          9
   129         10
   130         11
   131         12
   132         26
   133          9
   134          3
   135          3
   140          1
   141          9
   142          3
   143          4
   144          3
   145         12
   146          1
   147        827
   148        105
   149          7
   151         12
   152          7
   153          8
   154          7
   155         21
   156          5
   157          2
   160          4
   161         17
   162          6
   163         15
   164          3
   165         12
   166          8
   167          9
   168          9
   169         33
   170          7
   171          3
   174         12
   175         73
   176         12
   177         18
   178         10
   179          6
   180         11
   181         16
   182         10
   183         33
   184         10
   191          7
   192          4
   193          6
   194         13
   195         12
   196          6
   197         28
   198          5
   202          3
   207          5
   208          3
   209          4
   210          3
   211          6
   212          2
   224          2
   225         12
   226          7
   237          4
   239        103
   240         24
   241          4
   253        128
   254         63
   255         11
   265          6
   266          2
   267         17
   268          5
   281         29
   282          5
   295          4
   309         12
   310          7
   322         26
   323          6
   338        365
   339         92
   340         14