##TITLE=Library Entry 7393
##JCAMP-DX=Revision 4.10 
##DATA TYPE=MASS SPECTRUM
##SAMPLE DESCRIPTION=J. Klune, Insect Chem. Ecol. Lab., USDA, Beltsville, MD
 20705
##NAMES=HP
##CAS NAME=2-Hexadecanol acetate
##MOLFORM=C18H36O2
##CAS REGISTRY NO=37590-88-8
##MP= -300
##BP= -300
##MW= 284
##$RETENTION INDEX=0
##$CONDENSED SPECTRUM=NO
##NPOINTS= 114
##XYDATA=(XY..XY) 1 
    41        275
    42         86
    43        999
    44         29
    45         30
    51          1
    52          1
    53         18
    54         42
    55        288
    56        151
    57        228
    58         80
    59         43
    60          3
    61         84
    62          2
    63          0
    65          3
    66          5
    67         62
    68         54
    69        208
    70        127
    71        122
    72          8
    73          3
    77          2
    79          8
    80          4
    81         47
    82        112
    83        188
    84         83
    85         64
    86          8
    87        278
    88         12
    89          2
    91          1
    93          2
    94          2
    95         39
    96         74
    97        200
    98         53
    99         14
   100          3
   101          2
   102         34
   103          7
   107          1
   108          1
   109         17
   110         34
   111        109
   112         38
   113          9
   114          1
   115          3
   116          1
   122          0
   123          8
   124         20
   125         56
   126         23
   127          6
   128          0
   130          8
   131          0
   137          4
   138         13
   139         21
   140         16
   141          3
   142          0
   151          2
   152         10
   153         13
   154         12
   155          2
   165          1
   166          5
   167          8
   168          8
   169          1
   180          8
   181          7
   182         15
   183          2
   193          1
   194          2
   195          4
   196         18
   197          3
   208          9
   209          3
   210          6
   211          1
   222          2
   223          1
   224        245
   225         57
   226          6
   227          0
   240          7
   241          6
   242          1
   252          2
   266          1
   267          0
   268          1
   284          2
   285          0