##TITLE=Library Entry 35626
##JCAMP-DX=Revision 4.10 
##DATA TYPE=MASS SPECTRUM
##SAMPLE DESCRIPTION=NIST Mass Spectrometry Data Center
##NAMES=HP
##CAS NAME=N-Phenyltrifluoromethanesulfonimide
##MOLFORM=C8H5F6NO4S2
##CAS REGISTRY NO=37595-74-7
##MP= -300
##BP= -300
##MW= 357
##$RETENTION INDEX=0
##$CONDENSED SPECTRUM=NO
##NPOINTS= 113
##XYDATA=(XY..XY) 1 
    12          2
    18          5
    26          4
    27         20
    30          1
    37         35
    38        110
    39        180
    40         35
    41         76
    45          6
    46          9
    48         75
    50         55
    51         96
    52        115
    53         27
    54          4
    55          2
    57          2
    58          2
    60          2
    61         10
    62         34
    63        222
    64        538
    65        168
    66         17
    67         33
    69        999
    70          9
    71          4
    72          7
    75          7
    76          8
    77         48
    78         41
    79        305
    80         20
    81         33
    82          3
    83         24
    84         32
    85          8
    86          3
    87          4
    88          7
    91        889
    92         65
    93          6
    94         13
    95         62
    96         18
    97          2
    98          7
    99         22
   100          5
   101          4
   103          2
   106         27
   107         49
   108          5
   110         93
   111         61
   112         19
   113          9
   114          4
   115          4
   117          4
   120          4
   122          4
   123         10
   125          1
   127        115
   128         14
   129         10
   130         45
   131          4
   132          3
   133          9
   138         23
   139         94
   140         33
   141         48
   142         58
   143          4
   144          3
   148         12
   149          1
   150          2
   154          4
   155         11
   156          3
   160         54
   161          3
   182          2
   188          2
   196        220
   197         15
   198          9
   208         33
   209          3
   210          2
   224         71
   225          8
   226          2
   293         87
   294          8
   295          3
   357        178
   358         17
   359         18
   360          1