##TITLE=Library Entry 62805
##JCAMP-DX=Revision 4.10 
##DATA TYPE=MASS SPECTRUM
##SAMPLE DESCRIPTION=NIST Mass Spectrometry Data Center, 1994
##NAMES=HP
##CAS NAME=4,4'-Dihexylazoxybenzene
##MOLFORM=C24H34N2O
##CAS REGISTRY NO=37592-88-4
##MP= -300
##BP= -300
##MW= 366
##$RETENTION INDEX=0
##$CONDENSED SPECTRUM=NO
##NPOINTS= 125
##XYDATA=(XY..XY) 1 
    17          6
    18         10
    27         40
    28          3
    29        123
    30          0
    32          0
    39         50
    41        221
    42         25
    43        332
    44         12
    50          6
    51         22
    52          8
    53         17
    54          6
    55        106
    56          9
    57         34
    63         14
    64         14
    65         80
    66         10
    67         24
    69         21
    71          5
    77        118
    78         74
    79         83
    80         13
    81         15
    83          7
    85         13
    89         64
    90        167
    91        999
    92         91
    93         33
    94          7
    95         10
   102         14
   103         57
   104         56
   105        100
   106         54
   107         42
   108          8
   115         35
   116         21
   117         43
   118         23
   119         15
   120         14
   121         10
   128          8
   129          8
   130         10
   131         17
   132         22
   133          7
   141          6
   145          5
   146          7
   152          4
   153          7
   154          5
   155         17
   156          3
   159         13
   161        740
   162         96
   163          7
   165         20
   166          7
   167          9
   168          6
   169         29
   170          4
   175         12
   176          7
   177         17
   178          8
   179          6
   180         10
   181         15
   182          9
   183         32
   184          9
   188         12
   189         53
   190         11
   191         14
   192          6
   193          7
   194         12
   195          9
   196          6
   197         33
   198          6
   207          6
   208          4
   209          5
   211          9
   239          9
   240          5
   251          4
   253        119
   254         28
   267        142
   268         74
   269         10
   279         13
   280          4
   281         27
   282          7
   295         32
   296          9
   337         15
   338         14
   350         47
   351         13
   366        476
   367        129
   368         19