##TITLE=Library Entry 64848
##JCAMP-DX=Revision 4.10 
##DATA TYPE=MASS SPECTRUM
##SAMPLE DESCRIPTION=NIST Mass Spectrometry Data Center, 1994
##NAMES=HP
##CAS NAME=4,4'-Diheptylazoxybenzene
##MOLFORM=C26H38N2O
##CAS REGISTRY NO=37592-89-5
##MP= -300
##BP= -300
##MW= 394
##$RETENTION INDEX=0
##$CONDENSED SPECTRUM=NO
##NPOINTS= 107
##XYDATA=(XY..XY) 1 
    27         21
    29         72
    39         25
    41        154
    42         15
    43        239
    44          6
    51         11
    52          4
    53         11
    54          4
    55         97
    56          8
    57         61
    58          4
    63          5
    64          7
    65         47
    66          6
    67         14
    69          9
    71          9
    76          6
    77         66
    78         39
    79         44
    80          7
    81         11
    89         34
    90        102
    91        999
    92         86
    93         23
    94          4
    95          6
   102          6
   103         39
   104         35
   105         81
   106         51
   107         24
   108          6
   115         24
   116         11
   117         29
   118         15
   119         17
   120          9
   121          6
   128          6
   129          6
   130          6
   131         22
   132         17
   133          6
   134          4
   141          4
   145          4
   146          6
   155         10
   165          7
   166          4
   167          5
   169         16
   173          7
   175         64
   176         12
   179          7
   180         10
   181         10
   182          6
   183         19
   184          6
   190          4
   191         11
   194          6
   195          7
   196          6
   197         26
   198          6
   202          7
   203         27
   204          5
   205          9
   209          4
   253          6
   265          4
   267         68
   268         15
   281         83
   282         45
   283          6
   293          9
   295         14
   296          5
   309         21
   310          6
   351          4
   365          8
   366          9
   377          4
   378         44
   379         14
   393         31
   394        253
   395         80
   396          9