##TITLE=Library Entry 17607
##JCAMP-DX=Revision 4.10 
##DATA TYPE=MASS SPECTRUM
##SAMPLE DESCRIPTION=Chemical Concepts
##NAMES=HP
##CAS NAME=Hexafluoroglutaric acid
##MOLFORM=C5H2F6O4
##CAS REGISTRY NO=376-73-8
##MP= -300
##BP= -300
##MW= 240
##$RETENTION INDEX=0
##$CONDENSED SPECTRUM=NO
##NPOINTS= 130
##XYDATA=(XY..XY) 1 
    26          3
    27         31
    28          7
    29        138
    30          2
    31        175
    33          0
    34          0
    36          2
    38          0
    39          3
    41          5
    42          1
    43          9
    44        222
    45        999
    46         22
    47         22
    48          7
    49          1
    50         46
    51        224
    52          2
    53          0
    54          1
    55          3
    56          1
    57          2
    58          0
    59          1
    60          5
    61          0
    62         21
    63          7
    64          0
    65         22
    66          1
    67         93
    68          3
    69        240
    70          2
    71          8
    72          0
    73          4
    74          8
    75          8
    76          0
    77          4
    78         92
    79          4
    80          0
    81         51
    82         53
    83          1
    84          0
    85          1
    87          1
    89          0
    90         10
    91          3
    92          0
    93         61
    94          5
    95         20
    96        154
    97        103
    98         21
    99          1
   100        317
   101         18
   102          0
   105          0
   106         93
   107          6
   108          0
   109        116
   110         15
   111          0
   112        496
   113         42
   114          0
   115          0
   116          0
   117         47
   118          1
   119        474
   120          9
   123          0
   125         10
   126         12
   127         10
   128         79
   129         26
   130          0
   131        744
   132         61
   133          1
   134          2
   135          0
   137         43
   138          1
   139          0
   140          1
   145          9
   146          0
   147         55
   148        104
   149          4
   150         71
   151          2
   152          0
   153          0
   155          0
   156          1
   157          7
   159          1
   167          0
   173          4
   175          2
   176        215
   177          9
   178          3
   192          1
   193          1
   194          0
   195         64
   196          5
   204          1
   223          2
   241          3