##TITLE=Library Entry 1451
##JCAMP-DX=Revision 4.10 
##DATA TYPE=MASS SPECTRUM
##SAMPLE DESCRIPTION=NIST Mass Spectrometry Data Center, 1994
##NAMES=HP
##CAS NAME=Hexafluoro-1,5-pentanediol
##MOLFORM=C5H6F6O2
##CAS REGISTRY NO=376-90-9
##MP= -300
##BP= -300
##MW= 212
##$RETENTION INDEX=0
##$CONDENSED SPECTRUM=NO
##NPOINTS= 98
##XYDATA=(XY..XY) 1 
    13          0
    14          4
    15          1
    17          2
    18          1
    19          3
    20          1
    26          1
    27          0
    28          4
    29        171
    30          0
    31        999
    32         21
    33         56
    34          1
    37          1
    38          1
    39          1
    42         20
    43          4
    44          6
    45         10
    46          1
    47          5
    49         25
    50          5
    51         56
    52          1
    53          0
    55          4
    56          3
    57          7
    60          8
    61         57
    62         36
    63         12
    64         34
    65          5
    67          8
    69         47
    70          0
    71          6
    73          4
    75         16
    76          4
    77         31
    78          2
    79          1
    80         18
    81         10
    82          5
    83          8
    87          1
    89          0
    91         12
    92          2
    93         11
    94          3
    95         40
    96          7
    97          1
    98          0
   100         27
   101          2
   103          1
   105         11
   106          1
   107          4
   108          0
   109          2
   111         28
   112          5
   113         12
   114          6
   115          3
   119          0
   122          2
   123         12
   124          1
   125          3
   126          2
   127          6
   131         10
   132         18
   133          1
   142        127
   143          8
   144          1
   145          2
   153          0
   155         13
   156          0
   162         54
   163          3
   174          1
   175          2
   193          1