##TITLE=Library Entry 74715
##JCAMP-DX=Revision 4.10 
##DATA TYPE=MASS SPECTRUM
##SAMPLE DESCRIPTION=Exported from NIST MS Search
##NAMES=HP
##CAS NAME=1-Hexene, 1,3,4,5,6,6-hexachloro-1,2,3,4,5,6-hexafluoro-
##MOLFORM=C6Cl6F6
##CAS REGISTRY NO=376-79-4
##MP= -300
##BP= -300
##MW= 396
##$RETENTION INDEX=0
##$CONDENSED SPECTRUM=NO
##NPOINTS= 252
##XYDATA=(XY..XY) 1 
    14          4
    16          1
    29          1
    31         53
    35          6
    36          7
    37          2
    38          2
    39          1
    40          4
    43          4
    44          1
    45          1
    47         13
    48          1
    49          5
    50          1
    51          3
    55         10
    56          1
    57          1
    58          1
    59          1
    60          1
    61          1
    62          2
    63          1
    65          1
    66         13
    67          7
    68          5
    69         93
    70          2
    71          6
    72          1
    73          3
    74         22
    75          4
    76          1
    77          2
    78          6
    79          7
    80          3
    81          2
    82         11
    83          5
    84          7
    85        223
    86         12
    87         74
    88          1
    89          1
    90         20
    91          4
    92          7
    93         56
    94          4
    95          2
    96          1
    97          4
    98          9
    99          2
   101        999
   102         16
   103        650
   104          9
   105        114
   106          6
   107          1
   108          2
   109         91
   110          5
   111         33
   112          2
   113          7
   114          6
   115          4
   116          5
   117         47
   118          4
   119         27
   120          1
   121         19
   122          1
   123          5
   124          6
   125         42
   126          2
   127         28
   128         16
   129         19
   130          3
   131          6
   132         77
   133         15
   134         50
   135          9
   136         15
   137         53
   138          4
   139          9
   140         16
   141          5
   142          5
   143          4
   144          1
   145          7
   146          1
   147         53
   148          7
   149         19
   150          5
   151         17
   152          4
   153         11
   154          1
   155         23
   156          8
   157          1
   158          5
   159         23
   160          2
   161          9
   162          1
   163        410
   164         18
   165        267
   166         10
   167         81
   168          4
   169         34
   170          2
   171         36
   172          3
   173         13
   174          3
   175         47
   176          5
   177         31
   178          4
   179        110
   180          5
   181        101
   182          5
   183         34
   184          3
   185          5
   186         13
   187          9
   188          1
   189          7
   190          6
   191          8
   192          3
   193          6
   194         22
   195          7
   196         14
   197          6
   198          3
   199          3
   200          1
   201          1
   202          8
   203          4
   204          3
   205          4
   206          4
   207          3
   208          3
   209          3
   210          3
   211          5
   212          3
   213         24
   214          2
   215         15
   216          1
   217          3
   218          3
   219          1
   220          2
   221          8
   222          3
   223          4
   224          3
   225         78
   226          6
   227         51
   228          4
   229        378
   230         18
   231        357
   232         16
   233        118
   234          6
   235         14
   236          2
   237          2
   238          1
   239          3
   240          1
   241         15
   242          1
   243         14
   244          1
   245          8
   247          5
   249          3
   251          1
   253          1
   255          1
   256          1
   257          8
   258          1
   259          9
   260          4
   261          5
   262          3
   263          2
   264          1
   265          1
   272          1
   274          3
   276          8
   278          6
   280          3
   282          2
   284          1
   288          1
   290          1
   292          2
   293          2
   294          4
   295        184
   296         10
   297        235
   298         13
   299        116
   300          6
   301         25
   303          3
   361         13
   363         22
   365         14
   367          5
   369          5
   396          7
   398         14
   400         11
   402          5
   404          1