##TITLE=Library Entry 748
##JCAMP-DX=Revision 4.10 
##DATA TYPE=MASS SPECTRUM
##SAMPLE DESCRIPTION=RADIAN CORP
##NAMES=HP
##CAS NAME=Hexanedioic acid, octafluoro-, diethyl ester
##MOLFORM=C10H10F8O4
##CAS REGISTRY NO=376-50-1
##MP= -300
##BP= -300
##MW= 346
##$RETENTION INDEX=0
##$CONDENSED SPECTRUM=NO
##NPOINTS= 88
##XYDATA=(XY..XY) 1 
    15          2
    26         21
    27        266
    28         59
    29        999
    30         35
    31         25
    32          2
    33          1
    41          5
    42          8
    43         56
    44         19
    45        124
    46          4
    47          9
    49          3
    50          7
    51         13
    55          2
    59          4
    62          1
    64          3
    65          3
    67          6
    69         67
    73         15
    78          8
    79          4
    81         13
    82          2
    93         17
    95          7
    96          5
    97          9
    98          2
   100        296
   101          7
   106          6
   109         33
   110          1
   112         17
   113          3
   115          7
   119         20
   126          5
   127          3
   129         26
   131        581
   132         20
   137          3
   140          1
   143          1
   147          7
   150          2
   153         24
   154          1
   159          7
   162         13
   167          2
   169         50
   175          6
   178        133
   179          7
   181         10
   195         30
   196          1
   197         16
   198          4
   206          3
   207         12
   223         26
   226        572
   227         34
   228          4
   243          6
   245        219
   246         22
   247          2
   251          4
   254         92
   255          7
   271         15
   273         58
   274          5
   291          4
   301         25
   302          1