##TITLE=Library Entry 30098
##JCAMP-DX=Revision 4.10 
##DATA TYPE=MASS SPECTRUM
##SAMPLE DESCRIPTION=L.N.Kulikova, V.G. Zaikin, Peoples' Friendship Universi
ty of Russia, Moscow
##NAMES=HP
##CAS NAME=Octanoic acid, pentadecafluoro-, methyl ester
##MOLFORM=C9H3F15O2
##CAS REGISTRY NO=376-27-2
##MP= -300
##BP= -300
##MW= 428
##$RETENTION INDEX=549
##$CONDENSED SPECTRUM=NO
##NPOINTS= 53
##XYDATA=(XY..XY) 1 
    27          2
    29         28
    30          7
    31         23
    33          1
    45          3
    47          2
    50          9
    51          6
    59        999
    60         22
    61          4
    65         16
    69        372
    70          3
    78          3
    81         33
    82          1
    93         12
    97          5
   100        101
   101          3
   109         35
   110          1
   112          5
   119        186
   120          3
   131        203
   132          6
   143          3
   147          2
   150          4
   162          4
   169        147
   170          4
   181         46
   182          1
   193          1
   209          2
   219         23
   231         36
   232          1
   259          1
   281         23
   282          1
   331         18
   332          1
   369         14
   381         66
   382          5
   399          4
   409         37
   410          3