##TITLE=Library Entry 10587
##JCAMP-DX=Revision 4.10 
##DATA TYPE=MASS SPECTRUM
##SAMPLE DESCRIPTION=NIST Mass Spectrometry Data Center, 1994
##NAMES=HP
##CAS NAME=1-Pyrrolidinecarboxaldehyde
##MOLFORM=C5H9NO
##CAS REGISTRY NO=3760-54-1
##MP= -300
##BP= -300
##MW= 99
##$RETENTION INDEX=1691
##$CONDENSED SPECTRUM=NO
##NPOINTS= 38
##XYDATA=(XY..XY) 1 
    13          8
    14         27
    15        170
    16          2
    17          5
    18         17
    26         90
    27        297
    28        648
    29        387
    30        117
    31          4
    36          3
    37         31
    38         63
    39        309
    40        124
    41        446
    42        708
    43        999
    44         71
    49          5
    50         12
    51          9
    52         11
    53         16
    54         24
    55         38
    56         83
    57          6
    58         28
    68         84
    70        333
    71        609
    72         22
    98        134
    99        725
   100         43