##TITLE=Library Entry 33472
##JCAMP-DX=Revision 4.10 
##DATA TYPE=MASS SPECTRUM
##SAMPLE DESCRIPTION=D.HENNEBERG, MAX-PLANCK INSTITUTE, MULHEIM, WEST GERMAN
Y
##NAMES=HP
##CAS NAME=1,5-Cyclooctadiene, 1,6-dimethyl-
##MOLFORM=C10H16
##CAS REGISTRY NO=3760-13-2
##MP= -300
##BP= -300
##MW= 136
##$RETENTION INDEX=0
##$CONDENSED SPECTRUM=NO
##NPOINTS= 87
##XYDATA=(XY..XY) 1 
    23          1
    25          1
    26          8
    27        122
    28          7
    29         56
    30          1
    32          2
    36          0
    37          3
    38          9
    39        143
    40         74
    41        176
    42         35
    43         16
    44          4
    45          2
    47          1
    48          1
    49          1
    50         14
    51         37
    52         27
    53        188
    54         16
    55         60
    56          2
    59          1
    61          2
    62          2
    63         12
    64          6
    65         47
    66         77
    67        506
    68        999
    69         67
    70          3
    71          1
    72          1
    74          3
    75          2
    76          2
    77         84
    78         20
    79        178
    80         55
    81        123
    82         15
    83          1
    85          2
    86          2
    87          1
    91         91
    92         32
    93        241
    94         95
    95        103
    96          7
   103          6
   104          4
   105         31
   106         11
   107        176
   108        244
   109         22
   115          7
   116          1
   117          7
   118          1
   119         11
   120          2
   121        126
   122         12
   123          0
   125          1
   127          0
   130          1
   131          0
   132          3
   133          0
   134          6
   135          1
   136        184
   137         19
   138          1