##TITLE=Library Entry 27862
##JCAMP-DX=Revision 4.10 
##DATA TYPE=MASS SPECTRUM
##SAMPLE DESCRIPTION=R.C. DOUGHERTY
##NAMES=HP
##CAS NAME=2-Butanol, 1-(dimethylamino)-
##MOLFORM=C6H15NO
##CAS REGISTRY NO=3760-96-1
##MP= -300
##BP= -300
##MW= 117
##$RETENTION INDEX=0
##$CONDENSED SPECTRUM=NO
##NPOINTS= 20
##XYDATA=(XY..XY) 1 
    29         25
    30         50
    31         10
    39         15
    40         40
    41         35
    42         75
    43         30
    44         70
    45         15
    55         15
    56         15
    57         25
    58        999
    59         40
    69         15
    84         15
    86         10
    88         75
   117         30