##TITLE=Library Entry 5804
##JCAMP-DX=Revision 4.10 
##DATA TYPE=MASS SPECTRUM
##SAMPLE DESCRIPTION=NIST Mass Spectrometry Data Center, 1994
##NAMES=HP
##CAS NAME=2-Nonenoic acid
##MOLFORM=C9H16O2
##CAS REGISTRY NO=3760-11-0
##MP= -300
##BP= -300
##MW= 156
##$RETENTION INDEX=1321
##$CONDENSED SPECTRUM=NO
##NPOINTS= 90
##XYDATA=(XY..XY) 1 
    15         29
    17          1
    18          1
    26         61
    27        573
    28        116
    29        689
    30         18
    31         36
    37         10
    39        583
    40        136
    41        862
    42        353
    43        999
    44         51
    45        193
    46          6
    47          3
    50         26
    51         56
    52         32
    53        171
    54        171
    55        607
    56        361
    57        118
    58         34
    59         20
    60         53
    61          7
    62          3
    63          8
    64          3
    65         34
    66         28
    67        155
    68        225
    69        259
    70        136
    71        112
    72          3
    73        543
    74         30
    75          3
    77         17
    78          7
    79         37
    80          3
    81        178
    82         60
    83         66
    84        237
    85         52
    86        231
    87         78
    88         29
    89          2
    91          4
    92          5
    94         62
    95         69
    96        257
    97         99
    98          2
    99        152
   100         62
   101         34
   102          5
   105          1
   106          1
   107          1
   109         62
   110         37
   111          5
   112          1
   113         53
   114         45
   115          5
   120         10
   121          1
   123         26
   124          3
   127         32
   128          4
   138         84
   139          9
   141          2
   156          2
   157          2