##TITLE=Library Entry 28409
##JCAMP-DX=Revision 4.10 
##DATA TYPE=MASS SPECTRUM
##SAMPLE DESCRIPTION=Exported from NIST MS Search
##NAMES=HP
##CAS NAME=1-Butanone, 4-(dimethylamino)-1-phenyl-
##MOLFORM=C12H17NO
##CAS REGISTRY NO=3760-63-2
##MP= -300
##BP= -300
##MW= 191
##$RETENTION INDEX=0
##$CONDENSED SPECTRUM=NO
##NPOINTS= 25
##XYDATA=(XY..XY) 1 
    41         39
    42        126
    43         48
    44         44
    45          1
    51         61
    52          2
    57         23
    58        999
    59         28
    70         29
    71        720
    72         43
    73          3
    77        145
    78          9
    86          2
    87          1
   105         78
   106          5
   120          3
   121          1
   190          5
   191         23
   192          3