##TITLE=Library Entry 68582
##JCAMP-DX=Revision 4.10 
##DATA TYPE=MASS SPECTRUM
##SAMPLE DESCRIPTION=B. R. ANDERSON
##NAMES=HP
##CAS NAME=Bicyclo[3.2.1]oct-2-ene, 3-(1,1-dimethylethoxy)-
##MOLFORM=C12H20O
##CAS REGISTRY NO=37609-41-9
##MP= -300
##BP= -300
##MW= 180
##$RETENTION INDEX=0
##$CONDENSED SPECTRUM=NO
##NPOINTS= 104
##XYDATA=(XY..XY) 1 
    13          1
    14          5
    15         30
    16          0
    25          0
    26         13
    27        131
    28         31
    29        137
    30          3
    31          4
    37          4
    38         12
    39        168
    40         35
    41        210
    42         19
    43         31
    44          1
    45          3
    46          0
    47          0
    49          1
    50         10
    51         46
    52         23
    53         80
    54         43
    55         82
    56         18
    57        173
    58         12
    59         13
    60          1
    61          2
    62          5
    63         14
    64          4
    65         34
    66         45
    67         74
    68         82
    69         23
    70          8
    71          1
    73          2
    74          3
    75          3
    76          1
    77         60
    78         35
    79         72
    80         62
    81         85
    82         19
    83         19
    84          1
    85          0
    86          0
    87          0
    88          1
    89          2
    90          2
    91         75
    92         36
    93         12
    94         31
    95        999
    96        123
    97          9
    98          0
   100          0
   102          1
   103          4
   104          2
   105         20
   106         12
   107         11
   110          4
   116          0
   117          1
   118          0
   119          8
   120          9
   121          2
   122          1
   123          8
   124        265
   125         29
   126          2
   127          0
   131          0
   133          0
   134         10
   135          2
   136          1
   138          1
   139          0
   142          0
   152          0
   165          4
   166          0
   180          8
   181          1