##TITLE=Library Entry 2290
##JCAMP-DX=Revision 4.10 
##DATA TYPE=MASS SPECTRUM
##SAMPLE DESCRIPTION=T. BRYCE UNILEVER RESEARCH COLWORTH/WELWYN, BEDFORD U.K
.
##NAMES=HP
##CAS NAME=Pyrrolidine, 1-nitro-
##MOLFORM=C4H8N2O2
##CAS REGISTRY NO=3760-55-2
##MP= -300
##BP= -300
##MW= 116
##$RETENTION INDEX=0
##$CONDENSED SPECTRUM=NO
##NPOINTS= 73
##XYDATA=(XY..XY) 1 
    29        113
    30        298
    31         66
    36         25
    37         20
    38         28
    39        208
    40         96
    41        999
    42        697
    43        692
    44        519
    45        127
    46         18
    49         15
    51         27
    52         17
    53         61
    54         32
    55        146
    56         49
    57         99
    58         66
    59         48
    60         21
    61         24
    64         12
    65         13
    66         15
    67         62
    68        229
    69        514
    70        214
    71         93
    72         15
    73         61
    75         15
    77         27
    78         10
    79         17
    80         12
    81         68
    82         27
    83         64
    84         53
    85         72
    86         36
    87         25
    88         48
    89         27
    91         18
    93         12
    94         17
    95         42
    96         30
    97         48
    98         26
    99         25
   100         89
   101         14
   102         15
   103         17
   105         37
   106         11
   107         15
   109         30
   110         20
   111         26
   112         18
   113         17
   115         19
   116        418
   117         37