##TITLE=Library Entry 25701
##JCAMP-DX=Revision 4.10 
##DATA TYPE=MASS SPECTRUM
##SAMPLE DESCRIPTION=Japan AIST/NIMC Database- Spectrum MS-NW-8955
##NAMES=HP
##CAS NAME=2-Ethylcyclohexanol,c&t
##MOLFORM=C8H16O
##CAS REGISTRY NO=3760-20-1
##MP= -300
##BP= -300
##MW= 128
##$RETENTION INDEX=0
##$CONDENSED SPECTRUM=NO
##NPOINTS= 72
##XYDATA=(XY..XY) 1 
    15          4
    26          4
    27        111
    28         28
    29        165
    30          9
    31         58
    32          2
    38          3
    39        131
    40         25
    41        402
    42        124
    43        277
    44        178
    45         48
    46          1
    50          3
    51         13
    52          8
    53         85
    54        115
    55        419
    56        182
    57        999
    58        105
    59         43
    60          2
    63          2
    65         21
    66        157
    67        573
    68        689
    69        250
    70         58
    71        194
    72         92
    73         10
    74          1
    77         20
    78          5
    79         62
    80         32
    81        832
    82        788
    83         69
    84         97
    85        428
    86         65
    87          5
    91          7
    92          1
    93          7
    94          3
    95        291
    96         26
    97         41
    98         10
    99        105
   100         40
   101          3
   107          1
   108          1
   109         27
   110        734
   111         78
   112          4
   113          6
   126          1
   127         14
   128         75
   129          7