##TITLE=Library Entry 22305
##JCAMP-DX=Revision 4.10 
##DATA TYPE=MASS SPECTRUM
##SAMPLE DESCRIPTION=D.HENNEBERG, MAX-PLANCK INSTITUTE, MULHEIM, WEST GERMAN
Y
##NAMES=HP
##CAS NAME=Cyclopropane, 1-methyl-2-octyl-
##MOLFORM=C12H24
##CAS REGISTRY NO=37617-26-8
##MP= -300
##BP= -300
##MW= 168
##$RETENTION INDEX=0
##$CONDENSED SPECTRUM=NO
##NPOINTS= 78
##XYDATA=(XY..XY) 1 
    24          2
    25          2
    26         11
    27        149
    28         14
    29        263
    30         11
    31          1
    32          0
    35          3
    36          0
    38          2
    39        133
    40         26
    41        812
    42        320
    43        766
    45          0
    47          1
    48          1
    49          1
    50          5
    51         14
    52          7
    53         56
    54         97
    55        876
    56        999
    57        463
    58         17
    59          1
    60          2
    62          1
    63          1
    65         11
    66         10
    67         93
    68         86
    69        697
    70        619
    71        142
    72          8
    76          0
    77          3
    78          2
    79          7
    80          0
    81         28
    82         68
    83        354
    84        276
    85         46
    86          4
    88          1
    92          1
    95          8
    96         32
    97        216
    98        101
    99          8
   109          0
   110         12
   111         71
   112         36
   113          3
   116          0
   124          2
   125         28
   126         24
   127          3
   138          2
   139         11
   140         15
   141          1
   153          0
   167          0
   168         20
   169          3