##TITLE=Library Entry 85299
##JCAMP-DX=Revision 4.10 
##DATA TYPE=MASS SPECTRUM
##SAMPLE DESCRIPTION=NIST Mass Spectrometry Data Center
##NAMES=HP
##CAS NAME=Methyl 1-methylpyrrole-2-carboxylate
##MOLFORM=C7H9NO2
##CAS REGISTRY NO=37619-24-2
##MP= -300
##BP= -300
##MW= 139
##$RETENTION INDEX=0
##$CONDENSED SPECTRUM=NO
##NPOINTS= 57
##XYDATA=(XY..XY) 1 
    12          2
    13          4
    14          8
    15        167
    17          1
    18          4
    25          4
    26         26
    27         92
    28          8
    29         61
    30         24
    37         40
    38         90
    39        350
    40         26
    41         23
    42         56
    45         22
    49         12
    50         52
    51         70
    52         90
    53        343
    54         48
    55         19
    56          1
    59          2
    62          1
    63          8
    64         33
    65         18
    66         21
    67          9
    68          4
    69          7
    75          3
    76          4
    78         54
    79         50
    80        219
    81         89
    82          8
    93         10
    94         72
    95          7
    96          9
    97          3
   106         28
   108        999
   109         75
   110          5
   124         13
   125          1
   139        533
   140         44
   141          3