##TITLE=Library Entry 94428
##JCAMP-DX=Revision 4.10 
##DATA TYPE=MASS SPECTRUM
##SAMPLE DESCRIPTION=J. SHAW, BORRISTON RESEARCH, ROCKVILLE, MD, USA
##NAMES=HP
##CAS NAME=Naphthalene, 1-(2,4-dinitrophenoxy)-
##MOLFORM=C16H10N2O5
##CAS REGISTRY NO=3761-15-7
##MP= -300
##BP= -300
##MW= 310
##$RETENTION INDEX=0
##$CONDENSED SPECTRUM=NO
##NPOINTS= 175
##XYDATA=(XY..XY) 1 
    12          5
    14          4
    15          8
    16         10
    17         13
    18         43
    25          1
    26         13
    27         29
    28         66
    30        403
    31          2
    32          3
    36          1
    37         12
    38         50
    39         85
    40          5
    41          7
    42          2
    43          4
    44          4
    45         10
    46         53
    47          2
    48          1
    49          3
    50         60
    51        135
    52         19
    53         29
    54          7
    55          4
    56          1
    57          2
    58          2
    61         14
    62         77
    63        198
    64         26
    65         48
    66          5
    67          3
    68          3
    69          6
    70          1
    72          1
    73          7
    74        102
    75        131
    76         51
    77        133
    78         15
    79        104
    80          9
    82         65
    83          1
    85          2
    86         17
    87         39
    88         37
    89         88
    90         11
    91         13
    92          4
    93         46
    94        157
    96          3
    97          1
    98         11
    99         13
   100         11
   101         58
   102         19
   103         27
   104          3
   105          4
   106          1
   107          4
   108          4
   109          9
   110          5
   111          6
   112          3
   113         31
   115        999
   116        140
   117          7
   118          1
   120          1
   121          1
   122          2
   123          1
   124          1
   125         13
   126         85
   127        132
   128         18
   129          2
   130          3
   131         23
   132          2
   135          1
   137          7
   138          6
   139         29
   140          8
   141          5
   143        894
   144        137
   145         10
   146          1
   149          2
   150         13
   151         23
   152         30
   153          5
   154          1
   155          5
   156          1
   157          3
   159          3
   161          5
   162         12
   163         82
   164         26
   165          7
   166          2
   167          8
   168          3
   169          1
   174          2
   175          3
   176         19
   177          9
   178          8
   179          3
   180          1
   185          1
   187         67
   188         59
   189        300
   190         48
   191          6
   192          1
   193          1
   202          1
   203          2
   204          2
   205         14
   206          7
   207          7
   208          1
   216          5
   217         38
   218         53
   219         22
   220          3
   230          1
   231          8
   232          1
   233          2
   234          1
   235          1
   247          2
   252          1
   263          4
   264          2
   265          2
   277          4
   278          1
   280          1
   310        115
   311         18
   312          2