##TITLE=Library Entry 17120
##JCAMP-DX=Revision 4.10 
##DATA TYPE=MASS SPECTRUM
##SAMPLE DESCRIPTION=A.A.Kutin, Moscow, Russia
##NAMES=HP
##CAS NAME=1,2,5-Thiadiazole-3,4-dicarboxylic acid
##MOLFORM=C4H2N2O4S
##CAS REGISTRY NO=3762-94-5
##MP= -300
##BP= -300
##MW= 174
##$RETENTION INDEX=0
##$CONDENSED SPECTRUM=NO
##NPOINTS= 102
##XYDATA=(XY..XY) 1 
    33        200
    34         75
    35         13
    36         19
    37         11
    38        121
    39         58
    40         71
    41         31
    42         24
    43         45
    44        282
    45        999
    46        244
    47         27
    48         32
    49         37
    50         19
    51         19
    52         94
    53        227
    54        190
    55         27
    56         15
    58        457
    59        976
    60         95
    62          5
    63         15
    64         16
    65         20
    66         11
    67         10
    68          4
    69         13
    70         18
    71          9
    72         16
    73          8
    74         17
    75         71
    76         10
    77         19
    78          7
    79         11
    80          5
    81         11
    82          7
    84        311
    85        267
    86        127
    87         17
    88          6
    89          3
    90          1
    91         12
    92          4
    93          4
    94          4
    95          2
    96          0
    97          1
    98          0
    99          4
   100          6
   102         78
   103         36
   104          7
   105          9
   107          1
   108          1
   109          1
   110          1
   112        280
   113         21
   114         13
   115          2
   117          0
   121          3
   122          1
   123          1
   126          3
   127          6
   128         32
   130        649
   131         32
   132         33
   133          3
   134          1
   135          0
   148          0
   149          2
   151          1
   152          1
   154          0
   156          1
   157         33
   158          0
   159          1
   160          0
   173          1
   174          9