##TITLE=Library Entry 61581
##JCAMP-DX=Revision 4.10 
##DATA TYPE=MASS SPECTRUM
##SAMPLE DESCRIPTION=A.A.Kutin, Moscow, Russia
##NAMES=HP
##CAS NAME=2-Propen-1-one, 3-(4-chlorophenyl)-1-(4-methylphenyl)-
##MOLFORM=C16H13ClO
##CAS REGISTRY NO=37620-37-4
##MP= -300
##BP= -300
##MW= 256
##$RETENTION INDEX=0
##$CONDENSED SPECTRUM=NO
##NPOINTS= 140
##XYDATA=(XY..XY) 1 
    35          3
    36          2
    37         11
    38         35
    39        291
    40         26
    41         76
    42          2
    45          0
    49          8
    50        175
    51        267
    52         47
    53         29
    54          4
    55          2
    59          0
    60          2
    61         19
    62         72
    63        225
    64         55
    65        635
    66         39
    68          4
    69          7
    73         22
    74        103
    75        338
    76        118
    77         46
    78          9
    79          4
    82         42
    84          7
    85         24
    86         21
    87         30
    88         32
    89        176
    90         76
    91        999
    92         91
    93          8
    95        127
    96         66
    97         19
    98         18
    99         24
   100         27
   101        432
   102        408
   103         40
   104          4
   105          7
   106          4
   108          3
   109         16
   110         45
   111         58
   112          9
   113         46
   114         39
   115         61
   116         42
   117          7
   119        887
   120         78
   121          6
   125          6
   126          8
   127         16
   128          9
   129          5
   135          5
   136         62
   137        172
   138         38
   139         68
   140          8
   141          4
   144        116
   145         32
   146          4
   149          7
   150          9
   151         14
   152         19
   153          5
   155          2
   162          4
   163         13
   165        323
   166         39
   167         92
   168         10
   174          4
   175          3
   176         26
   177         30
   178        237
   179         47
   180          6
   187          4
   188          4
   189         33
   190         18
   191         47
   192         60
   193         93
   194         15
   199          7
   201          5
   202         10
   203          8
   205          7
   206          8
   207          2
   212         10
   213         29
   214          8
   215         13
   219          4
   221        238
   222         43
   223          5
   227         15
   228         44
   229         12
   230         15
   239          7
   241        204
   242         35
   243         66
   244         11
   255        277
   256        497
   257        174
   258        166
   259         29