##TITLE=Library Entry 91773
##JCAMP-DX=Revision 4.10 
##DATA TYPE=MASS SPECTRUM
##SAMPLE DESCRIPTION=Institute of Organic Chemistry, Novosibirsk, USSR 1988
##NAMES=HP
##CAS NAME=Dimethyl 4-oxooctane-1,8-dioate
##MOLFORM=C10H16O5
##CAS REGISTRY NO=37621-39-9
##MP= -300
##BP= -300
##MW= 216
##$RETENTION INDEX=1577
##$CONDENSED SPECTRUM=NO
##NPOINTS= 63
##XYDATA=(XY..XY) 1 
    38          6
    39         88
    40         23
    41        158
    42        237
    43         93
    44         10
    45         61
    49         40
    53         29
    55        739
    56         90
    57         50
    59        639
    60         29
    63         44
    67         30
    68         31
    69         38
    70         43
    71         25
    74         41
    75         40
    77         22
    79         26
    81         35
    82         28
    83         61
    84         19
    85        152
    87        165
    88         20
    95         24
    96         37
    98         99
    99         34
   101        411
   102         34
   109         32
   110         27
   111        245
   112         33
   113         70
   115        999
   116         68
   124        107
   125        245
   126         51
   127         43
   129        680
   130        120
   141         60
   142         20
   143         71
   152         56
   153        333
   154         38
   156         41
   157        116
   169         29
   173         32
   184         71
   185         77