##TITLE=Library Entry 68482
##JCAMP-DX=Revision 4.10 
##DATA TYPE=MASS SPECTRUM
##SAMPLE DESCRIPTION=Chuck Anderson, Aldrich Chemical Co.
##NAMES=HP
##CAS NAME=Ethyl 4-pyrazolecarboxylate
##MOLFORM=C6H8N2O2
##CAS REGISTRY NO=37622-90-5
##MP= -300
##BP= -300
##MW= 140
##$RETENTION INDEX=0
##$CONDENSED SPECTRUM=NO
##NPOINTS= 36
##XYDATA=(XY..XY) 1 
    14          3
    15          8
    18          0
    26          9
    27         44
    28         61
    29         74
    30          4
    31          4
    36          6
    37         18
    38         73
    39        143
    40         95
    41         17
    42          8
    43         12
    44          6
    45         23
    52          4
    53         13
    65          3
    66          5
    67         36
    68         67
    69          5
    94          4
    95        999
    96         72
    97         15
   112        239
   113         13
   114          1
   125          9
   140        104
   141          7