##TITLE=Library Entry 12359
##JCAMP-DX=Revision 4.10 
##DATA TYPE=MASS SPECTRUM
##SAMPLE DESCRIPTION=A.A.Kutin, Moscow, Russia
##NAMES=HP
##CAS NAME=Acetamide, N-(4-oxothiazolidin-2-ylidene)-
##MOLFORM=C5H6N2O2S
##CAS REGISTRY NO=37641-15-9
##MP= -300
##BP= -300
##MW= 158
##$RETENTION INDEX=0
##$CONDENSED SPECTRUM=NO
##NPOINTS= 70
##XYDATA=(XY..XY) 1 
    33         11
    34          1
    35          0
    39         34
    40         87
    41        318
    42        137
    43        999
    44        317
    45        462
    46        127
    47         41
    53         15
    54         10
    55         44
    56          6
    57          5
    58         17
    59         31
    60         20
    61          4
    62          0
    66          0
    67          4
    68          7
    69        252
    70         38
    71          7
    72         29
    73         10
    74         34
    75          6
    76          1
    82          0
    84          8
    85         55
    86          8
    87         45
    88          8
    89          2
    90          0
    96          0
    98          0
   100          3
   101          3
   102          0
   111          0
   112          1
   113          0
   114          1
   115        121
   116         76
   117         52
   118          7
   119          1
   127          0
   129          1
   130         76
   131          3
   132          2
   142         25
   143        859
   144         59
   145         44
   146          0
   157          8
   158        414
   159         98
   160         26
   161          2