##TITLE=Library Entry 56647
##JCAMP-DX=Revision 4.10 
##DATA TYPE=MASS SPECTRUM
##SAMPLE DESCRIPTION=Tox21 Consortium/NIST Mass Spectrometry Data Center, 20
12
##NAMES=HP
##CAS NAME=Aprindine
##MOLFORM=C22H30N2
##CAS REGISTRY NO=37640-71-4
##MP= -300
##BP= -300
##MW= 322
##$RETENTION INDEX=2480
##$CONDENSED SPECTRUM=NO
##NPOINTS= 179
##XYDATA=(XY..XY) 1 
    15          1
    18          1
    26          1
    27         10
    28         21
    29         38
    30         73
    31          1
    38          1
    39         16
    40          2
    41         26
    42         66
    43         21
    44         28
    45          1
    50          4
    51         28
    52          6
    53          4
    54          8
    55          8
    56        116
    57         52
    58        210
    59         11
    62          2
    63         12
    64          4
    65         27
    66          6
    67          2
    68          6
    69          5
    70         76
    71        107
    72        136
    73          8
    74         10
    75          4
    76          8
    77        198
    78         44
    79         32
    80          3
    82          3
    84        217
    85        118
    86        999
    87         62
    88          4
    89         20
    90          7
    91        183
    92         23
    93         12
    94          6
    95          1
    96          3
    98        647
    99         61
   100         76
   101          9
   102         14
   103         48
   104        216
   105        113
   106        236
   107         26
   108          6
   109          4
   111          2
   113        882
   114         88
   115        403
   116        665
   117        605
   118         91
   119         75
   120         55
   121          6
   122          1
   126          1
   127          4
   128         17
   129         21
   130         71
   131         22
   132        135
   133        169
   134         77
   135          9
   136          1
   139          1
   140          1
   141          4
   142          4
   143          7
   144         78
   145         21
   146         18
   147          3
   148          1
   151          1
   152          3
   154         17
   155          2
   156          7
   157          5
   158        129
   159         16
   160          3
   161          5
   162          2
   163          1
   164          1
   165          8
   166          4
   167          3
   168          1
   170          1
   172          4
   173          1
   174          2
   175          1
   176          2
   177          2
   178          7
   179          4
   180          2
   181          2
   182          1
   188          1
   189         19
   190          4
   191          4
   192          7
   193         18
   194          5
   195          1
   202          1
   203          4
   204          7
   205         10
   206        169
   207         43
   208         21
   209         29
   210          6
   211          1
   216          1
   217          3
   218          4
   219          3
   220         42
   221         17
   222         68
   223         24
   224          3
   232          1
   233          1
   234         29
   235          7
   236         13
   237          3
   244          1
   245          1
   246          2
   247          3
   248         24
   249         96
   250         21
   251          4
   293          1
   320          4
   321          1
   322         23
   323          6
   324          1