##TITLE=Library Entry 87899
##JCAMP-DX=Revision 4.10 
##DATA TYPE=MASS SPECTRUM
##SAMPLE DESCRIPTION=Exported from NIST MS Search
##NAMES=HP
##CAS NAME=Di-.alpha.-L-xylofuranose 1,2':2,1'-dianhydride, 4,4',5,5'-tetrad
eoxy-4,4'-bis(methylamino)-
##MOLFORM=C12H22N2O4
##CAS REGISTRY NO=37679-76-8
##MP= -300
##BP= -300
##MW= 258
##$RETENTION INDEX=0
##$CONDENSED SPECTRUM=NO
##NPOINTS= 52
##XYDATA=(XY..XY) 1 
    29         25
    30         12
    31         20
    32          0
    38         17
    39         98
    40         50
    41         90
    42        694
    43        454
    44        558
    45         17
    52         12
    53         37
    54         17
    55        108
    56        189
    57        277
    58        133
    67         30
    68        101
    69         15
    70         22
    71         32
    72         27
    80         15
    81          7
    82         53
    83         22
    84         17
    86         45
    87         15
    94         95
    95         65
    96        325
    97         40
    98         30
   100         32
   101         98
   109         15
   110        381
   111        999
   112        181
   113        313
   127         20
   128         17
   129        308
   130        141
   131         10
   146         15
   158         17
   258        108