##TITLE=Library Entry 32911
##JCAMP-DX=Revision 4.10 
##DATA TYPE=MASS SPECTRUM
##SAMPLE DESCRIPTION=S.A. Rang et al., IR & MS of Unsatd. Hydrocarbons, 1977
##NAMES=HP
##CAS NAME=Cyclopentene,3-hexyl-
##MOLFORM=C11H20
##CAS REGISTRY NO=37689-18-2
##MP= -300
##BP= -300
##MW= 152
##$RETENTION INDEX=1113
##$CONDENSED SPECTRUM=NO
##NPOINTS= 85
##XYDATA=(XY..XY) 1 
    15          0
    25          0
    26          2
    27         36
    28         25
    29         52
    30          0
    37          0
    38          1
    39         46
    40          9
    41        118
    42         11
    43         40
    44          1
    45          0
    50          1
    51          6
    52          5
    53         25
    54         16
    55         32
    56          8
    57          6
    58          0
    62          0
    63          2
    64          0
    65         27
    66        118
    67        999
    68         75
    69         17
    70          3
    71          2
    72          0
    75          0
    76          0
    77         23
    78          7
    79         54
    80         36
    81         52
    82        145
    83         34
    84          5
    85          2
    86          0
    89          0
    91          8
    92          1
    93         10
    94          4
    95         54
    96         25
    97          3
    98          0
    99          0
   103          0
   104          0
   105          0
   106          0
   107          1
   108          0
   109         10
   110          9
   111          1
   112          0
   113          0
   115          0
   117          0
   119          0
   121          1
   122          0
   123          7
   124          4
   125          1
   126          0
   127          0
   137          1
   150          2
   151          1
   152         63
   153          7
   154          0