##TITLE=Library Entry 33011
##JCAMP-DX=Revision 4.10 
##DATA TYPE=MASS SPECTRUM
##SAMPLE DESCRIPTION=S.A. Rang et al., IR & MS of Unsatd. Hydrocarbons, 1977
##NAMES=HP
##CAS NAME=1-(2-Propenyl)cyclopentene
##MOLFORM=C8H12
##CAS REGISTRY NO=37689-19-3
##MP= -300
##BP= -300
##MW= 108
##$RETENTION INDEX=822
##$CONDENSED SPECTRUM=NO
##NPOINTS= 77
##XYDATA=(XY..XY) 1 
    15          3
    16          0
    25          0
    26          7
    27         55
    28          5
    29          9
    30          1
    31          3
    36          0
    37          4
    38         21
    39        377
    40         57
    41        208
    42          6
    43         11
    44          9
    45          3
    46          0
    49          1
    50         35
    51        104
    52         76
    53        104
    54         48
    55         29
    56          3
    57          2
    58          1
    59          1
    61          1
    62          8
    63         31
    64          6
    65        178
    66        114
    67        999
    68         57
    69          3
    70          0
    71          0
    73          0
    74          5
    75          6
    76          4
    77        301
    78         84
    79        528
    80        173
    81         31
    82          5
    83          5
    84          0
    85          1
    86          0
    87          0
    89          3
    90          3
    91        258
    92         29
    93        660
    94         48
    95          4
    96          1
    97          0
    98          0
    99          0
   102          2
   103          9
   104          2
   105         21
   106          9
   107         40
   108        377
   109         31
   110          1