##TITLE=Library Entry 24757
##JCAMP-DX=Revision 4.10 
##DATA TYPE=MASS SPECTRUM
##SAMPLE DESCRIPTION=Chemical Concepts
##NAMES=HP
##CAS NAME=1,14-Dibromotetradecane
##MOLFORM=C14H28Br2
##CAS REGISTRY NO=37688-96-3
##MP= -300
##BP= -300
##MW= 354
##$RETENTION INDEX=0
##$CONDENSED SPECTRUM=NO
##NPOINTS= 189
##XYDATA=(XY..XY) 1 
    26          4
    27        161
    28         32
    29        259
    30          5
    36          1
    37          0
    38          1
    39         98
    40         19
    41        735
    42        129
    43        662
    44         20
    45          0
    46          0
    47          0
    48          0
    50          0
    51          3
    52          2
    53         47
    54         50
    55        985
    56        130
    57        999
    58         42
    59          0
    60          0
    62          0
    63          0
    64          0
    65          6
    66          3
    67         68
    68         38
    69        745
    70         77
    71        621
    72         33
    73          0
    76          0
    77          5
    78          0
    79          7
    80          2
    81         35
    82         24
    83        398
    84         36
    85        386
    86         26
    87          0
    90          0
    91          1
    92          0
    93          6
    94          0
    95         16
    96          7
    97        257
    98         24
    99        169
   100         12
   101          0
   103          0
   104          0
   105          1
   106          2
   107         40
   108          3
   109         37
   110          2
   111        119
   112         11
   113        125
   114          9
   115          0
   118          0
   119          2
   120          1
   121         23
   122          2
   123         22
   124          1
   125         48
   126          6
   127         66
   128          7
   129          0
   131          0
   133          1
   134          4
   135        299
   136         18
   137        281
   138         11
   139         20
   140          2
   141         11
   142          1
   145          0
   147          0
   148         17
   149         80
   150         24
   151         76
   152          3
   153          4
   154          1
   155          2
   156          0
   161          1
   162          8
   163         62
   164         12
   165         57
   166          3
   167          0
   168          0
   169          1
   175          1
   176          1
   177         63
   178          6
   179         60
   180          4
   181          0
   182          0
   183          1
   189          1
   190          0
   191         63
   192          6
   193         60
   194          6
   195          4
   196          0
   197          0
   203          1
   204          0
   205         63
   206          7
   207         63
   208          5
   209          0
   210          0
   211          0
   217          0
   218          0
   219         52
   220          6
   221         50
   222          6
   224          0
   225          0
   231          0
   233         21
   234          3
   235         21
   236          2
   238          0
   239          0
   246          0
   247          0
   248          0
   251          0
   253          0
   266          0
   267          0
   274          3
   275        293
   276         50
   277        286
   278         47
   279          4
   285          0
   294          0
   296          4
   297          1
   299          0
   310          0
   353          0
   354         11
   355          2
   356         21
   357          4
   358         10
   359          1