##TITLE=Library Entry 32909
##JCAMP-DX=Revision 4.10 
##DATA TYPE=MASS SPECTRUM
##SAMPLE DESCRIPTION=D.HENNEBERG, MAX-PLANCK INSTITUTE, MULHEIM, WEST GERMAN
Y
##NAMES=HP
##CAS NAME=Cyclopentene, 1-(3-methylbutyl)-
##MOLFORM=C10H18
##CAS REGISTRY NO=37689-15-9
##MP= -300
##BP= -300
##MW= 138
##$RETENTION INDEX=984
##$CONDENSED SPECTRUM=NO
##NPOINTS= 40
##XYDATA=(XY..XY) 1 
    27        100
    29        140
    39        120
    40         20
    41        341
    42         20
    43         80
    44         20
    51         20
    52         12
    53         90
    54         60
    55        110
    56        130
    57        260
    58         12
    65         30
    66         60
    67        999
    68         80
    69         30
    70         30
    71         10
    77         50
    78         10
    79        100
    80         50
    81        210
    82        490
    83        120
    91         20
    92         10
    93         10
    94         10
    95        133
    96         11
   109         22
   123         10
   138        120
   139         11