##TITLE=Library Entry 32473
##JCAMP-DX=Revision 4.10 
##DATA TYPE=MASS SPECTRUM
##SAMPLE DESCRIPTION=S.A. Rang et al., IR & MS of Unsatd. Hydrocarbons, 1977
##NAMES=HP
##CAS NAME=Cyclopentene,3-pentyl-
##MOLFORM=C10H18
##CAS REGISTRY NO=37689-14-8
##MP= -300
##BP= -300
##MW= 138
##$RETENTION INDEX=1013
##$CONDENSED SPECTRUM=NO
##NPOINTS= 98
##XYDATA=(XY..XY) 1 
    15          1
    25          0
    26          3
    27         44
    28         23
    29         38
    30          1
    31          0
    37          0
    38          1
    39         48
    40         12
    41        143
    42         15
    43         31
    44          2
    45          0
    46          0
    49          0
    50          2
    51          8
    52          6
    53         28
    54         18
    55         44
    56          6
    57          7
    58          1
    59          0
    60          0
    61          0
    62          0
    63          2
    64          0
    65         28
    66        101
    67        999
    68         66
    69         10
    70          6
    71          3
    72          0
    73          0
    74          0
    75          0
    76          0
    77         21
    78          5
    79         38
    80         25
    81         31
    82        105
    83         29
    84          3
    85          1
    86          0
    87          0
    89          0
    90          0
    91          7
    92          1
    93          8
    94          2
    95         37
    96         17
    97          5
    98          1
    99          0
   100          0
   101          0
   102          0
   103          0
   104          0
   105          1
   106          0
   107          1
   108          0
   109          5
   110          5
   111          1
   112          0
   113          0
   114          0
   115          0
   116          0
   117          0
   119          0
   121          0
   122          0
   123          1
   124          0
   125          1
   134          0
   135          0
   136          1
   137          1
   138         60
   139          5