##TITLE=Library Entry 32424
##JCAMP-DX=Revision 4.10 
##DATA TYPE=MASS SPECTRUM
##SAMPLE DESCRIPTION=S.A. Rang et al., IR & MS of Unsatd. Hydrocarbons, 1977
##NAMES=HP
##CAS NAME=Cyclopentene, 3-(2-methylpropyl)-
##MOLFORM=C9H16
##CAS REGISTRY NO=37689-12-6
##MP= -300
##BP= -300
##MW= 124
##$RETENTION INDEX=879
##$CONDENSED SPECTRUM=NO
##NPOINTS= 76
##XYDATA=(XY..XY) 1 
    25          0
    26          3
    27         82
    28          7
    29         51
    30          1
    31          0
    37          0
    38          4
    39        101
    40         22
    41        207
    42         15
    43         70
    44          2
    45          1
    46          0
    49          0
    50          4
    51         16
    52         11
    53         43
    54         16
    55         34
    56         19
    57         82
    58          3
    59          0
    61          0
    62          0
    63          4
    64          1
    65         31
    66        144
    67        999
    68        101
    69         12
    70          3
    71          0
    73          0
    74          0
    75          1
    76          0
    77         21
    78          6
    79         42
    80         22
    81        133
    82         90
    83         13
    84          0
    85          0
    87          0
    89          0
    90          0
    91          6
    92          1
    93          2
    94          0
    95         14
    96          3
    97          0
   103          0
   104          0
   105          0
   106          0
   107          1
   108          0
   109         41
   110          4
   111          0
   122          0
   123          0
   124         93
   125          9
   126          0