##TITLE=Library Entry 63210
##JCAMP-DX=Revision 4.10 
##DATA TYPE=MASS SPECTRUM
##SAMPLE DESCRIPTION=K. Kirk, LBC, NIDDK, NIH, Bethesda, MD 20892
##NAMES=HP
##CAS NAME=Benzaldehyde, 2-chloro-3,4-dibenzyloxzy-
##MOLFORM=C21H17ClO3
##CAS REGISTRY NO=37687-59-5
##MP= -300
##BP= -300
##MW= 352
##$RETENTION INDEX=0
##$CONDENSED SPECTRUM=NO
##NPOINTS= 77
##XYDATA=(XY..XY) 1 
    41         13
    42          3
    43         33
    44         15
    45          2
    50          9
    51         17
    52          5
    55          9
    57          8
    58          1
    62          3
    63         19
    64          6
    65         93
    66          5
    69          7
    70          2
    71          3
    75          1
    77         16
    78          7
    79          6
    81          4
    83          2
    84          2
    85          6
    87          2
    89         24
    90         13
    91        999
    92         77
    93          3
    97          8
    99          2
   103          2
   104          1
   105          9
   107          1
   113          6
   114          1
   115         10
   123          1
   125          3
   139          5
   141          7
   143          1
   149          3
   152          6
   153          1
   165         18
   166         11
   167          6
   178          4
   179         11
   180          7
   181        119
   182         20
   183          4
   195          1
   225          1
   259         17
   260          5
   261        108
   262         19
   263         37
   264          4
   265          2
   271          8
   272          1
   301          9
   302         18
   303          7
   304          6
   319          2
   352          8
   354          1