##TITLE=Library Entry 15241
##JCAMP-DX=Revision 4.10 
##DATA TYPE=MASS SPECTRUM
##SAMPLE DESCRIPTION=NIST Mass Spectrometry Data Center, 1994
##NAMES=HP
##CAS NAME=N,N,N',N'-Tetramethylsulfonamide
##MOLFORM=C4H12N2O2S
##CAS REGISTRY NO=3768-63-6
##MP= -300
##BP= -300
##MW= 152
##$RETENTION INDEX=0
##$CONDENSED SPECTRUM=NO
##NPOINTS= 50
##XYDATA=(XY..XY) 1 
    12          2
    14         20
    15        346
    16          4
    17          2
    18        497
    19          2
    27         24
    28        254
    29          5
    30         21
    32          3
    33          1
    34          1
    38          2
    39          5
    40         28
    41         52
    42        619
    43        185
    44        999
    45        573
    46         28
    47          2
    48         16
    49          4
    50          2
    58         29
    60          4
    61          4
    62          1
    63          2
    64         10
    65          9
    66          3
    73          0
    75          2
    76          3
    77          1
    78          0
    92         53
    93          2
    94          3
   108        363
   109         19
   110         19
   111          1
   152        153
   153         10
   154          7