##TITLE=Library Entry 89687
##JCAMP-DX=Revision 4.10 
##DATA TYPE=MASS SPECTRUM
##SAMPLE DESCRIPTION=Japan AIST/NIMC Database- Spectrum MS-IW-2400
##NAMES=HP
##CAS NAME=Cytidine, N-acetyl-
##MOLFORM=C11H15N3O6
##CAS REGISTRY NO=3768-18-1
##MP= -300
##BP= -300
##MW= 285
##$RETENTION INDEX=0
##$CONDENSED SPECTRUM=NO
##NPOINTS= 151
##XYDATA=(XY..XY) 1 
    14          2
    15         12
    17          9
    18         34
    19          2
    26          4
    27         11
    28         39
    29         21
    30          7
    31         15
    32          1
    38          1
    39          9
    40         13
    41         30
    42         59
    43        345
    44         21
    45         15
    46          1
    47          1
    51          1
    52         17
    53          8
    54         14
    55         36
    56         16
    57         66
    58          9
    59          4
    60         13
    61         33
    62          1
    65          1
    66          6
    67         22
    68         67
    69        119
    70         31
    71         18
    72          3
    73         39
    74          5
    75          1
    78          1
    79         14
    80          4
    81         14
    82          7
    83         23
    84         16
    85         33
    86         16
    87          5
    89          1
    93          2
    94         43
    95         76
    96         42
    97         51
    98          6
    99          5
   100          1
   101          3
   102          1
   103          7
   105          1
   107          1
   108          1
   109          7
   110          9
   111        116
   112        999
   113         65
   114         13
   115         21
   116          6
   117          1
   120          1
   121          2
   122         19
   123         11
   124          9
   125          6
   126          2
   127          5
   128          2
   132          1
   133          1
   134          3
   135          2
   136         13
   137          4
   138         15
   139         13
   140        498
   141         35
   142          4
   143          2
   145          1
   147          2
   148          1
   149          2
   150          1
   151        263
   152         27
   153          7
   154         52
   155          4
   156          3
   157          5
   164          3
   165          1
   166          5
   167          1
   168          1
   169          7
   170         47
   171          4
   172          1
   175          9
   176          2
   177          1
   178          8
   179          1
   180          2
   182         10
   183          2
   190         23
   191          2
   193          5
   194          4
   196          4
   208         14
   209          2
   212          4
   213          1
   217          8
   218          1
   224          1
   226          4
   243          1
   250         14
   251          2
   256          2
   259          3
   267          3
   268          1
   285          6
   286          1