##TITLE=Library Entry 32474
##JCAMP-DX=Revision 4.10 
##DATA TYPE=MASS SPECTRUM
##SAMPLE DESCRIPTION=S.A. Rang et al., IR & MS of Unsatd. Hydrocarbons, 1977
##NAMES=HP
##CAS NAME=Cyclopentene,3-(3-methylbutyl)-
##MOLFORM=C10H18
##CAS REGISTRY NO=37689-16-0
##MP= -300
##BP= -300
##MW= 138
##$RETENTION INDEX=976
##$CONDENSED SPECTRUM=NO
##NPOINTS= 78
##XYDATA=(XY..XY) 1 
    15          2
    16          0
    24          0
    25          0
    26          4
    27         45
    28         13
    29         47
    30          0
    31          0
    37          0
    38          2
    39         76
    40         17
    41        179
    42         17
    43         66
    44          2
    45          0
    50          2
    51          9
    52          6
    53         29
    54         14
    55         50
    56         22
    57         52
    58          2
    59          0
    61          0
    62          0
    63          3
    64          1
    65         42
    66        132
    67        999
    68         86
    69         16
    70         24
    71         18
    72          0
    74          0
    75          0
    76          0
    77         24
    78          5
    79         41
    80         21
    81         52
    82        167
    83         38
    84          1
    85          0
    89          0
    90          0
    91          6
    92          0
    93          4
    94          3
    95         26
    96          6
    97          2
    98          0
   105          0
   107          0
   108          0
   109         16
   110          3
   111          0
   115          0
   121          0
   122          0
   123          4
   124          0
   136          0
   138         40
   139          4
   140          0