##TITLE=Library Entry 58097
##JCAMP-DX=Revision 4.10 
##DATA TYPE=MASS SPECTRUM
##SAMPLE DESCRIPTION=RADIAN CORP
##NAMES=HP
##CAS NAME=Silanetriamine, heptamethyl-
##MOLFORM=C7H21N3Si
##CAS REGISTRY NO=3768-57-8
##MP= -300
##BP= -300
##MW= 175
##$RETENTION INDEX=0
##$CONDENSED SPECTRUM=NO
##NPOINTS= 63
##XYDATA=(XY..XY) 1 
    15         18
    18          2
    29          5
    30          7
    31          4
    41          8
    42        156
    43         57
    44        129
    45        131
    46         10
    47          3
    56         37
    57         10
    58         80
    59         44
    60          7
    65         15
    70         18
    71          8
    72        204
    73         26
    74         77
    75          7
    79          5
    86         30
    87        190
    88        999
    89        120
    90         38
    99          1
   101         15
   102         49
   103          9
   104          3
   106          4
   108          5
   113          6
   115        271
   116         35
   117        218
   118         23
   119          7
   121          3
   122         14
   123          5
   124          3
   128          4
   129        117
   130        188
   131        828
   132        162
   133         38
   134          3
   151          2
   158          9
   160        182
   161         23
   162          7
   174          4
   175        731
   176        102
   177         30