##TITLE=Library Entry 76054
##JCAMP-DX=Revision 4.10 
##DATA TYPE=MASS SPECTRUM
##SAMPLE DESCRIPTION=Japan AIST/NIMC Database- Spectrum MS-IW-2586
##NAMES=HP
##CAS NAME=Bis(dimethylamino)dimethylsilane
##MOLFORM=C6H18N2Si
##CAS REGISTRY NO=3768-58-9
##MP= -300
##BP= -300
##MW= 146
##$RETENTION INDEX=0
##$CONDENSED SPECTRUM=NO
##NPOINTS= 78
##XYDATA=(XY..XY) 1 
    14          1
    15         14
    27          7
    28         48
    29         12
    30         14
    31         32
    32          1
    33          1
    38          2
    39          3
    40          8
    41         11
    42        142
    43         80
    44        288
    45        164
    46          7
    47          3
    50         16
    51          1
    53          2
    54          2
    55          9
    56         23
    57         18
    58        103
    59        573
    60         43
    61         19
    64          9
    65         17
    68          1
    69          2
    70          9
    71          6
    72        173
    73         43
    74         14
    75          3
    77          4
    84          3
    85          1
    86        162
    87         26
    88        882
    89         78
    90         31
    91          1
    96          1
    98          3
    99          2
   100         20
   101        239
   102        999
   103        195
   104         45
   105          5
   106          5
   115          8
   116          1
   117          2
   122          1
   123          1
   125          1
   129         21
   130          5
   131        604
   132         68
   133         23
   134          1
   143          4
   144          1
   145          8
   146        670
   147         83
   148         26
   149          2