##TITLE=Library Entry 79983
##JCAMP-DX=Revision 4.10 
##DATA TYPE=MASS SPECTRUM
##SAMPLE DESCRIPTION=NIST Mass Spectrometry Data Center, 1994
##NAMES=HP
##CAS NAME=1,3-Dibenzoylbenzene
##MOLFORM=C20H14O2
##CAS REGISTRY NO=3770-82-9
##MP= -300
##BP= -300
##MW= 286
##$RETENTION INDEX=0
##$CONDENSED SPECTRUM=NO
##NPOINTS= 67
##XYDATA=(XY..XY) 1 
    18          1
    27          2
    28          0
    32          0
    37          1
    38          3
    39         10
    50         78
    51        210
    52          9
    53          4
    62          5
    63         10
    64          1
    65          1
    74         15
    75         27
    76        113
    77        629
    78         43
    79          2
    86          2
    87          5
    88          2
    89          2
    98          3
    99          3
   100          2
   101          2
   102          4
   105        999
   106         74
   107          4
   111          1
   113          2
   115          1
   125          2
   126          8
   127          5
   150         11
   151         23
   152         55
   153         28
   154          3
   163          1
   179          1
   181        118
   182         17
   183          1
   207          3
   209        226
   210         33
   211          3
   226          2
   229          2
   239          1
   240          2
   241          2
   257          7
   258          8
   259          1
   267          4
   268          7
   269          1
   286        249
   287         52
   288          6