##TITLE=Library Entry 69356
##JCAMP-DX=Revision 4.10 
##DATA TYPE=MASS SPECTRUM
##SAMPLE DESCRIPTION=Exported from NIST MS Search
##NAMES=HP
##CAS NAME=Isoxazole, 5,5'-(1,3-propanediyl)bis-
##MOLFORM=C9H10N2O2
##CAS REGISTRY NO=37704-51-1
##MP= -300
##BP= -300
##MW= 178
##$RETENTION INDEX=0
##$CONDENSED SPECTRUM=NO
##NPOINTS= 41
##XYDATA=(XY..XY) 1 
    39        264
    40        336
    41        378
    42        182
    43        161
    50         42
    51         75
    52         84
    53         84
    54        199
    55        399
    56         46
    65         67
    66         27
    67         46
    68        178
    69         84
    70         84
    77         25
    78         35
    79         21
    80        100
    81         58
    82        399
    83        584
    84         42
    94         16
    95        119
    96        999
    97         63
   106         35
   108         21
   109        420
   110         98
   122         35
   123         21
   134         54
   151        357
   152         31
   178        168
   179         25