##TITLE=Library Entry 83710
##JCAMP-DX=Revision 4.10 
##DATA TYPE=MASS SPECTRUM
##SAMPLE DESCRIPTION=Institute of Organic Chemistry, Novosibirsk, USSR 1988
##NAMES=HP
##CAS NAME=4,4,6-Trimethyl-2-[p-tolylamino]-5,6-dihydro-4H-1,3-oxazine
##MOLFORM=C14H20N2O
##CAS REGISTRY NO=37719-86-1
##MP= -300
##BP= -300
##MW= 232
##$RETENTION INDEX=0
##$CONDENSED SPECTRUM=NO
##NPOINTS= 72
##XYDATA=(XY..XY) 1 
    38         27
    39        215
    40        157
    41        352
    42        751
    43        175
    44         80
    45         12
    50         34
    51         86
    52         66
    53         70
    54         33
    55        110
    56        223
    57         73
    58        290
    59         16
    63         43
    64         20
    65        150
    66         22
    67         72
    68         19
    69         28
    70         18
    75         15
    76         22
    77        187
    78        106
    79        116
    80         22
    81         19
    82         38
    83         55
    84        894
    85         59
    86         10
    89         27
    90         25
    91        226
    92         26
    93         19
    96          7
    98         19
   103         19
   104        111
   105        106
   106        481
   107        999
   108         99
   118         14
   119         13
   120         13
   121          7
   131         59
   132        199
   133        634
   134        389
   135         43
   147         13
   148         21
   149         67
   150         13
   174          8
   175         13
   189         37
   217        705
   218         99
   231        164
   232        599
   233         89