##TITLE=Library Entry 7956
##JCAMP-DX=Revision 4.10 
##DATA TYPE=MASS SPECTRUM
##SAMPLE DESCRIPTION=CARL DJERASSI DEPT OF CHEM STANFORD UNIV STANFORD CALIF
 94305
##NAMES=HP
##CAS NAME=Cholesta-9(11),20(22)-dien-23-one, 3,6-dihydroxy-, (3.beta.,5.alp
ha.,6.alpha.)-
##MOLFORM=C27H42O3
##CAS REGISTRY NO=37717-05-8
##MP= -300
##BP= -300
##MW= 414
##$RETENTION INDEX=0
##$CONDENSED SPECTRUM=NO
##NPOINTS= 196
##XYDATA=(XY..XY) 1 
    41        650
    42        370
    43        999
    44        390
    45        130
    53        170
    54         90
    55        630
    56        490
    57        860
    58        270
    59        200
    60        290
    65         70
    66         30
    67        440
    68         40
    69        720
    70        270
    71         60
    72         60
    73         70
    74         40
    77        210
    78         40
    79        350
    80        520
    81        350
    82        130
    83        440
    84        170
    85        740
    86         80
    87        250
    91        380
    92         70
    93        430
    94        100
    95        800
    96        140
    97        380
    98        180
    99         90
   105        420
   106        120
   107        320
   108        110
   109        290
   110        350
   111        320
   112         60
   113         40
   115         70
   116         30
   117        150
   118         90
   119        300
   120         90
   121        370
   122        100
   123        140
   124         20
   125        240
   126         50
   127        310
   128         70
   129        150
   130        480
   131        300
   132        100
   133        170
   134         70
   135        190
   136         70
   137         60
   138         20
   139         20
   140        500
   141        160
   142         70
   143        230
   144         80
   145        270
   146         70
   147        100
   148         40
   149        120
   150        440
   151        140
   153        440
   154         70
   155        130
   156         50
   157        200
   158        100
   159        150
   160        430
   161         80
   162         70
   163         60
   164        240
   165         70
   166         10
   167         90
   168         30
   169        180
   170         70
   171        130
   172         90
   173        110
   174         40
   175         50
   181         40
   182         10
   183        120
   184         40
   185        170
   186         30
   187         70
   188         10
   189         30
   196         20
   197         90
   198         30
   199         60
   200        520
   201         30
   209        290
   210         60
   211        220
   212         90
   213        100
   223         70
   224         30
   225         70
   226         40
   227        120
   228         40
   229        130
   230         30
   231         40
   237         50
   238         30
   239         40
   241         50
   242         20
   243        170
   244         60
   245         40
   251        160
   252         40
   253         60
   255         30
   267         50
   268         20
   269        750
   270        220
   271         40
   279         50
   285        360
   286         90
   287        590
   288        180
   289         30
   293         70
   294         30
   295         20
   296        140
   297         80
   298         40
   299         30
   300         30
   311        120
   312        120
   313         30
   314         70
   315         50
   318         50
   321         40
   322         10
   326         90
   327         20
   329        160
   340         20
   357        320
   358         70
   363        180
   364         30
   378        170
   379         40
   381         50
   396         70
   397         20
   399         30
   414        470
   415        140