##TITLE=Library Entry 34069
##JCAMP-DX=Revision 4.10 
##DATA TYPE=MASS SPECTRUM
##SAMPLE DESCRIPTION=NIST Mass Spectrometry Data Center
##NAMES=HP
##CAS NAME=2-Propenoic acid, 2-methyl-, 2,4,6-tribromophenyl ester
##MOLFORM=C10H7Br3O2
##CAS REGISTRY NO=37721-71-4
##MP= -300
##BP= -300
##MW= 396
##$RETENTION INDEX=0
##$CONDENSED SPECTRUM=NO
##NPOINTS= 123
##XYDATA=(XY..XY) 1 
    15          1
    26          3
    27          1
    36          1
    37         12
    38         15
    39        127
    40         23
    41        377
    42         13
    43          1
    49          3
    50          4
    51          1
    53         11
    54          1
    60          6
    61         50
    62        103
    63         15
    69        999
    70         57
    71          4
    73          9
    74         22
    75          2
    77          2
    79          2
    80          1
    81          2
    82          1
    89          1
    90          7
    91          5
    93          1
   102          2
   103          1
   104          1
   106          1
   110          1
   111          2
   112          1
   115          4
   116          8
   117          7
   118          8
   119          4
   128          1
   130          1
   131          5
   139          1
   140          9
   141         95
   142         16
   143         91
   144          7
   152          2
   153          6
   154          2
   155          6
   169          3
   170          5
   171          5
   172          5
   173          4
   175          2
   195          9
   196          1
   197         17
   198          1
   199          8
   209          2
   210          1
   211          2
   212          1
   219          2
   220         15
   221          9
   222         30
   223         12
   224         15
   225          4
   232          2
   234          4
   236          2
   248         10
   249          2
   250         20
   251          3
   252         10
   253          2
   277          1
   279          1
   289          1
   299         14
   301         43
   302          2
   303         41
   304          2
   305         13
   313          2
   315          2
   317          2
   318          1
   319          3
   321          1
   327          3
   328         25
   329         10
   330         73
   331         13
   332         70
   333          7
   334         23
   335          1
   396         16
   397          1
   398         47
   399          5
   400         45
   401          5
   402         14
   403          1