##TITLE=Library Entry 9073
##JCAMP-DX=Revision 4.10 
##DATA TYPE=MASS SPECTRUM
##SAMPLE DESCRIPTION=Exported from NIST MS Search
##NAMES=HP
##CAS NAME=3-Cyclohexene-1-propanenitrile, .beta.,4-dimethyl-1-(2-methyl-1-o
xopropyl)-
##MOLFORM=C15H23NO
##CAS REGISTRY NO=37730-46-4
##MP= -300
##BP= -300
##MW= 233
##$RETENTION INDEX=0
##$CONDENSED SPECTRUM=NO
##NPOINTS= 14
##XYDATA=(XY..XY) 1 
    41        250
    43        999
    67        100
    71        789
    77        100
    79        130
    81        140
    91        100
    93        210
   119        220
   121        490
   162        559
   165        420
   190        170