##TITLE=Library Entry 97708
##JCAMP-DX=Revision 4.10 
##DATA TYPE=MASS SPECTRUM
##SAMPLE DESCRIPTION=NIST Mass Spectrometry Data Center, 1994
##NAMES=HP
##CAS NAME=5-Benzylidenehydantoin
##MOLFORM=C10H8N2O2
##CAS REGISTRY NO=3775-01-7
##MP= -300
##BP= -300
##MW= 188
##$RETENTION INDEX=0
##$CONDENSED SPECTRUM=NO
##NPOINTS= 55
##XYDATA=(XY..XY) 1 
    18          1
    26          4
    37         22
    38         56
    39        117
    40         25
    41          1
    42          9
    43         32
    44         59
    46          8
    49          7
    50         69
    51         87
    52         31
    53          6
    59         25
    61         26
    62         77
    63        190
    64         71
    65         36
    66          7
    70         28
    73          4
    75         28
    76         26
    77         23
    78         14
    85          6
    86         16
    87         20
    88          4
    89        420
    90        457
    91         48
    94          7
   102          5
   104          3
   105          5
   114         11
   116        188
   117        999
   118         97
   119          5
   121          3
   128          2
   132          6
   138          9
   139          4
   144         10
   145          3
   188        669
   189         79
   190          7