##TITLE=Library Entry 947
##JCAMP-DX=Revision 4.10 
##DATA TYPE=MASS SPECTRUM
##SAMPLE DESCRIPTION=NIST Mass Spectrometry Data Center, 1992
##NAMES=HP
##CAS NAME=2-(tert-Butylamino)ethyl methacrylate
##MOLFORM=C10H19NO2
##CAS REGISTRY NO=3775-90-4
##MP= -300
##BP= -300
##MW= 185
##$RETENTION INDEX=0
##$CONDENSED SPECTRUM=NO
##NPOINTS= 78
##XYDATA=(XY..XY) 1 
    12          1
    13          1
    14          6
    15         58
    16          0
    17          3
    18         40
    19          1
    26         11
    27         67
    28         82
    29        202
    30        999
    31         22
    36          0
    37          6
    38         26
    39        256
    40         73
    41        637
    42        286
    43        105
    44        122
    45         13
    46          0
    50          1
    51          2
    52          3
    53         11
    54         11
    55         34
    56         68
    57        228
    58         32
    59          3
    60          2
    62          0
    65          0
    66          1
    67          7
    68          0
    69        364
    70         75
    71         48
    72          8
    73          0
    74          0
    78          0
    79          0
    80          1
    81          1
    82         10
    83          0
    84        297
    85         36
    86        267
    87         15
    88          1
    96          0
    97          1
    99        137
   100         19
   101          1
   102          2
   110          1
   113        597
   114         38
   115          3
   125          0
   126          0
   128          3
   129          0
   130          0
   142          0
   170        305
   171         29
   172          2
   186          1