##TITLE=Library Entry 89827
##JCAMP-DX=Revision 4.10 
##DATA TYPE=MASS SPECTRUM
##SAMPLE DESCRIPTION=Humboldt-Universitat zu Berlin, Department of Chemistry
, Analytical Group
##NAMES=HP
##CAS NAME=1-(Thiazol-2-yl)pyrrolidin-2-one
##MOLFORM=C7H8N2OS
##CAS REGISTRY NO=37762-96-2
##MP= -300
##BP= -300
##MW= 168
##$RETENTION INDEX=0
##$CONDENSED SPECTRUM=NO
##NPOINTS= 109
##XYDATA=(XY..XY) 1 
    12         18
    13         27
    14         90
    15        196
    16          6
    17          4
    18          7
    19          3
    24          5
    25         31
    26        249
    27        530
    28        467
    29        127
    30         15
    31          7
    32         47
    33         14
    34          6
    35          2
    37         35
    38        101
    39        511
    40        217
    41        462
    42        302
    43         37
    44         56
    45        490
    46         55
    47         31
    48         10
    49          2
    50          6
    51         26
    52         43
    53        100
    54         71
    55        168
    56         71
    57        189
    58        527
    59        186
    60         36
    61         13
    62          4
    63          3
    64          6
    65          4
    66         13
    67         40
    68         25
    69         46
    70         33
    71         35
    72         59
    73         24
    74          4
    75          1
    76          1
    77          2
    78          2
    79          5
    80         20
    81         24
    82         10
    83         18
    84         46
    85        133
    86        185
    87         16
    88          9
    93          2
    94          1
    95         10
    96          3
    97          5
    98         14
    99         35
   100         90
   101         10
   102          4
   106          2
   107         21
   108          2
   109          1
   111         46
   112        115
   113        999
   114         73
   115         52
   116          3
   122          1
   123          3
   125        113
   126         24
   127         33
   128          3
   129          1
   137          4
   139         73
   140        134
   141         14
   142          7
   151          1
   168        315
   169         87
   170         20
   171          3