##TITLE=Library Entry 97228
##JCAMP-DX=Revision 4.10 
##DATA TYPE=MASS SPECTRUM
##SAMPLE DESCRIPTION=Chemical Concepts
##NAMES=HP
##CAS NAME=Benzenecarbothioamide, 3,5-dinitro-
##MOLFORM=C7H5N3O4S
##CAS REGISTRY NO=37773-67-4
##MP= -300
##BP= -300
##MW= 227
##$RETENTION INDEX=0
##$CONDENSED SPECTRUM=NO
##NPOINTS= 123
##XYDATA=(XY..XY) 1 
    27         12
    28         29
    29         11
    30         20
    31          4
    36          1
    37         19
    38         37
    39         65
    40         18
    41         53
    42         10
    43         22
    44          5
    45          2
    46          2
    50         17
    51         28
    52         46
    53         20
    54         12
    55         21
    56          8
    57         23
    58          2
    59          2
    60          6
    61         19
    63        257
    64         53
    65         35
    66         25
    67         14
    68          7
    69         41
    70          9
    71         13
    72          1
    73          7
    74          7
    75         12
    76         17
    77         31
    78         40
    79         32
    80          9
    81         22
    82          6
    83         10
    84          4
    85          6
    86          3
    88         17
    89         32
    90        346
    91         35
    92          6
    93          5
    94          2
    95          8
    96          3
    97          7
    98          3
    99          4
   100          3
   101          2
   102          1
   103          2
   104          8
   105        186
   106         64
   107         10
   108          3
   109          4
   110          2
   111          4
   112          2
   113          2
   114          0
   116         21
   117        999
   118         51
   119         10
   120          2
   121          4
   122          2
   123          3
   124          1
   125          2
   127          1
   129          2
   130          1
   131          2
   132          8
   133        181
   134         19
   135         16
   136          3
   137          4
   138          1
   139          0
   141          1
   147          7
   148          7
   149         27
   150          3
   151          1
   155          0
   157          1
   162          1
   163        321
   164         30
   165          7
   166          1
   167          2
   179          1
   180          1
   181          3
   187          1
   194          2
   195          6
   196          3
   202          1