##TITLE=Library Entry 14000
##JCAMP-DX=Revision 4.10 
##DATA TYPE=MASS SPECTRUM
##SAMPLE DESCRIPTION=Chemical Concepts
##NAMES=HP
##CAS NAME=10,11-Cyclo-9,11-secoestra-4,6-diene-3,9-dione, 17-(acetyloxy)-,
 (10.alpha.,17.beta.)-
##MOLFORM=C20H24O4
##CAS REGISTRY NO=37770-04-0
##MP= -300
##BP= -300
##MW= 328
##$RETENTION INDEX=0
##$CONDENSED SPECTRUM=NO
##NPOINTS= 247
##XYDATA=(XY..XY) 1 
    25          5
    26         30
    27         88
    28         78
    29        219
    30         12
    31         39
    35          2
    36          5
    37         12
    38         22
    39        134
    40         31
    41        397
    42        175
    43        999
    44        138
    45         66
    46          8
    47          2
    49          6
    50         41
    51         71
    52         49
    53         71
    54         20
    55        317
    56        358
    57        519
    58        194
    59        274
    60         54
    61         10
    62          8
    63         36
    64         14
    65         61
    66         20
    67         89
    68         51
    69        177
    70         57
    71         89
    72         21
    73         41
    74         19
    75         16
    76         40
    77        177
    78        272
    79        185
    80         33
    81        292
    82         56
    83         95
    84         51
    85         45
    86        113
    87         24
    88          7
    89         18
    90         20
    91        278
    92         48
    93        108
    94         94
    95        113
    96         40
    97         58
    98         70
    99         38
   100         12
   101        139
   102         27
   103         75
   104         65
   105        222
   106         79
   107        170
   108         54
   109         52
   110         24
   111         31
   112         31
   113         34
   114          7
   115        163
   116         67
   117        123
   118         53
   119         97
   120         59
   121        121
   122         40
   123        157
   124        158
   125         53
   126         16
   127         51
   128        111
   129        159
   130         66
   131        131
   132         81
   133        185
   134         69
   135        106
   136         57
   137         35
   138         17
   139         18
   140          7
   143         88
   144         56
   145        118
   146         89
   147         90
   148         68
   152         23
   153         29
   154         28
   155        123
   156         50
   157         76
   158        123
   159        116
   160        107
   161        178
   162        548
   163        156
   164        224
   165         60
   166         27
   167         36
   168         32
   169         76
   170         72
   171         79
   172         73
   173         64
   174         62
   175        143
   176         47
   177         56
   178         17
   179         17
   180         17
   181         53
   182         23
   183        101
   184        103
   185        129
   186         65
   187        131
   188         53
   189         28
   190         10
   191         12
   192         11
   193         16
   194         18
   195         26
   196         45
   197        101
   198        126
   199        118
   200         60
   201         81
   202         31
   210         23
   211        102
   212        173
   213         79
   214         33
   224         30
   225        146
   226         54
   227         91
   228         19
   233         76
   234         15
   235         24
   236         14
   237         23
   238         23
   239         83
   240        569
   241        131
   242         13
   253         59
   254         16
   255          8
   256         12
   257         17
   258        178
   259         26
   260          7
   261          2
   262          3
   264          3
   265          4
   266         15
   267         14
   268        315
   269         67
   270         12
   285         10
   286        298
   287         55
   288         11
   289          3
   290          2
   291          1
   292          2
   293          2
   294          3
   295          6
   296          2
   297          8
   298          7
   299          4
   300         77
   301         14
   302          4
   303          1
   308          3
   309          2
   310          4
   312          3
   313          3
   315          0
   316          0
   317          0
   318          0
   319          0
   320          0
   321          0
   322          0
   323          0
   324          0
   325          0
   326         10
   327          5
   328        259
   329         56
   330         12
   331          5