##TITLE=Library Entry 72017
##JCAMP-DX=Revision 4.10 
##DATA TYPE=MASS SPECTRUM
##SAMPLE DESCRIPTION=Chemical Concepts
##NAMES=HP
##CAS NAME=Tetracyclo[7.7.1.0(1,12).0(4,8)]heptadec-11-en-5-ol-17-one, 14,14
-ethylenedioxy-
##MOLFORM=C20H28O4
##CAS REGISTRY NO=37770-05-1
##MP= -300
##BP= -300
##MW= 332
##$RETENTION INDEX=0
##$CONDENSED SPECTRUM=NO
##NPOINTS= 255
##XYDATA=(XY..XY) 1 
    26          2
    27         19
    28          5
    29         29
    30          3
    31          6
    36          1
    38          1
    39         19
    40          8
    41         63
    42         44
    43         61
    44         10
    45         25
    46          1
    49          1
    50          1
    51          6
    52          5
    53         33
    54          6
    55        127
    56         15
    57         27
    58          4
    59          2
    60          2
    61          1
    63          2
    64          2
    65         21
    66          9
    67         32
    68          9
    69         15
    70          3
    71          9
    72          2
    73         15
    74          2
    75          1
    76          1
    77         50
    78         16
    79         50
    80         10
    81         29
    82          5
    83          8
    84          3
    85          4
    86         71
    87         30
    88          2
    89          4
    90          3
    91         63
    92         15
    93         27
    94          8
    95         14
    96          5
    97          9
    98          3
    99        999
   100         81
   101         15
   102          3
   103         13
   104          8
   105         34
   106          8
   107         26
   108          6
   109          9
   110          4
   111          4
   112          4
   113          3
   114          1
   115         17
   116          9
   117         22
   118          5
   119         14
   120          8
   121         14
   122          6
   123          8
   124          3
   125          4
   126          2
   127          6
   128         10
   129         14
   130          6
   131         16
   132          6
   133         15
   134          6
   135          9
   136          3
   137          3
   138          1
   139          2
   140          1
   141          6
   142          4
   143          8
   144          4
   145         15
   146          5
   147          9
   148          3
   149          5
   150          2
   151          3
   152          2
   153          3
   154          2
   155          4
   156          2
   157          6
   158          3
   159          7
   160          3
   161          6
   162          3
   163          6
   164          2
   165          4
   166          2
   167          3
   168          1
   169          3
   170          1
   171          5
   172          2
   173          4
   174          2
   175          3
   176          1
   177          2
   178          2
   179          3
   180          2
   181          2
   182          1
   183          3
   184          1
   185          4
   186          1
   187          3
   188          1
   189          2
   190          1
   191          3
   193          2
   194          1
   195          2
   196          1
   197          2
   198          1
   199          3
   200          1
   201          2
   202          1
   203          2
   204          1
   205          2
   206          2
   207          2
   208          3
   209          2
   210          1
   211          1
   212          1
   213          2
   214          1
   215          2
   216          1
   217          1
   218          1
   219          1
   220          1
   221          1
   222          1
   223          1
   224          1
   225          1
   226          1
   227          2
   228          1
   229          1
   230          1
   231          2
   232          1
   233          1
   234          1
   235          1
   236          1
   237          1
   241          2
   242          1
   243          1
   244          1
   245          2
   246          1
   247          1
   248          1
   255          2
   256          1
   257          1
   258          1
   259          1
   260          1
   261          1
   262          1
   269          1
   270          1
   271          1
   272          1
   273          1
   274          1
   275          1
   276          1
   277          1
   284          1
   285          1
   286          1
   287          1
   288          2
   289          1
   290          0
   295          1
   297          1
   299          1
   301          0
   302          3
   303          1
   304          5
   305          1
   313          1
   314          1
   315          2
   316          1
   317         11
   318          3
   330          2
   331          5
   332         82
   333         37
   334          6
   335          1