##TITLE=Library Entry 39196
##JCAMP-DX=Revision 4.10 
##DATA TYPE=MASS SPECTRUM
##SAMPLE DESCRIPTION=Chemical Concepts
##NAMES=HP
##CAS NAME=Pyrrolidine-2,4-dione
##MOLFORM=C4H5NO2
##CAS REGISTRY NO=37772-89-7
##MP= -300
##BP= -300
##MW= 99
##$RETENTION INDEX=0
##$CONDENSED SPECTRUM=NO
##NPOINTS= 64
##XYDATA=(XY..XY) 1 
    25          7
    26         29
    27         41
    28        318
    29        208
    30        381
    31          9
    35          0
    36          1
    37          7
    38         13
    39         17
    40         21
    41         86
    42        631
    43        395
    44         23
    45          1
    49          0
    50          1
    51          8
    52         11
    53          6
    54         10
    55         12
    56         22
    57         10
    58          4
    59          0
    60          1
    61          0
    65          1
    66          0
    67          6
    68          6
    69         60
    70          9
    71        999
    72         48
    73          5
    74          2
    75          1
    76          1
    77          1
    78          0
    79          1
    80          0
    81          1
    82          7
    83          2
    84          5
    85          0
    86          3
    87          1
    88          0
    91          1
    93          1
    95          1
    96          2
    97          0
    98          3
    99        678
   100         51
   101          5