##TITLE=Library Entry 50362
##JCAMP-DX=Revision 4.10 
##DATA TYPE=MASS SPECTRUM
##SAMPLE DESCRIPTION=TNO Volatile Compounds in Food - Chemical Concepts
##NAMES=HP
##CAS NAME=Furan, 2-hexyl-
##MOLFORM=C10H16O
##CAS REGISTRY NO=3777-70-6
##MP= -300
##BP= -300
##MW= 152
##$RETENTION INDEX=1095
##$CONDENSED SPECTRUM=NO
##NPOINTS= 53
##XYDATA=(XY..XY) 1 
    26          8
    27         76
    28         38
    29         30
    31          5
    32          1
    34          3
    38          7
    39         57
    40          5
    41         54
    42          6
    43         41
    50          4
    51         13
    52          9
    53         78
    54         12
    55          9
    56          2
    57          2
    65          7
    66          9
    67         21
    68         19
    69          6
    71          2
    73          2
    77          3
    78          3
    79         10
    80          4
    81        999
    82        113
    83         11
    88          2
    89          2
    91          2
    94         14
    95         55
    96         23
    98          2
    99          2
   108         14
   109          9
   110          2
   118          2
   123         17
   124          1
   126          2
   131          2
   152         53
   153          4