##TITLE=Library Entry 50380
##JCAMP-DX=Revision 4.10 
##DATA TYPE=MASS SPECTRUM
##SAMPLE DESCRIPTION=Chuck Anderson, Aldrich Chemical Co.
##NAMES=HP
##CAS NAME=2-n-Heptylfuran
##MOLFORM=C11H18O
##CAS REGISTRY NO=3777-71-7
##MP= -300
##BP= -300
##MW= 166
##$RETENTION INDEX=1195
##$CONDENSED SPECTRUM=NO
##NPOINTS= 64
##XYDATA=(XY..XY) 1 
    26          2
    27         42
    28          4
    29         30
    38          3
    39         43
    40          7
    41         71
    42          8
    43         60
    44          2
    50          3
    51         13
    52          9
    53         93
    54         15
    55         25
    56          5
    57         10
    63          3
    65         17
    66         18
    67         58
    68         38
    69         18
    70          6
    71          3
    77         17
    78          5
    79         29
    80         12
    81        999
    82        270
    83         31
    84          6
    85          2
    91          8
    92          1
    93         12
    94         38
    95        186
    96         30
    97          7
    98          3
   105          6
   106          3
   107         14
   108          5
   109         80
   110         27
   111          2
   119         11
   120          2
   122         19
   123         67
   124         14
   125          1
   133          2
   135          0
   137         20
   138          2
   151          2
   166         99
   167         10