##TITLE=Library Entry 47918
##JCAMP-DX=Revision 4.10 
##DATA TYPE=MASS SPECTRUM
##SAMPLE DESCRIPTION=Exported from NIST MS Search
##NAMES=HP
##CAS NAME=2-Propen-1-one, 1,3-diphenyl-, phenylhydrazone
##MOLFORM=C21H18N2
##CAS REGISTRY NO=37799-62-5
##MP= -300
##BP= -300
##MW= 298
##$RETENTION INDEX=0
##$CONDENSED SPECTRUM=NO
##NPOINTS= 22
##XYDATA=(XY..XY) 1 
    39        150
    51        300
    65        350
    77        999
    91        609
    92        180
   102        160
   103        370
   104        220
   105        390
   106        200
   115        400
   128        150
   165        140
   178        150
   189        110
   191        120
   193        180
   194        270
   206        270
   221        360
   298        839