##TITLE=Library Entry 68015
##JCAMP-DX=Revision 4.10 
##DATA TYPE=MASS SPECTRUM
##SAMPLE DESCRIPTION=D.HENNEBERG, MAX-PLANCK INSTITUTE, MULHEIM, WEST GERMAN
Y
##NAMES=HP
##CAS NAME=Bicyclo[2.2.1]heptane, 2-(phenylmethyl)-
##MOLFORM=C14H18
##CAS REGISTRY NO=37794-91-5
##MP= -300
##BP= -300
##MW= 186
##$RETENTION INDEX=0
##$CONDENSED SPECTRUM=NO
##NPOINTS= 95
##XYDATA=(XY..XY) 1 
    26          1
    27         20
    29         11
    30          0
    34          2
    37          1
    38          1
    39         50
    40          7
    41         80
    42          3
    43          0
    45          0
    47          3
    48          2
    49          0
    50          4
    51         21
    52          8
    53         24
    54          5
    55         32
    56          1
    58          0
    61          0
    62          2
    63         12
    64          3
    65         62
    66         48
    67        182
    68         11
    69          1
    70          0
    71          1
    74          0
    75          2
    76          3
    77         33
    78         12
    79         23
    80          6
    81          6
    82          0
    83          0
    86          0
    88          0
    89         10
    90          4
    91        166
    92         33
    93         25
    94         27
    95        999
    96         78
    97          3
    99          0
   101          0
   102          3
   103         10
   104         18
   105          6
   106          0
   113          8
   114          1
   115         27
   116         11
   117         29
   118          7
   119          0
   126          0
   127          4
   128         12
   129         13
   130          4
   131          1
   132          1
   139          0
   141          2
   142          1
   143          2
   144          0
   145          0
   152          1
   153          0
   155          0
   156          0
   157          0
   158          2
   165          0
   184          0
   185          0
   186         72
   187         11
   188          0