##TITLE=Library Entry 71757
##JCAMP-DX=Revision 4.10 
##DATA TYPE=MASS SPECTRUM
##SAMPLE DESCRIPTION=Japan AIST/NIMC Database- Spectrum MS-NW-5711
##NAMES=HP
##CAS NAME=Diethyl 1,1-cyclobutanedicarboxylate
##MOLFORM=C10H16O4
##CAS REGISTRY NO=3779-29-1
##MP= -300
##BP= -300
##MW= 200
##$RETENTION INDEX=0
##$CONDENSED SPECTRUM=NO
##NPOINTS= 142
##XYDATA=(XY..XY) 1 
    14          4
    15         20
    16          1
    18          1
    25          3
    26         63
    27        309
    28         83
    29        848
    30         19
    31         36
    32          1
    36          1
    37          2
    38          5
    39         90
    40         15
    41         79
    42         17
    43        107
    44         21
    45        106
    46          4
    47          4
    49          1
    50          9
    51         17
    52         15
    53        221
    54        179
    55        191
    56         41
    57         30
    58         18
    59         13
    60          5
    61          1
    63          1
    65          3
    66          2
    67         11
    68          6
    69         33
    70         18
    71         41
    72         50
    73         31
    74          4
    75          1
    76          3
    77          3
    78          2
    79          4
    80         39
    81        246
    82        285
    83        189
    84         22
    85         64
    86          8
    87          8
    88          4
    89          2
    90          1
    91          3
    92          1
    93          4
    94          1
    95          9
    96          4
    97         19
    98        110
    99        999
   100        332
   101         32
   102          4
   103          1
   104          2
   105          1
   106          1
   107          1
   108        484
   109         53
   110         60
   111         44
   112          4
   113        106
   114          9
   115          6
   116          2
   117          9
   118          1
   119          2
   120          1
   121          2
   122          3
   123          1
   124          2
   125         23
   126        180
   127        311
   128        158
   129         14
   130          2
   133          1
   134          1
   135          1
   136          2
   137          1
   138          1
   139          2
   140          1
   141          7
   142          2
   143         20
   144         15
   145         23
   146          2
   147          1
   148          1
   149          1
   150          1
   152          1
   153          6
   154        220
   155        492
   156         48
   157          8
   158          1
   160          2
   166          1
   167          2
   171         24
   172         12
   173         57
   174          7
   175          1
   183          1
   185          2
   199          2
   200         49
   201          8