##TITLE=Library Entry 75916
##JCAMP-DX=Revision 4.10 
##DATA TYPE=MASS SPECTRUM
##SAMPLE DESCRIPTION=A.A.Kutin, Moscow, Russia
##NAMES=HP
##CAS NAME=Cubanecarboxylic acid, 6-bromo-, methyl ester
##MOLFORM=C10H9BrO2
##CAS REGISTRY NO=37794-28-8
##MP= -300
##BP= -300
##MW= 240
##$RETENTION INDEX=0
##$CONDENSED SPECTRUM=NO
##NPOINTS= 108
##XYDATA=(XY..XY) 1 
    34          1
    36          9
    37         55
    38         96
    39        145
    40         43
    41         11
    42          2
    43         10
    44         16
    45         10
    46          0
    49         48
    50        338
    51        326
    52         71
    53         66
    54          3
    55          9
    56          2
    57          2
    59        205
    60         10
    61         27
    62         56
    63        110
    64         23
    65         27
    66          2
    68          0
    69         15
    70          1
    72          0
    73         21
    74        114
    75        174
    76        181
    77        219
    78         26
    79         19
    80          6
    81          3
    82          6
    83          1
    84          1
    85          3
    86          5
    87          8
    89         65
    90         71
    91        107
    92         18
    93          1
    95          1
    97          4
    98         11
    99          7
   100         11
   101        154
   102        999
   103        155
   104         26
   105        137
   106         18
   107          2
   108          0
   113          1
   115        146
   116         46
   117         30
   118        179
   119         33
   120          2
   129        105
   130         30
   131         13
   132         22
   133        277
   134         26
   135          2
   143          0
   145          6
   146         51
   147          5
   149          0
   155         25
   156         47
   157         25
   158         44
   159          3
   160          2
   161          6
   169          4
   171          4
   180         19
   181         22
   182         21
   183         41
   184          4
   185         20
   186          1
   188          0
   197          2
   199          4
   209         14
   210          1
   211         13
   212          0