##TITLE=Library Entry 20
##JCAMP-DX=Revision 4.10 
##DATA TYPE=MASS SPECTRUM
##SAMPLE DESCRIPTION=NIST Mass Spectrometry Data Center
##NAMES=HP
##CAS NAME=Pentafluoropropanoic acid methyl ester
##MOLFORM=C4H3F5O2
##CAS REGISTRY NO=378-75-6
##MP= -300
##BP= -300
##MW= 178
##$RETENTION INDEX=437
##$CONDENSED SPECTRUM=NO
##NPOINTS= 41
##XYDATA=(XY..XY) 1 
    12          3
    13          5
    15        999
    16         10
    20          1
    29        123
    30         23
    31        176
    33         20
    43          4
    44          9
    45          8
    47          5
    50         64
    51          7
    59        642
    60         14
    61          3
    62          2
    65          7
    69        308
    70          3
    71          2
    78          6
    81         48
    82          1
    97         30
    98          1
   100         89
   101          2
   103          2
   109          1
   119        254
   120          5
   128          4
   129          1
   131         30
   132          1
   147         16
   149          7
   177          1