##TITLE=Library Entry 22452
##JCAMP-DX=Revision 4.10 
##DATA TYPE=MASS SPECTRUM
##SAMPLE DESCRIPTION=Japan AIST/NIMC Database- Spectrum MS-NW-5385
##NAMES=HP
##CAS NAME=Isobutyl laurate
##MOLFORM=C16H32O2
##CAS REGISTRY NO=37811-72-6
##MP= -300
##BP= -300
##MW= 256
##$RETENTION INDEX=1748
##$CONDENSED SPECTRUM=NO
##NPOINTS= 90
##XYDATA=(XY..XY) 1 
    18          1
    27         74
    28         30
    29        233
    30          2
    31          9
    39         53
    40         12
    41        375
    42         75
    43        334
    44         10
    45         10
    53         15
    54         19
    55        195
    56        999
    57        974
    58         46
    59          9
    60        219
    61         70
    67         29
    68         17
    69         84
    70         29
    71        136
    72          9
    73        145
    74         22
    79          5
    81         28
    82         12
    83         75
    84         44
    85         96
    86         11
    87         43
    88          6
    89          8
    93          4
    95         44
    96         12
    97         55
    98         50
    99         22
   100          1
   101         40
   102          7
   103          7
   109         24
   110          7
   111         20
   112         12
   113          6
   115         35
   116         53
   117         16
   121          3
   123          9
   125          9
   129         74
   130          7
   138         12
   139          8
   140          9
   141          5
   143         17
   155          1
   157         49
   158          6
   163          6
   164          4
   165          3
   171         16
   172          2
   180          1
   181          7
   182          1
   183        396
   184         53
   185          7
   199          3
   200        119
   201        224
   202         32
   203          3
   226          6
   241          5
   256          6