##TITLE=Library Entry 107883
##JCAMP-DX=Revision 4.10 
##DATA TYPE=MASS SPECTRUM
##SAMPLE DESCRIPTION=John Halket,Royal Holloway, University of London, UK
##NAMES=HP
##CAS NAME=Octadecanamide, N-(2,2,6,6-tetramethyl-4-piperidinyl)-
##MOLFORM=C27H54N2O
##CAS REGISTRY NO=37819-84-4
##MP= -300
##BP= -300
##MW= 422
##$RETENTION INDEX=0
##$CONDENSED SPECTRUM=NO
##NPOINTS= 160
##XYDATA=(XY..XY) 1 
    15          1
    27          9
    29         30
    30          6
    39         11
    41         93
    42         59
    43        172
    44         39
    45          1
    51          1
    53          6
    54          7
    55         81
    56         32
    57        100
    58        264
    59         19
    60          1
    65          2
    66          2
    67         18
    68          9
    69         25
    70         18
    71         33
    72         11
    73          1
    77          2
    79          9
    80          3
    81         22
    82         44
    83         27
    84         91
    85         17
    86          3
    87          1
    91          6
    92          3
    93          5
    94          5
    95         10
    96         15
    97         17
    98         65
    99         97
   100          9
   101          1
   105          4
   107         40
   108         31
   109         10
   110         13
   111          6
   112         35
   113         13
   114          2
   119          3
   120          1
   121          3
   122         14
   124        999
   125        210
   126         12
   127          1
   128          1
   133          1
   135          1
   136          1
   138         45
   139         28
   140         15
   141          5
   142          1
   151          1
   152          1
   153          1
   154          2
   155          2
   156          1
   165          1
   166          1
   167         12
   168          2
   169          1
   180          1
   181          2
   182          4
   183          2
   184          1
   194          1
   195          1
   196          1
   198         18
   199          2
   208          1
   209          1
   211         14
   212          3
   222          1
   223          1
   224          1
   225          3
   226          1
   236          1
   237          1
   238          1
   239          2
   240          1
   251          1
   252          1
   253          3
   254          1
   265          1
   266          1
   267          4
   268          1
   279          1
   280          1
   281          2
   282          1
   284          5
   285          1
   293          1
   294          1
   295          2
   296          1
   307          1
   308          1
   309          2
   310          1
   321          1
   322          3
   323          2
   324          1
   335          1
   336          1
   337          2
   349          1
   350          1
   351          2
   352          1
   364          2
   365          4
   366          4
   367          1
   379          1
   391          2
   392          1
   393          2
   405          2
   407        135
   408         40
   409          6
   410          1
   421          3
   422         10
   423          3
   424          1