##TITLE=Library Entry 321
##JCAMP-DX=Revision 4.10 
##DATA TYPE=MASS SPECTRUM
##SAMPLE DESCRIPTION=D.HENNEBERG, MAX-PLANCK INSTITUTE, MULHEIM, WEST GERMAN
Y
##NAMES=HP
##CAS NAME=Tungsten, pentacarbonyl(methoxyphenylmethylene)-, (OC-6-21)-
##MOLFORM=C13H8O6W
##CAS REGISTRY NO=37823-96-4
##MP= -300
##BP= -300
##MW= 444
##$RETENTION INDEX=0
##$CONDENSED SPECTRUM=NO
##NPOINTS= 279
##XYDATA=(XY..XY) 1 
    26         10
    28        999
    29         34
    30          7
    31         34
    32         22
    38          5
    39         15
    50         21
    51         44
    52          8
    63          6
    74          4
    75          4
    76          5
    77         45
    78         38
    91          7
    92          4
   103          6
   104         13
   105         14
   123          4
   129         20
   132          3
   134          3
   135         11
   138         10
   139          3
   143          4
   145          5
   146          2
   152         10
   153          4
   159          2
   160          1
   164          3
   165          5
   166          4
   167          5
   169          0
   171          0
   173          1
   174          0
   175          1
   176          2
   178         11
   179         18
   180         19
   181         18
   182         10
   183          7
   184         12
   186         12
   187          0
   188          0
   189          0
   190          0
   191          0
   192          0
   193          5
   194          8
   195          9
   196          5
   197          3
   198          7
   199          5
   200          6
   201          0
   202          4
   203          0
   206          6
   207         22
   208         24
   209         25
   210         25
   211         26
   212         22
   213          2
   214         17
   215          1
   216          1
   217          1
   218         13
   219         29
   220         37
   221         36
   222         29
   223         31
   224         18
   225          5
   226          5
   227          2
   228          3
   229          1
   230          5
   231         22
   232         28
   233         57
   234         38
   235         58
   236         22
   237         36
   238         21
   239         16
   240         22
   241          3
   242         20
   243         11
   244         18
   245         54
   246         41
   247         57
   248         26
   249         46
   250         19
   251          6
   252         12
   253          4
   254          6
   255          8
   256         12
   257         55
   258         47
   259        188
   260        100
   261        220
   262         41
   263        161
   264         15
   265         22
   266         19
   267         12
   268         21
   269         10
   270         33
   271         42
   272         40
   273         48
   274         59
   275         55
   276         80
   277         23
   278         71
   279          9
   280         31
   281          7
   282          4
   283          4
   284          3
   285          8
   286          8
   287        133
   288         89
   289        158
   290         26
   291        136
   292         20
   293          3
   294          7
   295          4
   296          7
   298         13
   300         89
   301         62
   302        172
   303         67
   304        167
   305         19
   306         81
   307          8
   308          2
   310          2
   311          2
   312          2
   313          3
   314          4
   315        106
   316         93
   317        140
   318         42
   319        119
   320         35
   321          4
   322          2
   324          2
   326          2
   327         10
   328          9
   329         14
   330         98
   331         73
   332        121
   333         15
   334        102
   335         10
   336          3
   337          1
   339          1
   341          1
   343         80
   344         50
   345         98
   346         11
   347         87
   348          9
   350          1
   351          0
   352          1
   353          1
   354          1
   355          3
   356          5
   357          7
   358        170
   359        111
   360        204
   361         27
   362        181
   363         22
   364          3
   365          1
   366          0
   370          0
   371          6
   372          4
   373          8
   374          1
   375          7
   377          0
   379          0
   380          0
   381          0
   383          2
   384          1
   385          3
   386          7
   387          7
   388         10
   389          3
   390          9
   391          2
   392          2
   393          1
   394          0
   395          0
   396          0
   400          0
   401          0
   404          0
   407          0
   409          0
   410          0
   412          1
   414         81
   415         57
   416        103
   417         15
   418         89
   419         12
   420          2
   421          0
   422          0
   427          0
   428          0
   429          0
   432          0
   434          0
   435          0
   436          0
   438          0
   441          1
   442         67
   443         45
   444         81
   445         12
   446         71
   447         10
   448          2