##TITLE=Library Entry 12636
##JCAMP-DX=Revision 4.10 
##DATA TYPE=MASS SPECTRUM
##SAMPLE DESCRIPTION=Chemical Concepts
##NAMES=HP
##CAS NAME=6-Diethylamino-2-methyl-4-hexyn-3-ol
##MOLFORM=C11H21NO
##CAS REGISTRY NO=37828-86-7
##MP= -300
##BP= -300
##MW= 183
##$RETENTION INDEX=0
##$CONDENSED SPECTRUM=NO
##NPOINTS= 40
##XYDATA=(XY..XY) 1 
    31         20
    38         14
    39        124
    41        232
    43        999
    44         83
    45          9
    50         10
    51         36
    52         26
    53        111
    54         46
    55         75
    56        133
    58        460
    59         32
    63         15
    65         31
    66         14
    67         37
    68         30
    69         40
    70         35
    72         68
    77         59
    78          9
    79         52
    80         30
    81         32
    82         71
    83         19
    86         77
    94         10
    96         27
    97          9
   108          9
   110         72
   138         26
   154        685
   155         70