##TITLE=Library Entry 56852
##JCAMP-DX=Revision 4.10 
##DATA TYPE=MASS SPECTRUM
##SAMPLE DESCRIPTION=D.H.WILLIAMS CHEMISTRY DEPT., UNIVERSITY OF CAMBRIDGE
##NAMES=HP
##CAS NAME=1,4-Dioxadispiro[4.1.5.2]tetradeca-8,11-dien-10-one
##MOLFORM=C12H14O3
##CAS REGISTRY NO=37827-67-1
##MP= -300
##BP= -300
##MW= 206
##$RETENTION INDEX=0
##$CONDENSED SPECTRUM=NO
##NPOINTS= 94
##XYDATA=(XY..XY) 1 
    26         30
    27         80
    29         40
    38         30
    39        100
    40         30
    41         40
    42        130
    43         90
    44         20
    45         40
    50         40
    51        100
    52         80
    53         50
    54         20
    55         80
    56         40
    57         20
    58         10
    62         20
    63         50
    64         20
    65         60
    66         40
    67         20
    68         10
    73         30
    74         20
    75         20
    76         20
    77        100
    78        180
    79         60
    80         20
    81         20
    86        999
    87        240
    88         30
    89         30
    90         20
    91        140
    92         40
    93         20
    94         30
    99        340
   100        100
   101         20
   102         20
   103         40
   104         20
   105         50
   106        180
   107         80
   108         30
   115         60
   116         30
   117         40
   118         20
   119         40
   120        360
   121         60
   122         20
   127         30
   128         20
   131         40
   132         40
   133        160
   134        100
   135         30
   136         20
   144         30
   145         40
   146         30
   147         40
   148         10
   149         20
   150         40
   151         20
   160         20
   161         40
   162         70
   163         20
   164         10
   177         30
   178        400
   179         60
   180         20
   189         20
   191         30
   205         30
   206        660
   207        100
   208         30