##TITLE=Library Entry 60857
##JCAMP-DX=Revision 4.10 
##DATA TYPE=MASS SPECTRUM
##SAMPLE DESCRIPTION=V.Zaikin,Topchiev Inst.Petrochem.Synth.,Moscow
##NAMES=HP
##CAS NAME=Benzenepropanoic acid, octyl ester
##MOLFORM=C17H26O2
##CAS REGISTRY NO=37826-57-6
##MP= -300
##BP= -300
##MW= 262
##$RETENTION INDEX=0
##$CONDENSED SPECTRUM=NO
##NPOINTS= 105
##XYDATA=(XY..XY) 1 
    27         15
    28         10
    29         29
    30          2
    31          3
    35          3
    36         22
    37         18
    38         36
    39        101
    40         13
    41        113
    42         41
    43        134
    44         33
    45         34
    49         18
    50        130
    51        235
    52         65
    53         28
    54         13
    55        121
    56         36
    57        148
    58          7
    59          5
    60          9
    61         18
    62         31
    63         80
    64         18
    65        131
    66         15
    67         10
    68          5
    69         28
    70         21
    71         85
    72         19
    73         26
    74         65
    75         58
    76         51
    77        282
    78        296
    79         93
    80          8
    81          5
    82          8
    83         20
    84          9
    85          9
    86          4
    87          8
    88          3
    89         37
    90         17
    91        999
    92         78
    93          6
    94          5
    95          7
    96          3
    97         15
    98          8
   101         15
   102         64
   103        249
   104        876
   105        319
   106         24
   107         78
   108          3
   110          3
   111         11
   112         13
   113          5
   115          6
   117          5
   118          2
   121          4
   122          6
   123          3
   126          2
   128          3
   129          4
   130         14
   131        139
   132        266
   133         72
   134          5
   135          3
   137          3
   139         18
   141          6
   145          3
   147          5
   148          5
   149         21
   150        372
   151         42
   152          3
   262         34
   263          5