##TITLE=Library Entry 11279
##JCAMP-DX=Revision 4.10 
##DATA TYPE=MASS SPECTRUM
##SAMPLE DESCRIPTION=Japan AIST/NIMC Database- Spectrum MS-NW-9427
##NAMES=HP
##CAS NAME=1,3-Dioxol-2-one,4,5-dimethyl-
##MOLFORM=C5H6O3
##CAS REGISTRY NO=37830-90-3
##MP= -300
##BP= -300
##MW= 114
##$RETENTION INDEX=0
##$CONDENSED SPECTRUM=NO
##NPOINTS= 38
##XYDATA=(XY..XY) 1 
    12          1
    13          4
    14         22
    15        109
    16          1
    25          7
    26         46
    27        192
    28         30
    29          8
    36          1
    37          8
    38         10
    39         48
    40         65
    41        262
    42        168
    43        999
    44         33
    45          9
    49          2
    50          8
    51          6
    52          3
    53         41
    54         28
    55        342
    56         13
    57          1
    68          4
    69          8
    70         54
    71          2
    86         16
   113          1
   114        564
   115         37
   116          5