##TITLE=Library Entry 81670
##JCAMP-DX=Revision 4.10 
##DATA TYPE=MASS SPECTRUM
##SAMPLE DESCRIPTION=M.V. GEORGE, DEP. CHEM., INDIAN INST. TECHNOL., KANPUR,
 INDIA
##NAMES=HP
##CAS NAME=3-Benzoyl-2,4,5-triphenylpyrrole
##MOLFORM=C29H21NO
##CAS REGISTRY NO=37835-64-6
##MP= -300
##BP= -300
##MW= 399
##$RETENTION INDEX=0
##$CONDENSED SPECTRUM=NO
##NPOINTS= 15
##XYDATA=(XY..XY) 1 
    77        110
   103         20
   105        999
   178        270
   193        130
   195        480
   206        110
   220         20
   221        170
   293         30
   294         80
   321         20
   322         50
   398         20
   399         30