##TITLE=Library Entry 8079
##JCAMP-DX=Revision 4.10 
##DATA TYPE=MASS SPECTRUM
##SAMPLE DESCRIPTION=Exported from NIST MS Search
##NAMES=HP
##CAS NAME=3-Piperidinol, 1,4-dimethyl-, trans-
##MOLFORM=C7H15NO
##CAS REGISTRY NO=37835-47-5
##MP= -300
##BP= -300
##MW= 129
##$RETENTION INDEX=0
##$CONDENSED SPECTRUM=NO
##NPOINTS= 17
##XYDATA=(XY..XY) 1 
    39        132
    42        671
    43        999
    44        611
    57        163
    58        994
    70        114
    71        232
    86         60
    96         60
    98         50
   100         14
   110         34
   112         84
   114         26
   128        140
   129        244