##TITLE=Library Entry 8083
##JCAMP-DX=Revision 4.10 
##DATA TYPE=MASS SPECTRUM
##SAMPLE DESCRIPTION=Exported from NIST MS Search
##NAMES=HP
##CAS NAME=3-Piperidinol, 1,4-dimethyl-, cis-
##MOLFORM=C7H15NO
##CAS REGISTRY NO=37835-50-0
##MP= -300
##BP= -300
##MW= 129
##$RETENTION INDEX=0
##$CONDENSED SPECTRUM=NO
##NPOINTS= 17
##XYDATA=(XY..XY) 1 
    39        134
    42        684
    43        999
    44        827
    57        166
    58        994
    70        120
    71        226
    86         92
    96         58
    98         52
   100         60
   110         34
   112         96
   114         26
   128        138
   129        260