##TITLE=Library Entry 67214
##JCAMP-DX=Revision 4.10 
##DATA TYPE=MASS SPECTRUM
##SAMPLE DESCRIPTION=Exported from NIST MS Search
##NAMES=HP
##CAS NAME=Cycloprop[e]indene-1a,2(1H)-dimethanol, 3a,4,5,6,6a,6b-hexahydro-
5,5,6b-trimethyl-, (1a.alpha.,3a.beta.,6a.beta.,6b.alpha.)-(-)-
##MOLFORM=C15H24O2
##CAS REGISTRY NO=37841-93-3
##MP= -300
##BP= -300
##MW= 236
##$RETENTION INDEX=0
##$CONDENSED SPECTRUM=NO
##NPOINTS= 64
##XYDATA=(XY..XY) 1 
    39        281
    41        686
    43        257
    51        105
    53        278
    55        476
    56        119
    57        135
    65        211
    67        254
    69        273
    77        516
    78        140
    79        576
    80        106
    81        331
    83        116
    91        876
    92        274
    93        414
    94        999
    95        350
   103        121
   104        100
   105        838
   106        152
   107        346
   109        146
   115        243
   116         92
   117        246
   118        105
   119        476
   120        100
   121        208
   122        120
   123         66
   128        110
   129        148
   131        267
   132        105
   133        286
   134        135
   135        101
   140        104
   143         90
   145        203
   147        175
   159        263
   160        117
   161        227
   162        108
   173        173
   175        239
   176        100
   185        105
   187        358
   188        186
   189        341
   190        213
   203        198
   205         93
   218        128
   236        220