##TITLE=Library Entry 3778
##JCAMP-DX=Revision 4.10 
##DATA TYPE=MASS SPECTRUM
##SAMPLE DESCRIPTION=Exported from NIST MS Search
##NAMES=HP
##CAS NAME=Cycloprop[e]indene-1a,2(1H)-dicarboxaldehyde, 3a,4,5,6,6a,6b-hexa
hydro-5,5,6b-trimethyl-, (1a.alpha.,3a.beta.,6a.beta.,6b.alpha.)-(+)-
##MOLFORM=C15H20O2
##CAS REGISTRY NO=37841-91-1
##MP= -300
##BP= -300
##MW= 232
##$RETENTION INDEX=0
##$CONDENSED SPECTRUM=NO
##NPOINTS= 64
##XYDATA=(XY..XY) 1 
    39        502
    41        999
    43        307
    44        114
    51        214
    53        328
    55        486
    57        131
    63         92
    65        324
    67        193
    69        324
    77        616
    78        171
    79        486
    80        127
    81        282
    83        114
    91        958
    92        173
    93        239
    95        239
   105        837
   106        131
   107        263
   108        125
   109        109
   115        236
   117        210
   119        633
   120        210
   121        267
   122        114
   123        162
   128        182
   129        193
   131        214
   133        427
   134        153
   135        173
   136        193
   143        149
   145        195
   147        449
   148        328
   149        164
   157         87
   159        136
   160         96
   161        324
   162        146
   171        225
   173        136
   175        710
   176        230
   187         87
   189        464
   190         94
   203        228
   204        653
   205        116
   217        122
   232        877
   233        175