##TITLE=Library Entry 47762
##JCAMP-DX=Revision 4.10 
##DATA TYPE=MASS SPECTRUM
##SAMPLE DESCRIPTION=A.A.Kutin, Moscow, Russia
##NAMES=HP
##CAS NAME=1,3,4-Thiadiazole-2-thiol, 5-(4-methoxyphenylamino)-
##MOLFORM=C9H9N3OS2
##CAS REGISTRY NO=37844-24-9
##MP= -300
##BP= -300
##MW= 239
##$RETENTION INDEX=0
##$CONDENSED SPECTRUM=NO
##NPOINTS= 136
##XYDATA=(XY..XY) 1 
    33         77
    34         20
    38        434
    39        509
    41        244
    42        110
    44        260
    45        223
    46         74
    47         46
    50        422
    51        688
    52        527
    53        264
    55         82
    57         27
    59        857
    61        150
    63        649
    64        673
    65        693
    66         88
    67         40
    69         65
    70         32
    71         17
    72         17
    74        138
    76        704
    77        999
    78        396
    79        283
    80        120
    81         22
    82         18
    83         18
    84         14
    85         30
    86          7
    87         12
    88         32
    90        243
    91        391
    92        472
    93        294
    94        107
    95         55
    96         32
    97         11
    98          5
    99          6
   100          4
   102         34
   105        487
   106        120
   107        137
   108        298
   109         65
   110         20
   111          7
   112          3
   113          0
   114          0
   116         14
   117         34
   119        232
   120        280
   122        168
   123         45
   124          8
   125          3
   126          0
   127          0
   129          4
   130          7
   132        111
   133        137
   134         88
   135         17
   136         17
   137         31
   138         11
   139          4
   140          0
   144          1
   145          8
   146         12
   147         65
   148        176
   149        165
   150        365
   151        229
   152         44
   153         13
   154          1
   160          2
   161          3
   162         17
   163         13
   165         87
   166         99
   167          9
   168          3
   169          0
   171          0
   175          3
   176          5
   177          3
   179         33
   180         20
   181          6
   182          0
   188          7
   190          0
   192          0
   193          0
   203          0
   206         36
   208        603
   209         60
   210         49
   211          5
   212          1
   220         35
   221          3
   222          3
   223          0
   224          6
   225          0
   236          7
   237         16
   239        902
   240        100
   241         75
   242          6
   243          1