##TITLE=Library Entry 56741
##JCAMP-DX=Revision 4.10 
##DATA TYPE=MASS SPECTRUM
##SAMPLE DESCRIPTION=Patti Price, Georgia Bureau of Investigation, Decatur,
 Georgia
##NAMES=HP
##CAS NAME=Butanilicaine
##MOLFORM=C13H19ClN2O
##CAS REGISTRY NO=3785-21-5
##MP= -300
##BP= -300
##MW= 254
##$RETENTION INDEX=2013
##$CONDENSED SPECTRUM=NO
##NPOINTS= 124
##XYDATA=(XY..XY) 1 
    42         57
    44        216
    49          1
    50          4
    51         19
    52          7
    53          5
    54          2
    55         12
    56         18
    57         40
    58          2
    60          1
    62          2
    63         11
    64          4
    65          6
    66          1
    67          1
    68          2
    69          1
    70         10
    71         20
    72        302
    73         16
    74          3
    75          8
    76          9
    77         96
    78         25
    79         10
    80          1
    81          1
    82          1
    83          1
    84         17
    85          2
    86        999
    87         65
    88         68
    89         23
    90          6
    91         12
    92          1
    95          1
    96          1
    97          1
    98          1
    99          4
   100          1
   101          2
   102          8
   103          4
   104         38
   105         12
   106         72
   107         16
   111          2
   112          3
   113          9
   114          3
   115          3
   116          3
   117          8
   118          4
   119          1
   120          1
   123          1
   125          5
   126          1
   127          3
   128          1
   131          1
   132          8
   133          6
   134          7
   135          1
   137          1
   138          9
   139          5
   140        101
   141        304
   142         72
   143        107
   144         15
   145          1
   146         10
   147          7
   148          9
   151          1
   152          5
   153          1
   154         66
   155          6
   156         19
   157          2
   160          1
   161          1
   162          3
   163          1
   164          1
   166          2
   167          6
   168         15
   169          3
   170          5
   183         27
   184          4
   185          9
   187          1
   209          4
   210          1
   211         45
   212          5
   213         12
   214          2
   217          3
   218         15
   219         93
   220         11
   254         12
   255          2
   256          3
   258          1