##TITLE=Library Entry 3876
##JCAMP-DX=Revision 4.10 
##DATA TYPE=MASS SPECTRUM
##SAMPLE DESCRIPTION=NIST Mass Spectrometry Data Center
##NAMES=HP
##CAS NAME=3-((1,1-Dimethylethyl)-thio)-1-propene
##MOLFORM=C7H14S
##CAS REGISTRY NO=37850-75-2
##MP= -300
##BP= -300
##MW= 130
##$RETENTION INDEX=877
##$CONDENSED SPECTRUM=NO
##NPOINTS= 67
##XYDATA=(XY..XY) 1 
    14          1
    15         29
    26         25
    27        229
    29        358
    30          8
    33          2
    35         15
    37          8
    38         32
    39        381
    40         28
    41        999
    42         36
    43          7
    45        255
    46         53
    47         94
    48          4
    49          7
    50          8
    51         11
    52          2
    53         34
    54         17
    55        158
    56        235
    57        214
    58         44
    59        586
    60         48
    61         75
    62          4
    63          3
    65          6
    67        216
    68         12
    69         24
    70          4
    71         41
    72         21
    73        162
    74        282
    75         54
    76         12
    79          7
    81         32
    82          4
    85          8
    87         13
    88        289
    89        124
    90         19
    91          3
    97          4
    99         13
   101        614
   102         37
   103         28
   104          3
   113          2
   115         20
   128          2
   130        436
   131         37
   132         19
   133          3