##TITLE=Library Entry 7581
##JCAMP-DX=Revision 4.10 
##DATA TYPE=MASS SPECTRUM
##SAMPLE DESCRIPTION=D.H. AUE, DEP. CHEM., CALIF. UNIV., SANTA BARBARA, CALI
F., U
##NAMES=HP
##CAS NAME=anti-2-Acetoxyacetaldoxime
##MOLFORM=C4H7NO3
##CAS REGISTRY NO=37858-07-4
##MP= -300
##BP= -300
##MW= 117
##$RETENTION INDEX=0
##$CONDENSED SPECTRUM=NO
##NPOINTS= 23
##XYDATA=(XY..XY) 1 
    15        230
    17         70
    18        350
    26         15
    27         80
    28        220
    29         50
    30         25
    31         25
    39         10
    40         80
    41         40
    42         60
    43        999
    44         50
    45         17
    57        420
    58         30
    60         30
    61         20
    75         30
    99          5
   100          3