##TITLE=Library Entry 46296
##JCAMP-DX=Revision 4.10 
##DATA TYPE=MASS SPECTRUM
##SAMPLE DESCRIPTION=Chemical Concepts
##NAMES=HP
##CAS NAME=2-[3,4-(Methylenedioxy)styryl]-3-(4-nitrophenyl)-4(3H)-quinazolin
one
##MOLFORM=C23H15N3O5
##CAS REGISTRY NO=37856-47-6
##MP= -300
##BP= -300
##MW= 413
##$RETENTION INDEX=0
##$CONDENSED SPECTRUM=NO
##NPOINTS= 110
##XYDATA=(XY..XY) 1 
    39        436
    40         66
    41         37
    43        126
    45        217
    50        439
    51        151
    52         37
    53         49
    55         10
    59         18
    63        611
    64        171
    65        105
    66          9
    70         15
    76        999
    77        162
    78         23
    79         11
    82         31
    89        522
    90        164
    91         75
    92        125
    93         11
    96         56
   100         21
   102        156
   103         45
   104         25
   105         15
   110         20
   114        104
   115         54
   116         53
   117        119
   119        178
   120         63
   121         24
   122         28
   124         14
   126         32
   127         32
   128         17
   129          9
   130         14
   135         89
   137         41
   138         23
   139         42
   140         99
   143         49
   145         78
   146         19
   147         11
   149         19
   150         20
   151         20
   152         19
   153         16
   154         75
   163         66
   164         44
   165         33
   166         18
   167         10
   169         28
   172        145
   173         46
   177         19
   178         21
   179         13
   183         36
   188         11
   190        111
   191         85
   192         42
   193         10
   203          9
   204         10
   205         17
   206         14
   207         11
   218         15
   220         80
   221         14
   233         15
   234         10
   246         25
   248         15
   266         37
   267         10
   276         17
   279         16
   280         39
   281         60
   282         10
   291         33
   292         23
   308          9
   309         11
   338          9
   365         13
   366         85
   367         24
   396         15
   412         85
   413        119
   414         16