##TITLE=Library Entry 18444
##JCAMP-DX=Revision 4.10 
##DATA TYPE=MASS SPECTRUM
##SAMPLE DESCRIPTION=V.A.KOPTYUG, ATLAS OF MASS SPECTRA OF ORGANIC COMPOUNDS
##NAMES=HP
##CAS NAME=1,1,3-Trichloro-1-silacyclo-3-pentene
##MOLFORM=C4H5Cl3Si
##CAS REGISTRY NO=37862-80-9
##MP= -300
##BP= -300
##MW= 186
##$RETENTION INDEX=0
##$CONDENSED SPECTRUM=NO
##NPOINTS= 21
##XYDATA=(XY..XY) 1 
    52        140
    53        999
    54         60
    63         50
    65         20
    88         80
    90         10
    98         20
    99         20
   100         10
   101         10
   150         80
   151         30
   152         50
   153         20
   154         10
   186         80
   187         10
   188         80
   189         10
   190         20