##TITLE=Library Entry 3391
##JCAMP-DX=Revision 4.10 
##DATA TYPE=MASS SPECTRUM
##SAMPLE DESCRIPTION=Exported from NIST MS Search
##NAMES=HP
##CAS NAME=Cyclopentane, (2-methylpropyl)-
##MOLFORM=C9H18
##CAS REGISTRY NO=3788-32-7
##MP= -300
##BP= -300
##MW= 126
##$RETENTION INDEX=897
##$CONDENSED SPECTRUM=NO
##NPOINTS= 75
##XYDATA=(XY..XY) 1 
    25          1
    26         13
    27        363
    28         63
    29        274
    30          6
    37          3
    38          9
    39        311
    40         62
    41        999
    42        196
    43        394
    44         13
    45          1
    46          1
    47          1
    48          1
    49          1
    50          4
    51         18
    52         12
    53         88
    54         81
    55        690
    56        781
    57        356
    58         15
    59          1
    61          1
    62          1
    63          4
    64          1
    65         17
    66         20
    67        216
    68        383
    69        903
    70        212
    71         17
    72          1
    74          1
    75          1
    76          1
    77         11
    78          3
    79         13
    80          3
    81         23
    82        447
    83        713
    84        134
    85         12
    86          1
    89          1
    91          3
    92          1
    93          1
    94          1
    95          3
    96          2
    97         27
    98         48
    99          3
   100          1
   109          1
   110          1
   111         95
   112          9
   113          1
   124          1
   125          3
   126         66
   127          6
   128          1