##TITLE=Library Entry 15807
##JCAMP-DX=Revision 4.10 
##DATA TYPE=MASS SPECTRUM
##SAMPLE DESCRIPTION=A.A.Kutin, Moscow, Russia
##NAMES=HP
##CAS NAME=Quinazolin-4(3H)-one, 2-phenyl-3-ureido-
##MOLFORM=C15H12N4O2
##CAS REGISTRY NO=37895-99-1
##MP= -300
##BP= -300
##MW= 280
##$RETENTION INDEX=0
##$CONDENSED SPECTRUM=NO
##NPOINTS= 114
##XYDATA=(XY..XY) 1 
    37         17
    38         46
    39        136
    40         19
    41         19
    42         16
    44        999
    45         27
    49          4
    50        358
    51        304
    52         64
    53         25
    55          9
    56          2
    61          9
    62         50
    63        153
    64         99
    65         34
    66          4
    69          2
    71          2
    73          3
    74         94
    75        149
    76        514
    77        562
    78         58
    79         18
    81          2
    83          1
    86          4
    87          9
    88         21
    89         32
    90        170
    91         37
    92         60
    93          7
    97          3
   100          8
   102        111
   103        112
   104         91
   105        210
   106         20
   107          4
   111          1
   113          4
   115          7
   116         14
   117          2
   118         16
   119         86
   120         61
   121          2
   125          1
   126         18
   127          9
   128         12
   129          5
   130         36
   131          1
   132          3
   133          2
   134          4
   138          2
   139         10
   140         19
   145          8
   146         28
   149          3
   151        101
   152        157
   153         71
   154         13
   162          2
   164          7
   165         15
   166         16
   167         21
   168          6
   176          5
   177         42
   178        209
   179        351
   180        224
   181         40
   182          8
   190          1
   191          4
   192          9
   193          5
   194          2
   206          5
   207         22
   208        315
   209         52
   210          9
   211          1
   221         10
   222         13
   223          9
   224         55
   225          8
   235         31
   236        332
   237        338
   238         53
   239          5
   263          6
   280         16
   281          7