##TITLE=Library Entry 59563
##JCAMP-DX=Revision 4.10 
##DATA TYPE=MASS SPECTRUM
##SAMPLE DESCRIPTION=Chemical Concepts
##NAMES=HP
##CAS NAME=Iodomethyl p-tolyl sulfone
##MOLFORM=C8H9IO2S
##CAS REGISTRY NO=37891-96-6
##MP= -300
##BP= -300
##MW= 296
##$RETENTION INDEX=0
##$CONDENSED SPECTRUM=NO
##NPOINTS= 90
##XYDATA=(XY..XY) 1 
    33         39
    34         40
    36         12
    37         14
    38         46
    39        290
    40        465
    41        150
    43         59
    44        182
    45         52
    46         17
    48         35
    50        104
    51        124
    52         37
    53         39
    55         70
    57         54
    58          9
    60          6
    62         81
    63        192
    65        540
    67         59
    69         36
    70         15
    71         33
    72          5
    73          6
    74         19
    75         12
    77        155
    78         57
    79         45
    81         11
    82          9
    83         16
    84          9
    85         14
    86          9
    87         13
    89        129
    91        999
    95         12
    97         10
    98          4
    99          1
   103         24
   105        118
   106          9
   107         19
   108          4
   109          3
   110          5
   111         27
   112          6
   113          3
   115          1
   117          1
   119          1
   121         11
   123          6
   124          3
   125          3
   127         69
   128         19
   129          1
   134          3
   136          1
   137          5
   139        254
   141        156
   142          2
   149          5
   155        353
   156         26
   157         14
   168          1
   169         18
   170          9
   171          8
   189          3
   195          4
   218          3
   293          3
   294          9
   296        273
   297         28
   298         10