##TITLE=Library Entry 85557
##JCAMP-DX=Revision 4.10 
##DATA TYPE=MASS SPECTRUM
##SAMPLE DESCRIPTION=Chemical Concepts
##NAMES=HP
##CAS NAME=1,2-Benzooxazine,2-cyclohexyl-4-methylperhydro-3-carbonitrile
##MOLFORM=C16H26N2O
##CAS REGISTRY NO=37898-39-8
##MP= -300
##BP= -300
##MW= 262
##$RETENTION INDEX=0
##$CONDENSED SPECTRUM=NO
##NPOINTS= 136
##XYDATA=(XY..XY) 1 
    26          9
    27         99
    28         52
    29         92
    30         15
    31          3
    34          4
    38          3
    39         65
    40         16
    41        632
    42         44
    43         48
    44         11
    45          3
    46          6
    50          3
    51         11
    52         12
    53         75
    54         85
    55        615
    56         51
    57         23
    58         11
    59          5
    63          3
    64          3
    65         19
    66         31
    67        262
    68         84
    69         37
    70         17
    71          8
    72         35
    73         12
    74          7
    77         29
    78         12
    79         78
    80         38
    81        234
    82         65
    83        576
    84         37
    85          4
    86          4
    90         18
    92         11
    93         37
    94         32
    95         33
    96         34
    97         18
    98         26
    99          7
   100          3
   103          3
   104          5
   105          9
   106         22
   107         37
   108         47
   109        999
   110        208
   111         27
   112          7
   114          6
   115        108
   116         52
   117          5
   118          3
   119          9
   120         12
   121         27
   122         11
   123          5
   124          7
   125          4
   126         10
   128          4
   130          3
   131         10
   132         24
   133          9
   134         10
   135          8
   136         21
   137        145
   138         31
   139         24
   140          5
   141          3
   142          3
   143          3
   144          3
   146         17
   147         35
   148        144
   149         22
   150         22
   151          9
   152         13
   153        139
   154         64
   155          4
   162          3
   163         45
   164         21
   165          6
   166          5
   177          8
   178         13
   179         10
   180         23
   181          8
   189          5
   191          4
   192          8
   193          4
   194          5
   205          3
   206          8
   207          4
   219        153
   220         23
   233          3
   234          3
   235          8
   236          4
   245         31
   246          6
   262        192
   263         39
   264          3