##TITLE=Library Entry 43687
##JCAMP-DX=Revision 4.10 
##DATA TYPE=MASS SPECTRUM
##SAMPLE DESCRIPTION=NIST Mass Spectrometry Data Center, 2010
##NAMES=HP
##CAS NAME=Salicylic acid, 2TMS derivative
##MOLFORM=C13H22O3Si2
##CAS REGISTRY NO=3789-85-3
##MP= -300
##BP= -300
##MW= 282
##$RETENTION INDEX=1522
##$CONDENSED SPECTRUM=NO
##NPOINTS= 149
##XYDATA=(XY..XY) 1 
    15          2
    26          1
    27          2
    29          5
    31          2
    38          1
    39          5
    40          2
    41          2
    42          2
    43         44
    44         20
    45        130
    46          8
    47         12
    48          1
    49          2
    50          4
    51          5
    52          3
    53          6
    54          1
    55          6
    56          2
    57          7
    58          8
    59         21
    60          3
    61          8
    62          2
    63         11
    64         12
    65         16
    66          5
    67          3
    68          1
    69          3
    70          4
    71          6
    72         14
    73        999
    74         79
    75         70
    76         12
    77         32
    78          5
    79          6
    80          1
    81          2
    82          2
    83          4
    84          1
    85         10
    86          1
    87          3
    88          1
    89         17
    90         11
    91         94
    92         21
    93          6
    94          1
    95          6
    96          2
    97          3
    98          1
    99          1
   101          2
   102          2
   103         11
   104          4
   105         20
   106          3
   107          4
   108          1
   109          2
   111          3
   113          1
   115         16
   116          2
   117          5
   118          4
   119         10
   120          9
   121          9
   122          1
   123          4
   124          1
   125          1
   126         19
   128          1
   129          2
   131         12
   132          2
   133         41
   134          7
   135        123
   136         16
   137         10
   138          1
   143          1
   145          3
   147         49
   148          9
   149         72
   150         11
   151         26
   152          3
   153          3
   159          8
   160          1
   161          3
   162          1
   163          4
   164          1
   165          3
   166          1
   167          1
   175         15
   176          2
   177          6
   178          1
   179         15
   180          2
   181         10
   182          2
   183          1
   191          2
   192          1
   193         35
   194         12
   195          7
   196          1
   207          1
   209         25
   210          5
   211          3
   221          1
   233          1
   249          6
   250          1
   251          2
   265          5
   267        323
   268         70
   269         27
   270          4
   271          1
   281          1