##TITLE=Library Entry 81563
##JCAMP-DX=Revision 4.10 
##DATA TYPE=MASS SPECTRUM
##SAMPLE DESCRIPTION=V.A.Korolev, Moscow, Russia
##NAMES=HP
##CAS NAME=2,2,2-Trifluoro-1,1-diphenylethanol
##MOLFORM=C14H11F3O
##CAS REGISTRY NO=379-18-0
##MP= -300
##BP= -300
##MW= 252
##$RETENTION INDEX=0
##$CONDENSED SPECTRUM=NO
##NPOINTS= 63
##XYDATA=(XY..XY) 1 
    34          2
    38          5
    39         38
    40         36
    41          2
    44         18
    50         58
    51        209
    52         28
    53          7
    57          3
    62          7
    63         24
    64          9
    65          3
    69         43
    74         17
    75         21
    76         57
    77        607
    78         87
    79          4
    81          5
    83         50
    84          3
    86          3
    87          5
    88          2
    89          6
    91         47
    95          2
    99          2
   101          2
   102          2
   104          6
   105        999
   106         80
   107         10
   113          2
   115          8
   126          5
   127         22
   128          6
   133          2
   139          7
   151          7
   152         28
   153         15
   154         13
   155          5
   163          8
   164          9
   165         53
   166          8
   175          4
   181         14
   182          7
   183        863
   184        121
   185         13
   213          3
   252        111
   253         16