##TITLE=Library Entry 3428
##JCAMP-DX=Revision 4.10 
##DATA TYPE=MASS SPECTRUM
##SAMPLE DESCRIPTION=Mark Whitten, Florida Museum of Natural History, U. of
 Florida
##NAMES=HP
##CAS NAME=2,6,10-Dodecatrien-1-ol, 3,7,11-trimethyl-, (Z,E)-
##MOLFORM=C15H26O
##CAS REGISTRY NO=3790-71-4
##MP= -300
##BP= -300
##MW= 222
##$RETENTION INDEX=1697
##$CONDENSED SPECTRUM=NO
##NPOINTS= 82
##XYDATA=(XY..XY) 1 
    41        999
    42         58
    43        167
    44         13
    45          9
    50          5
    51         25
    53        152
    54         23
    55        194
    56         28
    57         71
    58          4
    59          8
    63          4
    65         37
    66         17
    67        195
    68        141
    69        949
    70         67
    71         49
    72          5
    77         62
    78         14
    79         99
    80         70
    81        255
    82         45
    83         51
    84         83
    85         13
    91         71
    92         30
    93        252
    94         45
    95         97
    96         18
    97         34
    98          6
   103          4
   105         37
   106          9
   107        126
   108         25
   109         84
   110         13
   111         13
   112          4
   115          3
   117          3
   119         37
   120         12
   121         52
   122         45
   123         49
   124         10
   125          3
   127          7
   133         13
   134         12
   135         24
   136         46
   137         28
   138         19
   139          8
   140          6
   147          9
   148         12
   149          9
   151          4
   152          3
   161         29
   162          7
   165          3
   166          2
   179         12
   180          6
   189         11
   191          6
   204          4
   222          5