##TITLE=Library Entry 60852
##JCAMP-DX=Revision 4.10 
##DATA TYPE=MASS SPECTRUM
##SAMPLE DESCRIPTION=V.G.Zaikin, TIPS, Russian Acad. Sci.
##NAMES=HP
##CAS NAME=1-Cyclopropyl-2-phenylethane
##MOLFORM=C11H14
##CAS REGISTRY NO=37904-33-9
##MP= -300
##BP= -300
##MW= 146
##$RETENTION INDEX=0
##$CONDENSED SPECTRUM=NO
##NPOINTS= 27
##XYDATA=(XY..XY) 1 
    51         88
    52         24
    53         45
    55        282
    63         53
    64         17
    65        173
    77         74
    78         24
    79         38
    89         38
    91        999
    92        212
   103         49
   104        508
   105        127
   115         63
   116         17
   117        409
   118        233
   119         31
   128         28
   131         91
   145         24
   146        286
   147         34
   148          2