##TITLE=Library Entry 52579
##JCAMP-DX=Revision 4.10 
##DATA TYPE=MASS SPECTRUM
##SAMPLE DESCRIPTION=Exported from NIST MS Search
##NAMES=HP
##CAS NAME=Phosphinothioic acid, phenyl-1-piperidinyl-
##MOLFORM=C11H16NOPS
##CAS REGISTRY NO=37913-03-4
##MP= -300
##BP= -300
##MW= 241
##$RETENTION INDEX=0
##$CONDENSED SPECTRUM=NO
##NPOINTS= 19
##XYDATA=(XY..XY) 1 
    29        310
    30        220
    31        220
    32          4
    42        260
    47        290
    51        210
    55        260
    56        420
    57        210
    63         90
    70         70
    77        210
    83        999
    84        280
   157        130
   164         20
   208        370
   241        260