##TITLE=Library Entry 109174
##JCAMP-DX=Revision 4.10 
##DATA TYPE=MASS SPECTRUM
##SAMPLE DESCRIPTION=J. SHAW, BORRISTON RESEARCH, ROCKVILLE, MD, USA
##NAMES=HP
##CAS NAME=Perfluidone
##MOLFORM=C14H12F3NO4S2
##CAS REGISTRY NO=37924-13-3
##MP= -300
##BP= -300
##MW= 379
##$RETENTION INDEX=0
##$CONDENSED SPECTRUM=NO
##NPOINTS= 153
##XYDATA=(XY..XY) 1 
    12          2
    13          1
    14          1
    15          7
    16          9
    17         29
    18         99
    19          1
    20          1
    26          6
    27         51
    28         41
    29         10
    30         11
    31          5
    32          4
    35          2
    36          1
    37          3
    38         16
    39         85
    40         10
    41         22
    42         12
    43         25
    44          6
    45         20
    46          1
    47          6
    48         14
    49          4
    50         84
    51        315
    52        104
    53         58
    54         17
    55          6
    56          2
    57          7
    58          5
    59          2
    60          1
    61          2
    62          8
    63         33
    64         22
    65         59
    66         25
    67          7
    69        210
    70          6
    71          4
    72          1
    73          2
    74         12
    75         18
    76         48
    77        374
    78        149
    79         34
    80         12
    81         27
    82          4
    83         12
    84          2
    85          9
    86          1
    87          3
    88          2
    89          5
    90          4
    91          5
    92          9
    93         52
    94         18
    95          4
    97        212
    98         14
    99         10
   100          1
   101          1
   102          8
   104        189
   105        110
   106         12
   107          2
   108          3
   109         19
   110          4
   111          2
   112          1
   113          1
   114          1
   115          7
   116          1
   117          1
   120          7
   121          5
   122          7
   123          3
   125        999
   126        136
   127         63
   128         10
   129          2
   133          2
   134          1
   135          1
   136          3
   137          2
   138          1
   139          3
   140          3
   141          9
   142          4
   143          2
   149          1
   150          1
   151          3
   152         10
   153         24
   154          5
   155          3
   162          4
   163          1
   164          1
   165          7
   166          3
   167          4
   168          2
   169          2
   170          1
   180         11
   181          4
   182         11
   183          2
   190          2
   196          1
   197          1
   238          1
   246         96
   247         12
   248          4
   254         32
   255          2
   256          1
   286         12
   288          1
   296          2
   379        127
   380         26
   381         13
   382          1