##TITLE=Library Entry 64769
##JCAMP-DX=Revision 4.10 
##DATA TYPE=MASS SPECTRUM
##SAMPLE DESCRIPTION=P.J.ABBOTT DEPT. OF BIOCHEMISTRY, UNIV., OXFORD, UK
##NAMES=HP
##CAS NAME=6H-Pyridazino[1,6-a]quinoxaline-2,3,4-tricarboxylic acid, 4a,5-di
hydro-4a-hydroxy-5-oxo-6-(phenylmethyl)-, trimethyl ester
##MOLFORM=C24H21N3O8
##CAS REGISTRY NO=37922-00-2
##MP= -300
##BP= -300
##MW= 479
##$RETENTION INDEX=0
##$CONDENSED SPECTRUM=NO
##NPOINTS= 35
##XYDATA=(XY..XY) 1 
    91        999
    92        110
   103        260
   105         60
   106         50
   227         40
   244         50
   268         30
   272         30
   308         40
   312        110
   313         30
   340         30
   343         50
   344         40
   358         30
   359        320
   360        150
   372         30
   386         40
   388         50
   391        140
   392         30
   404        120
   405         30
   416         50
   417         30
   420        220
   421         50
   431         30
   448         40
   462        120
   463         60
   477         40
   479         10