##TITLE=Library Entry 69071
##JCAMP-DX=Revision 4.10 
##DATA TYPE=MASS SPECTRUM
##SAMPLE DESCRIPTION=CARL DJERASSI DEPT OF CHEM STANFORD UNIV STANFORD CALIF
 94305
##NAMES=HP
##CAS NAME=Cholesta-9(11),17(20),24-triene-3,6-diol, (3.beta.,5.alpha.,6.alp
ha.)-
##MOLFORM=C27H42O2
##CAS REGISTRY NO=37926-43-5
##MP= -300
##BP= -300
##MW= 398
##$RETENTION INDEX=0
##$CONDENSED SPECTRUM=NO
##NPOINTS= 184
##XYDATA=(XY..XY) 1 
    41        580
    42         60
    43        480
    44        380
    53         90
    54         10
    55        510
    56         60
    57        270
    58         90
    59         30
    67        310
    68         60
    69        620
    70        660
    71        100
    77        110
    78         10
    79        240
    81        470
    82        250
    83        220
    84         50
    85         60
    91        340
    92         60
    93        420
    94         70
    95        999
    96        160
    97        140
   106         70
   107        290
   108        120
   109        450
   110         70
   111         70
   115         40
   116         20
   117        120
   118         30
   119        250
   120         60
   121        470
   122         70
   123        160
   124         20
   125         30
   127         10
   128         40
   129        120
   131        220
   132         50
   133        170
   134         60
   135        120
   136         40
   137         60
   138         40
   139         20
   141         80
   142         30
   143        180
   144         40
   145        240
   146         40
   147        190
   148         40
   149         90
   150         40
   151         30
   155         80
   156         30
   157        140
   158         30
   159        130
   161        100
   162         10
   163         50
   167         30
   168         10
   169        100
   171        100
   172         30
   173         90
   174         20
   175         60
   181         60
   182         10
   183         80
   184         10
   185        200
   186         40
   187        150
   188         30
   189         50
   190         30
   191         30
   195         80
   196         10
   197         70
   198         10
   199         90
   200         10
   201         50
   202         10
   203        100
   209        130
   211        240
   212         50
   213         80
   214         10
   215         50
   216         10
   217         20
   221         20
   223         40
   224         10
   225         50
   226         40
   227        130
   228         30
   229         90
   231         50
   237         60
   238         20
   239         20
   241         30
   242         10
   243         20
   244         10
   245         80
   246         60
   247         20
   248         40
   249         10
   251         70
   252         20
   253         40
   254         10
   255         40
   256         10
   257         10
   258         50
   259         40
   261         30
   265         20
   267         30
   268         10
   269         80
   270         30
   271         30
   283         40
   285        150
   286         40
   287        180
   288         60
   293        390
   294         90
   295         30
   309         40
   311        870
   312        190
   313         70
   314         30
   316         40
   327         50
   328        150
   329        330
   349         50
   364         40
   365         10
   367         60
   368         10
   380         20
   381         20
   382         10
   383        130
   384         30
   396         30
   397         10
   398        410
   399        120
   400         90