##TITLE=Library Entry 68419
##JCAMP-DX=Revision 4.10 
##DATA TYPE=MASS SPECTRUM
##SAMPLE DESCRIPTION=CARL DJERASSI DEPT OF CHEM STANFORD UNIV STANFORD CALIF
 94305
##NAMES=HP
##CAS NAME=Cholesta-9(11),24-diene-3,6,20-triol, (3.beta.,5.alpha.,6.alpha.,
20R)-
##MOLFORM=C27H44O3
##CAS REGISTRY NO=37926-46-8
##MP= -300
##BP= -300
##MW= 416
##$RETENTION INDEX=0
##$CONDENSED SPECTRUM=NO
##NPOINTS= 184
##XYDATA=(XY..XY) 1 
    41        535
    42         30
    43        323
    53         90
    54         20
    55        373
    56         40
    57         70
    65         40
    66         20
    67        262
    68         60
    69        767
    70         50
    71         90
    77        121
    78         30
    79        242
    80        161
    81        525
    82        727
    83        161
    84         20
    85         50
    91        272
    92        111
    93        606
    94        121
    95        999
    96        121
    97         60
   104         40
   105        353
   106        111
   107        272
   108        252
   109        808
   110        141
   115         30
   116         30
   117        101
   118         60
   119        191
   120         70
   121        252
   122         50
   123         90
   124         20
   125         20
   127         80
   128         40
   129         80
   130         30
   131        171
   132         70
   133        131
   134         40
   135        121
   136        101
   137         30
   141         80
   142         30
   143        121
   144         50
   145        212
   146         50
   147        101
   148         30
   149         50
   155         60
   156         30
   157        101
   158         40
   159        111
   160         30
   161         50
   162         20
   163         30
   169         70
   170         40
   171         80
   172         30
   173         70
   174         30
   175         50
   181         30
   182         20
   183         60
   184         20
   185         70
   186         30
   187         50
   188         20
   189         50
   190         70
   195        101
   196         30
   197         50
   198         20
   199         60
   200         20
   201         30
   202         10
   203         20
   207         30
   208         20
   209         70
   210         30
   211        111
   212         30
   213         90
   214         30
   215         30
   216         20
   217         20
   223         30
   224         10
   225         70
   226         30
   227         70
   228         30
   229         60
   230         20
   231         60
   237         30
   239         30
   241         30
   242         20
   243         30
   244         20
   245         30
   246         40
   247         50
   248         50
   249         20
   251         60
   252         20
   253         60
   254         30
   255         30
   256         20
   257         30
   258         20
   259         60
   260         20
   261         30
   265         40
   269        101
   270         40
   271        101
   272         40
   273         20
   283         40
   284         30
   285        131
   286         50
   287        292
   288        131
   289         40
   293         50
   297         40
   298         30
   299         20
   301         30
   310        121
   311         30
   315        131
   316        161
   317         30
   328         40
   329         70
   333         40
   347         90
   348         40
   355         30
   365         70
   366         20
   380         30
   381         10
   383         60
   384         20
   398        252
   399         70
   400         20