##TITLE=Library Entry 78720
##JCAMP-DX=Revision 4.10 
##DATA TYPE=MASS SPECTRUM
##SAMPLE DESCRIPTION=V.G. Zaikin, R.S.Borisov, TIPS RAS, Moscow, Russia
##NAMES=HP
##CAS NAME=Ethanol, 2,2,2-trichloro-, benzoate
##MOLFORM=C9H7Cl3O2
##CAS REGISTRY NO=37934-99-9
##MP= -300
##BP= -300
##MW= 252
##$RETENTION INDEX=1530
##$CONDENSED SPECTRUM=NO
##NPOINTS= 42
##XYDATA=(XY..XY) 1 
    26          3
    27          3
    29          1
    38          3
    39          4
    49          2
    50         26
    51         83
    52          4
    60          2
    61         11
    63          4
    74          8
    75          7
    76         15
    77        244
    78         18
    82          7
    91          4
    95         10
    96          8
    97          6
    98          6
   104          2
   105        999
   106         73
   107          3
   117          4
   119          4
   123          3
   131          2
   133          2
   135         22
   217         22
   219         14
   221          2
   252         61
   253          5
   254         59
   255          5
   256         18
   258          2