##TITLE=Library Entry 45874
##JCAMP-DX=Revision 4.10 
##DATA TYPE=MASS SPECTRUM
##SAMPLE DESCRIPTION=MASS SPECTROMETRY CENTER, UNIV. OF UTAH ALDRICH 13820-7
##NAMES=HP
##CAS NAME=Benzoic acid, 4-[(4-chlorophenyl)sulfonyl]-
##MOLFORM=C13H9ClO4S
##CAS REGISTRY NO=37940-65-1
##MP= -300
##BP= -300
##MW= 296
##$RETENTION INDEX=0
##$CONDENSED SPECTRUM=NO
##NPOINTS= 104
##XYDATA=(XY..XY) 1 
    16          3
    26          6
    27         66
    29         16
    36          8
    37          2
    38         47
    39        327
    40          9
    43          8
    44          0
    45        147
    48          3
    49          7
    50        620
    51        422
    52         29
    53         92
    55         17
    61         38
    62         39
    63        177
    64         71
    65        747
    66         48
    67          3
    69         56
    70         33
    71         13
    73         85
    74        274
    75        999
    76        499
    77        112
    78          5
    79         20
    81         34
    82         15
    84         25
    85        129
    86         14
    87         60
    89         12
    91         26
    92         24
    93         41
    95         42
    96         33
    97         45
    98          3
    99        173
   100          7
   101         62
   102         58
   103         39
   104        127
   105         17
   107         20
   108         60
   109         16
   110         12
   111        649
   112         53
   113        220
   114         19
   115         26
   121        109
   122          7
   123         15
   124         23
   125         21
   126         10
   127        156
   128          8
   129         48
   131        122
   133         47
   139         60
   140          6
   141         72
   142          7
   143         26
   144          2
   150         27
   151         36
   152        125
   153         21
   159        705
   160         52
   161        257
   162         15
   163          3
   168         24
   169        838
   170         73
   171         49
   175         33
   184          3
   186          7
   215         16
   296        208
   297         32
   298         77
   299          3