##TITLE=Library Entry 29035
##JCAMP-DX=Revision 4.10 
##DATA TYPE=MASS SPECTRUM
##SAMPLE DESCRIPTION=V.A. KOPTYUG, ATLAS OF MS OF ORG. CMPDS.,VOL3
##NAMES=HP
##CAS NAME=2-(2-Methyl-2-aminopropyl)indole
##MOLFORM=C12H16N2
##CAS REGISTRY NO=3794-97-6
##MP= -300
##BP= -300
##MW= 188
##$RETENTION INDEX=0
##$CONDENSED SPECTRUM=NO
##NPOINTS= 10
##XYDATA=(XY..XY) 1 
    42         61
    43         17
    57         22
    58        999
    59         35
    77         42
   103         25
   130        130
   131        155
   188         79