##TITLE=Library Entry 78740
##JCAMP-DX=Revision 4.10 
##DATA TYPE=MASS SPECTRUM
##SAMPLE DESCRIPTION=Div. of Experiment Therapeutics WRAIR, WRAMC, Washingto
n DC 20307
##NAMES=HP
##CAS NAME=2-Benzoyl-benzisothiazolinone-1,1-dioxide
##MOLFORM=C14H9NO4S
##CAS REGISTRY NO=37952-93-5
##MP= -300
##BP= -300
##MW= 287
##$RETENTION INDEX=0
##$CONDENSED SPECTRUM=NO
##NPOINTS= 87
##XYDATA=(XY..XY) 1 
    41          3
    43          3
    44          0
    45          5
    47          6
    48          6
    49         25
    50        153
    51        218
    52         16
    53          4
    55          1
    57          2
    58          1
    61          2
    62          8
    63         41
    64         34
    65          9
    66          1
    69          9
    70         16
    71          1
    74         46
    75         43
    76        120
    77        536
    78         30
    79          1
    81          1
    82          2
    83          0
    84         11
    86          8
    88          3
    90         84
    91         13
    92         14
    93          2
    95          5
    96          5
    97          0
    98          0
    99          0
   102         12
   105        999
   106         64
   107          4
   108          1
   110          1
   112          1
   115          0
   118          1
   119         13
   120         10
   121          2
   122          4
   126          0
   127          0
   130          1
   139          2
   140          1
   146          5
   150          1
   151          0
   152          5
   153          0
   166          2
   167          1
   179          1
   181          2
   183          8
   184          0
   185          0
   195          2
   198          1
   210          6
   222          1
   223         20
   224          2
   243          0
   259        110
   260         15
   261          7
   287         33
   288          5
   289          2