##TITLE=Library Entry 107767
##JCAMP-DX=Revision 4.10 
##DATA TYPE=MASS SPECTRUM
##SAMPLE DESCRIPTION=DENNIS H SMITH DEPT OF CHEM STANFORD UNIV STANFORD CALI
F 9430
##NAMES=HP
##CAS NAME=Pregn-4-ene-3,20-dione, (8.alpha.,10.alpha.)-
##MOLFORM=C21H30O2
##CAS REGISTRY NO=3795-19-5
##MP= -300
##BP= -300
##MW= 314
##$RETENTION INDEX=0
##$CONDENSED SPECTRUM=NO
##NPOINTS= 114
##XYDATA=(XY..XY) 1 
    40          9
    41        171
    43        816
    44         20
    52          9
    53         66
    54         13
    55        229
    65         50
    66         12
    67        169
    69         53
    71        123
    77        146
    78         31
    79        243
    80         44
    81        138
    83         36
    84         29
    85         89
    91        249
    92         39
    93        194
    94         51
    95        171
    96         15
    97         55
   103         17
   104         12
   105        168
   106         45
   107        188
   108         43
   109        117
   110         15
   111         59
   115         18
   116         12
   117         50
   118         28
   119        110
   120         78
   121        149
   122        123
   123        144
   124        999
   125        121
   128         22
   129         22
   130         12
   131         85
   132         54
   133        162
   134         78
   135        109
   136         93
   137        104
   138         41
   141         21
   143         34
   144         12
   145         63
   146         26
   147        196
   148         57
   149        120
   150         32
   157         27
   158         12
   159         72
   160         30
   161         61
   162         28
   163         29
   169         10
   171         21
   172         27
   173        100
   174         55
   175         54
   176         23
   177         33
   178         22
   183         10
   185         19
   187         59
   189         22
   190         39
   191        179
   192         31
   199         11
   201         21
   211         37
   213          9
   215         15
   225         11
   226         11
   229        101
   231         11
   243         10
   244         42
   248         10
   253         24
   256         12
   257         16
   270         14
   271         26
   272         52
   281         13
   296         51
   297         16
   299         84
   314        433