##TITLE=Library Entry 8502
##JCAMP-DX=Revision 4.10 
##DATA TYPE=MASS SPECTRUM
##SAMPLE DESCRIPTION=STC 0007
##NAMES=HP
##CAS NAME=5,9-Undecadien-2-one, 6,10-dimethyl-, (E)-
##MOLFORM=C13H22O
##CAS REGISTRY NO=3796-70-1
##MP= -300
##BP= -300
##MW= 194
##$RETENTION INDEX=1453
##$CONDENSED SPECTRUM=NO
##NPOINTS= 107
##XYDATA=(XY..XY) 1 
    15         33
    16          7
    26          7
    27         54
    29         56
    30          2
    38          5
    39        107
    40         20
    41        541
    42         44
    43        999
    44         42
    45         15
    50          6
    51         21
    52         12
    53         77
    54         18
    55         63
    56         10
    57          6
    58         42
    59          4
    62          2
    63          6
    64          2
    65         28
    66         13
    67         93
    68         59
    69        592
    70         47
    71         34
    72          2
    75          2
    77         31
    78          9
    79         42
    80         17
    81         54
    82         33
    83         57
    84          9
    85          7
    86          2
    89          2
    91         35
    92         12
    93         78
    94         16
    95         36
    96          8
    97          6
    98          3
   103          3
   104          2
   105         16
   106          6
   107        104
   108         40
   109         62
   110          7
   111         23
   112          4
   113          2
   115          3
   116          1
   117          4
   118          2
   119         10
   120          6
   121         42
   122          7
   123         23
   124         15
   125        105
   126         16
   127          2
   128          2
   129          1
   131          1
   133         13
   134          5
   135          6
   136        110
   137         19
   138          7
   139          2
   141          2
   147          2
   148          1
   149          2
   150          6
   151        115
   152         18
   153          2
   155          2
   157          2
   159          1
   161         11
   162          2
   176         17
   177          3
   179          4
   194         26
   195          3