##TITLE=Library Entry 23469
##JCAMP-DX=Revision 4.10 
##DATA TYPE=MASS SPECTRUM
##SAMPLE DESCRIPTION=D.HENNEBERG, MAX-PLANCK INSTITUTE, MULHEIM, WEST GERMAN
Y
##NAMES=HP
##CAS NAME=Pentanoic acid, 2-ethyl-2-methyl-, methyl ester
##MOLFORM=C9H18O2
##CAS REGISTRY NO=37974-23-5
##MP= -300
##BP= -300
##MW= 158
##$RETENTION INDEX=948
##$CONDENSED SPECTRUM=NO
##NPOINTS= 39
##XYDATA=(XY..XY) 1 
    26         18
    27        213
    28         40
    29        224
    30         16
    39        125
    40         24
    41        343
    42         38
    43        289
    51         23
    53         75
    54         26
    55        208
    56         48
    57        999
    58         59
    59        169
    67         24
    69        157
    70         62
    71         40
    73         75
    74         21
    83         46
    84         21
    87         42
    88         22
    97         23
    98         73
    99        272
   100         27
   101        168
   102        107
   115         48
   116        208
   117         21
   129         46
   130         58