##TITLE=Library Entry 45334
##JCAMP-DX=Revision 4.10 
##DATA TYPE=MASS SPECTRUM
##SAMPLE DESCRIPTION=Exported from NIST MS Search
##NAMES=HP
##CAS NAME=Androstane-3,16-diol, (3.beta.,5.alpha.,16.beta.)-, 2TMS derivati
ve
##MOLFORM=C25H48O2Si2
##CAS REGISTRY NO=37977-24-5
##MP= -300
##BP= -300
##MW= 436
##$RETENTION INDEX=2627
##$CONDENSED SPECTRUM=NO
##NPOINTS= 129
##XYDATA=(XY..XY) 1 
    41         84
    43         33
    45         55
    47         25
    53         21
    55         94
    57         13
    59         45
    61         75
    65         10
    67        134
    68         16
    69         62
    73        617
    74         64
    75        999
    76         64
    77         70
    79        134
    81        213
    82         16
    83         33
    89         30
    91        131
    92         25
    93        202
    94         47
    95        168
    96         13
    97         13
   101         50
   103         21
   105        131
   106         53
   107        185
   108         38
   109         79
   110         10
   111         10
   113         10
   114         20
   115         20
   116         38
   117         13
   118         67
   119         20
   120         84
   121         84
   122         30
   129         97
   130         37
   131         79
   132         16
   133         67
   134         16
   135         53
   136         16
   137         13
   141          8
   142         96
   143         64
   144        454
   145        117
   146         37
   147        114
   148         50
   149         53
   150          8
   151          8
   155         62
   156         50
   157         21
   159         50
   160         26
   161         74
   162         28
   163         20
   169        161
   170         33
   171         16
   173         37
   174         11
   175         26
   177         10
   181          8
   182          8
   183          8
   185         16
   187         37
   188         16
   189         11
   191         16
   199         21
   200          8
   201         30
   202          8
   203         67
   213         16
   215         72
   216         20
   217        101
   228         11
   230         21
   239         10
   241         84
   242         16
   255        207
   256        104
   257         26
   277          8
   278          8
   305         62
   306         21
   307          3
   320         16
   331         67
   332         16
   333          3
   345         33
   346        181
   347         55
   348         11
   379          8
   421        294
   422        109
   423         33
   436         77
   437         28
   438          8