##TITLE=Library Entry 60983
##JCAMP-DX=Revision 4.10 
##DATA TYPE=MASS SPECTRUM
##SAMPLE DESCRIPTION=Chemical Concepts
##NAMES=HP
##CAS NAME=2-Butanone, 1,4-diphenyl-
##MOLFORM=C16H16O
##CAS REGISTRY NO=37985-17-4
##MP= -300
##BP= -300
##MW= 224
##$RETENTION INDEX=0
##$CONDENSED SPECTRUM=NO
##NPOINTS= 111
##XYDATA=(XY..XY) 1 
    27         29
    28          0
    29          0
    31          0
    37          0
    38          2
    39         53
    40          3
    41         16
    42          0
    43          0
    50         10
    51         47
    52         10
    53          6
    54          0
    55          7
    56          0
    57          0
    59          0
    62          4
    63         27
    64          8
    65        138
    66          8
    67          0
    71          7
    72          0
    74          1
    76          4
    77         92
    78         29
    79         64
    80          4
    81          0
    83          0
    85          2
    86          0
    87          0
    88          0
    89         26
    90         19
    91        999
    92         82
    93          3
   102          6
   103         43
   104         25
   105        848
   106         76
   107          3
   112          0
   113          0
   115          7
   116          0
   117          2
   118          3
   119          1
   126          0
   127          0
   128          1
   129          2
   130          0
   131         12
   132         12
   133        448
   134         43
   135          2
   136          0
   139          0
   141          0
   142          0
   143          0
   144          0
   145          0
   146          0
   147          0
   149          0
   152          1
   153          0
   155          0
   156          0
   157          4
   158          0
   159          0
   161          0
   163          0
   165          3
   166          1
   167          2
   168          0
   175          0
   176          0
   177          0
   178          1
   180          0
   181          0
   189          0
   190          0
   191          0
   193          0
   202          0
   203          0
   204          0
   205          2
   206          1
   207          0
   219          0
   224        134
   225         24
   226          2