##TITLE=Library Entry 48534
##JCAMP-DX=Revision 4.10 
##DATA TYPE=MASS SPECTRUM
##SAMPLE DESCRIPTION=D.HENNEBERG, MAX-PLANCK INSTITUTE, MULHEIM, WEST GERMAN
Y
##NAMES=HP
##CAS NAME=3-Tridecen-1-yne, (Z)-
##MOLFORM=C13H22
##CAS REGISTRY NO=37981-62-7
##MP= -300
##BP= -300
##MW= 178
##$RETENTION INDEX=1363
##$CONDENSED SPECTRUM=NO
##NPOINTS= 116
##XYDATA=(XY..XY) 1 
    26          0
    27        438
    28        100
    29        600
    30         15
    31         22
    32          2
    36          1
    37         12
    38         26
    39        528
    40         78
    41        930
    42        207
    43        989
    44         32
    45          2
    46          0
    47          6
    48          0
    49          4
    50         50
    51        101
    52        117
    53        145
    54        154
    55        599
    56        281
    57        340
    58         17
    59         36
    60          1
    61          1
    62          9
    63         44
    64         14
    65        292
    66        371
    67        476
    68        162
    69        295
    70        132
    71         94
    72          7
    73          5
    74          3
    75          7
    76          5
    77        278
    78        165
    79        999
    80        566
    81        396
    82        189
    83        106
    84         46
    85         11
    86          1
    89          6
    90          1
    91        184
    92         50
    93        641
    94        324
    95        224
    96         80
    97         39
    98         14
    99          2
   101          0
   102          1
   103          5
   104          1
   105         32
   106         10
   107        293
   108        115
   109         52
   110         36
   111          8
   112          7
   113          1
   115          4
   116          1
   117          3
   118          0
   119          7
   120          2
   121        249
   122         56
   123         16
   124         28
   125          3
   126          0
   128          1
   131          0
   132          0
   133          1
   134          1
   135        124
   136         29
   137         17
   138          3
   140          6
   147          0
   149         48
   150         10
   151          1
   152          0
   163         13
   164          2
   176          1
   177          0
   178         20
   179          2
   180          0