##TITLE=Library Entry 97857
##JCAMP-DX=Revision 4.10 
##DATA TYPE=MASS SPECTRUM
##SAMPLE DESCRIPTION=ASES Database, Dalian Institute, P.R. China
##NAMES=HP
##CAS NAME=Cyclobutanone ethylene dithioketal
##MOLFORM=C6H10S2
##CAS REGISTRY NO=380-90-5
##MP= -300
##BP= -300
##MW= 146
##$RETENTION INDEX=0
##$CONDENSED SPECTRUM=NO
##NPOINTS= 40
##XYDATA=(XY..XY) 1 
    39         56
    40         14
    41         54
    42         87
    45         77
    46         45
    47         26
    50         26
    51         22
    52         12
    53         37
    54         14
    57         38
    58        270
    59        114
    60         75
    61         38
    64         38
    68         19
    70         75
    71         77
    72         18
    75         31
    76         30
    84         23
    85         76
    86         18
    90        193
    91         27
    92         38
   117         37
   118        999
   119         76
   120        114
   121         11
   122         11
   131         18
   146         57
   147         11
   148         11