##TITLE=Library Entry 15915
##JCAMP-DX=Revision 4.10 
##DATA TYPE=MASS SPECTRUM
##SAMPLE DESCRIPTION=Dr. Jiri Zamecnik, DCIEM, North York, Canada, GP Librar
y
##NAMES=HP
##CAS NAME=N-Acetylnorephedrine
##MOLFORM=C11H15NO2
##CAS REGISTRY NO=38014-69-6
##MP= -300
##BP= -300
##MW= 193
##$RETENTION INDEX=0
##$CONDENSED SPECTRUM=NO
##NPOINTS= 21
##XYDATA=(XY..XY) 1 
    42         43
    43        191
    44        999
    45         37
    51         36
    72        132
    77        117
    78         22
    79         90
    86        163
    87        566
    88         27
   105         28
   106          3
   107         38
   115          4
   117          7
   118          4
   132          3
   133         17
   134         13