##TITLE=Library Entry 14317
##JCAMP-DX=Revision 4.10 
##DATA TYPE=MASS SPECTRUM
##SAMPLE DESCRIPTION=L. FONZES
##NAMES=HP
##CAS NAME=Estr-4-en-3-one, 6.alpha.-fluoro-17.beta.-hydroxy-, acetate
##MOLFORM=C20H27FO3
##CAS REGISTRY NO=3801-28-3
##MP= -300
##BP= -300
##MW= 334
##$RETENTION INDEX=0
##$CONDENSED SPECTRUM=NO
##NPOINTS= 86
##XYDATA=(XY..XY) 1 
    41        275
    43        999
    53        106
    55        238
    65         88
    67        175
    77        225
    78         65
    79        250
    81        200
    83        375
    92         30
    93        263
    94        125
    95        188
    97        169
   103         60
   105        250
   106         70
   107        163
   108         59
   109        159
   110         90
   115        106
   117        138
   118         58
   119        150
   120         61
   121        113
   122        175
   123        100
   127        106
   128        750
   129        163
   131        150
   133        213
   134         81
   135         73
   140         63
   141         89
   142         56
   143         75
   144         74
   145        125
   146        150
   147        350
   148         56
   153         74
   157         61
   158         61
   159        125
   160         69
   165         65
   166         79
   171         63
   178        125
   179         78
   180        138
   181         59
   212         65
   213        163
   215        250
   216         60
   228        113
   230         78
   231         78
   232         63
   233        100
   246        150
   249        150
   253         63
   254        125
   256         74
   259        113
   264        113
   272        275
   273         81
   274        999
   275        213
   290         58
   292        675
   293        150
   306        100
   314        188
   334        999
   335        213