##TITLE=Library Entry 53839
##JCAMP-DX=Revision 4.10 
##DATA TYPE=MASS SPECTRUM
##SAMPLE DESCRIPTION=Chemical Concepts
##NAMES=HP
##CAS NAME=dl-Threonine, N-formyl-, ethyl ester
##MOLFORM=C7H13NO4
##CAS REGISTRY NO=38018-67-6
##MP= -300
##BP= -300
##MW= 175
##$RETENTION INDEX=0
##$CONDENSED SPECTRUM=NO
##NPOINTS= 101
##XYDATA=(XY..XY) 1 
    25          2
    26         37
    27        187
    28        192
    29        469
    30         49
    31         16
    35          1
    36          1
    37          3
    38          7
    39         44
    40         76
    41         54
    42         43
    43         59
    44         22
    45         34
    46          3
    47          3
    49          2
    50          3
    51          9
    52         16
    53          8
    54        194
    55        141
    56        269
    57        648
    58         34
    59          5
    60          1
    63          2
    64          2
    65          3
    66          2
    67          9
    68         31
    69         37
    70         34
    71          3
    72          3
    73          5
    74          3
    75          2
    76          3
    77          9
    78          2
    79          1
    81          2
    82          6
    83        131
    84        999
    85        226
    86         20
    87          3
    91          3
    92          1
    93          2
    94          2
    95          2
    96         11
    97          1
    98         15
    99          2
   100         97
   101         20
   102          4
   103          2
   104          2
   105          2
   106          2
   107          1
   109          2
   110          6
   111        147
   112         35
   113         11
   114          9
   115          5
   116          1
   119          3
   127          1
   128          9
   129        132
   130         10
   131         13
   139          3
   140          1
   141          8
   142          6
   149          5
   150          2
   151          0
   152          2
   153          1
   155          1
   157         81
   158         11
   159          1
   176          2