##TITLE=Library Entry 1981
##JCAMP-DX=Revision 4.10 
##DATA TYPE=MASS SPECTRUM
##SAMPLE DESCRIPTION=NIST Mass Spectrometry Data Center, 1994
##NAMES=HP
##CAS NAME=Pyrazine, ethoxy-
##MOLFORM=C6H8N2O
##CAS REGISTRY NO=38028-67-0
##MP= -300
##BP= -300
##MW= 124
##$RETENTION INDEX=959
##$CONDENSED SPECTRUM=NO
##NPOINTS= 48
##XYDATA=(XY..XY) 1 
    12         22
    13         40
    14         46
    15        122
    17          8
    24          9
    25         32
    26        335
    27        547
    28        357
    29        599
    30         52
    38         77
    39         18
    40        999
    41        767
    42        223
    43         44
    44         10
    45         21
    51         70
    52        214
    53        109
    54         23
    56         21
    65          2
    66         12
    67         85
    68        578
    70          8
    77          4
    78         54
    79        124
    80        201
    81         48
    82          1
    96        415
    97         44
   105          7
   106         18
   107         19
   108          7
   109        313
   111         20
   121         20
   124        175
   125         27
   126          7