##TITLE=Library Entry 86095
##JCAMP-DX=Revision 4.10 
##DATA TYPE=MASS SPECTRUM
##SAMPLE DESCRIPTION=NIST Mass Spectrometry Data Center
##NAMES=HP
##CAS NAME=trans-Chrysanthenol
##MOLFORM=C10H16O
##CAS REGISTRY NO=38043-83-3
##MP= -300
##BP= -300
##MW= 152
##$RETENTION INDEX=1142
##$CONDENSED SPECTRUM=NO
##NPOINTS= 85
##XYDATA=(XY..XY) 1 
    26          5
    27         65
    29         67
    30          3
    31         15
    37          3
    38         14
    39        209
    40         35
    41        332
    42         37
    43        215
    45         20
    50         25
    51         81
    52         37
    53        228
    54         46
    55        254
    56         44
    57         55
    59        110
    60         15
    61          9
    62          9
    63         39
    64         11
    65        137
    66         51
    67        409
    68         73
    69        375
    70         70
    71         21
    72         32
    75          9
    77        229
    78         40
    79        287
    80        129
    81        628
    82        155
    83        198
    84         98
    85         16
    89          9
    90          4
    91        415
    92         64
    93        177
    94        177
    95        265
    96        210
    97         90
    98         25
   102          7
   103         36
   104          9
   105        181
   106         37
   107        878
   108        119
   109        999
   110         90
   111         27
   115         20
   116          6
   117         22
   118          6
   119        169
   120        131
   121        665
   122         78
   123        161
   124         28
   133          5
   134         33
   135          8
   136         12
   137        205
   138         25
   150          7
   151          4
   152        155
   153         16