##TITLE=Library Entry 16991
##JCAMP-DX=Revision 4.10 
##DATA TYPE=MASS SPECTRUM
##SAMPLE DESCRIPTION=NIST Mass Spectrometry Data Center
##NAMES=HP
##CAS NAME=3-Hydroxy-2-methylbutanenitrile
##MOLFORM=C5H9NO
##CAS REGISTRY NO=38046-46-7
##MP= -300
##BP= -300
##MW= 99
##$RETENTION INDEX=911
##$CONDENSED SPECTRUM=NO
##NPOINTS= 24
##XYDATA=(XY..XY) 1 
    19          2
    26         11
    27         45
    28         51
    29         38
    38          9
    39         30
    40         15
    41         26
    42         21
    43        113
    45        999
    46         23
    50          9
    51         22
    52         46
    53         17
    54        307
    55        549
    56        191
    57         14
    66          9
    68         21
    84         23