##TITLE=Library Entry 52901
##JCAMP-DX=Revision 4.10 
##DATA TYPE=MASS SPECTRUM
##SAMPLE DESCRIPTION=T. CLERC
##NAMES=HP
##CAS NAME=2-Hepten-4-one, 6-hydroxy-2-methyl-6-(4-methyl-3-cyclohexen-1-yl)
-
##MOLFORM=C15H24O2
##CAS REGISTRY NO=38043-98-0
##MP= -300
##BP= -300
##MW= 236
##$RETENTION INDEX=0
##$CONDENSED SPECTRUM=NO
##NPOINTS= 53
##XYDATA=(XY..XY) 1 
    31        360
    39        751
    40        200
    41        799
    42        120
    43        839
    45        320
    50        120
    51        240
    52        120
    53        711
    54        160
    55        863
    56        160
    58        120
    63         56
    65        200
    67        903
    68        240
    69        120
    71        240
    77        503
    78        112
    79        735
    80        312
    81        280
    82        200
    83        999
    84        503
    85        200
    91        272
    92         80
    93        440
    94        312
    95        919
    96        160
    98        671
    99        304
   105        599
   107         80
   109         96
   119        775
   120        751
   121        208
   123        639
   138        783
   139        120
   141        639
   200         88
   203         40
   218        160
   221         24
   236         40