##TITLE=Library Entry 77493
##JCAMP-DX=Revision 4.10 
##DATA TYPE=MASS SPECTRUM
##SAMPLE DESCRIPTION=A.H.COWLEY DEPT. CHEM., UNIV. OF TEXAS, AUSTIN, TEXAS,
 USA
##NAMES=HP
##CAS NAME=Phosphoranamine, 1,1,1,1-tetrafluoro-, (TB-5-11)-
##MOLFORM=F4H2NP
##CAS REGISTRY NO=38047-37-9
##MP= -300
##BP= -300
##MW= 123
##$RETENTION INDEX=0
##$CONDENSED SPECTRUM=NO
##NPOINTS= 11
##XYDATA=(XY..XY) 1 
    31          9
    50         45
    69        172
    83         27
    84        440
    85        136
    88        109
   103        177
   104        999
   107        776
   122         23