##TITLE=Library Entry 18166
##JCAMP-DX=Revision 4.10 
##DATA TYPE=MASS SPECTRUM
##SAMPLE DESCRIPTION=Chemical Concepts
##NAMES=HP
##CAS NAME=5-Ethyl-3-(3-pyridyliminomethyl)-2-thiophenethiol
##MOLFORM=C12H12N2S2
##CAS REGISTRY NO=38059-31-3
##MP= -300
##BP= -300
##MW= 248
##$RETENTION INDEX=0
##$CONDENSED SPECTRUM=NO
##NPOINTS= 109
##XYDATA=(XY..XY) 1 
    37        127
    38        362
    39        674
    40        132
    41        178
    43         17
    44         80
    45        362
    46         25
    47         26
    50        526
    51        999
    52        301
    53        111
    54         22
    55         16
    57         55
    58         82
    59        129
    60         19
    61         35
    62         48
    63        152
    64        147
    65        253
    66        103
    67         90
    69        477
    70        105
    71        130
    72         53
    74         63
    76        199
    77        222
    78        815
    79        214
    80         49
    81         54
    82         90
    83         54
    84         61
    85         35
    88         23
    89         29
    90         25
    91         34
    92         61
    93         96
    94        104
    95         72
    96         56
    97         66
    98         17
    99         26
   100         15
   101         20
   102         18
   103         28
   104         12
   105         80
   106         18
   107         16
   108         29
   109         53
   110         54
   111         30
   114         23
   115         22
   116         18
   118         32
   119         14
   121         35
   122         60
   123         17
   127         44
   128         26
   129         31
   131         18
   135         38
   136         30
   137         17
   140         76
   141         34
   142         29
   143         19
   153         98
   155        225
   156         45
   157         23
   160         12
   161         14
   162         45
   167         16
   168         24
   170        131
   172         35
   175         14
   187         38
   199         25
   200         38
   215         27
   219         27
   220         19
   231         46
   233        126
   247        131
   248        491
   249         75
   250         41