##TITLE=Library Entry 22830
##JCAMP-DX=Revision 4.10 
##DATA TYPE=MASS SPECTRUM
##SAMPLE DESCRIPTION=D.HENNEBERG, MAX-PLANCK INSTITUTE, MULHEIM, WEST GERMAN
Y
##NAMES=HP
##CAS NAME=9-Borabicyclo[3.3.1]nonane, 9-methoxy-
##MOLFORM=C9H17BO
##CAS REGISTRY NO=38050-71-4
##MP= -300
##BP= -300
##MW= 152
##$RETENTION INDEX=0
##$CONDENSED SPECTRUM=NO
##NPOINTS= 97
##XYDATA=(XY..XY) 1 
    26         25
    28         27
    29         53
    30          1
    31         16
    32          6
    37          1
    38          4
    39         68
    40         20
    41        153
    42        192
    43        661
    44          1
    45          2
    50          4
    51         15
    52         14
    53         55
    54         70
    55        308
    56        999
    57        597
    58         15
    59          7
    61          1
    62          4
    63          2
    64          6
    65         27
    66         35
    67        249
    68        183
    69        486
    70        175
    71         73
    72         17
    73         47
    74          1
    75          0
    76          4
    77         28
    78         14
    79         68
    80        112
    81        147
    82        271
    83        489
    84         55
    85         12
    86          1
    88          1
    89          5
    90          5
    91         20
    92          9
    93         30
    94         42
    95        189
    96        176
    97         71
    98         37
    99          2
   101          2
   102          1
   103          3
   104          8
   105          4
   106          3
   107          9
   108         78
   109        105
   110        187
   111        393
   112         29
   113          1
   117          1
   118          1
   119          4
   120          8
   121          4
   122         23
   123        119
   124        190
   125         15
   126          1
   136          5
   137         23
   138         27
   139          3
   140          1
   149          1
   150          4
   151        175
   152        708
   153         71
   154          4