##TITLE=Library Entry 53011
##JCAMP-DX=Revision 4.10 
##DATA TYPE=MASS SPECTRUM
##SAMPLE DESCRIPTION=Exported from NIST MS Search
##NAMES=HP
##CAS NAME=Propanedioic acid, (1,3-dihydro-1,3-dioxo-2H-isoindol-2-yl)[4-[(p
henylmethylene)amino]butyl]-, diethyl ester, N-oxide, (Z)-
##MOLFORM=C26H28N2O7
##CAS REGISTRY NO=38068-84-7
##MP= -300
##BP= -300
##MW= 480
##$RETENTION INDEX=0
##$CONDENSED SPECTRUM=NO
##NPOINTS= 59
##XYDATA=(XY..XY) 1 
    50        210
    51        290
    55        529
    56        160
    57        440
    58        539
    65        190
    66        120
    67        190
    69        350
    70        150
    71        799
    75        120
    76        310
    77        849
    78        270
    79        100
    81        180
    82        160
    83        999
    84        120
    85        499
    94        110
    95        180
    96        100
    97        210
   100        120
   103        150
   104        869
   105        440
   106        220
   109        120
   111        170
   117        190
   118        380
   119        190
   120        100
   121        320
   122        150
   125        100
   148        140
   157        100
   158        110
   159        120
   160        460
   163        110
   172        120
   176        420
   177        100
   186        100
   192        250
   213        130
   225        130
   253        120
   259        120
   391        310
   463         80
   464         40
   480         50