##TITLE=Library Entry 49069
##JCAMP-DX=Revision 4.10 
##DATA TYPE=MASS SPECTRUM
##SAMPLE DESCRIPTION=Chuck Anderson, Aldrich Chemical Co.
##NAMES=HP
##CAS NAME=1,3-Cyclooctadiene, (Z,Z)-
##MOLFORM=C8H12
##CAS REGISTRY NO=3806-59-5
##MP= -300
##BP= -300
##MW= 108
##$RETENTION INDEX=889
##$CONDENSED SPECTRUM=NO
##NPOINTS= 75
##XYDATA=(XY..XY) 1 
    15          3
    24          0
    25          0
    26         18
    27        162
    28         25
    29         32
    30          0
    31          0
    36          0
    37          9
    38         32
    39        366
    40         52
    41        262
    42         12
    43          4
    44          0
    45          3
    46          2
    48          0
    49          4
    50         70
    51        146
    52         93
    53        107
    54        134
    55         20
    56          2
    57          0
    60          0
    61          5
    62         17
    63         43
    64          8
    65        189
    66        195
    67        454
    68         28
    69          1
    73          2
    74         12
    75          6
    76          6
    77        412
    78        131
    79        999
    80        430
    81         34
    82          1
    84          0
    85          0
    86          1
    87          1
    88          0
    89          6
    90          0
    91        303
    92         33
    93        599
    94         43
    95          1
    97          0
    98          2
    99          0
   101          0
   102          3
   103         12
   104          2
   105         21
   106          2
   107         41
   108        563
   109         47
   110          2