##TITLE=Library Entry 31838
##JCAMP-DX=Revision 4.10 
##DATA TYPE=MASS SPECTRUM
##SAMPLE DESCRIPTION=A.A.Kutin, Moscow, Russia
##NAMES=HP
##CAS NAME=Thiophene-2-carboxaldehyde, 3-(3-thienylthio)-, phenylhydrazone
##MOLFORM=C15H12N2S3
##CAS REGISTRY NO=3807-50-9
##MP= -300
##BP= -300
##MW= 316
##$RETENTION INDEX=0
##$CONDENSED SPECTRUM=NO
##NPOINTS= 230
##XYDATA=(XY..XY) 1 
    33          7
    34          7
    36          5
    37         39
    38        174
    39        708
    40        100
    41         56
    42         14
    43         31
    45        556
    46         16
    47         23
    49         14
    50        102
    51        336
    52         92
    53         17
    54         18
    55         14
    56         10
    57         65
    58         39
    59         12
    60          6
    61         11
    62         35
    63        150
    64        173
    65        999
    66        215
    67         25
    69        260
    70         98
    71        297
    72         24
    73         62
    74         17
    75         23
    76         42
    77        439
    78         60
    79          6
    80         10
    81         75
    82        197
    83         51
    84         72
    85         12
    86          6
    87          5
    88         36
    89        172
    90         52
    91        695
    92        575
    93        337
    94         43
    95         81
    96         98
    97         40
    98         15
    99          6
   100          7
   101         23
   102         26
   103         72
   104         40
   105         39
   106          9
   107         11
   108         45
   109         46
   110         12
   111          7
   112          9
   113         14
   114         39
   115        177
   116         49
   117         36
   118        125
   119         36
   120         26
   121         60
   122         20
   123         14
   124          7
   125          6
   126         10
   127         63
   128         35
   129         26
   130         26
   131          7
   132         10
   133         20
   134         36
   135         10
   136         11
   137          4
   139         28
   140        219
   141         51
   142         41
   143         10
   144          8
   145         17
   146         30
   147         50
   148         13
   149         19
   150          5
   151         26
   152         51
   153        607
   154         64
   155         73
   156         13
   157         18
   158         65
   159         28
   160         11
   161          6
   162          3
   164         62
   165         28
   166         28
   167         29
   168        160
   169         37
   170          6
   171         24
   172         22
   173         29
   174         33
   175         29
   176         50
   177         44
   178         66
   179         22
   180         16
   181          4
   182          1
   183          2
   184          2
   185          4
   186          2
   187         24
   188          4
   189          5
   190         11
   191         32
   192         15
   193          6
   194          3
   195          6
   196         57
   197         46
   198        192
   199         58
   200         83
   201        115
   202         20
   203          8
   204          5
   205          6
   206          3
   207          2
   208          4
   209         45
   210         12
   211         48
   212          8
   213          7
   214          0
   216          0
   217          1
   218          1
   219          1
   220          0
   221          3
   222         15
   223         58
   224         74
   225         23
   226         12
   227          3
   229          1
   230          3
   231          9
   232          3
   233          8
   234          1
   237          1
   238          1
   239          3
   240          0
   241          1
   242          1
   244          1
   249          1
   250          8
   251          4
   253          0
   254          2
   255          6
   256          5
   257          1
   270          0
   271          6
   272          0
   281          2
   282          5
   283         13
   284          3
   285          1
   298          0
   301          1
   310          0
   311          3
   313         11
   314         12
   315         38
   316        645
   317        125
   318         93
   319         16
   320          4
   321          0