##TITLE=Library Entry 9330
##JCAMP-DX=Revision 4.10 
##DATA TYPE=MASS SPECTRUM
##SAMPLE DESCRIPTION=Exported from NIST MS Search
##NAMES=HP
##CAS NAME=Phosphine, bis(1-methylethyl)[3,3,3-trifluoro-1-oxo-2-(trifluorom
ethyl)propyl]-
##MOLFORM=C10H15F6OP
##CAS REGISTRY NO=38079-85-5
##MP= -300
##BP= -300
##MW= 296
##$RETENTION INDEX=0
##$CONDENSED SPECTRUM=NO
##NPOINTS= 36
##XYDATA=(XY..XY) 1 
    40         42
    41        278
    42         29
    43        999
    44         63
    45         21
    46         71
    47         67
    58         38
    59         29
    60         21
    61         75
    62         21
    63         16
    69        135
    73         67
    74         67
    75        464
    76         84
    90         21
    91         21
    92         21
   101         21
   102          8
   116         21
   117        409
   118         25
   143          8
   144          8
   179         33
   185         25
   212         21
   221         16
   254         16
   296        118
   297         21