##TITLE=Library Entry 32974
##JCAMP-DX=Revision 4.10 
##DATA TYPE=MASS SPECTRUM
##SAMPLE DESCRIPTION=W.Epstein ET AL.J.Chem.Eng.Data,21,500(1976)
##NAMES=HP
##CAS NAME=trans-2,2-Dimethyl-3-(2'-methyl-1'-propenyl)cyclobutanol
##MOLFORM=C10H18O
##CAS REGISTRY NO=38086-95-2
##MP= -300
##BP= -300
##MW= 154
##$RETENTION INDEX=0
##$CONDENSED SPECTRUM=NO
##NPOINTS= 28
##XYDATA=(XY..XY) 1 
    41        240
    42         24
    43        194
    53         89
    54         79
    55        186
    57        339
    65         50
    67        999
    68         85
    69         59
    72        650
    77         67
    79         93
    81        135
    82        949
    83         12
    84        758
    91         53
    93         71
    95        410
   106         99
   110        156
   111         30
   121         40
   136         36
   137          6
   154          8