##TITLE=Library Entry 6126
##JCAMP-DX=Revision 4.10 
##DATA TYPE=MASS SPECTRUM
##SAMPLE DESCRIPTION=W.Epstein ET AL.J.Chem.Eng.Data,21,500(1976)
##NAMES=HP
##CAS NAME=trans-2,7-Dimethyl-3,6-octadien-2-ol
##MOLFORM=C10H18O
##CAS REGISTRY NO=38092-33-0
##MP= -300
##BP= -300
##MW= 154
##$RETENTION INDEX=1099
##$CONDENSED SPECTRUM=NO
##NPOINTS= 66
##XYDATA=(XY..XY) 1 
    41        573
    42         44
    43        999
    44         56
    45          8
    50         29
    51         54
    52         17
    53        124
    54         35
    55        239
    56         31
    57         91
    58         41
    59        533
    60         19
    61         15
    62          6
    63         19
    65         62
    66         33
    67        313
    68         58
    69        139
    70         35
    71         85
    72         98
    73         56
    75         12
    77        201
    78         31
    79        234
    80         91
    81        363
    82        247
    83        220
    84         17
    85        293
    86        297
    91        178
    92         46
    93        378
    94         46
    95        268
    96        110
    97         52
    98         21
    99         10
   103          8
   104        100
   105         98
   106         27
   107         44
   108         15
   109         15
   110         33
   111         95
   117         21
   119         29
   121        218
   122         25
   123         12
   136        156
   137         41
   139         46
   154         23