##TITLE=Library Entry 38736
##JCAMP-DX=Revision 4.10 
##DATA TYPE=MASS SPECTRUM
##SAMPLE DESCRIPTION=Japan AIST/NIMC Database- Spectrum MS-NW-2103
##NAMES=HP
##CAS NAME=2,5-Dimethylcyclohexanol
##MOLFORM=C8H16O
##CAS REGISTRY NO=3809-32-3
##MP= -300
##BP= -300
##MW= 128
##$RETENTION INDEX=1099
##$CONDENSED SPECTRUM=NO
##NPOINTS= 74
##XYDATA=(XY..XY) 1 
    15          9
    17          3
    18         15
    19          2
    26          4
    27         87
    28         14
    29         79
    30          4
    31         32
    32          2
    37          1
    38          4
    39         76
    40         16
    41        191
    42        103
    43        136
    44         59
    45         33
    46          1
    50          4
    51          9
    52          4
    53         38
    54         23
    55        279
    56        140
    57        114
    58         60
    59          7
    63          1
    65          6
    66          4
    67         76
    68        196
    69         81
    70         18
    71        999
    72         64
    73          7
    77          7
    78          2
    79          8
    80          6
    81        170
    82        118
    83         23
    84         47
    85         24
    86         61
    87          5
    91          4
    93          4
    94          2
    95        240
    96         26
    97         12
    98          1
    99          4
   100          1
   107          2
   108          1
   109         23
   110        204
   111         21
   112          5
   113         13
   114          1
   122          1
   126          7
   127          7
   128         26
   129          2