##TITLE=Library Entry 557
##JCAMP-DX=Revision 4.10 
##DATA TYPE=MASS SPECTRUM
##SAMPLE DESCRIPTION=Exported from NIST MS Search
##NAMES=HP
##CAS NAME=2-Butanone, 1,1,1-trifluoro-
##MOLFORM=C4H5F3O
##CAS REGISTRY NO=381-88-4
##MP= -300
##BP= -300
##MW= 126
##$RETENTION INDEX=0
##$CONDENSED SPECTRUM=NO
##NPOINTS= 35
##XYDATA=(XY..XY) 1 
    14          8
    15          8
    25          7
    26         54
    27        343
    28         54
    29        999
    30         23
    31         21
    32          4
    33          8
    37          6
    38          7
    39         10
    41          6
    42         23
    43          4
    47          5
    50         23
    51         10
    53          7
    55         22
    56         19
    57        587
    58         20
    59          3
    64          3
    69        235
    75         10
    77          6
    78          8
    97         13
   108          4
   110          4
   127          5