##TITLE=Library Entry 18230
##JCAMP-DX=Revision 4.10 
##DATA TYPE=MASS SPECTRUM
##SAMPLE DESCRIPTION=V.A.Korolev, Moscow, Russia
##NAMES=HP
##CAS NAME=2-Cyclopenten-1-one, 3-phenyl-
##MOLFORM=C11H10O
##CAS REGISTRY NO=3810-26-2
##MP= -300
##BP= -300
##MW= 158
##$RETENTION INDEX=0
##$CONDENSED SPECTRUM=NO
##NPOINTS= 66
##XYDATA=(XY..XY) 1 
    35          4
    37         21
    38         93
    39        416
    40         36
    41         32
    42         72
    43         55
    44         10
    49         19
    50        573
    51        999
    52        373
    53        167
    54          9
    55         70
    56         22
    58         14
    61         42
    62        202
    63        558
    64        358
    65        167
    66         10
    67         11
    73         24
    74        318
    75        315
    76        458
    77        578
    78        224
    79         35
    80          6
    81         24
    85          6
    86         35
    87         74
    88         20
    89        135
    90         16
    91        158
    92         10
    97          3
    98         28
    99          9
   100          4
   101         45
   102        722
   103        163
   104         18
   105        123
   106          6
   113          5
   114          7
   115        564
   116        153
   117         57
   126         18
   127        129
   128        308
   129        667
   130        166
   131         32
   157        371
   158        749
   159         91