##TITLE=Library Entry 30064
##JCAMP-DX=Revision 4.10 
##DATA TYPE=MASS SPECTRUM
##SAMPLE DESCRIPTION=Japan AIST/NIMC Database- Spectrum MS-IW-2883
##NAMES=HP
##CAS NAME=CH3OC(O)SC2H5
##MOLFORM=C4H8O2S
##CAS REGISTRY NO=38103-96-7
##MP= -300
##BP= -300
##MW= 120
##$RETENTION INDEX=0
##$CONDENSED SPECTRUM=NO
##NPOINTS= 53
##XYDATA=(XY..XY) 1 
    14          4
    15        167
    16          2
    25          2
    26         32
    27        279
    28         55
    29        455
    30         15
    31         83
    32         12
    33         14
    34         11
    35        194
    36          2
    37          9
    39          3
    41         19
    42          3
    43          4
    44         21
    45         98
    46         55
    47        103
    48        209
    49         19
    50          9
    55          1
    56          2
    57         14
    58         40
    59        999
    60        109
    61        895
    62         43
    63         42
    64          3
    66          2
    75         26
    76          3
    77          3
    88        123
    89        151
    90         11
    91          9
    92         80
    93          4
    94          5
   105         10
   120        636
   121         34
   122         33
   123          1