##TITLE=Library Entry 77858
##JCAMP-DX=Revision 4.10 
##DATA TYPE=MASS SPECTRUM
##SAMPLE DESCRIPTION=Chemical Concepts
##NAMES=HP
##CAS NAME=Bis(2-iodo-1-phenylethyl)ether
##MOLFORM=C16H16I2O
##CAS REGISTRY NO=38104-79-9
##MP= -300
##BP= -300
##MW= 478
##$RETENTION INDEX=0
##$CONDENSED SPECTRUM=NO
##NPOINTS= 244
##XYDATA=(XY..XY) 1 
    25          0
    26          3
    27         19
    29          8
    30          1
    31          1
    33          0
    34          0
    35          0
    36          2
    37          2
    38          6
    39         44
    40          4
    41         10
    42          4
    43         28
    44          3
    45          1
    46          0
    48          0
    49          1
    50         28
    51         87
    52         31
    53          6
    54          1
    55          4
    56          2
    57          7
    58          6
    59          1
    60          0
    61          1
    62          4
    63         21
    64          6
    65         35
    66          3
    67          1
    68          1
    69          5
    70          1
    71          4
    72          0
    73          1
    74          7
    75          8
    76         17
    77        164
    78        170
    79         23
    80          3
    81          3
    82          3
    83          4
    84          1
    85          2
    86          0
    87          1
    88          1
    89         17
    90          8
    91         83
    92         13
    93          3
    94          1
    95          2
    96          1
    97          2
    98          1
    99          1
   100          0
   101          3
   102         22
   103        143
   104        999
   105        171
   106         14
   107         16
   108          2
   109          1
   110          0
   111          1
   112          1
   113          1
   114          0
   115         10
   116          4
   117         22
   118          7
   119          4
   120         17
   121        242
   122         22
   123          2
   124          0
   125          1
   126          0
   127          5
   128          7
   129          2
   130          0
   131          2
   132          1
   133          8
   134          2
   135         29
   136          3
   137          1
   138          0
   139          0
   140          0
   141         10
   142          1
   143          0
   144          0
   145          0
   146          3
   147          0
   148          0
   149          2
   150          0
   151          1
   152          1
   153          1
   154          0
   155          0
   156          0
   157          0
   158          0
   159          0
   160          0
   161          0
   162          0
   163          1
   164          0
   165          3
   166          3
   167          1
   168          0
   169          4
   170          0
   171          0
   172          0
   173          0
   174          0
   175          0
   176          0
   177          1
   178          3
   179          5
   180          3
   181         12
   182          2
   183          1
   184          1
   185          1
   186          0
   187          0
   188          0
   189          0
   190          0
   191          1
   192          0
   193          5
   194          5
   195          1
   196          0
   197          0
   198          0
   199          0
   200          0
   201          0
   202          0
   203          0
   204          0
   205          1
   206          2
   207          2
   208          0
   209          1
   210          0
   211          2
   212          0
   213          0
   215          0
   217          0
   219          0
   220          0
   221          0
   222          0
   223          2
   224          3
   225          1
   226          0
   227          0
   228          0
   229          0
   230          3
   231        730
   232         80
   233          3
   234          0
   235          0
   236          0
   237          0
   238          0
   239          1
   240          0
   243          0
   244          1
   245          1
   246          0
   247          6
   248          0
   249          0
   250          0
   251          0
   253          0
   254          0
   255          0
   256          0
   257          0
   258          0
   260          0
   261          0
   262          1
   263          0
   264          0
   265          0
   273          0
   299          0
   301          0
   334          0
   335          0
   336          0
   337        101
   338         16
   339          1
   340          0
   349          0
   350          0
   351          0