##TITLE=Library Entry 118
##JCAMP-DX=Revision 4.10 
##DATA TYPE=MASS SPECTRUM
##SAMPLE DESCRIPTION=Chemical Concepts
##NAMES=HP
##CAS NAME=2H-1,2-Benzoxazine-3-carbonitrile, 2-cyclohexyloctahydro-4a,8a-di
methyl-
##MOLFORM=C17H28N2O
##CAS REGISTRY NO=38110-82-6
##MP= -300
##BP= -300
##MW= 276
##$RETENTION INDEX=0
##$CONDENSED SPECTRUM=NO
##NPOINTS= 185
##XYDATA=(XY..XY) 1 
    26        141
    27        999
    28         69
    29        119
    30         91
    31          6
    37          6
    38          9
    39        119
    40         32
    41        398
    42         80
    43        491
    44        133
    45         19
    46          5
    50          7
    51         17
    52         18
    53        100
    54        105
    55        530
    56        392
    57         58
    58         30
    59         21
    60         70
    61          5
    63         13
    65         39
    66         30
    67        268
    68        101
    69         85
    70         93
    71         58
    72         18
    73          8
    74          4
    75          4
    76          5
    77         60
    78         20
    79        178
    80         89
    81        270
    82        379
    83        543
    84        116
    85         52
    86         13
    87          5
    88          3
    91         49
    92         31
    93        153
    94        149
    95         87
    96        343
    97         61
    98        113
    99        127
   100         54
   101          4
   102          7
   103          7
   104          8
   105         40
   106         44
   107        132
   108        186
   109        182
   110        162
   111         45
   112         27
   113          7
   114          5
   115         32
   116          8
   117         15
   118         14
   119         20
   120         65
   121         37
   122        165
   123        184
   124         88
   125        102
   126         60
   127         10
   128         17
   129          6
   130          4
   131         21
   132         29
   133         46
   134        119
   135         56
   136         64
   137         24
   138        108
   139         40
   140         18
   141         83
   142         31
   143          5
   144          4
   145         14
   146         13
   147         14
   148         51
   149         34
   150        409
   151        115
   152         64
   153         42
   154         13
   155          6
   156          3
   157          4
   158          5
   159          5
   160         11
   161          9
   162         40
   163         53
   164        261
   165        662
   166        316
   167         48
   168         56
   169         11
   171          4
   172          5
   173          4
   174          5
   175          6
   176         77
   177         75
   178        583
   179        186
   180         19
   181         13
   187          3
   188          9
   189          7
   190         27
   191        136
   192        132
   193        127
   194         59
   195         17
   202          6
   203          6
   204          8
   205          6
   206        244
   207         66
   208         19
   209          4
   210          3
   211          3
   216         91
   217         17
   218          8
   220         18
   221         12
   222          5
   228          7
   229          4
   230         11
   231         41
   232         12
   233         23
   234        159
   235         26
   236          5
   248         81
   249        567
   250        133
   251         17
   259         92
   260         21
   276        123
   277         30