##TITLE=Library Entry 28228
##JCAMP-DX=Revision 4.10 
##DATA TYPE=MASS SPECTRUM
##SAMPLE DESCRIPTION=Japan AIST/NIMC Database- Spectrum MS-IW-2165
##NAMES=HP
##CAS NAME=2H-Pyran,3,4-dihydro-2-methoxy-4-methyl-, cis-
##MOLFORM=C7H12O2
##CAS REGISTRY NO=38113-08-5
##MP= -300
##BP= -300
##MW= 128
##$RETENTION INDEX=0
##$CONDENSED SPECTRUM=NO
##NPOINTS= 76
##XYDATA=(XY..XY) 1 
    14          1
    15         20
    18          1
    26          6
    27         56
    28         64
    29         59
    30          6
    31         28
    37          3
    38          9
    39         87
    40         16
    41        138
    42         27
    43        128
    44          9
    45         94
    46          2
    49          1
    50          7
    51         11
    52          5
    53         47
    54          9
    55         40
    56          5
    57         22
    58        999
    59        144
    60          8
    61         13
    62          1
    63          2
    65          9
    66          4
    67         36
    68         17
    69         53
    70         10
    71         23
    72         31
    73          2
    74          2
    75          2
    77          4
    79          9
    80          1
    81         51
    82         24
    83         12
    84          3
    85         64
    86          6
    87          3
    94          7
    95         51
    96        120
    97        121
    98         28
    99          7
   100          1
   101          1
   109          2
   110          2
   111          8
   112          1
   113        108
   114          8
   115          2
   125          1
   126          1
   127         10
   128        135
   129         10
   130          1