##TITLE=Library Entry 72278
##JCAMP-DX=Revision 4.10 
##DATA TYPE=MASS SPECTRUM
##SAMPLE DESCRIPTION=ASES Database, Dalian Institute, P.R. China
##NAMES=HP
##CAS NAME=2-Methyl-3-methylthio-6-phenyl-5-thioxo-2,5-dihydro-triazine
##MOLFORM=C11H11N3S2
##CAS REGISTRY NO=38119-48-1
##MP= -300
##BP= -300
##MW= 249
##$RETENTION INDEX=0
##$CONDENSED SPECTRUM=NO
##NPOINTS= 21
##XYDATA=(XY..XY) 1 
    42         60
    43         99
    45         50
    56         50
    63        109
    72        117
    73         69
    76         78
    77        128
    83        695
    88        469
    89        209
    99        999
   103        129
   104         78
   130         90
   133         78
   134         49
   146         48
   248        576
   249        397