##TITLE=Library Entry 51109
##JCAMP-DX=Revision 4.10 
##DATA TYPE=MASS SPECTRUM
##SAMPLE DESCRIPTION=Chemical Concepts
##NAMES=HP
##CAS NAME=2(3H)-Benzofuranone, hexahydro-3a,7a-dimethyl-, cis-
##MOLFORM=C10H16O2
##CAS REGISTRY NO=38110-72-4
##MP= -300
##BP= -300
##MW= 168
##$RETENTION INDEX=0
##$CONDENSED SPECTRUM=NO
##NPOINTS= 77
##XYDATA=(XY..XY) 1 
    25          6
    27        104
    28         37
    29        102
    31          4
    38          4
    39        154
    40         35
    41        255
    42         48
    43        501
    44         22
    45         10
    50          2
    51         18
    52          9
    53         74
    54         32
    55        259
    56         61
    57         35
    58         38
    59         10
    60          5
    63          1
    65         21
    66         11
    67        214
    68         48
    69        133
    70         52
    71         98
    72          8
    73          3
    77         25
    78          4
    79         43
    80         10
    81         84
    82        999
    83        121
    84         71
    85         35
    91         22
    92          4
    93         33
    94         27
    95         64
    96         19
    97         54
    98         12
    99          3
   105          2
   107         37
   108         53
   109         79
   110         10
   111         46
   112         41
   113          4
   117          7
   122         83
   123         11
   124         14
   125        133
   126         31
   127          4
   135         49
   136          5
   140        105
   141         12
   153        292
   154         30
   155          3
   167          7
   168         37
   169          4