##TITLE=Library Entry 43768
##JCAMP-DX=Revision 4.10 
##DATA TYPE=MASS SPECTRUM
##SAMPLE DESCRIPTION=M. WURST, OSTBOHMISCHE CHEM. SYNTH. VEB., FRANKFURT, W.
 GER.
##NAMES=HP
##CAS NAME=1,1,1,3,5,5,7,7,7-Nonamethyl-3-(trimethylsiloxy)tetrasiloxane
##MOLFORM=C12H36O4Si5
##CAS REGISTRY NO=38146-99-5
##MP= -300
##BP= -300
##MW= 384
##$RETENTION INDEX=0
##$CONDENSED SPECTRUM=NO
##NPOINTS= 20
##XYDATA=(XY..XY) 1 
    45         70
    59         70
    73        999
    74         90
    75         60
   133         70
   147        450
   148         90
   149         70
   191         70
   193         60
   207        130
   208         60
   215         70
   265         90
   281        580
   282        190
   283        110
   369        200
   370         90