##TITLE=Library Entry 38540
##JCAMP-DX=Revision 4.10 
##DATA TYPE=MASS SPECTRUM
##SAMPLE DESCRIPTION=A.A.Kutin, Moscow, Russia
##NAMES=HP
##CAS NAME=Acetic acid, (1,2-dimethyl-1-propenyl) ester
##MOLFORM=C7H12O2
##CAS REGISTRY NO=3814-41-3
##MP= -300
##BP= -300
##MW= 128
##$RETENTION INDEX=0
##$CONDENSED SPECTRUM=NO
##NPOINTS= 40
##XYDATA=(XY..XY) 1 
    37          3
    38         11
    39        126
    40         42
    41        202
    42        101
    43        990
    45         41
    46          0
    49          0
    50          6
    51         10
    52          4
    53         29
    54          3
    55          7
    57         63
    58         58
    59          5
    61          1
    63          1
    65          5
    66          2
    67         49
    68          9
    69         27
    71        999
    72         37
    73          4
    83          1
    84          3
    85         46
    86        588
    87         31
    88          1
   111          3
   112          1
   128        119
   129          7
   130          0