##TITLE=Library Entry 9841
##JCAMP-DX=Revision 4.10 
##DATA TYPE=MASS SPECTRUM
##SAMPLE DESCRIPTION=CONTINENTAL OIL CO., PONCA CITY, OKLAHOMA, USA
##NAMES=HP
##CAS NAME=Pentane, 3-(bromomethyl)-
##MOLFORM=C6H13Br
##CAS REGISTRY NO=3814-34-4
##MP= -300
##BP= -300
##MW= 164
##$RETENTION INDEX=0
##$CONDENSED SPECTRUM=NO
##NPOINTS= 70
##XYDATA=(XY..XY) 1 
    13          5
    14         16
    15         68
    16          3
    25          4
    26         70
    27        511
    28        110
    29        412
    30         10
    36          2
    37         10
    38         27
    39        276
    40         38
    41        441
    42         83
    43        999
    44         33
    49          4
    50         22
    51         33
    52         14
    53         72
    54         24
    55        757
    56        168
    57         82
    58          4
    62          2
    63          4
    64          1
    65          4
    66          3
    67          9
    68          3
    69         95
    70         61
    71        252
    72         14
    79          3
    80          2
    81          3
    82          3
    83          4
    84         15
    85        820
    86         54
    87          2
    92          2
    93         26
    94          3
    95         25
    96          2
   106          3
   107         26
   108          3
   109         23
   110          3
   121          5
   122          0
   123          2
   135         58
   136          4
   137         57
   138          4
   164          6
   165          1
   166          6
   167          1