##TITLE=Library Entry 100220
##JCAMP-DX=Revision 4.10 
##DATA TYPE=MASS SPECTRUM
##SAMPLE DESCRIPTION=NIST Mass Spectrometry Data Center, 2010
##NAMES=HP
##CAS NAME=2-Methyl-6-(p-tolyl)hept-2-en-4-ol
##MOLFORM=C15H22O
##CAS REGISTRY NO=38142-57-3
##MP= -300
##BP= -300
##MW= 218
##$RETENTION INDEX=1583
##$CONDENSED SPECTRUM=NO
##NPOINTS= 95
##XYDATA=(XY..XY) 1 
    27          9
    28          1
    29         11
    31          5
    38          1
    39         28
    40          4
    41         46
    42          3
    43         65
    44          2
    45          2
    50          3
    51         11
    52          4
    53         16
    54          3
    55         33
    57          2
    58          1
    59         14
    62          1
    63          7
    64          2
    65         26
    66          8
    67         16
    68          2
    69         21
    70          2
    71          2
    72          1
    74          1
    75          2
    76          2
    77         42
    78         12
    79         23
    80          3
    81          6
    82         49
    83          8
    84          8
    86          1
    89          5
    90          1
    91         84
    92         10
    93         22
    95          7
    96          2
    97          1
    98          1
   101          1
   102          5
   103         22
   104         16
   107         11
   108         13
   109         10
   112         12
   113          1
   115         30
   116          8
   117         66
   118         17
   119        999
   120         95
   123          3
   124          1
   127          2
   128          8
   129          7
   130          2
   131          5
   132          1
   133          5
   134          3
   135         22
   136          5
   139          1
   141          3
   153          1
   154          1
   157          1
   160         15
   161          3
   163          1
   185          1
   200          3
   201          1
   203          3
   204          1
   218          6
   219          1