##TITLE=Library Entry 84210
##JCAMP-DX=Revision 4.10 
##DATA TYPE=MASS SPECTRUM
##SAMPLE DESCRIPTION=R.C. DOUGHERTY
##NAMES=HP
##CAS NAME=2-Cyclohexene-1-carboxylic acid, 2,6-dimethyl-6-(4-methyl-4-pente
nyl)-, methyl ester
##MOLFORM=C16H26O2
##CAS REGISTRY NO=38142-32-4
##MP= -300
##BP= -300
##MW= 250
##$RETENTION INDEX=0
##$CONDENSED SPECTRUM=NO
##NPOINTS= 70
##XYDATA=(XY..XY) 1 
    65        482
    66         38
    67        313
    68        519
    69        498
    77        174
    78         39
    79        235
    80         62
    81        488
    82        294
    83        217
    85         60
    91        367
    92         80
    93        386
    94         92
    95        271
    96         71
    97         29
   101         81
   105        221
   106        118
   107        999
   108        292
   109        708
   110         60
   111         57
   114        137
   115         38
   119        117
   120         62
   121        400
   122         63
   123        110
   124         49
   125        188
   126        139
   127        270
   133         78
   134         36
   135        778
   136        122
   137         56
   141        306
   147         91
   148         42
   149         49
   150         29
   151         33
   164         57
   165        566
   166        265
   167        749
   168         96
   175         45
   176         16
   179         41
   181         32
   190        118
   191        225
   192         24
   194         34
   203         49
   207         60
   218        171
   219        101
   235         51
   250        528
   251         89