##TITLE=Library Entry 46659
##JCAMP-DX=Revision 4.10 
##DATA TYPE=MASS SPECTRUM
##SAMPLE DESCRIPTION=Humboldt-Universitat zu Berlin, Department of Chemistry
, Analytical Group
##NAMES=HP
##CAS NAME=Sydnone, diphenyl-
##MOLFORM=C14H10N2O2
##CAS REGISTRY NO=3815-83-6
##MP= -300
##BP= -300
##MW= 238
##$RETENTION INDEX=0
##$CONDENSED SPECTRUM=NO
##NPOINTS= 115
##XYDATA=(XY..XY) 1 
    12          1
    13          0
    14          2
    15          2
    16          2
    17          3
    18         13
    26         16
    27         68
    28         19
    30        124
    31          4
    32          1
    36          0
    37         14
    38         38
    39        121
    40          7
    41          9
    42          1
    43          3
    44          5
    45          2
    46          0
    48          0
    49          9
    50        222
    51        656
    52         59
    53          6
    54          0
    55          1
    56          1
    57          2
    60          1
    61         15
    62         46
    63        100
    64         39
    65         11
    66          1
    67          0
    69          1
    70          1
    71          1
    73          5
    74         47
    75         51
    76        151
    77        999
    78         72
    79          2
    80          0
    82          0
    83          0
    84          1
    85          4
    86         10
    87         11
    88          7
    89         15
    90         16
    91         15
    92          2
    93          0
    98          2
    99          3
   100          1
   101          2
   102          7
   103         93
   104         16
   105          3
   106          0
   110          1
   111          1
   112          0
   113          2
   114          1
   115          3
   116          0
   121          0
   125          1
   126          3
   127          3
   128          1
   137          0
   138          0
   139          3
   140          2
   149          1
   150          2
   151          7
   152         17
   153          9
   154          2
   155          0
   162          0
   163          2
   164          3
   165          3
   166          1
   167          1
   176          0
   177          2
   178          7
   180        637
   181         93
   182          7
   194          0
   195          0
   225          1
   238         45
   239          9
   240          1