##TITLE=Library Entry 43576
##JCAMP-DX=Revision 4.10 
##DATA TYPE=MASS SPECTRUM
##SAMPLE DESCRIPTION=Exported from NIST MS Search
##NAMES=HP
##CAS NAME=Arabino-hexaric acid, 3-deoxy-2,4,5-tris-O-(trimethylsilyl)-, bis
(trimethylsilyl) ester
##MOLFORM=C21H50O7Si5
##CAS REGISTRY NO=38165-99-0
##MP= -300
##BP= -300
##MW= 554
##$RETENTION INDEX=1949
##$CONDENSED SPECTRUM=NO
##NPOINTS= 71
##XYDATA=(XY..XY) 1 
    44          6
    45         52
    55         26
    59         19
    72         22
    73        999
    74         88
    75         78
    83         19
   101         22
   102          9
   117          6
   129         26
   131         26
   133         45
   143          6
   147        367
   148         59
   149         39
   189         19
   191         39
   204         26
   206          6
   217         65
   218         19
   219         42
   220          6
   221         36
   245        740
   246        157
   247         75
   248          6
   257         39
   277         36
   291          6
   292        170
   293         39
   294         26
   303         22
   305         19
   331         32
   332          6
   335         45
   336          6
   347         88
   348         29
   349          6
   375         10
   376          4
   377          6
   378          2
   379          2
   394          2
   395          1
   405          2
   421         22
   422          8
   423          4
   424          1
   437          0
   449         17
   450          6
   451          4
   452          0
   464          2
   465          0
   539         42
   540         18
   541         11
   542          3
   543          2