##TITLE=Library Entry 14052
##JCAMP-DX=Revision 4.10 
##DATA TYPE=MASS SPECTRUM
##SAMPLE DESCRIPTION=Chemical Concepts
##NAMES=HP
##CAS NAME=2-Amino-4-(4-ethoxybenzylamino)-1,3,5-triazine
##MOLFORM=C12H15N5O
##CAS REGISTRY NO=38164-20-4
##MP= -300
##BP= -300
##MW= 245
##$RETENTION INDEX=0
##$CONDENSED SPECTRUM=NO
##NPOINTS= 102
##XYDATA=(XY..XY) 1 
    33          5
    34          2
    36         18
    37          9
    38         50
    40        140
    41         63
    42        211
    43        999
    44         59
    45         13
    46          3
    48          4
    50         63
    51         96
    52         56
    53         53
    54          4
    55         38
    56          6
    57          3
    58          3
    60         15
    62         17
    63         51
    64         35
    65         28
    66         18
    68        214
    69         63
    70          5
    71          3
    74          8
    75         21
    77        127
    78        242
    79         31
    80         13
    81          3
    83          9
    84          4
    85        104
    87          3
    89         71
    90         24
    91         16
    93         23
    94         14
    98          3
   102          9
   103         23
   104         51
   105         41
   106         38
   107        301
   108         28
   109          6
   110         31
   111         21
   115          3
   116         14
   117         15
   118          9
   119         15
   120         18
   121         13
   122          3
   126          5
   127          2
   129          1
   131          3
   132         65
   133        201
   134         19
   135         38
   136          3
   144          4
   145          2
   146         13
   147         23
   148         16
   149         17
   150          3
   158          4
   161         13
   162          2
   173          2
   174         16
   175          9
   187          2
   188          9
   200         57
   202          9
   203          2
   215          6
   216        359
   217         60
   226          3
   232          2
   244         95
   245        425
   246         60