##TITLE=Library Entry 7553
##JCAMP-DX=Revision 4.10 
##DATA TYPE=MASS SPECTRUM
##SAMPLE DESCRIPTION=V.G. Zaikin, R.S.Borisov, TIPS RAS, Moscow, Russia
##NAMES=HP
##CAS NAME=2-METHYLPENTYL FORMATE
##MOLFORM=C7H14O2
##CAS REGISTRY NO=381670-34-4
##MP= -300
##BP= -300
##MW= 130
##$RETENTION INDEX=898
##$CONDENSED SPECTRUM=NO
##NPOINTS= 43
##XYDATA=(XY..XY) 1 
    25          2
    26          7
    27         57
    28         32
    29         81
    30          5
    31         62
    36         16
    38         11
    39        122
    40         38
    41        437
    42        250
    43        999
    44         44
    45         22
    47         12
    53         32
    55        364
    56        755
    57         68
    58         12
    59         41
    60         53
    61          8
    63          1
    65          5
    66          2
    67         24
    68          6
    69        488
    70        169
    71        544
    72         34
    73          4
    77          3
    83          2
    84        383
    85         29
    86          3
    87         20
    88          2
   101          5