##TITLE=Library Entry 30869
##JCAMP-DX=Revision 4.10 
##DATA TYPE=MASS SPECTRUM
##SAMPLE DESCRIPTION=Chemical Concepts
##NAMES=HP
##CAS NAME=1-(4-Methoxybenzyl)biguanidine
##MOLFORM=C10H15N5O
##CAS REGISTRY NO=38164-13-5
##MP= -300
##BP= -300
##MW= 221
##$RETENTION INDEX=0
##$CONDENSED SPECTRUM=NO
##NPOINTS= 100
##XYDATA=(XY..XY) 1 
    39         41
    40         42
    41         47
    43        706
    44        166
    46          2
    50         32
    51         46
    52         34
    53         26
    54          8
    55         18
    56          9
    58         19
    59         26
    60        999
    61         20
    62          9
    63         40
    64         25
    65         48
    66         25
    67         14
    68         76
    69         18
    70          9
    71          9
    72         17
    73          9
    74          7
    75          2
    76          9
    77         64
    78        175
    79         14
    80          6
    81          3
    82          5
    83          5
    85        166
    86        361
    87         15
    89         23
    90         24
    91         73
    92         28
    93         31
    94         21
    95          7
    98          3
    99         14
   100          2
   101          7
   103          6
   104         10
   105         12
   106         29
   107         14
   108         16
   109         29
   110          7
   111          6
   112         14
   114          9
   115          2
   119         24
   121        315
   122         42
   126          3
   131          4
   132          2
   133          9
   134         45
   135         17
   136        159
   137         31
   139          2
   145          2
   146          3
   147         35
   148          9
   149          9
   161         20
   162         13
   164          6
   172          5
   176          3
   178          7
   179          3
   188          2
   189          4
   203          4
   204          9
   205          2
   206          6
   207          2
   218          7
   220          9
   221        120
   222         19