##TITLE=Library Entry 42766
##JCAMP-DX=Revision 4.10 
##DATA TYPE=MASS SPECTRUM
##SAMPLE DESCRIPTION=Exported from NIST MS Search
##NAMES=HP
##CAS NAME=Arabino-hexaric acid, 2-deoxy-3,4,5-tris-O-(trimethylsilyl)-, bis
(trimethylsilyl) ester
##MOLFORM=C21H50O7Si5
##CAS REGISTRY NO=38165-98-9
##MP= -300
##BP= -300
##MW= 554
##$RETENTION INDEX=1934
##$CONDENSED SPECTRUM=NO
##NPOINTS= 79
##XYDATA=(XY..XY) 1 
    43          9
    45         52
    55         13
    59         22
    72         22
    73        999
    74         88
    75         78
   101         29
   117         22
   129         42
   131         19
   133         49
   143         29
   147        295
   148         45
   149         39
   189         59
   190         19
   191         29
   204         19
   206         13
   217        236
   218         49
   219         29
   220          6
   221         39
   233         45
   234          9
   245         59
   246          9
   277         36
   278          9
   285          9
   291         22
   292        124
   293         39
   294         22
   305         98
   306         49
   307         19
   333          9
   335        278
   336         75
   337         39
   347         26
   373          0
   374          2
   375          5
   376          3
   377          2
   379          5
   380          2
   381          1
   393          3
   394          2
   395          3
   396          2
   397          0
   405          2
   406          1
   407          5
   408          2
   409          1
   421         11
   422          5
   423          3
   424          0
   449         19
   450          6
   451          5
   452          2
   464          2
   465          0
   539         48
   540         22
   541         11
   542          5
   543          2