##TITLE=Library Entry 44075
##JCAMP-DX=Revision 4.10 
##DATA TYPE=MASS SPECTRUM
##SAMPLE DESCRIPTION=G. PETERSON
##NAMES=HP
##CAS NAME=Galactaric acid, 6TMS derivative
##MOLFORM=C24H58O8Si6
##CAS REGISTRY NO=38165-96-7
##MP= -300
##BP= -300
##MW= 642
##$RETENTION INDEX=2014
##$CONDENSED SPECTRUM=NO
##NPOINTS= 80
##XYDATA=(XY..XY) 1 
    44         10
    45         30
    59         20
    72         20
    73        999
    74         90
    75         70
   103         30
   117         10
   129         20
   131         10
   133         30
   143         30
   147        250
   148         40
   149         30
   189         40
   190         10
   191         20
   204         30
   217         50
   219         40
   220         10
   221         30
   277         50
   278         20
   291         20
   292        160
   293         50
   294         20
   305         70
   306         20
   307         10
   333        440
   334        130
   335         70
   336         20
   367          1
   373         19
   374          7
   375          4
   379          6
   380          2
   381          1
   393         14
   394          6
   395          4
   396          1
   407          2
   408          1
   419         10
   420          4
   421          4
   422          3
   423         40
   424         16
   425          8
   426          3
   435         17
   436          7
   437          4
   438          1
   447          8
   448          4
   449          2
   463          1
   493          3
   494          1
   495          1
   509          7
   510          3
   511          2
   537          4
   538          2
   539          2
   627         17
   628          9
   629          6
   630          2
   631          1