##TITLE=Library Entry 43811
##JCAMP-DX=Revision 4.10 
##DATA TYPE=MASS SPECTRUM
##SAMPLE DESCRIPTION=Exported from NIST MS Search
##NAMES=HP
##CAS NAME=Arabinaric acid, 2,3,4-tris-O-(trimethylsilyl)-, bis(trimethylsil
yl) ester
##MOLFORM=C20H48O7Si5
##CAS REGISTRY NO=38165-95-6
##MP= -300
##BP= -300
##MW= 540
##$RETENTION INDEX=1862
##$CONDENSED SPECTRUM=NO
##NPOINTS= 79
##XYDATA=(XY..XY) 1 
    44          6
    45         52
    59         26
    72         22
    73        999
    74         91
    75         65
   102          9
   103          9
   116         19
   129          9
   131         19
   133         39
   143         19
   147        288
   148         49
   149         29
   189         98
   190         19
   191         19
   204         39
   205          9
   217         26
   219         26
   220         19
   221         39
   231          9
   277        124
   278         42
   279         19
   291          6
   292        380
   293        124
   294         59
   295          6
   305         20
   306          5
   307          3
   317          0
   319          4
   320          2
   321         81
   322         20
   323         10
   324          2
   333         59
   334         17
   335         10
   336          2
   361          8
   362          2
   363          2
   364          0
   365          1
   379          7
   380          2
   381          2
   391          0
   393          2
   394          0
   406          0
   407         59
   408         22
   409         12
   410          3
   411          0
   423          2
   435         10
   436          3
   437          3
   438          0
   467          3
   468          2
   469          1
   525         53
   526         26
   527         13
   528          4
   529          2