##TITLE=Library Entry 43432
##JCAMP-DX=Revision 4.10 
##DATA TYPE=MASS SPECTRUM
##SAMPLE DESCRIPTION=Exported from NIST MS Search
##NAMES=HP
##CAS NAME=2,3-Dihydroxy-2-methylpropanoic acid, 3TMS derivative
##MOLFORM=C13H32O4Si3
##CAS REGISTRY NO=38166-00-6
##MP= -300
##BP= -300
##MW= 336
##$RETENTION INDEX=1348
##$CONDENSED SPECTRUM=NO
##NPOINTS= 66
##XYDATA=(XY..XY) 1 
    28         26
    29         26
    31         14
    41         58
    43        176
    44         32
    45        120
    47         26
    55          8
    57         26
    58          8
    59         55
    61          8
    69          8
    72         32
    73        999
    74         94
    75        179
    76         14
   101         14
   103        117
   115         44
   116         35
   117         26
   129        223
   130         29
   131        147
   132         26
   133         91
   134          8
   135          8
   147        485
   148         76
   149         82
   163         44
   189         91
   190         26
   191         29
   203         88
   204         14
   205         29
   218         26
   219        523
   220        105
   221         55
   231         29
   233        176
   234         44
   235         26
   265          6
   277          3
   278          0
   279          0
   293         19
   294          6
   295          3
   306         48
   307         14
   308          7
   309          2
   320          0
   321         42
   322          9
   323          7
   324          2
   336          1