##TITLE=Library Entry 42738
##JCAMP-DX=Revision 4.10 
##DATA TYPE=MASS SPECTRUM
##SAMPLE DESCRIPTION=James Shoemaker, St. Louis Online Library of Metabolic
 Mass Spectra
##NAMES=HP
##CAS NAME=Tartaric acid (R*,S*)-, 4TMS derivative
##MOLFORM=C16H38O6Si4
##CAS REGISTRY NO=38165-94-5
##MP= -300
##BP= -300
##MW= 438
##$RETENTION INDEX=1664
##$CONDENSED SPECTRUM=NO
##NPOINTS= 87
##XYDATA=(XY..XY) 1 
    43         23
    44         32
    45        132
    46         10
    47         12
    55         11
    57         11
    58         10
    59         32
    61         11
    69         11
    72         32
    73        999
    74        143
    75        125
    76         11
    77         22
    93         23
    95         11
    99         11
   101         11
   102         43
   103         23
   115         11
   117         23
   119         11
   130         23
   131         43
   132         11
   133         72
   134         11
   135         11
   143         83
   144         11
   145         11
   147        703
   148        104
   149         62
   150         11
   161         11
   163         11
   171         23
   173         11
   175         43
   176         11
   177         11
   189        152
   190         31
   191         32
   192         11
   204         23
   205         11
   207         11
   217         51
   218         11
   219        310
   220         63
   221         91
   222         23
   223         11
   231         11
   263         32
   264         11
   277         63
   278         23
   279         23
   280         11
   291         11
   292        512
   293        151
   294         84
   295         23
   305        123
   306         31
   307         23
   321         31
   322         11
   333         63
   334         11
   335         11
   351         23
   352         11
   367         11
   423        151
   424         64
   425         31
   426         11