##TITLE=Library Entry 42704
##JCAMP-DX=Revision 4.10 
##DATA TYPE=MASS SPECTRUM
##SAMPLE DESCRIPTION=NIST Mass Spectrometry Data Center
##NAMES=HP
##CAS NAME=Malic acid, 3TMS derivative
##MOLFORM=C13H30O5Si3
##CAS REGISTRY NO=38166-11-9
##MP= -300
##BP= -300
##MW= 350
##$RETENTION INDEX=0
##$CONDENSED SPECTRUM=NO
##NPOINTS= 172
##XYDATA=(XY..XY) 1 
    15          2
    27          5
    28          3
    29          7
    30          1
    31          3
    39          1
    41          3
    42          4
    43         39
    44         29
    45        154
    46         11
    47         29
    48          1
    49          1
    52          2
    53          6
    55        115
    56          6
    57         10
    58         21
    59         77
    60         10
    61         20
    62          1
    63          1
    66          7
    67          2
    68          2
    69          3
    70          7
    71         14
    73        999
    74        148
    75        192
    76         13
    77          6
    82          1
    83          3
    84          2
    85          8
    86          2
    87          6
    88          2
    89          4
    91          1
    97          1
    98          1
    99         11
   101        118
   102         14
   103         16
   104          2
   105          6
   106          1
   107          1
   111          1
   113          3
   115         17
   116         16
   117         72
   118          9
   119         17
   120          2
   121          1
   127          2
   129         23
   131         70
   133        239
   134         35
   135         26
   136          3
   137          1
   141          1
   143         36
   144          5
   145          9
   147        863
   148        184
   149        128
   150         15
   151         14
   152          2
   153          1
   155          1
   156          1
   157          4
   158          1
   159          5
   160          1
   161          4
   162          2
   163          4
   164          1
   165          1
   171         59
   172          8
   173         10
   175        143
   176         25
   177         45
   178          7
   179          3
   185          3
   186          1
   187          1
   189        204
   190        184
   191        142
   192         33
   193         11
   194          1
   201          2
   203         24
   204         13
   205         12
   206          3
   207          9
   208          2
   209          1
   215          2
   217         88
   218         19
   219         13
   221         37
   222          9
   223          5
   224          1
   229          1
   231          4
   233        507
   234        113
   235         51
   236          7
   237          2
   245        276
   246         60
   247         42
   248          7
   249          2
   259          3
   260          6
   261          2
   263         38
   264         11
   265         71
   266         18
   267          9
   268          2
   291          4
   292          1
   293          3
   294          1
   305         26
   306         50
   307         70
   308         23
   309         10
   310          2
   319         33
   320          9
   321          5
   322          1
   335        138
   336         41
   337         22
   338          4
   339          1
   350          5
   351          2
   352          1