##TITLE=Library Entry 42497
##JCAMP-DX=Revision 4.10 
##DATA TYPE=MASS SPECTRUM
##SAMPLE DESCRIPTION=O A MAMER, MCGILL UNIVERSITY, MONTRE
##NAMES=HP
##CAS NAME=Tartronic acid, 3TMS derivative
##MOLFORM=C12H28O5Si3
##CAS REGISTRY NO=38165-93-4
##MP= -300
##BP= -300
##MW= 336
##$RETENTION INDEX=1407
##$CONDENSED SPECTRUM=NO
##NPOINTS= 64
##XYDATA=(XY..XY) 1 
    28         15
    29         18
    42          5
    43         48
    45        198
    47         23
    55         11
    56          3
    57         12
    58         19
    59         43
    60          6
    61         11
    66          6
    69          9
    70          5
    71          7
    72         24
    73        999
    74         88
    75         71
    76          6
    77          4
    99          6
   101          5
   102        156
   103         20
   104          8
   105          5
   115          9
   116          3
   117         10
   119         10
   130         22
   131         30
   132          7
   133        105
   134         16
   135         11
   147        288
   148         49
   149         28
   150          4
   161          9
   163          4
   177         14
   190          4
   191          5
   204          5
   205          7
   207          5
   219          5
   221         34
   222          9
   223          7
   233          5
   265          5
   292         79
   293         63
   294         20
   295          8
   321         29
   322          8
   323          5