##TITLE=Library Entry 53537
##JCAMP-DX=Revision 4.10 
##DATA TYPE=MASS SPECTRUM
##SAMPLE DESCRIPTION=A. Brossi, LC, NIDDK, NIH, Bethesda, MD 20892
##NAMES=HP
##CAS NAME=Pyrrolidin-2-one, 5-pentyl-
##MOLFORM=C9H17NO
##CAS REGISTRY NO=3817-18-3
##MP= -300
##BP= -300
##MW= 155
##$RETENTION INDEX=0
##$CONDENSED SPECTRUM=NO
##NPOINTS= 91
##XYDATA=(XY..XY) 1 
    41        128
    42         34
    43         43
    44         36
    45          3
    47          1
    48          1
    49          4
    50          1
    51          4
    52          3
    53         11
    54         19
    55         50
    56         58
    57         11
    58          2
    59          3
    60          3
    61          0
    63          1
    64          0
    65          2
    66          3
    67          8
    68          5
    69         15
    70          6
    71          6
    72          5
    73          4
    74          1
    77          2
    78          1
    79          2
    80          3
    81          4
    82         12
    83         16
    84        999
    85         50
    86          6
    87          0
    88          1
    91          1
    93          1
    94          2
    95          2
    96          3
    97         17
    98         14
    99         15
   100         24
   101          2
   103          0
   105          1
   107          0
   108          1
   109          1
   110         19
   111          5
   112          2
   113          1
   114          1
   115          5
   116          1
   119          1
   121          0
   122          0
   123          1
   124          4
   125          1
   126          1
   127          2
   128          1
   129          0
   133          1
   136          0
   138          2
   139          0
   140          1
   141          1
   143          0
   149          0
   151          0
   152          2
   153          4
   154         26
   155         66
   156          9
   157          1