##TITLE=Library Entry 19726
##JCAMP-DX=Revision 4.10 
##DATA TYPE=MASS SPECTRUM
##SAMPLE DESCRIPTION=NIST Mass Spectrometry Data Center, 1998.
##NAMES=HP
##CAS NAME=1-Butanol, 4-(butylnitrosoamino)-
##MOLFORM=C8H18N2O2
##CAS REGISTRY NO=3817-11-6
##MP= -300
##BP= -300
##MW= 174
##$RETENTION INDEX=0
##$CONDENSED SPECTRUM=NO
##NPOINTS= 94
##XYDATA=(XY..XY) 1 
    15         12
    26         10
    27        152
    28         62
    29        286
    30        260
    31        281
    32          7
    37          2
    38          6
    39        145
    40         25
    41        619
    42        581
    43        778
    44        477
    45         55
    46          4
    47          9
    49          5
    50          4
    51          8
    52          6
    53         40
    54         47
    55        999
    56        242
    57        660
    58         94
    59         25
    60         16
    61          5
    65          2
    66          2
    67          9
    68         39
    69         24
    70        257
    71        395
    72        111
    73        110
    74         49
    75          3
    79          1
    80          7
    81          6
    82         33
    83         12
    84        699
    85         72
    86         85
    87         18
    88          3
    94          2
    95          1
    96          3
    97         15
    98         12
    99         55
   100        280
   101        104
   102         93
   103         36
   104          2
   108          2
   110          2
   111          2
   112          4
   113          3
   114          5
   115        115
   116         18
   117          3
   123          3
   124          2
   125          4
   126        174
   127         21
   128          5
   129         10
   130          2
   131          6
   132         13
   139          3
   142          3
   143         21
   144         26
   145          3
   155          1
   157        458
   158         44
   159          3
   174          3
   175          1