##TITLE=Library Entry 76899
##JCAMP-DX=Revision 4.10 
##DATA TYPE=MASS SPECTRUM
##SAMPLE DESCRIPTION=NIST Mass Spectrometry Data Center, 1994
##NAMES=HP
##CAS NAME=Spiro[furan-2(3H),1'(3'H)-isobenzofuran]-3,3'-dione, 4-phenyl-
##MOLFORM=C17H10O4
##CAS REGISTRY NO=38183-12-9
##MP= -300
##BP= -300
##MW= 278
##$RETENTION INDEX=0
##$CONDENSED SPECTRUM=NO
##NPOINTS= 74
##XYDATA=(XY..XY) 1 
    37          8
    38         18
    39         62
    40          8
    50        247
    51         61
    52         20
    53          9
    61         10
    62         45
    63        103
    64         25
    65          6
    73          5
    74         54
    75         83
    76        589
    77         75
    78          6
    82          3
    85          3
    86          9
    87         12
    88         15
    89        127
    90         66
    91          7
    92          4
    98          5
    99          3
   102        178
   104        999
   105        100
   106          7
   117         13
   118         27
   126          3
   129          6
   132        180
   133         39
   134          5
   139          6
   145         92
   146         15
   150          4
   151          6
   152          7
   163          8
   164          8
   165         54
   166         11
   176         13
   177          9
   178         11
   193         10
   194         29
   195          6
   205         19
   206         35
   207          7
   221         20
   222        102
   223         18
   233          5
   234          6
   249         76
   250        287
   251         56
   252          5
   262         14
   278        424
   279         79
   280          7
   281          0