##TITLE=Library Entry 56991
##JCAMP-DX=Revision 4.10 
##DATA TYPE=MASS SPECTRUM
##SAMPLE DESCRIPTION=Exported from NIST MS Search
##NAMES=HP
##CAS NAME=Cyclic(L-isoleucyl-L-leucyl-L-isoleucyl-L-leucyl-L-leucyl)
##MOLFORM=C30H55N5O5
##CAS REGISTRY NO=38184-76-8
##MP= -300
##BP= -300
##MW= 565
##$RETENTION INDEX=0
##$CONDENSED SPECTRUM=NO
##NPOINTS= 295
##XYDATA=(XY..XY) 1 
    26         16
    27         85
    28        195
    29        102
    30        273
    31          8
    36          8
    37          8
    38         16
    39         65
    40         20
    41        293
    42         73
    43        400
    44        240
    45         28
    46         16
    50         24
    51         16
    52         16
    53         36
    54         40
    55        346
    56         73
    57        175
    58         49
    59         16
    60         12
    61          8
    62          8
    63          8
    64          8
    65          8
    66          8
    67         73
    68         61
    69        750
    70        334
    71         73
    72        232
    73         36
    74         28
    75         24
    76         20
    77         36
    78         16
    79         32
    80         16
    81         61
    82         77
    83         97
    84        228
    85        236
    86        999
    87        293
    88         49
    91         24
    92          8
    93         32
    94         20
    95         32
    96         77
    97        146
    98         77
    99         32
   100         20
   101         28
   102         24
   104         12
   105         12
   106          8
   107         16
   108         20
   109         24
   110         12
   111         20
   112        114
   113         61
   114         36
   115         16
   121          8
   122         20
   123         12
   124         32
   125         24
   126         65
   127         36
   128         24
   129         24
   130         32
   131         36
   132         16
   133         16
   134         16
   135         16
   136         16
   137         16
   138         32
   139         16
   140        240
   141        179
   142         61
   143         16
   144         12
   145          8
   146          8
   147          8
   148         12
   149         28
   150          8
   151          8
   152         28
   153         28
   154        175
   155         89
   156         32
   157         69
   158         28
   162         65
   163         40
   164         32
   165         24
   166         28
   167         36
   168        269
   169         57
   170         81
   171         32
   180         28
   181         36
   182        200
   183        232
   184        114
   185         40
   194         12
   195         28
   196         36
   197         89
   198         28
   199        159
   200         28
   201         28
   202          4
   203         20
   208         24
   209         40
   210         77
   211        171
   212        106
   213         36
   221          8
   222          8
   223         20
   224         20
   225        204
   226         81
   227        183
   228         40
   237         12
   238         12
   239          8
   240          8
   251         12
   252         12
   253         49
   254         32
   255         49
   256         12
   257          8
   265         24
   266         16
   267         53
   268         36
   269         20
   270         20
   279         24
   280         24
   281        448
   282        195
   283         69
   284         28
   293         20
   294         20
   295        163
   296         65
   297         28
   298         16
   308         16
   309         32
   310        118
   311         61
   312         32
   313         24
   314         12
   321          8
   322         12
   323         32
   324        910
   325        240
   326         53
   327         16
   337          8
   338         69
   339         89
   340         57
   341         40
   342         20
   350         20
   351         16
   352         36
   353         40
   354         28
   355         24
   356          8
   357         20
   364          4
   365          8
   366        171
   367        130
   368        240
   369         32
   370         24
   379          8
   380         77
   381         65
   382         32
   383         61
   384         32
   385         16
   392         20
   393        510
   394        302
   395        106
   396         32
   407          8
   408        195
   409        106
   410         32
   411         20
   421          8
   422         24
   423        220
   424        102
   425         32
   426         12
   435         32
   436         49
   437        955
   438        448
   439        102
   440         28
   450         12
   451         36
   452        163
   453        118
   454         32
   455          8
   463         20
   464         49
   465         28
   466         16
   477         32
   478         77
   479        269
   480        171
   481         44
   482         20
   491         12
   492         12
   493         57
   494         28
   495         16
   507         28
   508        461
   509        155
   510         40
   511          8
   520          8
   521         57
   522         73
   523          4
   536         20
   537         28
   538          8
   548         12
   549         12
   550         89
   551         73
   552         36
   553         28
   564         28
   565        420
   566        175
   567         61
   568         12