##TITLE=Library Entry 47228
##JCAMP-DX=Revision 4.10 
##DATA TYPE=MASS SPECTRUM
##SAMPLE DESCRIPTION=A.A.Kutin, Moscow, Russia
##NAMES=HP
##CAS NAME=Thiazole-2((3H)-thione, 4-amino-3,5-diphenyl-
##MOLFORM=C15H12N2S2
##CAS REGISTRY NO=38187-11-0
##MP= -300
##BP= -300
##MW= 284
##$RETENTION INDEX=0
##$CONDENSED SPECTRUM=NO
##NPOINTS= 154
##XYDATA=(XY..XY) 1 
    33          3
    34         16
    37         19
    38         55
    39        202
    40        257
    41         45
    42         23
    43         44
    44         90
    45         85
    46          3
    47          1
    48          1
    50        150
    51        553
    52         77
    53         25
    54          7
    55         20
    56         10
    57         24
    58         10
    59          5
    60         15
    61         11
    62         45
    63        134
    64         98
    65         52
    66         14
    67          5
    68          2
    69         81
    70         41
    71         38
    72         10
    73         13
    74         31
    75         38
    76        133
    77        999
    78        175
    79         24
    80          2
    81          8
    82         17
    83         11
    84         10
    85         17
    86         10
    87         11
    88         24
    89        155
    90         87
    91         41
    92         16
    93         27
    94         10
    95          8
    96          9
    97          2
    98          0
    99          1
   100          0
   101          0
   102         15
   103         52
   104        437
   105        130
   106          8
   107          2
   108         16
   109         40
   110         10
   111          2
   112          3
   113          1
   114          5
   115         13
   116        105
   117        184
   118         31
   119        158
   121        770
   122        303
   123         59
   124         14
   125          2
   126          1
   128         12
   129          8
   130          1
   131         14
   132          0
   133          4
   135         74
   136        101
   137         25
   138          3
   139          2
   140          1
   142         33
   143          3
   146          5
   147          9
   148         66
   149        204
   150         21
   151         11
   152          6
   153          3
   160          1
   163          2
   164          6
   165         25
   166         21
   167        106
   168         53
   169         11
   170          1
   171          1
   174          7
   175          8
   178          2
   179          5
   180         66
   181         36
   182          2
   190          3
   191          0
   192          4
   193          0
   205          2
   206         12
   207         40
   208         15
   209          1
   219          0
   223          6
   224          2
   225          1
   240          0
   250          3
   251          8
   252          2
   256          1
   267          1
   268          0
   283         70
   284        419
   285         81
   286         41
   287          3