##TITLE=Library Entry 87282
##JCAMP-DX=Revision 4.10 
##DATA TYPE=MASS SPECTRUM
##SAMPLE DESCRIPTION=G. SPITELLER, LEHR. ORG. CHEM., UNIV. BAYREUTH, BAYREUT
H, GER.
##NAMES=HP
##CAS NAME=Methyl 7-(2-furoyl)heptanoate
##MOLFORM=C13H18O4
##CAS REGISTRY NO=38199-47-2
##MP= -300
##BP= -300
##MW= 238
##$RETENTION INDEX=1920
##$CONDENSED SPECTRUM=NO
##NPOINTS= 20
##XYDATA=(XY..XY) 1 
    39        180
    41        160
    43         50
    55        140
    59         70
    69         70
    74         30
    81         50
    95        770
   110        999
   111        170
   123        170
   139         30
   147         20
   161         30
   165         30
   178         20
   207         50
   220         20
   238         40