##TITLE=Library Entry 42735
##JCAMP-DX=Revision 4.10 
##DATA TYPE=MASS SPECTRUM
##SAMPLE DESCRIPTION=Chemical Concepts
##NAMES=HP
##CAS NAME=2,3,4-Trihydroxybutyric acid tetrakis(trimethylsilyl) deriv., (,
 (R*,R*)-)
##MOLFORM=C16H40O5Si4
##CAS REGISTRY NO=38191-88-7
##MP= -300
##BP= -300
##MW= 424
##$RETENTION INDEX=0
##$CONDENSED SPECTRUM=NO
##NPOINTS= 193
##XYDATA=(XY..XY) 1 
    26          1
    27          0
    29          2
    31          0
    36          1
    39          1
    41          4
    42          1
    43         11
    44         11
    45         63
    46          4
    47          6
    51          0
    52          0
    53          2
    54          2
    55         17
    56          1
    57          5
    58          6
    59         22
    60          3
    61          3
    62          1
    64          0
    65          0
    66          2
    67          2
    68          2
    69          1
    70          1
    71          3
    72         16
    73        999
    74         84
    75         79
    76          3
    77          3
    78          0
    79          1
    80          0
    81          0
    83          5
    84          1
    85          2
    86          0
    87          2
    88          3
    89          8
    90          0
    91          1
    93          0
    95          1
    96          0
    97          0
    98          1
    99          2
   100          2
   101          9
   102         27
   103         81
   104         10
   105          8
   106          3
   108          1
   110          0
   111          1
   112          0
   113          4
   114          1
   115          4
   116          3
   117         80
   118         10
   119          8
   120          1
   121          0
   122          1
   125          0
   127          1
   128          1
   129         26
   130         19
   131         18
   132          4
   133         35
   134          6
   135          4
   136          0
   137          0
   142          1
   143         14
   144          1
   145          3
   147        361
   148         53
   149         35
   150          4
   151          1
   152          0
   156          0
   157          3
   158          0
   159          1
   160          0
   161          3
   162          1
   163          3
   164          0
   165          0
   170          0
   173          1
   174          0
   175          4
   176          0
   177         25
   178          5
   184          0
   189         15
   190          4
   191          7
   192          1
   193          1
   195          0
   199          0
   200          0
   201          0
   202          0
   203          4
   204         15
   205        204
   206         49
   207         23
   208          4
   209          1
   210          0
   214          0
   215          0
   216          1
   217         63
   218         14
   219         10
   220        161
   221         42
   222         18
   223          3
   224          0
   239          0
   243          0
   244          0
   245         11
   246          2
   247          1
   248          1
   249          1
   250          0
   251          0
   265          1
   266          0
   267          1
   277          9
   278          2
   279          1
   285          0
   286          0
   287          0
   288          0
   289          1
   290          2
   291         21
   292        250
   293         98
   294         37
   295          8
   296          2
   297          0
   299          0
   305          3
   306          1
   308          0
   309          0
   313          0
   319         17
   320          5
   321          7
   322          1
   334          0
   379          7
   380          2
   409         21
   411          4
   412          1