##TITLE=Library Entry 67567
##JCAMP-DX=Revision 4.10 
##DATA TYPE=MASS SPECTRUM
##SAMPLE DESCRIPTION=Chuck Anderson, Aldrich Chemical Co.
##NAMES=HP
##CAS NAME=1-Fluoro-3-iodo-5-nitrobenzene
##MOLFORM=C6H3FINO2
##CAS REGISTRY NO=3819-88-3
##MP= -300
##BP= -300
##MW= 267
##$RETENTION INDEX=0
##$CONDENSED SPECTRUM=NO
##NPOINTS= 80
##XYDATA=(XY..XY) 1 
    18          1
    25          1
    26          2
    27          1
    28          5
    29          1
    30         93
    31         26
    32          1
    33          2
    36          5
    37         26
    38         23
    39          3
    44          3
    45          1
    46          9
    48          1
    49         11
    50        135
    51          8
    52          1
    55          2
    56         12
    57         17
    58          1
    60          4
    61         40
    62         37
    63         44
    64          4
    67          1
    68        144
    69          9
    70          1
    72          2
    73         29
    74        136
    75         69
    76          7
    79          1
    80          3
    81         27
    82         48
    83          6
    84          1
    86          1
    87          2
    88          1
    90          0
    91          1
    92         38
    93        108
    94        999
    95         60
    96          2
   106          1
   108          6
   109          1
   110        108
   111          7
   112          4
   127         42
   128          3
   133          5
   140          2
   152          3
   165          0
   176          3
   209         63
   210          2
   220          3
   221        363
   222         21
   237          9
   251          7
   266          4
   267        657
   268         43
   269          4