##TITLE=Library Entry 42620
##JCAMP-DX=Revision 4.10 
##DATA TYPE=MASS SPECTRUM
##SAMPLE DESCRIPTION=Chemical Concepts
##NAMES=HP
##CAS NAME=Glyceric acid, 3TMS derivative
##MOLFORM=C12H30O4Si3
##CAS REGISTRY NO=38191-87-6
##MP= -300
##BP= -300
##MW= 322
##$RETENTION INDEX=1344
##$CONDENSED SPECTRUM=NO
##NPOINTS= 140
##XYDATA=(XY..XY) 1 
    27          9
    29         12
    30          0
    31          7
    36          0
    39          1
    41          9
    42          3
    43         40
    44         26
    45        240
    46         10
    47         21
    48          0
    49          0
    51          0
    52          1
    53          1
    54          0
    55         23
    56          2
    57          8
    58         15
    59         68
    60          7
    61         12
    62          0
    63          0
    65          0
    66          5
    67          1
    68          1
    69          1
    70          3
    71          7
    72         20
    73        999
    74        113
    75        129
    76          5
    77          2
    80          0
    83          0
    85          3
    86          0
    87          3
    88          3
    89         16
    90          1
    91          0
    93          0
    95          0
    99          3
   100          0
   101         39
   102        151
   103        241
   104         18
   105          9
   106          1
   107          0
   113          1
   115          8
   116         18
   117        129
   118          9
   119         14
   120          1
   121          1
   128          0
   129          2
   130         31
   131         30
   132          5
   133        226
   134         21
   135         15
   136          1
   137          0
   142          1
   143          3
   144          0
   145          1
   146          1
   147        668
   148         66
   149         41
   150          4
   151          2
   157          0
   159          1
   161          1
   162          0
   163          4
   164          0
   173          2
   174          0
   175         25
   176          4
   177         10
   178          1
   179          0
   189        408
   190         55
   191         29
   192          4
   193          1
   203          0
   204          8
   205        126
   206         18
   207          9
   208          1
   209          0
   212          1
   217         18
   218          3
   219          8
   220          1
   221          9
   222          1
   223          1
   228          0
   232          1
   265          2
   266          0
   279          2
   280          0
   292        233
   293         42
   294         22
   295          3
   296          0
   307         40
   308         11
   309          5
   310          0
   322          4
   323          1
   324          0