##TITLE=Library Entry 50464
##JCAMP-DX=Revision 4.10 
##DATA TYPE=MASS SPECTRUM
##SAMPLE DESCRIPTION=G. SPITELLER, LEHR. ORG. CHEM., UNIV. BAYREUTH, BAYREUT
H, GER.
##NAMES=HP
##CAS NAME=Methyl 8-(2-furyl)octanoate
##MOLFORM=C13H20O3
##CAS REGISTRY NO=38199-50-7
##MP= -300
##BP= -300
##MW= 224
##$RETENTION INDEX=1624
##$CONDENSED SPECTRUM=NO
##NPOINTS= 13
##XYDATA=(XY..XY) 1 
    41        130
    43         40
    53        140
    55        100
    59         60
    69         60
    74         50
    81        999
    82        260
    94         90
    95        670
   193         60
   224        110