##TITLE=Library Entry 36091
##JCAMP-DX=Revision 4.10 
##DATA TYPE=MASS SPECTRUM
##SAMPLE DESCRIPTION=A.A.Kutin, Moscow, Russia
##NAMES=HP
##CAS NAME=Propane, 1,1,1,3,3,3-hexafluoro-2-trifluoromethyl-
##MOLFORM=C4HF9
##CAS REGISTRY NO=382-24-1
##MP= -300
##BP= -300
##MW= 220
##$RETENTION INDEX=0
##$CONDENSED SPECTRUM=NO
##NPOINTS= 23
##XYDATA=(XY..XY) 1 
    31         53
    50         29
    51         38
    63         28
    69        999
    70         21
    74          8
    75         11
    81          6
    82        116
    93         73
   100         10
   112         16
   113        538
   114         32
   131         20
   132        193
   133          7
   150          7
   181         33
   200         11
   201        410
   202         29