##TITLE=Library Entry 1497
##JCAMP-DX=Revision 4.10 
##DATA TYPE=MASS SPECTRUM
##SAMPLE DESCRIPTION=Chuck Anderson, Aldrich Chemical Co.
##NAMES=HP
##CAS NAME=2,2,3,4,4,4-Hexafluorobutanol-1
##MOLFORM=C4H4F6O
##CAS REGISTRY NO=382-31-0
##MP= -300
##BP= -300
##MW= 182
##$RETENTION INDEX=0
##$CONDENSED SPECTRUM=NO
##NPOINTS= 89
##XYDATA=(XY..XY) 1 
    14          2
    15          1
    17          0
    18          0
    19          0
    20          0
    25          0
    26          3
    27          9
    28          1
    29        117
    30         24
    31        999
    32         21
    33         83
    34          1
    37          2
    38          2
    39          1
    41          0
    42          7
    43          4
    44         15
    45         26
    46         10
    47          5
    48          0
    49         36
    50          8
    51        249
    52          3
    53          3
    55          2
    56          3
    57          7
    58          0
    60          4
    61        182
    62         16
    63         16
    64         14
    65         31
    66          0
    67          5
    69        180
    70          1
    71          1
    73          8
    74          2
    75         13
    76          1
    77         20
    78          1
    79          4
    80          9
    81         49
    82         59
    83          7
    91          3
    93         14
    94          0
    95         85
    96          2
    97          0
    98          0
    99          1
   100          2
   101          4
   103          0
   111          0
   113        103
   114         13
   115         10
   123         49
   124          2
   131          1
   132         92
   133         23
   134          0
   141          4
   143         10
   144          0
   145          1
   150          0
   151          3
   161          1
   162          1
   163          1
   183          1