##TITLE=Library Entry 20115
##JCAMP-DX=Revision 4.10 
##DATA TYPE=MASS SPECTRUM
##SAMPLE DESCRIPTION=Div. of Experiment Therapeutics WRAIR, WRAMC, Washingto
n DC 20307
##NAMES=HP
##CAS NAME=1,1-[1,10-Decanediylbis[oxy]]bis[4-nitrobenzene]
##MOLFORM=C22H28N2O6
##CAS REGISTRY NO=38201-80-8
##MP= -300
##BP= -300
##MW= 416
##$RETENTION INDEX=0
##$CONDENSED SPECTRUM=NO
##NPOINTS= 198
##XYDATA=(XY..XY) 1 
    41        603
    42         28
    43        528
    44         23
    45          5
    46          1
    47          1
    48          0
    49          7
    50         25
    51         19
    52         11
    53         54
    54         22
    55        999
    56         74
    57        179
    58          8
    59          2
    60          3
    61          5
    62          6
    63         40
    64         48
    65        103
    66         21
    67        142
    68         80
    69        636
    70         46
    71         70
    72          2
    73         10
    74          2
    75         56
    76         65
    77         23
    78         38
    79         27
    81        202
    82         59
    83        555
    84         39
    85         17
    86          7
    87          2
    88          1
    89          1
    90          2
    91         18
    92         47
    93         94
    94         36
    95        134
    96         48
    97        251
    98         19
    99          3
   100          1
   101          2
   102          1
   103          4
   104          1
   105          9
   106         46
   107         71
   108         27
   109        182
   110         34
   111         19
   113         78
   114          7
   115         12
   116          2
   117          1
   118          2
   119          7
   120          5
   122         93
   123        439
   124        164
   125         22
   126          2
   127          2
   128          4
   129          1
   131         11
   132          6
   133         35
   134          7
   135         11
   136          8
   137         17
   138         15
   139         97
   140        210
   141         41
   142          4
   143          1
   145          1
   146          2
   147          3
   148          5
   149          5
   150          3
   152         87
   153         14
   154          1
   155         18
   156          7
   157          4
   158          0
   159          1
   160          1
   161          2
   162          5
   163          3
   164          4
   165          7
   166          7
   167          3
   168          2
   173          1
   174          1
   175          1
   176          2
   177          1
   178          7
   179          2
   180          3
   181          1
   183          1
   185          1
   186          3
   187          3
   188          1
   190          1
   191          1
   192          1
   194          3
   195          1
   197          5
   198          3
   201          1
   202          0
   204          1
   206          1
   208          6
   209          1
   214          0
   216          1
   217          2
   218          2
   222          2
   224          2
   230         16
   231          3
   232         19
   233          3
   234          1
   239          1
   242          0
   243          3
   244          1
   246          1
   248          0
   249          1
   255          0
   256          2
   257          0
   258          1
   259          0
   260         73
   261         12
   262          2
   266          0
   274          1
   276          1
   277         10
   278         78
   279         13
   280          1
   292          3
   293          0
   298          0
   306          2
   386          3
   387          1
   398        113
   399         27
   400         11
   401          2
   412          3
   413          1
   416         90
   417         32
   418          6
   419          0