##TITLE=Library Entry 12290
##JCAMP-DX=Revision 4.10 
##DATA TYPE=MASS SPECTRUM
##SAMPLE DESCRIPTION=NIST Mass Spectrometry Data Center
##NAMES=HP
##CAS NAME=5-Acetyl-2,4-dimethylthiazole
##MOLFORM=C7H9NOS
##CAS REGISTRY NO=38205-60-6
##MP= -300
##BP= -300
##MW= 155
##$RETENTION INDEX=1215
##$CONDENSED SPECTRUM=NO
##NPOINTS= 79
##XYDATA=(XY..XY) 1 
    13          4
    14         29
    15        169
    25          3
    26         25
    27         67
    28          9
    32          5
    33          3
    34          1
    37         21
    38         42
    39         99
    40         33
    41         42
    42        145
    43        999
    44         40
    45        378
    46         15
    47         21
    48          1
    49          4
    50         15
    51         21
    52         15
    53         10
    54          3
    56         17
    57         19
    58         32
    59         35
    60          5
    61          7
    62          6
    63          8
    64          5
    65          4
    66         13
    67         15
    69        161
    70        105
    71        439
    72        174
    73         25
    75          1
    76          1
    80          1
    81          5
    82          6
    83          5
    84          7
    85         14
    86          8
    87          2
    92          1
    93          1
    94          2
    95          1
    96          5
    97          2
    98          1
    99          4
   110          1
   112        413
   113         32
   114         76
   115          5
   116          2
   126          5
   137          1
   140        699
   141         55
   142         33
   143          2
   155        519
   156         49
   157         26
   158          2