##TITLE=Library Entry 32678
##JCAMP-DX=Revision 4.10 
##DATA TYPE=MASS SPECTRUM
##SAMPLE DESCRIPTION=Chemical Concepts
##NAMES=HP
##CAS NAME=9-Oxabicyclo[6.1.0]non-3-ene
##MOLFORM=C8H12O
##CAS REGISTRY NO=38202-42-5
##MP= -300
##BP= -300
##MW= 124
##$RETENTION INDEX=0
##$CONDENSED SPECTRUM=NO
##NPOINTS= 88
##XYDATA=(XY..XY) 1 
    26         55
    27        551
    29        160
    30          4
    31         26
    34          1
    36          1
    37         13
    38         45
    39        610
    40        145
    41        612
    42        590
    43        111
    44        120
    45         10
    46          1
    47          0
    48          0
    49          2
    50         49
    51        110
    52         61
    53        308
    54        387
    55        265
    56         59
    57        264
    58         16
    59          5
    60          0
    61          4
    62         17
    63         40
    64          7
    65        169
    66        137
    67        999
    68        655
    69        147
    70        254
    71         16
    72          2
    73          1
    74          6
    75          3
    76          3
    77        226
    78        243
    79        631
    80        542
    81        399
    82        242
    83        145
    84         16
    85          1
    86          1
    87          1
    89          2
    90          1
    91        263
    92         26
    93        105
    94         17
    95        253
    96        110
    97         27
    98          2
    99          0
   101          0
   102          1
   103          5
   104          2
   105         30
   106         45
   107         10
   108          5
   109        197
   110         16
   111          4
   112          0
   119          0
   120          0
   121          1
   122          1
   123         22
   124          6
   125          1