##TITLE=Library Entry 31551
##JCAMP-DX=Revision 4.10 
##DATA TYPE=MASS SPECTRUM
##SAMPLE DESCRIPTION=Chemical Concepts
##NAMES=HP
##CAS NAME=5-Bromo-2-hydroxy-3-nitrobenzaldehyde
##MOLFORM=C7H4BrNO4
##CAS REGISTRY NO=38225-99-9
##MP= -300
##BP= -300
##MW= 245
##$RETENTION INDEX=0
##$CONDENSED SPECTRUM=NO
##NPOINTS= 90
##XYDATA=(XY..XY) 1 
    36         43
    37        224
    38        248
    39        404
    40        492
    41        403
    42        124
    43        230
    44        334
    45         47
    46         24
    48         22
    49         88
    50        213
    51        206
    52         97
    53        341
    54         51
    55        313
    56         98
    57        175
    60         53
    61        276
    62        606
    63        999
    64        290
    65         95
    66         47
    67         46
    68         23
    69        121
    70        126
    71         65
    73         66
    74        125
    75         93
    76        110
    77         89
    78         41
    79         96
    80         56
    81         59
    82         52
    83         64
    84         41
    85         14
    90         50
    91        299
    92        139
    93         45
    97         14
    98          6
   104          9
   105         14
   106          6
   107         13
   109         14
   111         11
   112         28
   117         46
   119        129
   120        140
   121         14
   131         11
   141        114
   142         12
   143        181
   144         19
   145         63
   149        187
   155         18
   157         11
   161         11
   167         35
   169        116
   170         83
   171        165
   172         74
   187          9
   197         94
   198         89
   199        132
   200         97
   201         14
   227        395
   228         39
   229        373
   230         25
   245        139
   247        127