##TITLE=Library Entry 943
##JCAMP-DX=Revision 4.10 
##DATA TYPE=MASS SPECTRUM
##SAMPLE DESCRIPTION=Chuck Anderson, Aldrich Chemical Co.
##NAMES=HP
##CAS NAME=(-)-cis-Myrtanylamine
##MOLFORM=C10H19N
##CAS REGISTRY NO=38235-68-6
##MP= -300
##BP= -300
##MW= 153
##$RETENTION INDEX=0
##$CONDENSED SPECTRUM=NO
##NPOINTS= 78
##XYDATA=(XY..XY) 1 
    15          1
    26          1
    27         33
    28         28
    29         26
    30        999
    31         18
    32          5
    38          1
    39         47
    40          8
    41        113
    42         12
    43         35
    44          5
    45          1
    50          2
    51          8
    52          4
    53         27
    54         33
    55         30
    56         35
    57          7
    58         13
    59          0
    63          1
    64          0
    65         11
    66          6
    67         84
    68         24
    69         63
    70         21
    71         60
    72          5
    73          3
    77         30
    78         13
    79         64
    80         24
    81         78
    82         54
    83         11
    84         30
    85          8
    86          0
    91         21
    92          5
    93         42
    94         12
    95         12
    96         11
    97          5
    98          3
    99          0
   103          0
   105          4
   106          1
   107         18
   108          8
   109          5
   110         47
   111          5
   112          0
   119          0
   121         21
   122          7
   123          9
   124         14
   125          2
   136          6
   137          0
   138         60
   139          5
   152          2
   153          2
   154          1