##TITLE=Library Entry 63412
##JCAMP-DX=Revision 4.10 
##DATA TYPE=MASS SPECTRUM
##SAMPLE DESCRIPTION=NIST Mass Spectrometry Data Center, 1994
##NAMES=HP
##CAS NAME=(+)-N-Benzyl-.alpha.-phenethylamine
##MOLFORM=C15H17N
##CAS REGISTRY NO=38235-77-7
##MP= -300
##BP= -300
##MW= 211
##$RETENTION INDEX=0
##$CONDENSED SPECTRUM=NO
##NPOINTS= 68
##XYDATA=(XY..XY) 1 
    15          8
    26          2
    27         41
    28         41
    30         14
    37          1
    38          9
    39         86
    40          8
    41         20
    42         42
    44          2
    50         42
    51        120
    52         26
    53         10
    54          3
    56          1
    62          8
    63         37
    64         11
    65        148
    66          8
    75          8
    76         15
    77        156
    78         53
    79         82
    80          4
    82          1
    83          1
    87          1
    89         34
    91        999
    92         81
    93          4
    98          6
   101          1
   102          6
   103         44
   104         61
   105        149
   106         55
   107          4
   115          2
   116          3
   117          5
   118         10
   119          2
   120         18
   130          3
   131          1
   132          5
   134         27
   135          2
   152          2
   165          5
   166          1
   167          4
   193          2
   194          8
   196        373
   197         59
   198          3
   208          9
   209          7
   210          4
   211          5