##TITLE=Library Entry 48437
##JCAMP-DX=Revision 4.10 
##DATA TYPE=MASS SPECTRUM
##SAMPLE DESCRIPTION=Chemical Concepts
##NAMES=HP
##CAS NAME=2-Methyl-6,8-bis(methylamino)-9H-naphtho[3,2,1-de]acridin-9-one
##MOLFORM=C23H19N3O
##CAS REGISTRY NO=38234-59-2
##MP= -300
##BP= -300
##MW= 353
##$RETENTION INDEX=0
##$CONDENSED SPECTRUM=NO
##NPOINTS= 228
##XYDATA=(XY..XY) 1 
    33         15
    35         43
    37        133
    39        228
    41         78
    42         57
    43         19
    44         12
    47         31
    48         24
    50        203
    51        171
    52        152
    53         11
    54         16
    55          9
    56          7
    57         10
    61          9
    62         15
    63         52
    65          9
    66          7
    68          5
    70          4
    71          4
    73         16
    74         53
    75         35
    76         83
    78        999
    80          8
    82         20
    83        127
    85         94
    87         39
    88         13
    89          7
    93         13
    94         23
    95          6
    98         11
    99         28
   100         47
   101         12
   102          6
   103          5
   104          9
   105         33
   106         49
   107         16
   109          7
   112        111
   113         72
   114         27
   115          7
   116          6
   117         17
   118         46
   119         63
   120         65
   121         37
   122          8
   123          9
   124         21
   125         44
   126        222
   130         11
   131         29
   133        341
   136          7
   137         21
   138         73
   139         83
   140         96
   142          9
   144         13
   146         72
   147        136
   148         67
   150         18
   152         65
   154        130
   155         27
   156          9
   158          6
   159         13
   160         64
   162         89
   163         40
   164         11
   165          9
   166         16
   167         87
   169         65
   170          5
   172          7
   173         17
   175         49
   176        129
   177        110
   185          9
   186         12
   187         23
   188         18
   189         13
   190          8
   197          6
   198         14
   199         28
   200         32
   201         29
   202         15
   203          7
   209          6
   210         13
   211         21
   212         40
   213         49
   214         41
   215         12
   221          6
   223         28
   224         43
   225         44
   226        118
   227         68
   228         25
   230          6
   235         17
   236         29
   237         50
   238         90
   239         62
   240         73
   241         28
   242         11
   245          5
   246          4
   247          8
   248         21
   249         28
   250        117
   252        161
   253        105
   254         85
   255         33
   256         11
   257          5
   258          5
   260         12
   262         41
   263         48
   264        146
   265        141
   266        144
   267        112
   268        118
   269         21
   270          6
   273          6
   274          9
   275         12
   276         20
   277         54
   278         69
   279         82
   280        103
   281         99
   282         38
   283         26
   284         20
   285          9
   288          7
   289         19
   290         21
   291         31
   292        105
   293         85
   294        120
   295        143
   296        201
   297         88
   298         31
   299          8
   301          7
   302          9
   303         16
   304         24
   305         81
   307        153
   308        104
   309         45
   310         29
   311         10
   315          4
   316          5
   317          9
   318         13
   319         29
   320         27
   321         53
   322         63
   323        207
   324         98
   325        181
   326         28
   327          6
   330          5
   331         10
   332         23
   334         69
   335         73
   336        100
   337         42
   338         20
   339          5
   343          5
   344          7
   345          8
   346         17
   348         47
   349         36
   350         71
   352        394
   353        468
   354         79
   355          9