##TITLE=Library Entry 37485
##JCAMP-DX=Revision 4.10 
##DATA TYPE=MASS SPECTRUM
##SAMPLE DESCRIPTION=O A MAMER, MCGILL UNIVERSITY, MONTREAL,
##NAMES=HP
##CAS NAME=N-Hydroxyphenmetrazine
##MOLFORM=C11H15NO2
##CAS REGISTRY NO=38234-04-7
##MP= -300
##BP= -300
##MW= 193
##$RETENTION INDEX=0
##$CONDENSED SPECTRUM=NO
##NPOINTS= 86
##XYDATA=(XY..XY) 1 
    15         58
    18          6
    26         16
    27         85
    28        150
    29         58
    30         24
    31          5
    38         10
    39         58
    40         11
    41        150
    42        288
    43         53
    44         33
    45         10
    46         19
    50         30
    51         94
    52         30
    53          8
    54         72
    55         22
    56        102
    57         11
    58          8
    59        525
    60         25
    61          5
    62          9
    63         26
    64         11
    65         25
    66          5
    68         30
    69         57
    70        999
    71        107
    72         48
    73         17
    74          7
    75          8
    76         15
    77        168
    78         39
    79         46
    80          4
    85          5
    86         21
    87        316
    88         20
    89         38
    90         29
    91         86
    92         15
    97          6
    98         27
    99          5
   102          8
   103         20
   104         37
   105        141
   106         29
   107         17
   115         29
   116          9
   117         48
   118         43
   119         15
   120          5
   130          6
   131          4
   133          5
   144          7
   146          4
   147          5
   149          7
   166          8
   175         19
   176        372
   177         46
   178          6
   182         11
   185          8
   188         12
   193         12