##TITLE=Library Entry 21532
##JCAMP-DX=Revision 4.10 
##DATA TYPE=MASS SPECTRUM
##SAMPLE DESCRIPTION=Chemical Concepts
##NAMES=HP
##CAS NAME=Bicyclo[2.2.2]octane-2,6-dione
##MOLFORM=C8H10O2
##CAS REGISTRY NO=38231-60-6
##MP= -300
##BP= -300
##MW= 138
##$RETENTION INDEX=0
##$CONDENSED SPECTRUM=NO
##NPOINTS= 99
##XYDATA=(XY..XY) 1 
    26         34
    27        214
    28         61
    29         64
    30          3
    31          4
    37         11
    38         40
    39        221
    40        111
    41        186
    42        127
    43         55
    44          8
    45          9
    46          4
    47          3
    48          3
    50         28
    51         40
    52         24
    53         96
    54        131
    55        999
    56         82
    57        117
    58          8
    59          9
    60         12
    61          6
    62          8
    63         13
    64          4
    65         29
    66         74
    67        190
    68        286
    69        101
    70         28
    71          8
    72          3
    73          6
    74          9
    75          2
    76          3
    77         17
    78         10
    79         25
    80          6
    81        203
    82        183
    83         29
    84         21
    85          5
    86          5
    87          4
    88          3
    89          3
    90          2
    91          9
    92         37
    93         10
    94        122
    95        198
    96        127
    97         24
    98          3
    99          2
   100          3
   101          6
   102         40
   103          4
   104          2
   105          4
   106          2
   107          4
   108         16
   109        137
   110        181
   111         16
   112          3
   113          2
   115          2
   116          2
   117          2
   118          2
   119          2
   120         17
   121          5
   122          2
   123          7
   124          2
   125          2
   136          2
   137          4
   138        507
   139         90
   140         11
   141          1