##TITLE=Library Entry 35565
##JCAMP-DX=Revision 4.10 
##DATA TYPE=MASS SPECTRUM
##SAMPLE DESCRIPTION=Exported from NIST MS Search
##NAMES=HP
##CAS NAME=4(1H)-Pyrimidinone, 6-ethoxy-2-methyl-
##MOLFORM=C7H10N2O2
##CAS REGISTRY NO=38249-34-2
##MP= -300
##BP= -300
##MW= 154
##$RETENTION INDEX=0
##$CONDENSED SPECTRUM=NO
##NPOINTS= 34
##XYDATA=(XY..XY) 1 
    26         55
    27        276
    28        185
    29        295
    30         72
    39         91
    40        174
    41        565
    42        417
    43        217
    44         74
    55         57
    56        206
    57        212
    58        114
    67         93
    68        289
    69        999
    70        110
    82         63
    85        974
    86         57
    98        910
    99         44
   109         48
   110        617
   111         85
   126        953
   127         63
   139        438
   140        138
   153         76
   154        689
   155         57