##TITLE=Library Entry 51707
##JCAMP-DX=Revision 4.10 
##DATA TYPE=MASS SPECTRUM
##SAMPLE DESCRIPTION=D. Rasala, Inst. Chem., Pedagogical Univ., Kielce, Pola
nd
##NAMES=HP
##CAS NAME=Pyridine, 4-(methylthio)-3-nitro-
##MOLFORM=C6H6N2O2S
##CAS REGISTRY NO=38240-32-3
##MP= -300
##BP= -300
##MW= 170
##$RETENTION INDEX=0
##$CONDENSED SPECTRUM=NO
##NPOINTS= 54
##XYDATA=(XY..XY) 1 
    50        420
    51        280
    52        160
    53        180
    57         50
    58         40
    63         90
    64        270
    65         80
    66         40
    68         60
    69        300
    70        340
    71         80
    72         50
    75         40
    76         60
    77         40
    78        230
    79        130
    80        190
    81        200
    82        999
    83        140
    84        100
    85        610
    86         50
    92         70
    93         40
    95         50
    96        130
    97        200
    98         50
   107         80
   109        120
   110         80
   111         60
   112         40
   122         50
   123        100
   124         40
   125        730
   126        400
   127        220
   128         60
   140         60
   141        140
   142         10
   153        140
   154         20
   155         50
   170        570
   171         46
   172         27