##TITLE=Library Entry 20943
##JCAMP-DX=Revision 4.10 
##DATA TYPE=MASS SPECTRUM
##SAMPLE DESCRIPTION=CH-H. FISCHER, HAHN-MEITNER-INST. KERNFORSCHUNG BERLIN,
 W.GE
##NAMES=HP
##CAS NAME=1,6-Dithiacyclododecane
##MOLFORM=C10H20S2
##CAS REGISTRY NO=38241-91-7
##MP= -300
##BP= -300
##MW= 204
##$RETENTION INDEX=0
##$CONDENSED SPECTRUM=NO
##NPOINTS= 22
##XYDATA=(XY..XY) 1 
    53        150
    54        150
    55        999
    57        120
    59        150
    60        290
    61        370
    67        290
    69        110
    73        100
    81        220
    82        220
    83        100
    87        830
    88        290
    89        220
   101         90
   115        320
   116        340
   120        250
   171         60
   204        220