##TITLE=Library Entry 54336
##JCAMP-DX=Revision 4.10 
##DATA TYPE=MASS SPECTRUM
##SAMPLE DESCRIPTION=A.A.Kutin, Moscow, Russia
##NAMES=HP
##CAS NAME=Piperidine, 1,1'-(1,2-phenylenedicarbonyl)bis-
##MOLFORM=C18H24N2O2
##CAS REGISTRY NO=38256-33-6
##MP= -300
##BP= -300
##MW= 300
##$RETENTION INDEX=0
##$CONDENSED SPECTRUM=NO
##NPOINTS= 159
##XYDATA=(XY..XY) 1 
    33          0
    34          0
    36          0
    37          1
    39         87
    41        358
    42        170
    43         31
    44         20
    45          1
    46          0
    50         44
    51         56
    52         12
    53         25
    54         39
    55        122
    56        103
    57         20
    58          1
    59          0
    60          0
    61          0
    62          1
    63          6
    64          3
    65         12
    66          7
    67         17
    68         12
    69         40
    70         10
    71          1
    72          1
    74          8
    75         26
    76        136
    77        216
    78         23
    79          5
    80          5
    82         27
    84        999
    85         49
    86         12
    88          3
    89          8
    90         10
    91         15
    92          5
    93          6
    94          4
    95          0
    96          0
    97          0
    98          1
    99          0
   102         42
   103         22
   104        135
   105        291
   106         27
   107          3
   108          2
   109          0
   110          0
   111          0
   112          1
   113          0
   114          1
   115          5
   116          4
   117         11
   118          7
   119          3
   120          2
   121          1
   122          3
   123          0
   125          0
   127          1
   128          6
   130        171
   131         22
   132         31
   133        154
   134         18
   135          2
   136          0
   137          0
   139          0
   140          0
   141          0
   142          1
   143          2
   144          6
   145          7
   146         15
   147         11
   148         33
   149          5
   150          1
   152          0
   153          0
   154          0
   155          0
   156          1
   158         41
   159         59
   160        396
   161         46
   162          6
   163          0
   165          0
   166          0
   167          0
   168          1
   169          1
   170          6
   171          3
   172         17
   173          7
   174         40
   175         16
   176          2
   177          0
   182          0
   183          0
   184          2
   186         47
   188        331
   189         54
   190          5
   191          0
   196          0
   197          0
   198          1
   199          0
   200          6
   201          1
   202          4
   203          1
   204          0
   211          1
   214         61
   215        382
   216        345
   217        128
   218         17
   219          1
   220          0
   243          0
   295          1
   297          3
   299        110
   300        140
   301         28
   302          3
   303          0