##TITLE=Library Entry 15114
##JCAMP-DX=Revision 4.10 
##DATA TYPE=MASS SPECTRUM
##SAMPLE DESCRIPTION=Japan AIST/NIMC Database- Spectrum MS-IW-2202
##NAMES=HP
##CAS NAME=2-Methoxy-N-methylethylamine
##MOLFORM=C4H11NO
##CAS REGISTRY NO=38256-93-8
##MP= -300
##BP= -300
##MW= 89
##$RETENTION INDEX=0
##$CONDENSED SPECTRUM=NO
##NPOINTS= 30
##XYDATA=(XY..XY) 1 
    14          2
    15         31
    26          4
    27         18
    28         78
    29         38
    30         40
    31         19
    32          5
    33          2
    39          1
    40          4
    41         12
    42         57
    43         40
    44        999
    45         62
    46          1
    54          3
    55          4
    56         43
    57         13
    58         34
    59         36
    60          1
    72          2
    73          1
    88          5
    89         74
    90          4