##TITLE=Library Entry 34624
##JCAMP-DX=Revision 4.10 
##DATA TYPE=MASS SPECTRUM
##SAMPLE DESCRIPTION=Chemical Concepts
##NAMES=HP
##CAS NAME=2,6,11,15-Tetramethyl-hexadeca-2,6,8,10,14-pentaene
##MOLFORM=C20H32
##CAS REGISTRY NO=38259-79-9
##MP= -300
##BP= -300
##MW= 272
##$RETENTION INDEX=0
##$CONDENSED SPECTRUM=NO
##NPOINTS= 132
##XYDATA=(XY..XY) 1 
    26          1
    27         29
    28          3
    29         36
    30          2
    38          1
    39         44
    40          7
    41        511
    42         18
    43         56
    44          2
    50          2
    51          9
    52          4
    53         41
    54          5
    55         83
    56          6
    57         15
    58          1
    59          1
    63          3
    64          1
    65         18
    66          4
    67         44
    68          9
    69        999
    70         55
    71          8
    72          1
    75          0
    76          0
    77         54
    78         14
    79         56
    80         12
    81        154
    82         15
    83         26
    84          8
    85          3
    89          1
    90          0
    91         99
    92         23
    93        126
    94         16
    95         70
    96          7
    97         12
    98          1
   102          1
   103          9
   104          5
   105        133
   106         18
   107         80
   108         11
   109        141
   110         15
   111          5
   115         12
   116          5
   117         18
   118          5
   119        136
   120         17
   121        103
   122         16
   123         39
   124          5
   125          1
   127          2
   128          7
   129          8
   130          3
   131         13
   132          4
   133         65
   134         21
   135         49
   136          7
   137          3
   141          7
   142          4
   143          4
   144          2
   145         14
   146          4
   147        106
   148         16
   149          4
   150          1
   151          1
   152          1
   153          1
   154          1
   155          2
   156          1
   157          2
   158          0
   159         10
   160         11
   161         44
   162          6
   163          2
   169          4
   173          2
   174          1
   175          4
   176          1
   177          0
   178          6
   179          1
   180          1
   187          2
   188          1
   189          1
   190          0
   201          2
   202          0
   203        190
   204         32
   205          2
   216          1
   229          2
   230          0
   272         63
   273         14
   274          1