##TITLE=Library Entry 35795
##JCAMP-DX=Revision 4.10 
##DATA TYPE=MASS SPECTRUM
##SAMPLE DESCRIPTION=B.M.JOHNSON UNIV. OF WISCONSIN, MADISON, WISCONSIN, USA
##NAMES=HP
##CAS NAME=1,3-Dioxolane, 4-ethyl-5-octyl-2,2-bis(trifluoromethyl)-, trans-
##MOLFORM=C15H24F6O2
##CAS REGISTRY NO=38274-73-6
##MP= -300
##BP= -300
##MW= 350
##$RETENTION INDEX=0
##$CONDENSED SPECTRUM=NO
##NPOINTS= 131
##XYDATA=(XY..XY) 1 
    39         26
    40         19
    41        163
    42         80
    43        175
    44          9
    45          1
    47          1
    50          1
    51          3
    52          4
    53         36
    54         70
    55        440
    56        196
    57        479
    58         38
    59        246
    60         10
    61         12
    64          0
    65         11
    66         16
    67        173
    68        129
    69        999
    70        215
    71        234
    72         28
    73          7
    75          1
    76          0
    77          9
    78          4
    79         25
    80         17
    81        210
    82        139
    83        651
    84         74
    85        155
    86         11
    87          2
    89          3
    91          6
    92          1
    93         10
    94         11
    95        189
    96        129
    97        669
    98        107
    99         31
   100          2
   103          0
   107          3
   109         61
   110        126
   111        447
   112         41
   113          9
   114          0
   115          0
   117          0
   119          0
   121          0
   122          0
   123         24
   124         25
   125        122
   126         18
   127          5
   128          1
   135          0
   137         98
   138         13
   139         23
   140          1
   141          5
   143         75
   144          6
   147          7
   148          1
   151          0
   153         10
   155          4
   158          1
   165          2
   166         19
   167         67
   168          7
   169          5
   181          2
   188         27
   189          1
   193          1
   194          0
   195          0
   196          0
   207          9
   208        115
   209         13
   210          0
   211          0
   221          2
   222          4
   223         14
   224         15
   225         51
   226          2
   235          0
   236          4
   237         26
   238         14
   239          1
   249          2
   250          7
   252          0
   253          1
   263          1
   265          1
   272          4
   279          1
   280         14
   281        288
   282         44
   283          4
   293          0
   321         16
   322          1
   350          0