##TITLE=Library Entry 52658
##JCAMP-DX=Revision 4.10 
##DATA TYPE=MASS SPECTRUM
##SAMPLE DESCRIPTION=B.M.JOHNSON UNIV. OF WISCONSIN, MADISON, WISCONSIN, USA
##NAMES=HP
##CAS NAME=1,3-Dioxolane, 4-pentyl-5-propyl-2,2-bis(trifluoromethyl)-, cis-
##MOLFORM=C13H20F6O2
##CAS REGISTRY NO=38274-68-9
##MP= -300
##BP= -300
##MW= 322
##$RETENTION INDEX=0
##$CONDENSED SPECTRUM=NO
##NPOINTS= 128
##XYDATA=(XY..XY) 1 
    39         19
    40         10
    41        103
    42         27
    43        110
    44         10
    45          3
    47          2
    50          1
    51          3
    52          3
    53         27
    54         38
    55        475
    56        163
    57        237
    58         17
    59         14
    60          0
    61          2
    65          8
    66          7
    67        127
    68         56
    69        515
    70         40
    71        100
    72         14
    73        121
    74          6
    75          4
    77          6
    78          2
    79         12
    80          7
    81         66
    82         88
    83        999
    84         69
    85         30
    86          3
    87          9
    89          3
    91          3
    93          7
    95        105
    96         29
    97        373
    98         29
    99         19
   100          5
   101         79
   102          5
   103          1
   105          2
   109          9
   110          1
   111          2
   112          1
   113          8
   114          0
   115          1
   117          0
   119          1
   123          1
   125          6
   127          2
   128          1
   131          0
   132          1
   133          0
   135          2
   137          6
   138          7
   139        161
   140         15
   141          2
   147          4
   148          1
   151          1
   152         21
   153         41
   154          3
   155          1
   158          0
   159          0
   163          1
   165          0
   167          3
   181         17
   182          1
   194         13
   195          5
   202         16
   203          1
   205          0
   206          9
   207         77
   208          9
   209         31
   210          2
   211          0
   216          0
   219          1
   221          6
   222         35
   223         15
   224          5
   225          0
   230         11
   231          0
   233          0
   235          0
   236          0
   237          5
   238          2
   239          8
   250          5
   251         24
   252          5
   253        216
   254         28
   255          2
   265          1
   278          0
   279          6
   280          0
   321          0