##TITLE=Library Entry 35794
##JCAMP-DX=Revision 4.10 
##DATA TYPE=MASS SPECTRUM
##SAMPLE DESCRIPTION=B.M.JOHNSON UNIV. OF WISCONSIN, MADISON, WISCONSIN, USA
##NAMES=HP
##CAS NAME=1,3-Dioxolane, 4-ethyl-5-octyl-2,2-bis(trifluoromethyl)-, cis-
##MOLFORM=C15H24F6O2
##CAS REGISTRY NO=38274-72-5
##MP= -300
##BP= -300
##MW= 350
##$RETENTION INDEX=0
##$CONDENSED SPECTRUM=NO
##NPOINTS= 126
##XYDATA=(XY..XY) 1 
    39         27
    40         18
    41        179
    42         83
    43        258
    44         13
    45          2
    47          2
    50          1
    51          3
    52          3
    53         38
    54         74
    55        489
    56        200
    57        548
    58         41
    59        238
    60          9
    61         11
    65         11
    66         15
    67        180
    68        119
    69        999
    70        208
    71        306
    72         32
    73          8
    75          1
    77          8
    78          4
    79         24
    80         16
    81        218
    82        129
    83        665
    84         73
    85        178
    86         16
    87          3
    89          3
    91          6
    94         10
    95        210
    96        128
    97        772
    98        109
    99         37
   100          3
   103          0
   107          3
   109         63
   110        124
   111        556
   112         49
   113         14
   114          1
   115          0
   120          0
   121          0
   122          0
   123         24
   124         27
   125        158
   126         20
   127          7
   128          1
   135          0
   137        101
   138         15
   139         30
   140          1
   141          7
   143         58
   144          5
   147          8
   148          1
   151          1
   152          0
   153         13
   154          0
   155          5
   158          1
   165          2
   166         18
   167         73
   168          8
   169          5
   181          2
   188         23
   189          1
   193          0
   195          0
   207          8
   208        105
   209         16
   210          0
   211          0
   219          0
   221          2
   222          6
   223         16
   224         18
   225         57
   226          3
   235          0
   236          6
   237         61
   238         17
   239          2
   249          1
   250          8
   252          0
   253          1
   263          1
   265          3
   272          2
   279          3
   280         13
   281        272
   282         41
   283          3
   293          0
   321         17
   322          1