##TITLE=Library Entry 52293
##JCAMP-DX=Revision 4.10 
##DATA TYPE=MASS SPECTRUM
##SAMPLE DESCRIPTION=B.M.JOHNSON UNIV. OF WISCONSIN, MADISON, WISCONSIN, USA
##NAMES=HP
##CAS NAME=1,3-Dioxolane, 4-pentyl-5-propyl-2,2-bis(trifluoromethyl)-, trans
-
##MOLFORM=C13H20F6O2
##CAS REGISTRY NO=38274-69-0
##MP= -300
##BP= -300
##MW= 322
##$RETENTION INDEX=0
##$CONDENSED SPECTRUM=NO
##NPOINTS= 138
##XYDATA=(XY..XY) 1 
    39         26
    40         12
    41        144
    42         35
    43        143
    44         14
    45          4
    47          3
    50          1
    51          4
    52          3
    53         32
    54         44
    55        583
    56        228
    57        239
    58         15
    59         18
    60          1
    61          3
    63          0
    65          9
    66          8
    67        149
    68         61
    69        538
    70         40
    71        110
    72         16
    73        135
    74          9
    75          5
    77          7
    78          3
    79         12
    80          6
    81         73
    82        101
    83        999
    84         76
    85         25
    86          3
    87          4
    89          3
    91          3
    93          7
    95         95
    96         28
    97        395
    98         32
    99         24
   100          6
   101        135
   102          9
   103          2
   105          4
   107          0
   109         12
   110          3
   111          2
   112          1
   113         10
   114          0
   115          1
   117          1
   118          0
   119          1
   123          3
   125          9
   126          0
   127          2
   128          2
   131          2
   132          0
   133          1
   135          3
   137          8
   138          8
   139        225
   140         23
   141          2
   147          5
   148          2
   151          1
   152         12
   153         64
   154          5
   155          1
   158          0
   159          0
   161          1
   163          2
   165          0
   167          4
   181         29
   182          1
   187          0
   193          0
   194         21
   195          6
   202         34
   203          3
   204          0
   205          1
   206         10
   207        111
   208         12
   209         24
   210          2
   211          0
   216          0
   219          1
   220          0
   221          9
   222         63
   223         21
   224          7
   225          0
   230         25
   231          2
   235          1
   236          0
   237          4
   238          3
   239         12
   240          0
   250          8
   251         16
   252         15
   253        346
   254         44
   255          4
   263          0
   265          1
   278          0
   279         10
   280          1
   321          1