##TITLE=Library Entry 76880
##JCAMP-DX=Revision 4.10 
##DATA TYPE=MASS SPECTRUM
##SAMPLE DESCRIPTION=Chemical Concepts
##NAMES=HP
##CAS NAME=1H-Indene-1,3(2H)-dione, 2-hydroxy-2-methoxy-
##MOLFORM=C10H8O4
##CAS REGISTRY NO=38274-04-3
##MP= -300
##BP= -300
##MW= 192
##$RETENTION INDEX=0
##$CONDENSED SPECTRUM=NO
##NPOINTS= 88
##XYDATA=(XY..XY) 1 
    27         12
    29        150
    30         21
    31         50
    33          3
    34          1
    36          8
    37         76
    38         95
    39         40
    40          2
    43          7
    44          5
    45         18
    48          5
    49         35
    50        383
    51        107
    52         45
    53         18
    54          1
    56          1
    59          6
    60          6
    61         19
    62         22
    63          6
    64          3
    65         59
    66         27
    67          1
    72          2
    73         23
    74        121
    75         83
    76        719
    77        200
    78         14
    79          2
    82          2
    84          1
    85          8
    86          5
    87          5
    88          4
    89          3
    90          3
    91         31
    92         50
    93         50
    94          3
   101          1
   103          5
   104        999
   105        241
   106         22
   107          3
   108          1
   113          1
   118          5
   119          2
   120          2
   121         42
   122          3
   131          1
   132        354
   133         80
   134          9
   135         41
   136         67
   137          6
   140          1
   146          1
   147         25
   148          2
   149        154
   150         12
   151          2
   160        142
   161         23
   162          5
   163          3
   164         51
   165          6
   175         25
   176          2
   192         39
   193          5