##TITLE=Library Entry 80385
##JCAMP-DX=Revision 4.10 
##DATA TYPE=MASS SPECTRUM
##SAMPLE DESCRIPTION=Chuck Anderson, Aldrich Chemical Co.
##NAMES=HP
##CAS NAME=(+)-Dimethyl 2,3-O-benzylidene-D-tartrate
##MOLFORM=C13H14O6
##CAS REGISTRY NO=38270-70-1
##MP= -300
##BP= -300
##MW= 266
##$RETENTION INDEX=0
##$CONDENSED SPECTRUM=NO
##NPOINTS= 87
##XYDATA=(XY..XY) 1 
    14          4
    15        173
    16          3
    17          0
    26          6
    27         19
    28         16
    29         62
    30          8
    31         13
    32          3
    33          6
    36          1
    38          5
    39         24
    40          4
    41          8
    42         17
    43         10
    44          9
    45         45
    47          0
    50         18
    51         62
    52         15
    53          6
    54          1
    55          1
    57          3
    59        132
    60          3
    61          2
    62          5
    63         21
    64          9
    65         20
    66          0
    69         25
    70          2
    71         16
    73         51
    74          6
    75          7
    76          5
    77        180
    78         92
    79         31
    85         15
    86          0
    89         89
    90         51
    91        693
    92         51
    93          3
    94          2
   101         54
   102          6
   103          6
   104          0
   105        999
   106         78
   107         23
   113         81
   114          8
   115          1
   118         11
   119         20
   120          0
   121        223
   122        651
   123         41
   124          3
   129         16
   131          0
   145         66
   146          2
   147         12
   148          9
   161         12
   179          3
   189          7
   202          0
   207        170
   208         20
   209          1
   265         71
   266          9