##TITLE=Library Entry 35489
##JCAMP-DX=Revision 4.10 
##DATA TYPE=MASS SPECTRUM
##SAMPLE DESCRIPTION=B.M.JOHNSON UNIV. OF WISCONSIN, MADISON, WISCONSIN, USA
##NAMES=HP
##CAS NAME=1,3-Dioxolane, 4,5-dibutyl-2,2-bis(trifluoromethyl)-, trans-
##MOLFORM=C13H20F6O2
##CAS REGISTRY NO=38274-71-4
##MP= -300
##BP= -300
##MW= 322
##$RETENTION INDEX=0
##$CONDENSED SPECTRUM=NO
##NPOINTS= 133
##XYDATA=(XY..XY) 1 
    39         34
    40         14
    41        187
    42        102
    43        156
    44         16
    45         13
    46          0
    47          3
    50          1
    51          5
    52          4
    53         40
    54         42
    55        662
    56         73
    57        343
    58         25
    59         21
    60          0
    61          3
    63          0
    64          0
    65         11
    66          9
    67         89
    69        999
    70        138
    71         88
    72          9
    73          6
    75          1
    77          9
    78          3
    79         22
    80         10
    81        160
    82         58
    83        994
    84         65
    85         71
    86         24
    87        495
    88         28
    89          9
    91          4
    93          4
    95         38
    96         32
    97        477
    98         39
    99         32
   100          3
   101          3
   103          1
   107          0
   109          9
   110          4
   111          3
   112          1
   113          4
   115          0
   117          2
   118          3
   119          3
   123          2
   125         13
   126          0
   127          2
   128          2
   129          1
   131          1
   135          0
   137         11
   138         15
   139        314
   140         31
   141          3
   147          9
   148          3
   149          9
   150          0
   152          1
   153         26
   154          2
   155          3
   156          0
   158          1
   159          0
   165          2
   166         13
   167         87
   168          6
   169          0
   174          0
   181          6
   187          3
   193         13
   194         97
   195         32
   196          1
   203          1
   205          3
   206          7
   207        147
   208         47
   209         19
   210          2
   211          2
   216         88
   217          8
   219          1
   221         18
   222          8
   223         38
   224         11
   225          3
   233          0
   235          3
   236         50
   237          9
   238          3
   251          1
   252         18
   253        394
   254         51
   255          4
   264          3
   265         16
   266          2
   279          0
   280          1
   321          2