##TITLE=Library Entry 77912
##JCAMP-DX=Revision 4.10 
##DATA TYPE=MASS SPECTRUM
##SAMPLE DESCRIPTION=Exported from NIST MS Search
##NAMES=HP
##CAS NAME=Tricyclo[8.2.2.2(4,7)]hexadeca-4,6,10,12,13,15-hexaene, 2-bromo-
##MOLFORM=C16H15Br
##CAS REGISTRY NO=38274-86-1
##MP= -300
##BP= -300
##MW= 286
##$RETENTION INDEX=0
##$CONDENSED SPECTRUM=NO
##NPOINTS= 17
##XYDATA=(XY..XY) 1 
   104        999
   105        110
   106         20
   107         10
   181        110
   182         20
   183        120
   185         20
   186         20
   208         10
   209         30
   210         20
   286        700
   287        130
   288        640
   289        120
   290         20