##TITLE=Library Entry 52660
##JCAMP-DX=Revision 4.10 
##DATA TYPE=MASS SPECTRUM
##SAMPLE DESCRIPTION=B.M.JOHNSON UNIV. OF WISCONSIN, MADISON, WISCONSIN, USA
##NAMES=HP
##CAS NAME=1,3-Dioxolane, 4,5-dibutyl-2,2-bis(difluoromethyl)-, cis-
##MOLFORM=C13H20F6O2
##CAS REGISTRY NO=38274-70-3
##MP= -300
##BP= -300
##MW= 322
##$RETENTION INDEX=0
##$CONDENSED SPECTRUM=NO
##NPOINTS= 129
##XYDATA=(XY..XY) 1 
    39         19
    40         12
    41        109
    42         54
    43        103
    44          9
    45          6
    47          1
    50          0
    51          3
    52          3
    53         28
    54         35
    55        487
    56         62
    57        285
    58         24
    59         15
    61          2
    65          8
    66          7
    67         70
    69        851
    70        106
    71         82
    72          7
    73          3
    75          1
    77          7
    78          3
    79         22
    80          9
    81        190
    82         64
    83        999
    84         70
    85         54
    86         17
    87        304
    88         17
    89          7
    91          3
    93          3
    95         33
    96         33
    97        482
    98         40
    99         40
   100          7
   101          1
   103          0
   109          7
   110          3
   111          2
   112          1
   113          5
   114          1
   115          0
   117          1
   118          5
   119          5
   123          1
   125         11
   127          1
   128          1
   129          1
   131         12
   135          0
   137         11
   138         22
   139        262
   140         24
   141          3
   145          1
   147          7
   148          2
   149          7
   150          0
   151          0
   152          1
   153         23
   154          2
   155          6
   156          0
   158          1
   159          0
   165          1
   166          1
   167         68
   168          4
   169          1
   174          0
   181          5
   187          2
   193          8
   194         83
   195         25
   196          1
   205          3
   206          9
   207        122
   208         39
   209         32
   210          2
   211          3
   216         59
   217          5
   219         12
   221         16
   222          7
   223         50
   224         12
   225          2
   233          1
   235          1
   236         29
   237          7
   238          3
   251          1
   252         21
   253        333
   254         43
   255          3
   264          9
   265         22
   266          3
   279          0
   280          0
   321          0