##TITLE=Library Entry 69343
##JCAMP-DX=Revision 4.10 
##DATA TYPE=MASS SPECTRUM
##SAMPLE DESCRIPTION=Chemical Concepts
##NAMES=HP
##CAS NAME=9-Azabicyclo[4.2.1]nonane, 9-methyl-
##MOLFORM=C9H17N
##CAS REGISTRY NO=38278-18-1
##MP= -300
##BP= -300
##MW= 139
##$RETENTION INDEX=0
##$CONDENSED SPECTRUM=NO
##NPOINTS= 61
##XYDATA=(XY..XY) 1 
    27         21
    28         15
    29         17
    30          6
    39         47
    40          8
    41         80
    42        118
    43         14
    44         15
    45          4
    51          8
    52          5
    53         23
    54         23
    55         81
    56         29
    57         57
    58          6
    60         13
    65          9
    66          5
    67         38
    68         38
    69         29
    70         32
    71         10
    73         16
    75          4
    77         10
    79         18
    80         13
    81         47
    82        667
    83        396
    84         47
    85          8
    91          7
    92          4
    93          7
    94         36
    95         13
    96        999
    97        142
    98         26
   105          4
   107          5
   108         12
   109          7
   110        236
   111         81
   112          9
   123          5
   124         22
   125          5
   136          4
   137          4
   138         59
   139        446
   140         43
   141          6