##TITLE=Library Entry 49789
##JCAMP-DX=Revision 4.10 
##DATA TYPE=MASS SPECTRUM
##SAMPLE DESCRIPTION=FOOD RESEARCH REPORT 119 K.E. MURRAY & COLLEAGUES, DIV.
 OF FOOD RESEARCH, CSIRO, AUSTRALIA
##NAMES=HP
##CAS NAME=3-Nonen-2-ol, (E)-
##MOLFORM=C9H18O
##CAS REGISTRY NO=38285-42-6
##MP= -300
##BP= -300
##MW= 142
##$RETENTION INDEX=1582
##$CONDENSED SPECTRUM=NO
##NPOINTS= 63
##XYDATA=(XY..XY) 1 
    26         30
    27        450
    29        380
    30         10
    31         10
    37         10
    38         30
    39        480
    40        100
    41        950
    42        150
    43        500
    45         40
    50         40
    51         90
    52         60
    53        320
    54        810
    55        680
    56         80
    57        110
    58         40
    59         20
    62         10
    63         30
    64         10
    65        120
    66        120
    67        870
    68        930
    69        230
    70         60
    71        140
    72         20
    75         10
    77        120
    78         40
    79        270
    80         60
    81        999
    82        320
    83         60
    84         50
    85         20
    91         40
    93         30
    94         10
    95        350
    96         70
    97         90
    98         10
    99         10
   105         10
   109         30
   111         20
   122         10
   123         20
   124        530
   125        160
   126         20
   138         10
   140         10
   142          1