##TITLE=Library Entry 49071
##JCAMP-DX=Revision 4.10 
##DATA TYPE=MASS SPECTRUM
##SAMPLE DESCRIPTION=James Little,Eastman Chem.Co.,Kingsport,TN
##NAMES=HP
##CAS NAME=Dimethyl 1-methylvinylphosphonate
##MOLFORM=C5H11O3P
##CAS REGISTRY NO=38281-98-0
##MP= -300
##BP= -300
##MW= 150
##$RETENTION INDEX=0
##$CONDENSED SPECTRUM=NO
##NPOINTS= 41
##XYDATA=(XY..XY) 1 
    27         37
    29         88
    31        107
    39        501
    40        104
    41        341
    42         81
    47        294
    49         40
    54         26
    55         90
    56         64
    62         23
    63        103
    65         76
    68         78
    69         88
    72         27
    79        999
    80        457
    81         23
    93        777
    94         34
    95        325
    96        258
    97         23
   105         54
   109        323
   110        693
   111         70
   117         15
   119         76
   120        139
   123         46
   127         69
   135         99
   148         38
   149        591
   150        373
   151         81
   152          9