##TITLE=Library Entry 87784
##JCAMP-DX=Revision 4.10 
##DATA TYPE=MASS SPECTRUM
##SAMPLE DESCRIPTION=V.Zaikin,Inst.Petrochem.Synth.,RAS,Moscow
##NAMES=HP
##CAS NAME=2-Thiophenecarboxylic acid, 2-methylphenyl ester
##MOLFORM=C12H10O2S
##CAS REGISTRY NO=38281-68-4
##MP= -300
##BP= -300
##MW= 218
##$RETENTION INDEX=0
##$CONDENSED SPECTRUM=NO
##NPOINTS= 60
##XYDATA=(XY..XY) 1 
    26         12
    27         30
    29          4
    39        290
    40         14
    41         16
    42          4
    43          4
    50         34
    51         58
    52         49
    53         39
    55          9
    56          3
    57         36
    58          6
    62          7
    63         13
    64          4
    65         19
    66          6
    69          5
    74          4
    75          6
    76          3
    77         61
    78         28
    79         57
    80          5
    81         12
    82         17
    83         76
    84         10
    85          5
    89          3
    91         11
    92          2
    93          2
    94          7
    95          3
   105          4
   107         19
   108         11
   109          3
   110          9
   111        999
   112         93
   113         71
   114          4
   119          8
   128         13
   129          2
   133          2
   136          2
   146          2
   161          2
   204          3
   218         81
   219         12
   220          5