##TITLE=Library Entry 1576
##JCAMP-DX=Revision 4.10 
##DATA TYPE=MASS SPECTRUM
##SAMPLE DESCRIPTION=NIST Mass Spectrometry Data Center
##NAMES=HP
##CAS NAME=Valeric acid hydrazide
##MOLFORM=C5H12N2O
##CAS REGISTRY NO=38291-82-6
##MP= -300
##BP= -300
##MW= 116
##$RETENTION INDEX=0
##$CONDENSED SPECTRUM=NO
##NPOINTS= 42
##XYDATA=(XY..XY) 1 
    14          7
    15         25
    16         12
    17         13
    18         18
    26         41
    27        226
    28        124
    29        428
    30         65
    31        209
    32        999
    36          1
    37          7
    39        125
    41        357
    42         53
    43         39
    44         26
    49          2
    50          7
    51         10
    52          5
    53         13
    55         65
    57        335
    58         18
    59         13
    60          2
    67          1
    68          1
    69          1
    72          1
    74         51
    75          2
    83          1
    85         95
    86          6
    87          7
   101          1
   116         13
   117          2