##TITLE=Library Entry 604
##JCAMP-DX=Revision 4.10 
##DATA TYPE=MASS SPECTRUM
##SAMPLE DESCRIPTION=Exported from NIST MS Search
##NAMES=HP
##CAS NAME=Acetic acid, trifluoro-, ethyl ester
##MOLFORM=C4H5F3O2
##CAS REGISTRY NO=383-63-1
##MP= -300
##BP= -300
##MW= 142
##$RETENTION INDEX=474
##$CONDENSED SPECTRUM=NO
##NPOINTS= 59
##XYDATA=(XY..XY) 1 
    12          1
    13          2
    14          9
    15         24
    16          1
    17          1
    18          1
    19          1
    25          2
    26         31
    27        210
    28        157
    29        999
    30         28
    31         17
    32          1
    33         16
    39          1
    40          1
    41          2
    42          7
    43         24
    44          8
    45         15
    46          2
    47         14
    48          1
    50         31
    51         32
    52          1
    59         13
    69        520
    70          6
    71          1
    73         22
    74          1
    75          1
    77          2
    78         18
    79          1
    80          1
    95          5
    96          1
    97         30
    98          1
    99        157
   100          4
   101          1
   112          1
   113          1
   114         14
   115          1
   116          4
   124          3
   127         49
   128          2
   129          1
   142         17
   143          1