##TITLE=Library Entry 49860
##JCAMP-DX=Revision 4.10 
##DATA TYPE=MASS SPECTRUM
##SAMPLE DESCRIPTION=T. CLERC
##NAMES=HP
##CAS NAME=1.alpha.-(Acetoxymethyl)-7.alpha.,8.alpha.-dimethyl-7-(2-(3-furyl
)ethyl)bicyclo(4.4.0)dec-2-ene-2-carboxylic acid methyl ester
##MOLFORM=C23H32O5
##CAS REGISTRY NO=38302-05-5
##MP= -300
##BP= -300
##MW= 388
##$RETENTION INDEX=0
##$CONDENSED SPECTRUM=NO
##NPOINTS= 94
##XYDATA=(XY..XY) 1 
    30         43
    31        565
    39        295
    40         86
    41        695
    42        104
    43        869
    44         86
    45        304
    51         69
    52         52
    53        565
    54         86
    55        608
    56         86
    57        217
    58         52
    59        304
    65        200
    66         86
    67        417
    68        104
    69        452
    71         86
    77        304
    78         95
    79        417
    80         86
    81        999
    82        530
    83        217
    91        739
    92        130
    93        304
    94        173
    95        652
    96        391
    97         86
   103         86
   104         43
   105        478
   106         86
   107        217
   108         60
   109        165
   115         86
   116         43
   117        156
   118         69
   119        252
   120         86
   121        217
   123        130
   125         69
   128         43
   129         86
   131        191
   133        173
   135        130
   137         52
   139         86
   143         43
   145        173
   147        113
   149        478
   150        113
   151        260
   152         86
   159        104
   161        130
   163        304
   164         86
   165        278
   173        191
   189        147
   201        173
   219        347
   220         86
   221         86
   231         86
   233        304
   234        130
   255        139
   261        165
   283        478
   284        156
   293        382
   294         86
   314        173
   315        434
   316         86
   328         52
   356         86
   388         52