##TITLE=Library Entry 12199
##JCAMP-DX=Revision 4.10 
##DATA TYPE=MASS SPECTRUM
##SAMPLE DESCRIPTION=Chemical Concepts
##NAMES=HP
##CAS NAME=3,10-Dioxatricyclo[4.3.1.0(2,4)]decan-7-ol, acetate, (1.alpha.,2.
alpha.,4.alpha.,6.alpha.,7.beta.)-
##MOLFORM=C10H14O4
##CAS REGISTRY NO=38314-22-6
##MP= -300
##BP= -300
##MW= 198
##$RETENTION INDEX=0
##$CONDENSED SPECTRUM=NO
##NPOINTS= 79
##XYDATA=(XY..XY) 1 
    26          5
    27         74
    28         41
    29         89
    30          6
    31         17
    36          6
    38          4
    39         61
    40         12
    41         75
    42         26
    43        999
    44         75
    45         19
    50          3
    51          8
    52          4
    53         32
    54         23
    55        232
    56         17
    57         53
    58          7
    59          3
    60          7
    65         11
    66         25
    67         98
    68         75
    69         44
    70         22
    71         40
    72          7
    73          8
    77         10
    78          5
    79         41
    80          6
    81        100
    82         87
    83        230
    84         27
    85         27
    86         13
    87         20
    91         31
    92         21
    93         11
    94         37
    95         62
    96         37
    97         33
    98          4
    99         81
   100         12
   107          6
   108          4
   109         54
   110         36
   111         27
   112         31
   113         33
   120         11
   121          5
   122          4
   123          3
   125          3
   127          4
   137         14
   138        354
   139         27
   155          5
   156         12
   157          1
   181          1
   197          0
   198          9
   199          0