##TITLE=Library Entry 83920
##JCAMP-DX=Revision 4.10 
##DATA TYPE=MASS SPECTRUM
##SAMPLE DESCRIPTION=Div. of Experiment Therapeutics WRAIR, WRAMC, Washingto
n DC 20307
##NAMES=HP
##CAS NAME=3-Bromo-2-oxo-N-[p-methylphenyl]cyclohexanecarboxamide
##MOLFORM=C14H16BrNO2
##CAS REGISTRY NO=38311-97-6
##MP= -300
##BP= -300
##MW= 309
##$RETENTION INDEX=0
##$CONDENSED SPECTRUM=NO
##NPOINTS= 112
##XYDATA=(XY..XY) 1 
    41         58
    42          7
    43          8
    44          0
    47          3
    48          1
    49         20
    50          5
    51         24
    52         15
    53         25
    54          4
    55         86
    56          3
    57          2
    62          3
    63         13
    64          5
    65         35
    66         12
    67         48
    68         16
    69         13
    70          2
    71          2
    76          1
    77         54
    78         19
    79         33
    80          8
    81          9
    82          2
    83          1
    84         10
    86          8
    88          1
    89          5
    90          1
    91         29
    92          7
    93          7
    94          3
    95         49
    96         14
    97         54
    98          6
    99          0
   104          8
   105          4
   106        184
   107        999
   108         75
   109          4
   111          0
   113          0
   115          3
   117          3
   118          2
   119          3
   120          2
   121          7
   123         14
   124         24
   125          2
   128          0
   130          2
   131          2
   132          7
   133         47
   134         13
   135          3
   142          1
   143          3
   144          1
   145          3
   146          4
   147          3
   149          1
   158          0
   160          3
   162          1
   172          2
   173          0
   174          4
   175          1
   176         17
   178         14
   184          5
   186          1
   188          2
   197          0
   198          1
   199         10
   201         10
   202         57
   203         22
   205         18
   210          1
   212          6
   213          4
   227          3
   228          1
   230          8
   231          4
   305          8
   306          0
   307         10
   308          1
   309         64
   310         15
   311         65
   312         14