##TITLE=Library Entry 89534
##JCAMP-DX=Revision 4.10 
##DATA TYPE=MASS SPECTRUM
##SAMPLE DESCRIPTION=R.B.KING DEPT. CHEM., UNIV. OF GEORGIA, ATHENS, GEORGIA
, USA
##NAMES=HP
##CAS NAME=Rhenium, pentacarbonyl[2,3,3-tetrafluoro-1-(trifluoromethyl)-1-pr
openyl]-, (OC-6-21)-
##MOLFORM=C9F7O5Re
##CAS REGISTRY NO=38317-69-0
##MP= -300
##BP= -300
##MW= 508
##$RETENTION INDEX=0
##$CONDENSED SPECTRUM=NO
##NPOINTS= 45
##XYDATA=(XY..XY) 1 
    69        613
    74        109
    75         97
    93        818
   100          6
   104         18
   112        999
   124         95
   132         43
   142        431
   162        431
   163         36
   181        190
   187         13
   199          6
   206         11
   211          6
   215          4
   218          6
   225         15
   230         15
   234         18
   237          6
   243          9
   244         31
   249         25
   256          9
   261         13
   262         38
   268         22
   271         27
   275          4
   280         29
   289        227
   299        136
   308        131
   327        100
   349         13
   368        156
   377          9
   396         79
   424         29
   452         25
   480         31
   508         84