##TITLE=Library Entry 66782
##JCAMP-DX=Revision 4.10 
##DATA TYPE=MASS SPECTRUM
##SAMPLE DESCRIPTION=Chemical Concepts
##NAMES=HP
##CAS NAME=2-Bromo-1-iodobicyclo[2.2.1]heptane
##MOLFORM=C7H10BrI
##CAS REGISTRY NO=38325-55-2
##MP= -300
##BP= -300
##MW= 300
##$RETENTION INDEX=0
##$CONDENSED SPECTRUM=NO
##NPOINTS= 179
##XYDATA=(XY..XY) 1 
    26         15
    27         98
    28          3
    29         14
    30          1
    36          1
    37         15
    38         50
    39        323
    40         64
    41        129
    42          9
    43          7
    44          3
    45          6
    46          3
    49          5
    50         58
    51        112
    52         60
    53        138
    54         27
    55         19
    56          2
    57          5
    58          1
    59          1
    60          2
    61         13
    62         32
    63         75
    64         27
    65        248
    66        249
    67        169
    68         12
    69          4
    70          1
    71          3
    73          3
    74          6
    75          9
    76          5
    77        472
    78         96
    79        409
    80         40
    81         12
    82          5
    83          3
    85          2
    86          3
    87          3
    89         19
    90          9
    91        413
    92         61
    93        999
    94        270
    95         25
    96          2
    97          2
    98          1
    99          1
   101          1
   102          1
   103          1
   104          1
   105          4
   106          3
   107          8
   108          3
   109          4
   110          1
   111          1
   115          2
   116          1
   117          4
   118          2
   119         13
   120          2
   121          9
   122          1
   123          1
   125          1
   127        172
   128         37
   129          4
   130          1
   131          3
   132          2
   133          4
   134          2
   135          2
   139          2
   140          1
   141          6
   143          4
   144          7
   145          9
   146          6
   147          6
   149          2
   152          2
   153          3
   154          3
   155         27
   156          1
   157          2
   158          1
   159          3
   160          1
   161          2
   162          3
   163          3
   164          2
   165          4
   166          1
   167         11
   168          1
   169          1
   170          1
   171          2
   172          1
   173         33
   174          4
   175         33
   176          3
   177          3
   178          1
   179          3
   180          1
   181          1
   185          1
   186          1
   187          2
   188          1
   189          2
   190          1
   191          3
   192         34
   193         87
   194          6
   205          1
   206         35
   207          6
   208         34
   209          7
   211          1
   219         10
   220          3
   221        708
   222         89
   223          5
   235          3
   236          0
   237          1
   238          0
   239          1
   240          1
   241          1
   245          1
   247          1
   253          1
   255          1
   265          1
   266          0
   267          1
   268          1
   269          1
   270          2
   272          2
   282          1
   298          2
   300        227
   301         30
   302        215
   303         28
   304          2