##TITLE=Library Entry 84688
##JCAMP-DX=Revision 4.10 
##DATA TYPE=MASS SPECTRUM
##SAMPLE DESCRIPTION=Exported from NIST MS Search
##NAMES=HP
##CAS NAME=2-Butynoic acid, 4-(1-pyrrolidinyl)-
##MOLFORM=C8H11NO2
##CAS REGISTRY NO=38346-98-4
##MP= -300
##BP= -300
##MW= 153
##$RETENTION INDEX=0
##$CONDENSED SPECTRUM=NO
##NPOINTS= 11
##XYDATA=(XY..XY) 1 
    44        569
    55         80
    66        100
    68        130
    70        140
    80        100
    81        200
   108        999
   109        410
   152         50
   153         30