##TITLE=Library Entry 42904
##JCAMP-DX=Revision 4.10 
##DATA TYPE=MASS SPECTRUM
##SAMPLE DESCRIPTION=Chemical Concepts
##NAMES=HP
##CAS NAME=Silane, bicyclo[4.2.0]oct-1,3,5-trien-7-yltrimethyl-
##MOLFORM=C11H16Si
##CAS REGISTRY NO=38341-54-7
##MP= -300
##BP= -300
##MW= 176
##$RETENTION INDEX=0
##$CONDENSED SPECTRUM=NO
##NPOINTS= 87
##XYDATA=(XY..XY) 1 
    27         11
    29         21
    31         22
    39         21
    41          2
    42          6
    43         99
    44         22
    45        135
    46          9
    47          4
    50         15
    51         32
    52          8
    53         36
    54          5
    55         16
    57         10
    58         13
    59         82
    60          7
    61          3
    62          3
    63         15
    65          7
    66          7
    67         15
    68          2
    69          7
    70          2
    71          3
    72         19
    73        999
    74         85
    75         43
    76         11
    77         39
    78          6
    79          9
    81          3
    83          6
    85          3
    89          4
    91         16
    92          2
    93         13
    95          3
   101          2
   102         21
   103         18
   104          3
   105         47
   106          6
   107         13
   115         38
   116          8
   117         15
   118          4
   119         22
   120          3
   121         15
   129          7
   130          7
   131         32
   132          7
   133         89
   134         13
   135         34
   136          5
   141          2
   142          2
   143         18
   144          4
   145        119
   146         19
   147         11
   148          6
   157          4
   158          3
   159         49
   160         15
   161        303
   162         47
   163         13
   176        176
   177         30
   178          9