##TITLE=Library Entry 68834
##JCAMP-DX=Revision 4.10 
##DATA TYPE=MASS SPECTRUM
##SAMPLE DESCRIPTION=Div. of Experiment Therapeutics WRAIR, WRAMC, Washingto
n DC 20307
##NAMES=HP
##CAS NAME=2(1H)-Pyrimidinone, 5-bromo-
##MOLFORM=C4H3BrN2O
##CAS REGISTRY NO=38353-06-9
##MP= -300
##BP= -300
##MW= 174
##$RETENTION INDEX=0
##$CONDENSED SPECTRUM=NO
##NPOINTS= 62
##XYDATA=(XY..XY) 1 
    41         14
    42          9
    43         10
    44         18
    47          3
    48          1
    49         16
    50         18
    51        122
    52        102
    53         14
    54          8
    55          3
    64          7
    65         13
    66         15
    67         99
    68        190
    69         10
    73          4
    74          4
    76          4
    77         12
    79         22
    81         25
    82          3
    84         13
    86          7
    87          8
    88          7
    91         30
    92          7
    93         38
    94         13
    95        999
    96         32
    97          2
   104        143
   106        104
   107          4
   108          1
   109          0
   117          5
   118         47
   119         39
   120         82
   121         30
   122         39
   130         12
   131          1
   132         11
   144          1
   146        181
   148        188
   149         11
   157          2
   159          2
   174        500
   175         81
   176        498
   177         62
   178          1