##TITLE=Library Entry 114538
##JCAMP-DX=Revision 4.10 
##DATA TYPE=MASS SPECTRUM
##SAMPLE DESCRIPTION=Exported from NIST MS Search
##NAMES=HP
##CAS NAME=1,2,4-Thiadiazole, 5-hydrazino-3-methyl-
##MOLFORM=C3H6N4S
##CAS REGISTRY NO=38362-20-8
##MP= -300
##BP= -300
##MW= 130
##$RETENTION INDEX=0
##$CONDENSED SPECTRUM=NO
##NPOINTS= 17
##XYDATA=(XY..XY) 1 
    40        130
    41        180
    42        789
    43        969
    46        210
    47        120
    59        110
    60        150
    72        120
    73        829
    74        310
    76         90
    89        330
   115        100
   130        999
   131         50
   132         50