##TITLE=Library Entry 23923
##JCAMP-DX=Revision 4.10 
##DATA TYPE=MASS SPECTRUM
##SAMPLE DESCRIPTION=Exported from NIST MS Search
##NAMES=HP
##CAS NAME=1,2,4-Thiadiazole, 3-methyl-5-(1-methylhydrazino)-
##MOLFORM=C4H8N4S
##CAS REGISTRY NO=38362-21-9
##MP= -300
##BP= -300
##MW= 144
##$RETENTION INDEX=0
##$CONDENSED SPECTRUM=NO
##NPOINTS= 19
##XYDATA=(XY..XY) 1 
    40        170
    41        250
    42        569
    43        150
    45        170
    46        260
    55         70
    56         70
    57        999
    60        100
    73        390
    74        270
    77        150
    78        120
   103        100
   115         50
   128         80
   129        100
   144        559