##TITLE=Library Entry 36021
##JCAMP-DX=Revision 4.10 
##DATA TYPE=MASS SPECTRUM
##SAMPLE DESCRIPTION=B.M.JOHNSON UNIV. OF WISCONSIN, MADISON, WISCONSIN, USA
##NAMES=HP
##CAS NAME=1,3-Dioxolane, 4-butyl-5-ethyl-2,2-bis(trifluoromethyl)-, cis-
##MOLFORM=C11H16F6O2
##CAS REGISTRY NO=38363-90-5
##MP= -300
##BP= -300
##MW= 294
##$RETENTION INDEX=0
##$CONDENSED SPECTRUM=NO
##NPOINTS= 91
##XYDATA=(XY..XY) 1 
    39         18
    40         10
    41         83
    42         48
    43         74
    44          4
    45          2
    47          1
    50          0
    51          2
    52          2
    53         19
    54         22
    55        244
    56         24
    57        106
    58         12
    59         80
    60          3
    61          9
    65          4
    66          4
    67         42
    68         61
    69        999
    70         73
    71         48
    72          5
    73          3
    75          1
    77          3
    78          1
    79          8
    81         67
    82         10
    83         12
    84          1
    85         14
    86          6
    87         95
    88          5
    89          5
    91          2
    93          0
    95          6
    97         12
    99         18
   100          1
   109          7
   110         12
   111        309
   112         27
   113          3
   118          0
   119          0
   125          5
   127          1
   128          1
   137          2
   138          9
   139         37
   140          1
   141          0
   147          3
   148          0
   149          1
   153          5
   155          0
   167         22
   168          1
   181          0
   188         13
   189          0
   194         14
   195          4
   205          0
   207         23
   208         48
   209          9
   216         10
   217          0
   222          2
   223          1
   224         13
   225        175
   226         18
   227          1
   236          3
   237         21
   238          2
   265          4