##TITLE=Library Entry 35064
##JCAMP-DX=Revision 4.10 
##DATA TYPE=MASS SPECTRUM
##SAMPLE DESCRIPTION=B.M.JOHNSON UNIV. OF WISCONSIN, MADISON, WISCONSIN, USA
##NAMES=HP
##CAS NAME=1,3-Dioxolane, 4-methyl-5-pentyl-2,2-bis(trifluoromethyl)-, trans
-
##MOLFORM=C11H16F6O2
##CAS REGISTRY NO=38363-89-2
##MP= -300
##BP= -300
##MW= 294
##$RETENTION INDEX=0
##$CONDENSED SPECTRUM=NO
##NPOINTS= 95
##XYDATA=(XY..XY) 1 
    39         17
    40          7
    41         71
    42         20
    43         80
    44          6
    45         38
    47         44
    48          0
    50          0
    51          2
    52          2
    53         22
    54         37
    55        346
    56        116
    57        117
    58         15
    59         12
    60          0
    61          2
    65          5
    66          5
    67         82
    68         93
    69        999
    70         61
    71         39
    72          5
    73         10
    75          3
    77          5
    78          2
    79          7
    80          3
    81         41
    82         52
    83        248
    84         23
    85          7
    87          1
    89          3
    91          0
    93          1
    95         28
    96          2
    97         14
    98          1
    99         16
   100          6
   101        108
   102          6
   107          1
   109         12
   110         20
   111        298
   112         26
   113          9
   119          0
   125         19
   126          0
   127          0
   128          3
   129          0
   137          1
   139         10
   141          6
   147          7
   148         98
   149          2
   152          4
   153         21
   154          1
   167          8
   174          4
   181          7
   191          0
   194         46
   195          6
   207          9
   208          2
   209          1
   211         11
   221          2
   222          5
   223         16
   224          5
   225        321
   226         34
   227          2
   230         10
   235          0
   237          3
   239          1
   279          0