##TITLE=Library Entry 27794
##JCAMP-DX=Revision 4.10 
##DATA TYPE=MASS SPECTRUM
##SAMPLE DESCRIPTION=AIR PRODUCTS & CHEMICALS, INC BOX 538, ALLENTOWN, PA 18
105, D M PAREES
##NAMES=HP
##CAS NAME=N-(N,N-Dimethylaminoethyl)aminoethanol
##MOLFORM=C6H16N2O
##CAS REGISTRY NO=38361-86-3
##MP= -300
##BP= -300
##MW= 132
##$RETENTION INDEX=0
##$CONDENSED SPECTRUM=NO
##NPOINTS= 26
##XYDATA=(XY..XY) 1 
    30        175
    31         92
    40         18
    41         57
    42        321
    43        137
    44        182
    45         62
    54         22
    55         25
    56        126
    58        999
    59         92
    70         33
    71         35
    72         31
    73         12
    74         42
    83         10
    85         11
    86         10
    88         93
    89          9
    99          7
   114         12
   129          4