##TITLE=Library Entry 35044
##JCAMP-DX=Revision 4.10 
##DATA TYPE=MASS SPECTRUM
##SAMPLE DESCRIPTION=B.M.JOHNSON UNIV. OF WISCONSIN, MADISON, WISCONSIN, USA
##NAMES=HP
##CAS NAME=1,3-Dioxolane, 4,5-dipropyl-2,2-bis(trifluoromethyl)-, trans-
##MOLFORM=C11H16F6O2
##CAS REGISTRY NO=38363-93-8
##MP= -300
##BP= -300
##MW= 294
##$RETENTION INDEX=0
##$CONDENSED SPECTRUM=NO
##NPOINTS= 97
##XYDATA=(XY..XY) 1 
    39         20
    40          9
    41         95
    42         17
    43         83
    44          6
    45          1
    47          2
    50          1
    51          4
    52          2
    53         23
    54         35
    55        428
    56        193
    57        100
    58          6
    59         21
    60          0
    61          3
    65          7
    66          6
    67         79
    68         39
    69        999
    70         62
    71         57
    72         22
    73        375
    74         17
    75         10
    77          5
    78          2
    79          6
    80          1
    81         20
    82         18
    83         19
    84          2
    85         14
    86          1
    87          6
    89          4
    91          1
    93          0
    95          4
    97         12
    99          8
   100          0
   103          0
   105          6
   109          6
   110         15
   111        390
   112         35
   113          3
   115          1
   119          0
   125          8
   127          0
   128          3
   133          1
   135          4
   137          1
   138          0
   139         37
   140          1
   141          0
   147          4
   148          2
   152          0
   153         85
   154          5
   167          2
   181         13
   182          0
   194         12
   195          0
   196         61
   202          5
   206         20
   207        141
   208         15
   209         22
   210          0
   221          2
   222         63
   223          7
   224         28
   225        241
   226         28
   227          1
   237          1
   239          0
   251         19
   252          1
   293          0