##TITLE=Library Entry 7131
##JCAMP-DX=Revision 4.10 
##DATA TYPE=MASS SPECTRUM
##SAMPLE DESCRIPTION=Vladimir Zaikin, TIPS RAS, Moscow, Russia
##NAMES=HP
##CAS NAME=8-Dodecen-1-ol, acetate, (E)-
##MOLFORM=C14H26O2
##CAS REGISTRY NO=38363-29-0
##MP= -300
##BP= -300
##MW= 226
##$RETENTION INDEX=1602
##$CONDENSED SPECTRUM=NO
##NPOINTS= 63
##XYDATA=(XY..XY) 1 
    30         27
    31         27
    32         36
    36         21
    37         37
    38         47
    39        385
    40         91
    41        669
    42        222
    43        999
    44         92
    45         82
    50         41
    51         57
    52         42
    53        123
    54        398
    55        694
    56        148
    57         65
    58         23
    60         49
    61         82
    62         13
    63         23
    65         47
    66         78
    67        595
    68        343
    69        216
    70         63
    71         28
    73         27
    77         43
    78         27
    79         83
    80         48
    81        442
    82        523
    83        123
    84         28
    85         18
    91         23
    93         29
    94         33
    95        257
    96        304
    97         68
    98         13
   108         19
   109        115
   110        123
   111         25
   118         53
   119         44
   120         11
   137         28
   138         24
   151         11
   152         15
   166         56
   167         13