##TITLE=Library Entry 91159
##JCAMP-DX=Revision 4.10 
##DATA TYPE=MASS SPECTRUM
##SAMPLE DESCRIPTION=V.A. KOPTYUG, VOL5, ATLAS OF MS OF ORGANIC COMPOUNDS
##NAMES=HP
##CAS NAME=5-Chloro-2-methoxypyrimidine
##MOLFORM=C5H5ClN2O
##CAS REGISTRY NO=38373-44-3
##MP= -300
##BP= -300
##MW= 144
##$RETENTION INDEX=0
##$CONDENSED SPECTRUM=NO
##NPOINTS= 78
##XYDATA=(XY..XY) 1 
    38         41
    39         59
    40         11
    41          3
    42         91
    43         21
    44          2
    45          2
    47          6
    48          8
    49         18
    50         78
    51         98
    52        155
    53         90
    54         79
    55          3
    56         10
    57          5
    58          7
    59          2
    60         98
    61         19
    62         38
    63          8
    64          5
    65         14
    66          7
    67         21
    68          8
    69          2
    71          7
    72          7
    73         43
    74        209
    75         17
    76         69
    77         31
    78          3
    79         67
    80          8
    81         25
    82        178
    83          9
    85          4
    86         55
    87        345
    88         34
    89        114
    90         24
    91          4
    92          6
    93          2
    94          3
    95          2
   100          4
   101          7
   102         86
   103          4
   104         26
   107          1
   108          2
   109         12
   110         13
   113         40
   114        999
   115         95
   116        345
   117         32
   129          9
   130          2
   131          3
   132          1
   143        259
   144        819
   145        143
   146        288
   147         18