##TITLE=Library Entry 77808
##JCAMP-DX=Revision 4.10 
##DATA TYPE=MASS SPECTRUM
##SAMPLE DESCRIPTION=Exported from NIST MS Search
##NAMES=HP
##CAS NAME=1,2,4-Thiadiazol-5(2H)-one, 3-phenyl-, hydrazone
##MOLFORM=C8H8N4S
##CAS REGISTRY NO=38379-75-8
##MP= -300
##BP= -300
##MW= 192
##$RETENTION INDEX=0
##$CONDENSED SPECTRUM=NO
##NPOINTS= 13
##XYDATA=(XY..XY) 1 
    50        100
    51        180
    60         60
    76        140
    77        350
    89         80
   103        330
   104        999
   105         90
   135        470
   192        779
   193        110
   194         30