##TITLE=Library Entry 47913
##JCAMP-DX=Revision 4.10 
##DATA TYPE=MASS SPECTRUM
##SAMPLE DESCRIPTION=Asinex Ltd, Moscow, Russia
##NAMES=HP
##CAS NAME=1,3,5-Triazine, 2-chloro-4,6-di(phenylthio)-
##MOLFORM=C15H10ClN3S2
##CAS REGISTRY NO=38375-19-8
##MP= -300
##BP= -300
##MW= 331
##$RETENTION INDEX=0
##$CONDENSED SPECTRUM=NO
##NPOINTS= 227
##XYDATA=(XY..XY) 1 
    33          1
    34          3
    35          3
    36          8
    37          5
    38         22
    39        160
    40         24
    41          4
    42          1
    43          3
    44          9
    45         57
    47          4
    50        106
    51        386
    52         22
    53          4
    54          1
    55          4
    57         21
    58         31
    59         15
    60          2
    61          5
    62         33
    63         52
    64         21
    65        377
    66         26
    67          3
    69        160
    70         16
    71         14
    72          1
    73          3
    74         31
    75         34
    77        999
    78         78
    79         77
    81         54
    82         49
    83         34
    84         30
    85         18
    87        272
    89         94
    90         20
    91         64
    93         12
    94          3
    95          4
    96          2
    97          1
    98          0
    99          0
   100          0
   102         25
   103         26
   104          8
   105          4
   106          3
   107         14
   108        164
   109        699
   110        114
   111         38
   112          8
   113          1
   114          0
   115          2
   116          1
   117          8
   118          1
   119          5
   120          1
   121         55
   122          5
   123          3
   124          0
   125          0
   126          0
   127          1
   128          1
   129          6
   130          0
   131          1
   132          0
   133          7
   134        115
   135        142
   136         34
   138        346
   139         29
   140        110
   141         11
   142          0
   143          1
   144          7
   145          1
   146          5
   147          1
   148          3
   149          1
   150          1
   151          3
   152          9
   153         80
   154         11
   155          8
   156          0
   158          0
   159          2
   160         35
   161        170
   162         19
   163         10
   164          1
   166         58
   167          6
   168          5
   169          5
   170          3
   171          4
   172          1
   173          0
   175          0
   176          0
   177          1
   178          3
   179          2
   180          4
   182         19
   183          3
   184         20
   185          7
   186         15
   187          2
   188          2
   189          0
   191          3
   192         15
   193         96
   194         14
   195         62
   196         83
   197         26
   198         31
   199          3
   200          1
   202          0
   205          0
   206          0
   209          1
   210          4
   211          4
   212        142
   213         21
   214          8
   215          1
   216          1
   218         57
   219          7
   220          6
   222        770
   223         91
   224        282
   225         32
   226         13
   227          2
   229          0
   231          0
   232          0
   234          0
   235          0
   237         29
   238          5
   239          1
   242          2
   249          0
   251          0
   252          1
   253          1
   254         10
   255          2
   256          4
   257          1
   258          0
   259          0
   264          0
   265          3
   266          0
   267          0
   269         56
   270         10
   271          5
   273         55
   274          9
   275         20
   276          2
   277          1
   283          0
   292          1
   293          0
   294          1
   296        962
   297        194
   298        107
   299         17
   300          4
   301          0
   302          0
   303          0
   323          0
   326          1
   327          2
   328          1
   330         69
   331        687
   332        157
   333        284
   334         53
   335         25
   336          4
   337          0
   338          0