##TITLE=Library Entry 76691
##JCAMP-DX=Revision 4.10 
##DATA TYPE=MASS SPECTRUM
##SAMPLE DESCRIPTION=NIST Mass Spectrometry Data Center, 2010
##NAMES=HP
##CAS NAME=2,2,2-Trifluoro-N-(2-phenylpropan-2-yl)acetamide
##MOLFORM=C11H12F3NO
##CAS REGISTRY NO=38374-84-4
##MP= -300
##BP= -300
##MW= 231
##$RETENTION INDEX=0
##$CONDENSED SPECTRUM=NO
##NPOINTS= 122
##XYDATA=(XY..XY) 1 
    15          2
    26          1
    27          7
    28          5
    29          2
    30          1
    31          1
    37          1
    38          4
    39         41
    40          6
    41         68
    42         58
    43         93
    44         20
    46          1
    47          1
    50         38
    51        104
    52         23
    53          7
    54          4
    55          2
    56          8
    58         12
    59         40
    61          3
    62          8
    63         27
    64          7
    65         39
    66          5
    67          1
    69        164
    70          2
    73          2
    74         15
    75         16
    76         26
    77        259
    78         82
    79         33
    80          3
    84          9
    85          1
    86          2
    87          3
    88          2
    89         21
    90         14
    91        265
    92         24
    93          7
    94         13
    95          2
    96          7
    97          6
    98          2
    99          1
   101          5
   102         39
   103        999
   104        183
   105         29
   106          4
   107          2
   108          1
   110         28
   111          1
   114         47
   115         73
   116         19
   117        115
   118        417
   119        237
   120         23
   121        118
   122         10
   123          1
   126          1
   127          8
   128          4
   129          1
   130          3
   131          1
   132          4
   133          3
   134          3
   135          1
   138         11
   139          1
   140          1
   142          1
   146         36
   147          7
   148          2
   149          1
   151          1
   152          3
   153          3
   154         65
   155          4
   160          2
   161          1
   162          4
   168          2
   172          4
   175          1
   178          1
   182          1
   192          1
   196          3
   198          3
   212          1
   213          1
   214          1
   216        741
   217         84
   218          6
   231         80
   232          9
   233          1