##TITLE=Library Entry 62932
##JCAMP-DX=Revision 4.10 
##DATA TYPE=MASS SPECTRUM
##SAMPLE DESCRIPTION=V.A.KOPTYUG, ATLAS OF MASS SPECTRA OF ORGANIC COMPOUNDS
##NAMES=HP
##CAS NAME=1-Bromo-3-n-hexylbenzene
##MOLFORM=C12H17Br
##CAS REGISTRY NO=38409-59-5
##MP= -300
##BP= -300
##MW= 240
##$RETENTION INDEX=0
##$CONDENSED SPECTRUM=NO
##NPOINTS= 64
##XYDATA=(XY..XY) 1 
    52         24
    53         21
    55         82
    57         17
    62         42
    63         80
    64         31
    65         58
    69         24
    71         54
    74         21
    75         24
    76         34
    77        123
    78         56
    80         11
    82         15
    89        155
    90        252
    91        999
    92         80
    93         15
   102         43
   103         84
   104        152
   105         63
   106          8
   107         18
   115         62
   116         41
   117         43
   118         28
   119         17
   128         16
   131         15
   135         29
   150         27
   152         14
   153         11
   154         15
   155          8
   157         11
   158         28
   159         19
   161         61
   169        397
   170        708
   171        459
   172        706
   173         63
   182         23
   183         44
   184         33
   185         41
   197         24
   198         10
   199         25
   206         13
   213         12
   232         14
   240        332
   241         42
   242        307
   243         49