##TITLE=Library Entry 10891
##JCAMP-DX=Revision 4.10 
##DATA TYPE=MASS SPECTRUM
##SAMPLE DESCRIPTION=LAC, NIDDK, NIH, Bethesda, MD 20892
##NAMES=HP
##CAS NAME=Benzophenone, 5-chloro-2-[[N-[diacetyloxy]acetyl]methylamino]-
##MOLFORM=C20H18ClNO6
##CAS REGISTRY NO=38403-90-6
##MP= -300
##BP= -300
##MW= 403
##$RETENTION INDEX=0
##$CONDENSED SPECTRUM=NO
##NPOINTS= 232
##XYDATA=(XY..XY) 1 
    41        176
    43        999
    44         39
    45         41
    47         25
    48         10
    49         12
    50         24
    51          9
    52          8
    53         22
    54         20
    55        158
    56         56
    57        180
    58          8
    59         19
    60         26
    61         13
    62          6
    63         19
    64          4
    65         18
    66          6
    67         47
    68         25
    69        133
    70         61
    71        109
    72          8
    73         37
    74         11
    75         28
    76         31
    77        230
    78         23
    79         21
    80          7
    81         58
    82         31
    83         63
    84         10
    85         55
    86          5
    87         13
    88         17
    89         13
    90          7
    91         54
    92          7
    93         17
    94          7
    95         35
    96         20
    97         58
    98         24
    99         24
   100          6
   101          8
   102         10
   103         20
   104         26
   105        352
   106         27
   107         14
   108          5
   109         21
   110         12
   111         45
   112         24
   113         24
   114          6
   115         11
   116          4
   117          7
   118          6
   119         10
   120          4
   121         15
   122         10
   123         24
   124         19
   125         21
   126         17
   127         15
   129         18
   131         10
   132          8
   133         14
   134          5
   135         12
   136          7
   137         10
   138         14
   139         19
   140          5
   141         19
   142          4
   143          5
   145          5
   147          8
   149          2
   150         39
   151         23
   152         32
   153         11
   154          6
   155          6
   157          4
   159          9
   160          3
   161          5
   162          3
   163         10
   164          7
   165         17
   166         21
   167         47
   168         26
   169          7
   170          7
   171          4
   173          4
   175          3
   176          3
   177         10
   178          8
   179          9
   180         23
   181         11
   182         20
   183          4
   184          6
   185          4
   186          3
   187          2
   189          3
   190          2
   191          5
   192          5
   193         25
   194         11
   195          7
   196         33
   197          6
   198         11
   199          4
   200          4
   201          4
   202          3
   203          3
   205          6
   206          6
   208          9
   209         10
   210          6
   211          3
   213          7
   214         20
   215         22
   216         10
   217          7
   218          2
   219          2
   220          2
   221          9
   222          4
   223          7
   224          4
   225          2
   226          2
   227         10
   228         52
   229         19
   230         29
   231         11
   232          5
   233          3
   236          3
   237          2
   238          8
   239          4
   241          3
   242          6
   243         16
   244        163
   245         95
   246         64
   247         34
   248          6
   249          5
   255          4
   256        106
   257         29
   258         43
   259         11
   260          3
   265          6
   266          4
   267          2
   270         10
   271         12
   272        121
   273         76
   274         45
   275         28
   276          5
   279         10
   280          3
   281          2
   283         26
   284          7
   285         10
   286          3
   293         10
   294          2
   298         89
   299         13
   300         44
   301         33
   302         23
   303         13
   304          7
   315         11
   316          2
   317          3
   343          3
   355          5
   403         53
   404         12
   405         19
   406          3