##TITLE=Library Entry 13611
##JCAMP-DX=Revision 4.10 
##DATA TYPE=MASS SPECTRUM
##SAMPLE DESCRIPTION=NIST Mass Spectrometry Data Center, 1994
##NAMES=HP
##CAS NAME=2',5'-Dichloro-4'-nitroacetanilide
##MOLFORM=C8H6Cl2N2O3
##CAS REGISTRY NO=38411-17-5
##MP= -300
##BP= -300
##MW= 248
##$RETENTION INDEX=0
##$CONDENSED SPECTRUM=NO
##NPOINTS= 115
##XYDATA=(XY..XY) 1 
    14          2
    15         91
    17          7
    18         17
    26          2
    30        120
    35          4
    36          6
    37         13
    38          8
    39          6
    40          3
    41          5
    42         40
    43        999
    44         28
    46          4
    47          6
    49          9
    50         10
    51         12
    52         33
    53          3
    60          7
    61         40
    62         57
    63         25
    64          7
    65          8
    71          3
    72         16
    73         26
    74         18
    75         16
    76         13
    77          6
    78          5
    83          4
    84          5
    85          6
    86         10
    87         15
    88         31
    89         13
    90         14
    95          2
    96         13
    97         80
    98         16
    99         30
   100          8
   101          2
   102          2
   107          4
   108          5
   109         11
   110          4
   111          4
   112          7
   113          4
   114          4
   122          3
   123          5
   124         64
   125         24
   126         24
   127          8
   131          3
   132         10
   133         35
   134          7
   135         21
   136          2
   137          4
   138          2
   139          3
   140          3
   148         22
   149          2
   150         14
   151          2
   152          3
   158          3
   159          5
   160         51
   161          9
   162         31
   163          3
   164          5
   167          3
   176        139
   177         13
   178         85
   179          6
   180         12
   190         21
   191          3
   192         13
   194          1
   206        207
   207         18
   208        135
   209         10
   210         24
   213        141
   214         15
   215         47
   216          4
   218          2
   233          2
   248         43
   249          5
   250         29
   251          3
   252          6