##TITLE=Library Entry 76721
##JCAMP-DX=Revision 4.10 
##DATA TYPE=MASS SPECTRUM
##SAMPLE DESCRIPTION=A.A.Kutin, Moscow, Russia
##NAMES=HP
##CAS NAME=Diphenyl chloro-s-triazine
##MOLFORM=C15H10ClN3
##CAS REGISTRY NO=3842-55-5
##MP= -300
##BP= -300
##MW= 267
##$RETENTION INDEX=0
##$CONDENSED SPECTRUM=NO
##NPOINTS= 110
##XYDATA=(XY..XY) 1 
    34          1
    35          2
    36          5
    37          5
    38          9
    39         37
    40         18
    41          5
    42          5
    43          7
    44          8
    45          1
    49          3
    50         73
    51        117
    52         32
    53          6
    54          0
    55          2
    56          1
    57          3
    61          4
    62         21
    63         18
    64         16
    65          3
    67          0
    69          1
    70          1
    71          0
    72          0
    73          3
    74         20
    75         52
    76        216
    77        224
    78         12
    79          1
    80          1
    81          1
    82          2
    83          1
    84          1
    85          0
    86          1
    87         18
    88          7
    89         10
    90          1
    91          1
    92          0
    95          0
    98          2
    99          4
   100          4
   101          7
   102         45
   103        999
   104        150
   105          7
   111          0
   112          1
   113          0
   114          1
   115          0
   117          1
   119          0
   122          0
   127          1
   128          4
   129        268
   130         27
   131          1
   134          3
   135          2
   136          1
   137          0
   138          0
   149          0
   151          1
   163         17
   164         49
   165         10
   166         18
   167          1
   171          1
   172          0
   177          1
   178          1
   180          0
   186          0
   199          0
   205         11
   206          2
   225          2
   227          1
   232          3
   233          0
   239          1
   240          0
   241          1
   242          1
   251          0
   253          2
   255          1
   267        488
   268         83
   269        162
   270         26
   271          2