##TITLE=Library Entry 5894
##JCAMP-DX=Revision 4.10 
##DATA TYPE=MASS SPECTRUM
##SAMPLE DESCRIPTION=Vladimir Zaikin, TIPS RAS, Moscow, Russia
##NAMES=HP
##CAS NAME=5-Decen-1-ol, acetate, (E)-
##MOLFORM=C12H22O2
##CAS REGISTRY NO=38421-90-8
##MP= -300
##BP= -300
##MW= 198
##$RETENTION INDEX=1763
##$CONDENSED SPECTRUM=NO
##NPOINTS= 50
##XYDATA=(XY..XY) 1 
    30         25
    31         28
    36         13
    37         33
    38         47
    39        333
    40         81
    41        482
    42        153
    43        999
    44         64
    45         77
    50         30
    51         46
    52         33
    53        109
    54        424
    55        355
    56         70
    57         39
    60         33
    61         36
    63         18
    65         41
    66         66
    67        417
    68        310
    69        112
    70         28
    71         23
    77         38
    78         21
    79         82
    80         43
    81        353
    82        224
    83         69
    84         15
    91         21
    92         12
    93         24
    94         21
    95        213
    96         93
    97         33
   109         42
   110        167
   111         25
   138         88
   139         21