##TITLE=Library Entry 62538
##JCAMP-DX=Revision 4.10 
##DATA TYPE=MASS SPECTRUM
##SAMPLE DESCRIPTION=A.Pleshkova, Nesmeyanov Inst.Org.Elem.Cpds, Moscow
##NAMES=HP
##CAS NAME=N-Tosyloxy-2,2-bis(trifluoromethyl)aziridine
##MOLFORM=C11H9F6NO3S
##CAS REGISTRY NO=38436-38-3
##MP= -300
##BP= -300
##MW= 349
##$RETENTION INDEX=0
##$CONDENSED SPECTRUM=NO
##NPOINTS= 21
##XYDATA=(XY..XY) 1 
    39         70
    40          9
    51         42
    52          6
    63         55
    64         31
    65        195
    66         18
    69         86
    70          9
    77         39
    91        999
    92         81
    93          6
   155        949
   156         84
   157         49
   158         34
   349         26
   350          4
   351          2