##TITLE=Library Entry 114059
##JCAMP-DX=Revision 4.10 
##DATA TYPE=MASS SPECTRUM
##SAMPLE DESCRIPTION=Exported from NIST MS Search
##NAMES=HP
##CAS NAME=Hexanedioic acid, bis(1-methylpropyl) ester
##MOLFORM=C14H26O4
##CAS REGISTRY NO=38447-22-2
##MP= -300
##BP= -300
##MW= 258
##$RETENTION INDEX=0
##$CONDENSED SPECTRUM=NO
##NPOINTS= 82
##XYDATA=(XY..XY) 1 
    14          1
    15          4
    17          3
    18         15
    19          3
    26          2
    27         29
    28         40
    29         93
    30          3
    31         15
    32          5
    39         19
    40          3
    41        108
    42         25
    43         47
    44          7
    45         73
    46          2
    51          1
    53          5
    54          6
    55        137
    56         96
    57        144
    58         10
    59         37
    60         17
    61          4
    67          2
    68          5
    69         13
    70         11
    71          5
    72          7
    73         78
    74          6
    82          6
    83         65
    84         23
    85          7
    86          2
    87         58
    88          3
    99          8
   100        109
   101        105
   102         47
   103          5
   110          3
   111        187
   112         36
   113          5
   115          2
   116          8
   117          3
   127          5
   128        121
   129        999
   130         71
   131          9
   143         29
   144          3
   145          2
   146         58
   147         61
   148          5
   156         13
   157          2
   158         16
   159          3
   171          1
   185        203
   186         23
   187          2
   203         22
   204         11
   205          1
   212          4
   257          1
   258          2