##TITLE=Library Entry 30817
##JCAMP-DX=Revision 4.10 
##DATA TYPE=MASS SPECTRUM
##SAMPLE DESCRIPTION=ORMSBG,9(1)6(1974); CAMBON
##NAMES=HP
##CAS NAME=2,4,6,8,9,10-Hexaaza-1,3,5,7-tetraphosphatricyclo[3.3.1.1(3,7)]de
cane, 2,4,6,8,9,10-hexamethyl-, 1,3,5-trisulfide
##MOLFORM=C6H18N6P4S3
##CAS REGISTRY NO=38448-55-4
##MP= -300
##BP= -300
##MW= 394
##$RETENTION INDEX=0
##$CONDENSED SPECTRUM=NO
##NPOINTS= 25
##XYDATA=(XY..XY) 1 
    28        120
    29        130
    31        380
    32         70
    40         20
    45        150
    46        200
    60        999
    89        100
    91         80
   119         70
   120         60
   121        150
   150         70
   153        250
   180         50
   182         60
   212         40
   241        100
   273        220
   313         60
   334         10
   350         10
   364         50
   394        120