##TITLE=Library Entry 31101
##JCAMP-DX=Revision 4.10 
##DATA TYPE=MASS SPECTRUM
##SAMPLE DESCRIPTION=ORMSBG,9(1)6(1974); CAMBON
##NAMES=HP
##CAS NAME=2,4,6,8,9,10-Hexaaza-1,3,5,7-tetraphosphatricyclo[3.3.1.1(3,7)]de
cane, 2,4,6,8,9,10-hexamethyl-, 1,3-disulfide
##MOLFORM=C6H18N6P4S2
##CAS REGISTRY NO=38448-56-5
##MP= -300
##BP= -300
##MW= 362
##$RETENTION INDEX=0
##$CONDENSED SPECTRUM=NO
##NPOINTS= 36
##XYDATA=(XY..XY) 1 
    28        100
    29        240
    31        380
    32         70
    40         30
    45        180
    46        210
    60        999
    89        250
    91        250
   119        230
   120        240
   121        430
   148         80
   150        290
   151         80
   153        730
   166         40
   180        150
   182        210
   195         10
   209         90
   212        120
   227         60
   241        999
   254         20
   270         70
   273        250
   286        150
   302         50
   319        110
   329         60
   330         60
   333         50
   334         90
   362        600