##TITLE=Library Entry 77072
##JCAMP-DX=Revision 4.10 
##DATA TYPE=MASS SPECTRUM
##SAMPLE DESCRIPTION=A.Pleshkova, Nesmeyanov Inst.Org.Elem.Cpds, Moscow
##NAMES=HP
##CAS NAME=Azetidine, 1-[(4-methylphenyl)sulfonyl]-2-phenyl-
##MOLFORM=C16H17NO2S
##CAS REGISTRY NO=38455-36-6
##MP= -300
##BP= -300
##MW= 287
##$RETENTION INDEX=0
##$CONDENSED SPECTRUM=NO
##NPOINTS= 30
##XYDATA=(XY..XY) 1 
    42          9
    56         44
    57          4
    65         61
    66          5
    77         58
    78         93
    79         15
    91        415
    92         61
    93          7
   103         96
   104        999
   105        197
   106         15
   117         23
   118        235
   119         44
   120          5
   131         15
   132        116
   133         12
   146         38
   155        203
   156         44
   195         87
   222          9
   286         29
   287        113
   288         15