##TITLE=Library Entry 28754
##JCAMP-DX=Revision 4.10 
##DATA TYPE=MASS SPECTRUM
##SAMPLE DESCRIPTION=Patti Price, Georgia Bureau of Investigation, Decatur,
 Georgia
##NAMES=HP
##CAS NAME=.alpha.-N-Normethadol
##MOLFORM=C20H27NO
##CAS REGISTRY NO=38455-85-5
##MP= -300
##BP= -300
##MW= 297
##$RETENTION INDEX=0
##$CONDENSED SPECTRUM=NO
##NPOINTS= 248
##XYDATA=(XY..XY) 1 
    40          5
    41        106
    42         86
    43        105
    44         65
    45         10
    49          1
    50         16
    51         70
    52         16
    53         21
    54         13
    55         94
    56        127
    57        145
    58        999
    59        117
    60          7
    61          2
    62          8
    63         42
    64          7
    65         54
    66          9
    67         61
    68         44
    69         94
    70         44
    71        116
    72         47
    73         24
    74         17
    75         23
    76         35
    77        206
    78         63
    79         77
    80         18
    81         63
    82         37
    83         63
    84         39
    85         56
    86         27
    87         24
    88         15
    89         54
    90         14
    91        436
    92         40
    93         45
    94         18
    95         66
    96         26
    97         48
    98         29
    99         42
   100         14
   101         21
   102         45
   103         92
   104         28
   105        194
   106         23
   107         76
   108         20
   109         38
   110         13
   111         27
   112         11
   113         22
   114         11
   115        275
   116         49
   117         53
   118         22
   119         51
   120         25
   121         36
   122         13
   123         28
   124          9
   125         18
   126         23
   127         65
   128        121
   129        135
   130        165
   131         79
   132         16
   133         34
   134        217
   135         56
   136         13
   137         25
   138         12
   139         45
   140         13
   141         37
   142         16
   143         31
   144         28
   145         30
   146         27
   147         62
   148         14
   149         15
   150         18
   151         42
   152        114
   153         35
   154         15
   155         18
   156          9
   157         16
   158         22
   159         22
   160         21
   161         21
   162         11
   163         42
   164         39
   165        269
   166         69
   167        101
   168         29
   169         14
   170         16
   171         19
   172         15
   173         15
   174          9
   175         19
   176         37
   177         35
   178        216
   179        160
   180         52
   181         21
   182         16
   183         13
   184         17
   185         15
   186         15
   187         26
   188         19
   189         71
   190         53
   191         99
   192         38
   193        202
   194         48
   195         16
   196         11
   197          8
   198          7
   199         12
   200         29
   201         23
   202         47
   203         59
   204         47
   205         70
   206         57
   207        104
   208        158
   209         34
   210          7
   211         10
   212          3
   213          8
   214          5
   215         21
   216         13
   217         19
   218         17
   219         45
   220         59
   221         27
   222         95
   223         25
   224         15
   225         18
   226          6
   227          5
   228          5
   229          7
   230          7
   231         10
   232         13
   233         17
   234         22
   235         20
   236         27
   237         30
   238          8
   239        132
   240         24
   241          6
   242          3
   243          4
   244          5
   245          4
   246         10
   247         12
   248         35
   249         10
   250         22
   251         11
   252          3
   253          5
   254          3
   255          6
   256          3
   257          4
   258          3
   259          4
   260         10
   261          5
   262         53
   263         16
   264         23
   265         11
   266          3
   267          7
   268         10
   269          5
   270          3
   271          3
   272          3
   273          5
   274          5
   275          8
   276         90
   277         99
   278         25
   279          7
   280          7
   281          5
   282          6
   283          2
   293          5
   294          3
   295          4
   296          4
   297         24
   298         16
   299          5