##TITLE=Library Entry 19472
##JCAMP-DX=Revision 4.10 
##DATA TYPE=MASS SPECTRUM
##SAMPLE DESCRIPTION=Chemical Concepts
##NAMES=HP
##CAS NAME=10-Undecenoyl chloride
##MOLFORM=C11H19ClO
##CAS REGISTRY NO=38460-95-6
##MP= -300
##BP= -300
##MW= 202
##$RETENTION INDEX=0
##$CONDENSED SPECTRUM=NO
##NPOINTS= 109
##XYDATA=(XY..XY) 1 
    26         13
    27        226
    28         46
    29        242
    30          5
    35          1
    36         13
    37          0
    38          7
    39        245
    40         30
    41        781
    42        152
    43        162
    44          5
    45          0
    49          4
    50          4
    51         16
    52          8
    53         87
    54        171
    55        999
    56        143
    57         55
    58          4
    59          2
    62          0
    63         21
    65         17
    66         18
    67        331
    68        170
    69        295
    70         58
    71         33
    72          1
    73          0
    75          4
    76          0
    77         17
    78         12
    79        110
    80        100
    81        215
    82        118
    83        217
    84        217
    85         46
    86          2
    89          3
    90          2
    91         21
    92         10
    93         64
    94         66
    95        105
    96         86
    97        151
    98        436
    99         42
   100          2
   102          0
   103          0
   104          2
   105         13
   106         18
   107         71
   108         33
   109         77
   110         39
   111         70
   112         33
   113          2
   116          3
   117          1
   118          3
   119         24
   120         10
   121         21
   122         33
   123        104
   124         53
   125         35
   126          2
   131          0
   132          4
   133         14
   134          1
   135          5
   136          0
   137         73
   138         18
   139          5
   146          0
   147          1
   148          8
   149         73
   150          9
   151         14
   152          0
   165          2
   166         57
   167         63
   168          6
   202          1
   203          0
   204          0
   205          0