##TITLE=Library Entry 107132
##JCAMP-DX=Revision 4.10 
##DATA TYPE=MASS SPECTRUM
##SAMPLE DESCRIPTION=NIST Mass Spectrometry Data Center
##NAMES=HP
##CAS NAME=4-Chloro-3-nitrocoumarin
##MOLFORM=C9H4ClNO4
##CAS REGISTRY NO=38464-20-9
##MP= -300
##BP= -300
##MW= 225
##$RETENTION INDEX=0
##$CONDENSED SPECTRUM=NO
##NPOINTS= 119
##XYDATA=(XY..XY) 1 
    16          1
    26          7
    27          8
    30         61
    35          2
    36          5
    37         19
    38         29
    39         72
    40          1
    41          1
    43         15
    44         26
    45          1
    46         23
    47          2
    48          2
    49         23
    50         49
    51         30
    52          6
    53          8
    54          1
    55          1
    57          3
    58          4
    60          9
    61         78
    62        149
    63         86
    64         12
    65          4
    66          2
    70          1
    71          3
    72          6
    73        110
    74         38
    75         87
    76         21
    77         39
    78          5
    79          1
    84         18
    85         38
    86         61
    87        112
    88        161
    89         24
    90         14
    91          2
    92          9
    93          1
    95          1
    96         17
    97         91
    98         21
    99         60
   100          8
   101          5
   102          9
   103          3
   104          7
   105          1
   108          3
   109          6
   110          3
   111         93
   112         11
   113         31
   114         10
   115          6
   116         31
   117          3
   118          1
   119          1
   120          8
   121          4
   123        999
   124         83
   125        342
   126         26
   127          1
   132         14
   133          3
   135         26
   136          2
   137         10
   138          2
   139          8
   140          2
   141          2
   143          2
   144          7
   147          2
   150          1
   151         20
   152          2
   153          7
   161          2
   165          3
   167        446
   168         40
   169        143
   170         12
   171          1
   179         45
   180          5
   181         35
   182          3
   183          6
   195         15
   196          1
   197          5
   209          3
   225        188
   226         19
   227         64
   228          6