##TITLE=Library Entry 22931
##JCAMP-DX=Revision 4.10 
##DATA TYPE=MASS SPECTRUM
##SAMPLE DESCRIPTION=V.G.Zaikin, TIPS, Russian Acad. Sci.
##NAMES=HP
##CAS NAME=4-Quinolinol,1-ethyl-4-ethynyldecahydro-2-methyl-(2.alpha.,4.alph
a.,4a.beta.,8a.alpha.)
##MOLFORM=C14H23NO
##CAS REGISTRY NO=38463-56-8
##MP= -300
##BP= -300
##MW= 221
##$RETENTION INDEX=0
##$CONDENSED SPECTRUM=NO
##NPOINTS= 75
##XYDATA=(XY..XY) 1 
    51        126
    52         46
    53        374
    54        232
    55        289
    56        999
    57         94
    65         30
    66        128
    67         64
    68        142
    69        114
    70        246
    71        146
    72        528
    73         43
    74         94
    77        178
    78         32
    79        267
    80         66
    81        226
    82        155
    83         39
    84         99
    85         34
    86         62
    91        162
    92         34
    93         48
    94         55
    95         34
    96         80
    97         23
    98         62
   105         73
   106         29
   107         43
   108         68
   109         46
   110         87
   111         27
   112         21
   120         27
   121         20
   122         29
   123         21
   124         55
   125         23
   135         29
   136         45
   137         27
   138         60
   146         23
   148         78
   149         16
   150         30
   152         61
   160         27
   162         27
   164         45
   176         21
   178        637
   179        103
   180         15
   186         29
   189         24
   204        109
   205         30
   206        682
   207        107
   220         23
   221        142
   222         22
   223          2