##TITLE=Library Entry 10111
##JCAMP-DX=Revision 4.10 
##DATA TYPE=MASS SPECTRUM
##SAMPLE DESCRIPTION=Exported from NIST MS Search
##NAMES=HP
##CAS NAME=Ethanol, 2-[(4-nitrophenyl)sulfonyl]-, acetate
##MOLFORM=C10H11NO6S
##CAS REGISTRY NO=38476-91-4
##MP= -300
##BP= -300
##MW= 273
##$RETENTION INDEX=0
##$CONDENSED SPECTRUM=NO
##NPOINTS= 18
##XYDATA=(XY..XY) 1 
    43        999
    50         73
    51         17
    74         26
    75        108
    76        108
    77         39
    87        649
    92         39
   121         75
   122         21
   170        212
   171         21
   186        512
   187         17
   188         13
   214        173
   273         15