##TITLE=Library Entry 1919
##JCAMP-DX=Revision 4.10 
##DATA TYPE=MASS SPECTRUM
##SAMPLE DESCRIPTION=A.A.Kutin, Moscow, Russia
##NAMES=HP
##CAS NAME=Carbamic acid, N-(4-chlorophenyl)-, 4-nitrophenyl ester
##MOLFORM=C13H9ClN2O4
##CAS REGISTRY NO=3848-41-7
##MP= -300
##BP= -300
##MW= 292
##$RETENTION INDEX=0
##$CONDENSED SPECTRUM=NO
##NPOINTS= 77
##XYDATA=(XY..XY) 1 
    33         69
    35         38
    37        418
    38        540
    39        999
    40         75
    41         23
    42         21
    43         13
    44         28
    46         52
    47         54
    49        150
    50        256
    51        196
    52        149
    53        220
    54         36
    55         24
    58          1
    59         20
    60         55
    61        187
    62        363
    63        656
    64        373
    65        718
    67          8
    68          2
    72         39
    73         95
    74         98
    75        125
    76         41
    77         31
    78         10
    79         12
    80         29
    81        321
    84          8
    85          8
    87         36
    88         65
    89        120
    90        486
    91         70
    92         52
    93        133
    97         30
    98         42
    99         52
   100         21
   101         16
   102          2
   108         17
   109        592
   110         35
   111         16
   113          3
   119         10
   122          8
   123         34
   125        530
   127        297
   128         29
   129         16
   137          2
   139        318
   140         11
   150          4
   151         29
   153        865
   155        323
   156         12
   163          1
   280          2
   292         12