##TITLE=Library Entry 681
##JCAMP-DX=Revision 4.10 
##DATA TYPE=MASS SPECTRUM
##SAMPLE DESCRIPTION=NIST Mass Spectrometry Data Center
##NAMES=HP
##CAS NAME=Ethyl cyanoglyoxylate-2-oxime
##MOLFORM=C5H6N2O3
##CAS REGISTRY NO=3849-21-6
##MP= -300
##BP= -300
##MW= 142
##$RETENTION INDEX=0
##$CONDENSED SPECTRUM=NO
##NPOINTS= 72
##XYDATA=(XY..XY) 1 
    15          8
    17          2
    18          1
    19          1
    24          6
    25          3
    26         49
    27        255
    28         37
    29        999
    30        144
    31         34
    32          1
    38         40
    39         16
    40          9
    41        140
    42         39
    43        142
    44         70
    45        395
    46         13
    47          1
    51          1
    52        148
    53        425
    54        348
    55         27
    56          4
    60          2
    66         11
    67         52
    68         58
    69        361
    70         69
    71         10
    72          6
    73          9
    74          4
    79         46
    80         14
    81         99
    82          5
    83          1
    84         49
    85          2
    86          7
    87          1
    88          2
    94          2
    95          1
    96         13
    97        671
    98         93
    99          7
   107         67
   108          4
   111         33
   112         13
   113          2
   114        186
   115         88
   116          5
   117          1
   124          8
   125        647
   126         40
   127         36
   128          2
   141          1
   142          1
   143          3