##TITLE=Library Entry 97487
##JCAMP-DX=Revision 4.10 
##DATA TYPE=MASS SPECTRUM
##SAMPLE DESCRIPTION=Japan AIST/NIMC Database- Spectrum MS-IW-5641
##NAMES=HP
##CAS NAME=Propane, 1,1,1,2,3,3,3-heptachloro-
##MOLFORM=C3HCl7
##CAS REGISTRY NO=3849-33-0
##MP= -300
##BP= -300
##MW= 282
##$RETENTION INDEX=1380
##$CONDENSED SPECTRUM=NO
##NPOINTS= 100
##XYDATA=(XY..XY) 1 
    25          2
    35          9
    36         29
    37         12
    38          8
    47         17
    48          1
    49          6
    59          3
    60         15
    61          1
    62          5
    63          2
    68          2
    70          1
    71         31
    72         28
    73         10
    74          6
    82         21
    83         19
    84         13
    85         12
    86          2
    87          3
    88          5
    89          7
    90          3
    94          6
    95         15
    96          5
    97          9
    98          1
    99          1
   105          1
   106         40
   107         66
   108         37
   109         25
   110          3
   111          3
   117        999
   118         10
   119        955
   120          9
   121        308
   122          3
   123         33
   129          7
   130         49
   131          8
   132         47
   133          3
   134         14
   136          1
   141         14
   142          1
   143         15
   144          1
   145          5
   147          2
   157          2
   159          2
   161          1
   165         31
   166          1
   167         40
   168          1
   169         18
   171          4
   176          1
   177         58
   178          4
   179         76
   180          3
   181         37
   182          1
   183          8
   211         16
   213         27
   214          1
   215         17
   216          1
   217          6
   219          1
   246          1
   247         53
   248          4
   249        103
   250          5
   251         82
   252          3
   253         35
   254          1
   255          8
   257          1
   284          1
   286          2
   288          2
   290          1