##TITLE=Library Entry 35530
##JCAMP-DX=Revision 4.10 
##DATA TYPE=MASS SPECTRUM
##SAMPLE DESCRIPTION=NIST Mass Spectrometry Data Center
##NAMES=HP
##CAS NAME=3-Ethyl-4-methylpentan-1-ol
##MOLFORM=C8H18O
##CAS REGISTRY NO=38514-13-5
##MP= -300
##BP= -300
##MW= 130
##$RETENTION INDEX=1023
##$CONDENSED SPECTRUM=NO
##NPOINTS= 37
##XYDATA=(XY..XY) 1 
    27         55
    29         70
    30          2
    31         71
    33          1
    38          3
    39        101
    40         14
    41        533
    42        105
    43        350
    44         27
    45         44
    50          5
    51         11
    52          5
    53         39
    55        470
    56        216
    57        244
    58         15
    65         13
    67         59
    68         83
    69        999
    70        212
    71         46
    77          7
    79          9
    83        233
    84        781
    85        100
    86          7
    87          4
    97         46
    98          4
   112          6