##TITLE=Library Entry 19097
##JCAMP-DX=Revision 4.10 
##DATA TYPE=MASS SPECTRUM
##SAMPLE DESCRIPTION=R.T.HOLMAN,UNIVERSITY OF MINNESOTA
##NAMES=HP
##CAS NAME=Oxiraneundecanoic acid, 3-pentyl-, methyl ester, cis-
##MOLFORM=C19H36O3
##CAS REGISTRY NO=38520-30-8
##MP= -300
##BP= -300
##MW= 312
##$RETENTION INDEX=2437
##$CONDENSED SPECTRUM=NO
##NPOINTS= 260
##XYDATA=(XY..XY) 1 
    26         21
    27        201
    28        370
    29        451
    30         16
    31         44
    32         17
    33          3
    34          1
    35          2
    36          7
    37          5
    38          7
    39        137
    40         29
    41        806
    42        209
    43        709
    44         64
    45         51
    46          2
    47          1
    48          2
    49          3
    50          5
    51          9
    52          6
    53         66
    54        141
    55        999
    56        217
    57        475
    58         68
    59        201
    60         11
    61          5
    62          2
    63          4
    64          3
    65         18
    66         22
    67        330
    68        185
    69        524
    70        149
    71        153
    72         22
    73         38
    74        548
    75         65
    76          6
    77         23
    78         10
    79         71
    80         48
    81        314
    82        161
    83        274
    84        133
    85        108
    86         16
    87        387
    88         36
    89          4
    90          1
    91         24
    92          7
    93         49
    94         44
    95        217
    96        193
    97        241
    98        161
    99         40
   100         12
   101         48
   102          7
   103          2
   104          4
   105         11
   106          7
   107         29
   108         23
   109         87
   110         69
   111         89
   112         62
   113         90
   114         40
   115         54
   116         12
   117          5
   118          4
   119         16
   120         14
   121         34
   122         59
   123         60
   124         56
   125         53
   126         17
   127        145
   128         52
   129         66
   130         12
   131          9
   132          4
   133         12
   134          8
   135         46
   136         25
   137         36
   138         39
   139         44
   140         16
   141         37
   142         32
   143         33
   144          6
   145          8
   146          4
   147         15
   148         49
   149         52
   150         18
   151         17
   152         20
   153         34
   154         15
   155         60
   156         12
   157         12
   158          8
   159          6
   160          2
   161          4
   162          3
   163         11
   164         40
   165         33
   166         21
   167         37
   168         14
   169         12
   170         11
   171         21
   172          8
   173          2
   174          2
   175          4
   176          1
   177         12
   178         11
   179          8
   180         12
   181         28
   182         10
   183        145
   184         23
   185         25
   186         14
   187          3
   188          1
   189          2
   190          1
   191          3
   192          4
   193          5
   194          4
   195         23
   196         15
   197         12
   198         42
   199         70
   200         16
   201          3
   202          1
   203          1
   204          1
   205          1
   206          1
   207          3
   208          3
   209         16
   210          8
   211          3
   212          1
   213         15
   214          3
   215          9
   216          2
   217          3
   218          2
   219          6
   220          8
   221          4
   222         11
   223          7
   224          4
   225          1
   226          1
   227         57
   228         25
   229          4
   230          1
   231          1
   232          1
   233          1
   234          2
   235          3
   236          2
   237          3
   238          3
   239          8
   240          1
   241          5
   242         12
   243          2
   244          1
   245          2
   246          2
   247          1
   250          1
   251          2
   252          2
   253          2
   254          1
   255          5
   256          2
   257          1
   258          1
   259          1
   260          1
   261          1
   262          5
   263          9
   264         26
   265         13
   266          4
   267          1
   268          1
   269          1
   270          1
   279          4
   280          3
   281         17
   282          3
   283          1
   284          9
   285          2
   286          1
   294         15
   295          3
   296          7
   297          2
   298          1
   310          1
   311          1
   312          5
   313          2