##TITLE=Library Entry 15003
##JCAMP-DX=Revision 4.10 
##DATA TYPE=MASS SPECTRUM
##SAMPLE DESCRIPTION=Div. of Experiment Therapeutics WRAIR, WRAMC, Washingto
n DC 20307
##NAMES=HP
##CAS NAME=2-Octadecylamino-1,4-naphthoquinone
##MOLFORM=C28H43NO2
##CAS REGISTRY NO=38528-35-7
##MP= -300
##BP= -300
##MW= 425
##$RETENTION INDEX=0
##$CONDENSED SPECTRUM=NO
##NPOINTS= 109
##XYDATA=(XY..XY) 1 
    41        625
    42         80
    43        999
    44         48
    47         11
    53         46
    54         43
    55        394
    57        254
    58         12
    60          8
    63          7
    67         57
    68         38
    69        172
    70         68
    71         65
    75         17
    76         32
    77         46
    78          7
    79         18
    80         12
    81         36
    82         35
    83         52
    84          4
    85         14
    86          3
    88         11
    89         51
    90          4
    91         28
    94          3
    95         24
    96         29
    97         33
    98          7
   101         40
   102         33
   103         53
   104         24
   105        169
   106         16
   115         41
   116         15
   117         12
   118          8
   128         27
   129         37
   130         53
   131         82
   132         14
   133         20
   136          3
   143         21
   144         16
   146        163
   147         26
   154         11
   157         21
   158         71
   159         82
   160         21
   161         31
   168         19
   170          8
   171          3
   172         42
   174        674
   175        175
   176         25
   181          4
   182          3
   184         12
   186        633
   187        261
   188        222
   189         25
   196         16
   197         11
   198         11
   200         62
   201         51
   202          6
   212         15
   214         79
   215         31
   228        211
   229         76
   230         13
   242        113
   243         25
   256         21
   266          3
   270          3
   278          7
   284          7
   292         18
   340         11
   368         11
   382          6
   397         17
   410         15
   423         11
   424         34
   425        789
   426        219
   427         27