##TITLE=Library Entry 6941
##JCAMP-DX=Revision 4.10 
##DATA TYPE=MASS SPECTRUM
##SAMPLE DESCRIPTION=LAC, NIDDK, NIH, Bethesda, MD 20892
##NAMES=HP
##CAS NAME=Methylene diamine, N,N'-diacetyl-
##MOLFORM=C5H10N2O2
##CAS REGISTRY NO=3852-14-0
##MP= -300
##BP= -300
##MW= 130
##$RETENTION INDEX=0
##$CONDENSED SPECTRUM=NO
##NPOINTS= 45
##XYDATA=(XY..XY) 1 
    42        211
    43        999
    44         15
    45        202
    46        424
    47        377
    48         13
    51          1
    52          1
    53          0
    54          1
    55          2
    56         11
    57          2
    58          5
    59         18
    60         93
    61        144
    62         55
    63          2
    69          2
    70          2
    71          5
    72         37
    73         52
    74          6
    75          0
    76          0
    83          0
    84          1
    85          1
    86          0
    87        113
    88        291
    89        230
    90         10
    91          0
   113          0
   114          0
   115          0
   128          0
   129          2
   130          4
   131          1
   132          0