##TITLE=Library Entry 73584
##JCAMP-DX=Revision 4.10 
##DATA TYPE=MASS SPECTRUM
##SAMPLE DESCRIPTION=A. Brossi, LC, NIDDK, NIH, Bethesda, MD 20892
##NAMES=HP
##CAS NAME=Pyrrolidin-2-thione, 5-pentyl-
##MOLFORM=C9H17NS
##CAS REGISTRY NO=38525-80-3
##MP= -300
##BP= -300
##MW= 171
##$RETENTION INDEX=0
##$CONDENSED SPECTRUM=NO
##NPOINTS= 108
##XYDATA=(XY..XY) 1 
    41        240
    42         69
    43        101
    44         99
    45         41
    46          8
    47          8
    48          5
    49          4
    50          4
    51         10
    52          7
    53         32
    54         36
    55         88
    56         99
    57         30
    58         22
    59         22
    60         30
    61          4
    62          3
    63          3
    64          2
    65          9
    66         17
    67        247
    68         29
    69         38
    70         18
    71         88
    72         30
    73         24
    74          7
    75         11
    76          4
    77          8
    78          4
    79          8
    80         18
    81         16
    82         36
    83         18
    84        422
    85         29
    86          8
    87          3
    88          2
    89          0
    91          6
    93          6
    94          7
    95         12
    96         10
    97         25
    98         21
    99         30
   100        999
   101        225
   102         54
   103         11
   106          0
   107          0
   108          4
   109          4
   110         24
   111          9
   112         11
   113          9
   114        313
   115         70
   116         21
   117          5
   121          4
   122          1
   123          1
   124          6
   125          3
   126          8
   127          3
   128         43
   129         27
   130          5
   131          2
   133          2
   136          5
   138         71
   139          8
   140          4
   141          1
   142         17
   143          8
   149          1
   153          3
   154          5
   155         17
   156         29
   157         20
   158          3
   164          1
   167          0
   168          2
   169         30
   170         17
   171        518
   172         60
   173         27
   174          3