##TITLE=Library Entry 73009
##JCAMP-DX=Revision 4.10 
##DATA TYPE=MASS SPECTRUM
##SAMPLE DESCRIPTION=Div. of Experiment Therapeutics WRAIR, WRAMC, Washingto
n DC 20307
##NAMES=HP
##CAS NAME=2-Amino-1,4-naphthalenedione N-[2-[4-morpholinyl]ethyl]-
##MOLFORM=C16H18N2O3
##CAS REGISTRY NO=38528-37-9
##MP= -300
##BP= -300
##MW= 286
##$RETENTION INDEX=0
##$CONDENSED SPECTRUM=NO
##NPOINTS= 95
##XYDATA=(XY..XY) 1 
    41         37
    42         97
    43         29
    44         29
    45          9
    47          3
    48          1
    49         22
    50         15
    51         23
    52          4
    53         13
    54         23
    55         26
    56        125
    57         12
    58          3
    59          0
    60          1
    62          3
    63          6
    64          0
    65          0
    66          0
    67          3
    68         12
    69          6
    70         60
    72         30
    73          1
    74          4
    75         13
    76         24
    77         20
    78          3
    80          1
    81          1
    82          4
    84         14
    85          2
    86         14
    88          7
    89         22
    90          3
    91          2
    94          2
    95          0
    96          0
    98         30
   100        999
   101         61
   102          2
   103          7
   104         11
   105         15
   106          1
   112          1
   113          2
   114          1
   115          9
   116          4
   117          1
   126          1
   127          1
   128          2
   129          8
   130          4
   131          6
   132          0
   133          2
   140          0
   142          0
   143          2
   144          1
   145          0
   146          0
   154          2
   155          0
   157          1
   158          3
   159          2
   170          0
   171          1
   172          1
   182          0
   183          0
   185          0
   186         10
   187          2
   188          1
   198          1
   199          0
   200          0
   286          5
   287          2