##TITLE=Library Entry 32158
##JCAMP-DX=Revision 4.10 
##DATA TYPE=MASS SPECTRUM
##SAMPLE DESCRIPTION=Japan AIST/NIMC Database- Spectrum MS-NW-7041
##NAMES=HP
##CAS NAME=endo-Methylenetetrahydrophthalic acid
##MOLFORM=C9H10O4
##CAS REGISTRY NO=3853-88-1
##MP= -300
##BP= -300
##MW= 182
##$RETENTION INDEX=0
##$CONDENSED SPECTRUM=NO
##NPOINTS= 89
##XYDATA=(XY..XY) 1 
    15          2
    16          1
    17          4
    18         13
    25          2
    26         26
    27         38
    28          9
    29          5
    37          2
    38         24
    39        123
    40         45
    41         18
    42          2
    43          6
    44          4
    45         25
    46          9
    47          1
    49          3
    50         23
    51         39
    52         13
    53         15
    54         10
    55         29
    56          2
    57          1
    59          2
    60          3
    61          6
    62         13
    63         33
    64          9
    65         96
    66        999
    67         62
    68          3
    69          2
    71          4
    72          1
    73          1
    74          3
    75          2
    76          1
    77         25
    78         14
    79         16
    80          3
    81          4
    82          2
    83          2
    84          1
    85          1
    86          1
    87          1
    89          9
    90          9
    91        226
    92        101
    93         12
    94          4
    95          2
    97          2
    98          3
    99         59
   100          4
   105          4
   107          2
   108          3
   109          1
   110          1
   117         77
   118         11
   119         62
   120         42
   121          4
   122          1
   135          1
   136         16
   137         23
   138          6
   146          3
   164         42
   165          6
   166          1
   182          8
   183          1