##TITLE=Library Entry 29030
##JCAMP-DX=Revision 4.10 
##DATA TYPE=MASS SPECTRUM
##SAMPLE DESCRIPTION=Japan AIST/NIMC Database- Spectrum MS-IW-1273
##NAMES=HP
##CAS NAME=Methyl 3-dimethylaminopropionate
##MOLFORM=C6H13NO2
##CAS REGISTRY NO=3853-06-3
##MP= -300
##BP= -300
##MW= 131
##$RETENTION INDEX=0
##$CONDENSED SPECTRUM=NO
##NPOINTS= 45
##XYDATA=(XY..XY) 1 
    14          1
    15         34
    18          1
    26          3
    27         20
    28         15
    29         13
    30         48
    31          5
    35          1
    39          2
    40          2
    41          9
    42         91
    43         32
    44         41
    45         22
    49          1
    53          1
    54          4
    55         31
    56         23
    57         23
    58        999
    59         59
    60          1
    68          1
    70         10
    71         15
    72         12
    73          1
    74          3
    84          5
    85          3
    87          6
    88         19
    89          1
    98         14
    99          1
   100          5
   114          4
   116          6
   130          9
   131         93
   132          7