##TITLE=Library Entry 65797
##JCAMP-DX=Revision 4.10 
##DATA TYPE=MASS SPECTRUM
##SAMPLE DESCRIPTION=Chemical Concepts
##NAMES=HP
##CAS NAME=1H-Benzocycloheptene, 2,4a,5,6,7,8,9,9a-octahydro-3,5,5-trimethyl
-9-methylene-, (4aS-cis)-
##MOLFORM=C15H24
##CAS REGISTRY NO=3853-83-6
##MP= -300
##BP= -300
##MW= 204
##$RETENTION INDEX=1449
##$CONDENSED SPECTRUM=NO
##NPOINTS= 116
##XYDATA=(XY..XY) 1 
    26         21
    27        190
    28         29
    29        243
    38          6
    39        224
    40         46
    41        747
    42         46
    43        228
    44          8
    50         12
    51         62
    52         34
    53        201
    54         23
    55        391
    56         80
    57        109
    58          7
    63         19
    64         10
    65        125
    66         34
    67        369
    68         66
    69        520
    70         55
    71         36
    73          5
    76          5
    77        284
    78         82
    79        529
    80        192
    81        313
    82        140
    83         76
    84         17
    85         20
    89          8
    91        466
    92        337
    93        999
    94        729
    95        294
    96         69
    97         46
    98          7
    99          5
   102          6
   103         36
   104         28
   105        516
   106        168
   107        396
   108        178
   109        358
   110         50
   111         37
   112          8
   115         46
   116         18
   117         79
   118         30
   119        612
   120        205
   121        392
   122        142
   123         48
   124          9
   125          8
   127          7
   128         23
   129         22
   130         12
   131         48
   132         25
   133        324
   134        321
   135        270
   136        102
   137         22
   138         10
   141          6
   142          5
   143          9
   144          5
   145         34
   146         14
   147        187
   148        121
   149         43
   150         13
   157          5
   159         26
   160         12
   161        396
   162         80
   163         23
   165          5
   173          5
   174          6
   175         79
   176         37
   177         12
   178          5
   187         13
   189        451
   190         77
   191         11
   202         17
   203          6
   204        509
   205         88
   206         12