##TITLE=Library Entry 37100
##JCAMP-DX=Revision 4.10 
##DATA TYPE=MASS SPECTRUM
##SAMPLE DESCRIPTION=K. Jacobson, LBC, NIDDK, NIH, Bethesda, MD 20892
##NAMES=HP
##CAS NAME=Acetamide, N-methyl-N-(4-(1-pyrrolidinyl)-2-butynyl)-
##MOLFORM=C11H18N2O
##CAS REGISTRY NO=3854-05-5
##MP= -300
##BP= -300
##MW= 194
##$RETENTION INDEX=0
##$CONDENSED SPECTRUM=NO
##NPOINTS= 113
##XYDATA=(XY..XY) 1 
    41          9
    42        694
    43        664
    44        257
    45          9
    46          0
    47          0
    49          0
    50         21
    51         74
    52        109
    53        138
    54         75
    55        167
    56        481
    57         31
    58         18
    59          2
    60          2
    61          0
    62          0
    63          3
    64          9
    65         40
    66         69
    67         84
    68        100
    69         29
    70        999
    71         74
    72         17
    73          9
    74         22
    75          2
    76          3
    77         16
    78         12
    79         25
    80        212
    81        306
    82        219
    83         87
    84        116
    85          7
    86         53
    87          3
    88          1
    89          0
    90          0
    91          9
    92         17
    93         69
    94         42
    95         23
    96         24
    97          8
    98         10
    99          1
   100          0
   103          2
   104          2
   105          3
   106         20
   107         10
   108        254
   109         26
   110         44
   111          6
   112          2
   113          1
   114          0
   115          0
   117          3
   118          8
   119          4
   120        286
   121        188
   122        169
   123        167
   124        302
   125        144
   126         19
   127          2
   128          0
   132          0
   133          2
   134          2
   135         11
   136          5
   137          7
   138         14
   139         82
   140          7
   141          1
   147          0
   149          6
   150          5
   151         36
   152          5
   153          1
   163          1
   164          0
   165          9
   166          1
   177          1
   178          0
   179          3
   180          0
   191          0
   193         10
   194         38
   195         15
   196          4