##TITLE=Library Entry 85183
##JCAMP-DX=Revision 4.10 
##DATA TYPE=MASS SPECTRUM
##SAMPLE DESCRIPTION=Philip Morris R&D
##NAMES=HP
##CAS NAME=2,3,4-Trimethylpyrrole
##MOLFORM=C7H11N
##CAS REGISTRY NO=3855-78-5
##MP= -300
##BP= -300
##MW= 109
##$RETENTION INDEX=0
##$CONDENSED SPECTRUM=NO
##NPOINTS= 36
##XYDATA=(XY..XY) 1 
    36          5
    38          6
    39         47
    40         15
    41         52
    42         32
    47         22
    50          8
    51         21
    52         25
    53         49
    54         39
    55          6
    62          2
    63          7
    64          2
    65         36
    66         18
    67         82
    68          7
    77         30
    78         10
    79         33
    80         10
    81         22
    82          2
    91          8
    92         22
    93         77
    94        254
    95         16
   106         49
   107         49
   108        999
   109        638
   110         50