##TITLE=Library Entry 107523
##JCAMP-DX=Revision 4.10 
##DATA TYPE=MASS SPECTRUM
##SAMPLE DESCRIPTION=NIST Mass Spectrometry Data Center
##NAMES=HP
##CAS NAME=(1R,4aR,4bS,7R,10aR)-1,4a,7-Trimethyl-7-vinyl-1,2,3,4,4a,4b,5,6,7
,9,10,10a-dodecahydrophenanthrene-1-carbaldehyde
##MOLFORM=C20H30O
##CAS REGISTRY NO=3855-14-9
##MP= -300
##BP= -300
##MW= 286
##$RETENTION INDEX=2185
##$CONDENSED SPECTRUM=NO
##NPOINTS= 218
##XYDATA=(XY..XY) 1 
    26          1
    27         37
    28          2
    29         96
    30          2
    31          2
    38          2
    39        104
    40         19
    41        428
    42         24
    43        255
    44          7
    45         20
    50          4
    51         35
    52         17
    53        190
    54         19
    55        491
    56         32
    57         46
    58          4
    59          5
    62          2
    63         14
    64         10
    65        151
    66         39
    67        416
    68         38
    69        166
    70         13
    71         60
    72         16
    73          5
    74          1
    75          3
    76          7
    77        370
    78        101
    79        592
    80         76
    81        601
    82         60
    83         68
    84         21
    85          8
    86         13
    87          9
    88          1
    89         11
    90          5
    91        685
    92        140
    93        502
    94         87
    95        293
    96         33
    97        174
    98         17
    99         10
   100         31
   102         10
   103         75
   104         50
   105        530
   106        145
   107        671
   108        103
   109        379
   110         40
   111         26
   112          3
   113          4
   114         10
   115        140
   116         54
   117        262
   118         63
   119        475
   120        129
   121        574
   122        181
   123        999
   124        104
   125         15
   126          4
   127         25
   128         93
   129        116
   130         43
   131        199
   132         55
   133        489
   134        257
   135        465
   136        100
   137         33
   138          8
   139         10
   140          2
   141         40
   142         31
   143         76
   144         32
   145        160
   146         49
   147        262
   148        166
   149        203
   150         37
   151         60
   152         19
   153         16
   154          8
   155         22
   156         12
   157         56
   158         21
   159        124
   160         38
   161        212
   162         40
   163         61
   164         77
   165         22
   166          5
   167          6
   168          3
   169         17
   170          6
   171         40
   172         20
   173         95
   174         24
   175        110
   176         23
   177         20
   178          6
   179          4
   180          1
   181          2
   182          2
   183         15
   184          5
   185         36
   186         16
   187        119
   188         37
   189         35
   190         15
   191          9
   192          7
   193          2
   194          1
   195          2
   196          1
   197         13
   198          5
   199         35
   200         16
   201         75
   202         27
   203         16
   204         17
   205          4
   206          1
   209          2
   210          1
   211         12
   212          5
   213         16
   214         11
   215         46
   216         15
   217          8
   218          9
   219          2
   224          1
   225         11
   226          6
   227         38
   228         11
   229         27
   230          9
   231          5
   232          2
   237          1
   238          1
   239         22
   240          9
   241         21
   242          8
   243        112
   244         31
   245         23
   246          4
   253         84
   254         18
   255         24
   256          7
   257        564
   258        238
   259         41
   260          4
   268         23
   269          5
   270          4
   271        749
   272        161
   273         17
   274          2
   285          1
   286        459
   287        100
   288         12
   289          1