##TITLE=Library Entry 27694
##JCAMP-DX=Revision 4.10 
##DATA TYPE=MASS SPECTRUM
##SAMPLE DESCRIPTION=NIST Mass Spectrometry Data Center, 1994
##NAMES=HP
##CAS NAME=N-Ethyl trimethylenediamine
##MOLFORM=C5H14N2
##CAS REGISTRY NO=38571-87-8
##MP= -300
##BP= -300
##MW= 102
##$RETENTION INDEX=0
##$CONDENSED SPECTRUM=NO
##NPOINTS= 42
##XYDATA=(XY..XY) 1 
     4          1
    14          3
    15         28
    16          3
    17          9
    18         59
    26         18
    27        112
    28        275
    29        145
    30        874
    31         25
    32          2
    38          3
    39         26
    40         17
    41        105
    42        180
    43         86
    44        503
    45         63
    46         77
    52          5
    53          3
    54         18
    55          3
    56        286
    57        203
    58        999
    59         69
    60          6
    67          3
    68          9
    70        332
    71         23
    72         61
    73         15
    85        580
    86         37
    87          5
   102         12
   103          4