##TITLE=Library Entry 4769
##JCAMP-DX=Revision 4.10 
##DATA TYPE=MASS SPECTRUM
##SAMPLE DESCRIPTION=M. VANDEWALLE
##NAMES=HP
##CAS NAME=1,7-Dioxadispiro[4.0.5.3]tetradec-12-ene-11,14-dione, 12-hydroxy-
2,2,8,8-tetramethyl-13-(3-methyl-1-oxobutyl)-
##MOLFORM=C21H30O6
##CAS REGISTRY NO=38574-28-6
##MP= -300
##BP= -300
##MW= 378
##$RETENTION INDEX=0
##$CONDENSED SPECTRUM=NO
##NPOINTS= 104
##XYDATA=(XY..XY) 1 
    41        140
    42        999
    51         80
    52         70
    53        340
    54         70
    55        510
    56         70
    57        830
    59        100
    65        160
    66         80
    67        300
    68        100
    69        650
    70         90
    71         90
    77        250
    78         70
    79        230
    80         70
    81        290
    82         60
    83        180
    84        190
    85        340
    90        280
    92        160
    93        160
    94        200
    95        200
    96        150
    97        100
   105        160
   107        140
   108         60
   109        200
   110         90
   111        150
   115         50
   119        140
   121        160
   123        180
   124         50
   125         60
   127         60
   128         70
   133         80
   135        200
   137        100
   145         50
   147         90
   149         90
   150         50
   151        190
   152         70
   161         90
   163        130
   165         90
   167         80
   173         80
   175         60
   176         50
   177         80
   179         80
   189         80
   190        140
   191         90
   201         60
   205         60
   206         60
   207        120
   208        130
   209        180
   210        490
   211         80
   212         60
   213         70
   214         70
   215         70
   216         80
   217         80
   231         60
   234         80
   245         50
   246         70
   247         60
   257         70
   261         50
   263        450
   264        110
   275         50
   285         50
   289        110
   290         60
   317         60
   320         90
   327         40
   331         90
   341         40
   345         40
   360        350
   361         70
   378         20