##TITLE=Library Entry 58275
##JCAMP-DX=Revision 4.10 
##DATA TYPE=MASS SPECTRUM
##SAMPLE DESCRIPTION=Exported from NIST MS Search
##NAMES=HP
##CAS NAME=DL-Cysteine, N-glycyl-S-propyl-
##MOLFORM=C8H16N2O3S
##CAS REGISTRY NO=38570-32-0
##MP= -300
##BP= -300
##MW= 220
##$RETENTION INDEX=0
##$CONDENSED SPECTRUM=NO
##NPOINTS= 65
##XYDATA=(XY..XY) 1 
    27        474
    28        197
    29        214
    30        899
    31        116
    32         10
    33         24
    34         32
    39        260
    40         24
    41        320
    42        286
    43        879
    44        220
    45        226
    46        112
    47        675
    48         60
    49         36
    55        184
    56        160
    57        100
    58        100
    59        134
    61        394
    62         32
    63         32
    72        106
    73        212
    74        703
    75        380
    76         26
    77         20
    89        999
    90        160
    91         96
    92         24
    99        104
   100        240
   101        164
   102        100
   103        140
   104        184
   118        216
   119         26
   120         54
   128        460
   129         94
   130         44
   131         34
   146        639
   147        120
   148         88
   177         60
   178         16
   179         10
   190         36
   191         12
   192          8
   202        156
   203         44
   204         16
   220         50
   221         16
   222         12